LAMMPS (9 Oct 2012)
# 3d protein simulation

units real

timestep 5

dimension	3

boundary s s s
#boundary p p p

neighbor	10 bin
neigh_modify	delay 5

atom_modify sort 0 0.0

special_bonds fene

atom_style	peptide

bond_style harmonic

pair_style vexcluded 2 3.5 3.5

read_data data.5b1f
  3 = max bonds/atom
  orthogonal box = (-200 -200 -200) to (200 200 200)
  1 by 1 by 1 MPI processor grid
  387 atoms
  514 bonds
  5 = max # of 1-2 neighbors
  5 = max # of special neighbors

pair_coeff * * 0.0
pair_coeff 1 1 20.0 3.5 4.5
pair_coeff 1 4 20.0 3.5 4.5
pair_coeff 4 4 20.0 3.5 4.5
pair_coeff 3 3 20.0 3.5 3.5


velocity	all create 300.0 9849853

group           alpha_carbons id 1 4 7 10 13 16 19 22 25 28 31 34 37 40 43 46 49 52 55 58 61 64 67 70 73 76 79 82 85 88 91 94 97 100 103 106 109 112 115 118 121 124 127 130 133 136 139 142 145 148 151 154 157 160 163 166 169 172 175 178 181 184 187 190 193 196 199 202 205 208 211 214 217 220 223 226 229 232 235 238 241 244 247 250 253 256 259 262 265 268 271 274 277 280 283 286 289 292 295 298 301 304 307 310 313 316 319 322 325 328 331 334 337 340 343 346 349 352 355 358 361 364 367 370 373 376 379 382 385
129 atoms in group alpha_carbons

group           beta_atoms id 3 6 9 12 15 18 21 24 27 30 33 36 39 42 45 48 51 54 57 60 63 66 69 72 75 78 81 84 87 90 93 96 99 102 105 108 111 114 117 120 123 126 129 132 135 138 141 144 147 150 153 156 159 162 165 168 171 174 177 180 183 186 189 192 195 198 201 204 207 210 213 216 219 222 225 228 231 234 237 240 243 246 249 252 255 258 261 264 267 270 273 276 279 282 285 288 291 294 297 300 303 306 309 312 315 318 321 324 327 330 333 336 339 342 345 348 351 354 357 360 363 366 369 372 375 378 381 384 387
129 atoms in group beta_atoms

group           oxygens id 2 5 8 11 14 17 20 23 26 29 32 35 38 41 44 47 50 53 56 59 62 65 68 71 74 77 80 83 86 89 92 95 98 101 104 107 110 113 116 119 122 125 128 131 134 137 140 143 146 149 152 155 158 161 164 167 170 173 176 179 182 185 188 191 194 197 200 203 206 209 212 215 218 221 224 227 230 233 236 239 242 245 248 251 254 257 260 263 266 269 272 275 278 281 284 287 290 293 296 299 302 305 308 311 314 317 320 323 326 329 332 335 338 341 344 347 350 353 356 359 362 365 368 371 374 377 380 383 386
129 atoms in group oxygens

fix		  1 all nvt temp 300.0 300.0 100.0
fix		  2 alpha_carbons backbone beta_atoms oxygens fix_backbone_coeff.data 5b1f.seq
Chain flag on
Chi flag on
Rama flag on
Rama_P flag on
SSWeight flag on
ABC flag on
Dssp_Hdrgn flag on
P_AP flag on
Water flag on
Burial flag on
Helix flag on
Fragment_Memory_Table flag on
DebyeHuckel on

Reading fragments...
Computing FM table...
#fix		  3 all fixprueba 10

variable      biasinge equal f_qbias
# output wham.dat, a file with collective variables that can be used to compute pmfs
compute     qw alpha_carbons qwolynes rnative.dat 2 0.15
variable    qw equal c_qw
compute     rg alpha_carbons gyration
variable    rg equal c_rg
compute     qo alpha_carbons qonuchic cutoff 12.0 nativecoords.dat 1.2
variable    qo equal c_qo
compute     tc beta_atoms totalcontacts 6.5 2
variable    tc equal c_tc
variable    step equal step
variable    E_P equal pe

fix         wham all print 500 "${step}        ${qw} ${rg} ${qo} ${tc} ${E_P}"


#variable    stepq equal step
#variable E_bond  equal emol
#fix energy all print 10 "${stepq} ${E_bond}"



thermo		5
dump		1 all atom 500 dump.lammpstrj

dump_modify	1 sort id




#minimize 1.0e-4 1.0e-6 100 1000

reset_timestep	0
run		10000
Memory usage per processor = 0.959568 Mbytes
Step Temp E_pair E_mol TotEng Press Volume 
       0          300    215.55632    2128.1552    1292.6896   -18528.997     45448.57 
       5    1173.6988    166.31426    646.89122    1082.3149    8241.2189     45448.57 
      10    903.46121    63.924403    870.30345    891.41288    15098.198     45448.57 
      15    910.65965    35.859158    682.84739    700.41549   -13857.377     45448.57 
      20    638.60463    23.816901    722.14288    557.41742   -2400.3673     45448.57 
      25     711.1055    12.511696    574.89858    366.91283    1507.6682     45448.57 
      30    608.38011    22.974569    610.61425    241.66549    8332.3591     45448.57 
      35    474.82106     32.99044    545.22229    116.87914   -11007.394     45448.57 
      40     559.5973     27.83986    486.51692    1.3027712   -478.61809     45448.57 
      45    471.92952    36.183747    463.80653   -108.88458    5460.1143     45448.57 
      50    490.25854    26.869154    339.02468   -198.16537     1615.832     45448.57 
      55    393.52503    20.288549    407.66138   -271.09184   -7486.0084     45448.57 
      60    441.72624    15.666039    324.93699   -346.02568    4559.5613     45448.57 
      65    357.45307    30.925218    334.85182   -406.16781    2810.5549     45448.57 
      70     352.3395    33.074239    317.95376   -460.96958   -3873.7104     45448.57 
      75    348.32468    32.761069    251.69649   -510.93414      -2273.5     45448.57 
      80    343.21645    25.430993    255.04324    -556.6766    4165.8275     45448.57 
      85     325.4506    22.183383    243.73198   -589.85673   -276.08658     45448.57 
      90    282.96428    23.098125    237.75777   -620.56195   -220.98344     45448.57 
      95    300.46699    30.226914    222.37936   -649.39189   -1904.7665     45448.57 
     100    264.68396    33.601795    241.22447   -671.50913    1561.6815     45448.57 
     105    276.42505    29.380642     197.5529   -688.54151   -1265.9157     45448.57 
     110    289.26206    22.769853    202.65284   -704.54715   -2204.8218     45448.57 
     115    283.92997    25.803123    191.37049   -713.76687    1753.8315     45448.57 
     120    257.24405    24.359043    213.10079   -714.73108    2194.4164     45448.57 
     125    267.30161    27.243922    193.88764   -719.10465   -2009.2392     45448.57 
     130    292.63953    22.747847    184.50992   -719.34282   -1726.6752     45448.57 
     135    277.52964     21.92184    195.94585   -710.85502     3132.562     45448.57 
     140    281.71157    17.654611    208.75133   -698.96128   -74.109162     45448.57 
     145    292.91677    22.828952    199.01849   -686.94009   -2776.2678     45448.57 
     150    302.83777    27.387755    196.26835   -672.61382    1809.1072     45448.57 
     155    301.10162    29.512885    215.12281   -654.84949    353.83666     45448.57 
     160    305.44292    26.129842    212.40117   -637.74669    -605.4894     45448.57 
     165    311.63375    26.525149    225.49473   -622.24582   -823.83069     45448.57 
     170    311.06479    27.392066    235.69384   -605.68119    999.98739     45448.57 
     175    307.98205    18.623293    239.96977   -593.18385     2492.485     45448.57 
     180    319.76452     19.50504    239.11448   -584.84063   -3404.7904     45448.57 
     185    334.95322    24.134768    234.10781   -576.56749   -694.99723     45448.57 
     190    326.29408    25.116159    240.48991   -571.54808    3483.0396     45448.57 
     195    324.87913     26.48887     244.0044   -571.18438   -1815.8197     45448.57 
     200    331.65787    29.623363    236.22579   -574.42308   -2076.8973     45448.57 
     205    328.90778    23.285423    237.62776   -583.40472    3597.9396     45448.57 
     210    311.56093    18.926689    230.83341   -594.63674   -195.02365     45448.57 
     215    310.59556    17.546794    228.19665   -606.85275   -2566.5178     45448.57 
     220    303.90587    22.274613    214.94883   -621.08872    584.11015     45448.57 
     225    297.55111    25.069413    243.23324   -634.70239    2145.3974     45448.57 
     230    290.91038    27.130488    212.02638   -650.54174   -447.52327     45448.57 
     235    286.33925    30.870371    219.65415    -663.4105   -546.74955     45448.57 
     240    275.68659    23.544716    227.87038   -672.46487   -2030.8797     45448.57 
     245    276.29661    22.335269    210.51804   -682.31557    1974.4776     45448.57 
     250    271.40504    19.378466    205.89711   -689.04238   -759.97434     45448.57 
     255    268.78027    23.258406    216.49118   -690.46868   -1762.0619     45448.57 
     260    276.83431    30.477989      201.173   -691.31322    1216.5583     45448.57 
     265    287.96039    35.026886    199.27852   -689.77501    381.77253     45448.57 
     270    280.30482    29.084224    203.22141   -681.59286   -1132.1492     45448.57 
     275    288.52311    24.599055    205.00873    -673.2373    1690.2714     45448.57 
     280    294.91368    26.054754    208.18306   -663.13687     209.6116     45448.57 
     285    304.68181    20.693844    206.30127   -651.52719   -797.44766     45448.57 
     290    284.55511    23.489833    217.60732   -636.64783   -974.41727     45448.57 
     295    311.85685    28.823529    216.99206   -623.16855   -1296.2957     45448.57 
     300     316.2992    29.611948    232.18444    -609.7775    1844.6646     45448.57 
     305    305.64921    25.567222    245.59671   -599.30455   -280.64482     45448.57 
     310    306.12848    26.116681    241.05444   -594.55162   -1024.5726     45448.57 
     315     309.7454    28.639913    238.84043   -589.34744    1595.3083     45448.57 
     320    310.58254    29.516571    235.71359   -585.33339   -173.73579     45448.57 
     325    306.52615    25.319113    257.00082    -584.6751    -1387.176     45448.57 
     330    314.82715    21.631096    228.50558   -589.47179    579.73667     45448.57 
     335    308.30454    19.490505    232.47674   -596.52943    1292.5228     45448.57 
     340    305.93133    20.560483    221.78307   -605.02633   -364.92134     45448.57 
     345    299.73778    24.175566    224.50708    -614.4556   -1230.1698     45448.57 
     350     304.8613    30.634083    204.02412    -622.2243    -659.7756     45448.57 
     355    301.42305    27.248573    215.80247   -627.91849   -1.0281476     45448.57 
     360    287.79557     22.65123    227.32255   -635.30439      1165.86     45448.57 
     365    301.14318    24.019727    199.85413   -645.28711    1020.8288     45448.57 
     370    286.29876    21.007834    220.21545   -651.73692   -206.32479     45448.57 
     375    290.86198    23.592886    196.28402   -657.28637    267.02173     45448.57 
     380    299.02006    26.172074    186.31755   -662.44504   -2449.1587     45448.57 
     385    303.54595    27.506826    201.69066   -663.31197     139.6984     45448.57 
     390    275.48728    24.650812    216.69369   -662.47426    662.82744     45448.57 
     395    288.90236    25.943972    204.38841   -664.87039    54.707694     45448.57 
     400     290.9289    28.586526    192.64984   -665.88857    -534.4304     45448.57 
     405    278.78018    28.430724    209.25392   -661.59203    1623.1281     45448.57 
     410    297.34778    28.202926    189.93965   -658.78454   -1653.1258     45448.57 
     415    294.45999    27.679702    202.10619   -653.75834    298.76347     45448.57 
     420    315.30488    28.293075    203.76796   -645.00957    940.52236     45448.57 
     425    297.97941    31.165125    206.37051   -639.04411    613.55048     45448.57 
     430    308.59503    27.987386    195.69766    -632.8681    347.56184     45448.57 
     435    326.19333    25.909747    203.88749   -626.70262   -955.24718     45448.57 
     440    325.06785    27.958745     199.9232   -620.65788   -159.20695     45448.57 
     445    310.15522    26.644493    210.34322   -614.97223    1232.2329     45448.57 
     450    305.95202    23.758531     199.2424   -614.35294   -398.54482     45448.57 
     455     309.6705    26.193304    205.27102    -611.8121    -442.1534     45448.57 
     460    304.73857    26.511963    224.56467   -608.22542    1842.8361     45448.57 
     465    313.44291    21.437774    211.52173   -609.94048   -934.22076     45448.57 
     470    311.15969    18.837539     211.7281    -613.2611   -692.30352     45448.57 
     475     296.0158    26.107399    214.28751   -614.47528   -2539.2413     45448.57 
     480    316.52981    27.698512    202.45284   -619.07974    156.21709     45448.57 
     485    293.02072    23.095667    224.60167   -623.09497   -267.38189     45448.57 
     490    303.27816    21.221296    214.25111   -626.83649     1618.086     45448.57 
     495    287.06403    20.864997    222.41553   -632.57544   -71.183531     45448.57 
500        0.97429295928418235828 13.79364117566962733 0.99431009957325755533 218 -989.06941803257814172
     500    302.53346    19.273218    199.92193   -640.97663    1580.5519     45448.57 
     505    296.04414    16.347263    198.81334   -647.57779     527.0659     45448.57 
     510     290.5188     20.43436    212.32696   -650.59293   -758.14231     45448.57 
     515    282.18043    19.397352    211.50515   -654.30126   -690.63322     45448.57 
     520    279.55602    19.383876    209.88181   -656.94634   -170.03133     45448.57 
     525    294.20375    23.897477    195.76426   -660.36457   -648.79868     45448.57 
     530    286.17838    28.953644    199.40482   -660.63124    29.806956     45448.57 
     535    304.22076    29.548267    191.38911   -661.14009    1229.3405     45448.57 
     540    297.50677    27.480741    198.55577   -659.84248   -693.99027     45448.57 
     545    281.94567    29.597707    199.27725   -656.85176   -1159.5556     45448.57 
     550    297.67179    24.753649    193.61742   -654.80431   -911.42409     45448.57 
     555    300.68602    22.135624    201.22687   -649.82745   -585.05421     45448.57 
     560    281.94796    27.721631     198.1216   -643.63004    1638.5702     45448.57 
     565    289.22423    29.930903    210.96463   -636.81212   -461.13745     45448.57 
     570    303.58213    27.226946    208.48996   -629.77564    1799.5619     45448.57 
     575    313.74161    22.235091    188.21585   -624.21655   -890.24512     45448.57 
     580    313.23562    19.548148    198.12107   -618.81758   -635.06367     45448.57 
     585    307.38288    21.367815    219.08471   -614.39454    25.845573     45448.57 
     590    304.45768    21.767611    211.00445    -612.1124    729.41164     45448.57 
     595    297.31189     22.82942    215.01646    -610.5166    -1074.998     45448.57 
     600    311.20975    22.520982    202.27501   -610.15087    2031.7711     45448.57 
     605    314.39541     26.17572    192.31468   -611.84361   -414.18697     45448.57 
     610    311.21319     25.29077    203.44551   -614.55211    29.170751     45448.57 
     615    308.82729    28.115773    200.66072   -616.62932   -337.00297     45448.57 
     620    303.47379    27.483393    214.08927   -622.19733   -1109.1468     45448.57 
     625     303.5404    29.199401    207.73593   -629.20812   -125.53312     45448.57 
     630    294.35847    26.759724    199.28408      -635.53    438.21315     45448.57 
     635     300.1757     28.75402    175.33054   -644.92074   -807.27406     45448.57 
     640    287.83049    29.825251    193.59045   -646.91635    1160.0095     45448.57 
     645    289.17149    28.573839    197.73115   -647.41888    672.44756     45448.57 
     650    293.74141    22.530981    191.87613   -650.29968   -105.11577     45448.57 
     655    297.90308    23.446461    195.86877   -651.58324    732.19995     45448.57 
     660     287.3287    24.958185    193.48958   -651.06014   -73.456932     45448.57 
     665    290.33827    25.442824    188.37899     -649.806   -1926.9865     45448.57 
     670    304.25799    21.073217    195.89707    -647.1613   -30.095067     45448.57 
     675    289.70525    26.484863    193.89543   -643.22888    689.34754     45448.57 
     680    309.15751    29.952768    191.98733   -641.55039    925.50862     45448.57 
     685    302.29747    27.935273    185.25202   -637.47154   -1636.1935     45448.57 
     690    305.42058    29.330644    189.24337   -634.20969    28.218706     45448.57 
     695    318.47682    27.821916    192.10831   -632.38442    734.14199     45448.57 
     700    315.76078    26.588953     193.8168   -628.42382    358.74321     45448.57 
     705    304.68281    24.056755    186.71863   -628.18314    186.84631     45448.57 
     710    310.76434    24.566855    188.33907   -626.89861    1737.1294     45448.57 
     715    296.66833    25.734698     194.4625   -624.17559   -2154.0469     45448.57 
     720    311.76262    21.134136      200.662   -626.12636   -336.15923     45448.57 
     725      329.172    25.544379    176.21779   -628.18183   -1150.9315     45448.57 
     730    294.29187    27.786084    191.62444   -629.61272    148.19112     45448.57 
     735    292.49329    30.221499    194.25108   -629.33037    1161.0897     45448.57 
     740    298.68523    23.233534    192.36826   -630.21689    1781.1821     45448.57 
     745      312.859     19.68182    188.58745   -630.45904   -1020.6731     45448.57 
     750    305.81165    17.370688    193.67313   -631.46018    927.71308     45448.57 
     755    301.05939    17.413033    191.05362   -632.55401   -2513.0382     45448.57 
     760    303.16737    16.710581    202.97888   -636.38477    135.38251     45448.57 
     765    300.35178    16.225496     197.1287   -639.52519    648.61967     45448.57 
     770    281.03279    19.546726    198.71618   -640.14399    127.70094     45448.57 
     775    316.49863    15.868573    175.84538   -642.12776   -1533.9408     45448.57 
     780    303.29515    20.678018    191.30195   -643.27726    597.12951     45448.57 
     785    287.51215    27.417102    186.82722   -642.16481    529.68694     45448.57 
     790    311.22088    26.273339    195.57321   -644.36257    645.30805     45448.57 
     795    308.80296    33.130897    172.40819   -645.39618   -122.36235     45448.57 
     800    291.47368    35.183736     197.7969   -642.20907    529.97258     45448.57 
     805    319.65586     27.01128    174.95208   -642.01292   -131.63589     45448.57 
     810     301.7926    21.738012    192.90107   -640.55306   -2099.4105     45448.57 
     815    304.08328    21.452943     183.8535   -639.48043    234.63152     45448.57 
     820    294.58508    23.644592    205.50916   -638.29932    2438.7027     45448.57 
     825    293.79946    25.660822    192.74808   -636.87734   -1777.5888     45448.57 
     830    299.89616    23.014125    196.66953   -634.13562   -237.71089     45448.57 
     835    309.19093    27.283376    194.08532   -631.05821     793.7027     45448.57 
     840    307.65315    25.945984    188.23464   -627.59926    1084.2177     45448.57 
     845    311.57645    26.662034    192.80279   -626.41693   -160.01722     45448.57 
     850    312.55656    27.972959    191.80888   -627.23661   -1708.8626     45448.57 
     855    309.10852    30.731009     196.0054   -623.66138    452.29767     45448.57 
     860    307.51981    27.331285    209.42843   -625.26993    652.35087     45448.57 
     865    325.31219    18.887152    181.00742   -631.38494   -1439.5223     45448.57 
     870    297.50895    19.085249    181.88224   -634.51248    242.37506     45448.57 
     875    282.13111    20.348758    207.34658   -635.00261    1190.1291     45448.57 
     880    300.10077    17.844411    188.20432   -637.56214   -1002.8887     45448.57 
     885    303.32554    16.012224    174.74047   -641.06364   -402.36443     45448.57 
     890     320.5014    17.438481    176.52755    -642.3363    893.08811     45448.57 
     895    299.95122    19.573048    183.87587   -641.76754   -289.80319     45448.57 
     900    292.29663    26.598372    190.89251   -642.42692   -335.66288     45448.57 
     905    297.03411    26.235171     193.2029   -642.09355   -322.36479     45448.57 
     910    295.78407    28.354747    193.04171    -640.9245   -225.97297     45448.57 
     915    297.83134    20.738285    189.60772    -641.3985    757.75701     45448.57 
     920    307.10741    22.631081    176.32994   -640.29162   -280.10268     45448.57 
     925    304.86135     20.83789    188.14937   -637.27121    1344.3671     45448.57 
     930    305.13686    22.323527    203.35136   -636.65352   -181.96194     45448.57 
     935    307.97162    30.656376    173.20582   -638.09401    -835.5068     45448.57 
     940    290.88351    30.222631    192.87718   -636.98791    -603.2991     45448.57 
     945    298.79197    21.889042    197.50652   -635.72866    785.71013     45448.57 
     950    301.39435    20.237017    195.02535   -636.50171   -201.16657     45448.57 
     955    305.48276     20.23187    183.33354   -637.27184   -262.90632     45448.57 
     960    302.41653    21.435817     193.8499   -638.13632    -1516.213     45448.57 
     965    295.49314    26.150659    182.98366   -639.01495    661.88341     45448.57 
     970    298.08253    27.625269    187.56512   -639.60392    633.44581     45448.57 
     975    299.81698    28.730042    180.27266   -636.85515   -475.86305     45448.57 
     980    308.09525    24.007361    193.13868   -634.26241    418.47488     45448.57 
     985     300.9712    23.225627    192.11926   -630.49698     2033.319     45448.57 
     990    318.81374    24.269581     185.2479   -627.19432   -1400.9158     45448.57 
     995    306.81445    25.708166    190.23257   -625.25545    103.73153     45448.57 
1000        0.96633241467414288106 13.889716692202785708 0.99288762446657186089 213 -973.99966046733209168
    1000     302.9243    26.018915    192.20708   -625.45718    756.44491     45448.57 
    1005    300.34494    22.989839    197.04951   -623.30021   -994.36889     45448.57 
    1010     290.0527    20.755412    210.05375    -621.5211   -38.655636     45448.57 
    1015    297.63132    18.287117    204.56945   -623.68989    114.42311     45448.57 
    1020     314.5686    21.480704    188.71202   -625.04856     681.7815     45448.57 
    1025    296.91941     24.05793    197.79064   -626.81845    770.48629     45448.57 
    1030    285.69672    20.343338    211.75847   -627.12937   -2569.1988     45448.57 
    1035    289.57192    25.043281    193.13127   -629.90351    354.14198     45448.57 
    1040     298.1769    17.547888    199.08352   -634.26799    593.01794     45448.57 
    1045    306.59804    16.537627    182.41023   -635.25196   -1661.5377     45448.57 
    1050    306.25873    15.736203    187.03753   -635.40784   -34.393505     45448.57 
    1055    288.48608    20.607156    203.57048   -635.79178    2323.3959     45448.57 
    1060    298.65647    24.022924    182.65321   -638.03619   -339.43703     45448.57 
    1065    307.35794    27.149579    193.48588   -637.41433    388.16283     45448.57 
    1070    296.47876    25.566975    187.71002   -637.80312    514.34338     45448.57 
    1075    309.45799    19.110399     188.7473   -639.27701   -22.965599     45448.57 
    1080    296.00261    16.249699    201.54212   -639.17839   -575.79026     45448.57 
    1085    300.70222    19.619312    175.59411   -640.46943   -1042.5712     45448.57 
    1090    295.05431    23.189062    192.11567   -639.92211   -1659.9154     45448.57 
    1095    282.61965    21.051494    193.38639   -637.62036    711.00129     45448.57 
    1100    289.48823    30.011209    205.16782   -635.66555   -646.55135     45448.57 
    1105    295.51428    30.905916     195.5651   -634.27457    1453.3201     45448.57 
    1110    284.78317    31.529288    201.90199   -631.19691    1041.2761     45448.57 
    1115    297.96263    31.044272     191.7783   -626.79441   -939.25175     45448.57 
    1120    317.23981    23.285669     193.3521   -621.84639   -6.9277628     45448.57 
    1125     311.0254    21.170794    199.72551   -616.86095    298.34472     45448.57 
    1130    301.45272    24.715292     198.5853   -614.97346   -1796.8597     45448.57 
    1135    320.83106    26.475214    181.06809   -613.42199    519.57526     45448.57 
    1140    306.13743    23.403326     196.9159   -611.56283    773.61897     45448.57 
    1145    303.71668     25.02425    186.48418    -613.5271   -635.14484     45448.57 
    1150    301.71742    26.340208    193.05404   -613.64674    1738.0766     45448.57 
    1155    308.18208    24.136037    195.00062   -616.15631   -1281.8555     45448.57 
    1160    295.46325    24.007098      195.754   -621.79618    867.80237     45448.57 
    1165    301.20321    22.472891    186.07121   -626.04182    587.48388     45448.57 
    1170    301.35674    22.223891    187.49699   -633.09038   -2071.4646     45448.57 
    1175    298.51529     20.26453    178.10001   -641.32835   -170.44433     45448.57 
    1180    301.72187    17.786468    186.77739   -647.32502    1263.0835     45448.57 
    1185    294.31282    21.814585    180.85579   -653.33426    1041.5672     45448.57 
    1190     298.1723    18.981827    179.08555   -660.86683   -686.72557     45448.57 
    1195    298.28522    19.811528    168.81476   -666.14311   -730.08135     45448.57 
    1200    276.60904    25.918536    181.88936   -667.32779   -1459.7759     45448.57 
    1205    259.68724    24.668719    193.37876   -667.32186    570.23371     45448.57 
    1210    292.50056    19.740105    168.89127   -665.15415   -195.82045     45448.57 
    1215     276.8216    18.709504     194.5689   -657.20805    1191.4231     45448.57 
    1220    275.25081    21.796843    193.75362   -648.71438     467.6918     45448.57 
    1225    285.86876    24.573477    196.07574   -638.74874   -640.11836     45448.57 
    1230    301.21444    17.345924    187.06025   -631.39251   -1361.0423     45448.57 
    1235    281.39195    16.098645    207.50816   -626.70501   -191.31103     45448.57 
    1240    286.53352    13.242121    214.84596   -622.98839   -1231.0191     45448.57 
    1245    306.52953    19.416341    195.83676   -623.65207   -1152.6148     45448.57 
    1250    298.90263    30.581161    186.31727   -624.01829     1291.038     45448.57 
    1255    282.98575    29.880685    196.14353   -622.64606    545.25233     45448.57 
    1260    290.20323    24.405697    199.23038   -619.30722    1165.0328     45448.57 
    1265    296.89803    26.748944    199.04911   -619.07039   -271.63001     45448.57 
    1270    305.96165    21.289928    187.32418    -618.6723    91.889232     45448.57 
    1275    309.41456    18.303367    188.26444   -615.40916   -34.551845     45448.57 
    1280    292.07331    18.300147    206.88365   -612.64608    168.75306     45448.57 
    1285    288.01162    22.284046    195.68449   -613.39194   -794.48056     45448.57 
    1290    308.67141    20.456424    193.41893   -612.45041    2032.0565     45448.57 
    1295    312.36606    20.480359     198.5985   -608.89333   -508.18512     45448.57 
    1300    294.34408    18.856156    210.48081   -610.42612   -1237.9697     45448.57 
    1305    286.89636    25.229741     188.9756   -613.34501   -628.71101     45448.57 
    1310    292.63587     27.08308    204.32786   -615.10321   -961.62711     45448.57 
    1315    309.44205    29.898768     186.6954    -618.4612   -1353.1244     45448.57 
    1320     286.2859    27.578522    202.28839   -621.25536    1225.7648     45448.57 
    1325    302.61981    24.508071    184.60886   -627.36569    1451.8554     45448.57 
    1330    290.21141    23.757232    194.03365   -633.30604    789.62998     45448.57 
    1335    282.93953    22.312277    186.43412   -638.41576   -1836.6949     45448.57 
    1340    295.72218    23.992559    178.30662   -643.54766    -758.0069     45448.57 
    1345    281.79501    24.658015    207.08691   -647.25493    681.79367     45448.57 
    1350    298.89927    21.643269    167.39623   -652.91494    -435.0861     45448.57 
    1355    269.36302    20.173784    205.58044   -655.10303   -759.05216     45448.57 
    1360    288.53251    28.827168    174.76048   -657.18452    1392.2372     45448.57 
    1365    282.72951    33.097412    171.09973   -659.92243   -560.68183     45448.57 
    1370    279.34828    29.241344     182.3281    -656.0953    30.616095     45448.57 
    1375    275.34481    25.022463    181.64133   -649.93628    605.13845     45448.57 
    1380    285.61177     21.35932    185.40954   -641.36363   -913.43457     45448.57 
    1385    298.47755    21.515766    184.12354   -627.57005    611.09615     45448.57 
    1390    298.25541    20.293561    191.73186   -615.59207   -88.710132     45448.57 
    1395    299.18858    25.586124    192.84979   -609.25711   -448.52836     45448.57 
    1400     314.3731    23.443741    198.34734   -606.36614     743.5628     45448.57 
    1405    324.18348    26.253118    187.65624   -607.50505   -749.19294     45448.57 
    1410    299.56896    29.894393     187.1173   -609.53574    35.279138     45448.57 
    1415    293.85421    22.807398    200.76049   -611.90024     453.0383     45448.57 
    1420    293.93041    21.581218     189.0583   -614.02997    26.368917     45448.57 
    1425    294.12966     26.06283    197.66986   -618.92091    565.67231     45448.57 
    1430     312.5504    28.117272     176.4234   -622.61409    507.89883     45448.57 
    1435    278.34009    25.824444    207.94033   -623.65306    -960.9735     45448.57 
    1440    289.39332    20.178189    178.15762   -629.70854   -586.94252     45448.57 
    1445     291.6739    22.167019    169.09313   -634.55415   -947.09245     45448.57 
    1450    280.12168    16.786951    199.09262   -634.87537    1002.8057     45448.57 
    1455     283.6544    21.260017    187.72105   -635.54018    457.45426     45448.57 
    1460    284.47601    22.741275    191.99066   -636.76367   -527.98894     45448.57 
    1465    286.98602    28.024845    190.15516   -637.05512   -141.07607     45448.57 
    1470    298.29442    29.123017     182.3559   -635.76341    885.56782     45448.57 
    1475    299.90123    29.823295     177.9965   -633.46735   -1545.2207     45448.57 
    1480    291.87525    27.300458    185.20622   -629.19153    1237.7381     45448.57 
    1485    309.12823    22.217998     176.7041   -626.54332   -282.91391     45448.57 
    1490    314.71284    22.215659    171.13906   -621.08722    630.36662     45448.57 
    1495    298.77756    21.434343    190.35744   -613.08906    377.08253     45448.57 
1500        0.97414796104261369702 13.749673609158497456 0.99573257467994313874 222 -963.32318518395072715
    1500    308.59384    22.584952    177.04678   -608.25738     -788.369     45448.57 
    1505    313.04863    23.057904    186.40309   -602.57034    1746.6862     45448.57 
    1510    310.37595    22.952789     197.8425   -597.48981    638.61015     45448.57 
    1515    315.88365    23.127314    191.64044   -596.58395   -1010.5054     45448.57 
    1520    304.95524    21.280564    190.62547   -595.72885   -280.37152     45448.57 
    1525     315.9582    20.919451    192.19118   -597.47179   -1270.6531     45448.57 
    1530    298.16667    20.869568    184.26021   -601.84844    346.03935     45448.57 
    1535    298.56974    27.623926     185.3351   -607.51525    640.61864     45448.57 
    1540    301.51887    27.531476    183.45135   -613.94792   -254.64905     45448.57 
    1545    293.93758     28.13135    195.63996    -620.1887     1194.271     45448.57 
    1550     292.7595    24.413189    195.27007    -628.2627   -950.97239     45448.57 
    1555    300.95936    22.406042    180.55037   -638.23916   -1546.3944     45448.57 
    1560     278.4462    18.425594    192.06107   -646.51817   -195.99598     45448.57 
    1565    289.11847    19.173314    173.60518   -652.22076    572.71655     45448.57 
    1570    286.18718    22.400472    176.28264   -654.82284    18.982026     45448.57 
    1575    280.70737    26.380204    174.74223    -654.4547    879.08339     45448.57 
    1580    284.60942    26.659538    177.72118   -652.47499    1145.8322     45448.57 
    1585    301.94195    27.578116    165.85353   -651.21089    1436.8228     45448.57 
    1590    298.44082     28.11663    173.63056   -648.01992    351.97474     45448.57 
    1595    309.89909    26.010219    165.24298    -645.6183   -358.84057     45448.57 
    1600    314.14175    26.821531    157.51087   -645.06311    975.06465     45448.57 
    1605    288.25576    26.414165    168.55394   -640.44808   -2027.0706     45448.57 
    1610    292.08759    22.046109    180.94604   -637.16687   -1531.8499     45448.57 
    1615    319.70019    22.312355    162.18848   -634.37239    691.81475     45448.57 
    1620    298.30067    25.914154    197.51146   -630.04056   -1416.5015     45448.57 
    1625    317.43344    26.386728    175.92566   -629.73137   -185.04192     45448.57 
    1630    287.02518    22.163105      197.483   -628.67856     1460.911     45448.57 
    1635    296.42366    24.096264    178.59887   -629.84736    363.77316     45448.57 
    1640    279.13906    24.729433    189.47992   -628.78132   -504.91309     45448.57 
    1645    295.90683    21.323161    173.88197   -627.79334    -330.2754     45448.57 
    1650    315.47413    25.901126    177.12779   -624.16713    -506.4078     45448.57 
    1655    312.71594    31.389746    181.20135   -623.19988    62.416963     45448.57 
    1660    308.37165    30.124857    172.29876   -624.25858    58.994075     45448.57 
    1665    295.12307    28.867472    194.29622   -622.55392    710.50466     45448.57 
    1670    314.30178     31.64607    178.51324   -624.82414    448.70996     45448.57 
    1675    307.92578    28.972527    190.38639   -624.94088    30.955787     45448.57 
    1680    307.27352    26.522318    166.33786   -629.06655   -1066.2298     45448.57 
    1685    301.24308    26.720383    179.68054    -639.6017    60.112469     45448.57 
    1690    281.30873    28.379584    168.62867   -651.05658    1194.3274     45448.57 
    1695      285.665    20.697015    166.42195   -662.51675   -595.95603     45448.57 
    1700    281.96393    19.866923    174.27304   -670.14315   -502.36742     45448.57 
    1705    284.41752     26.96255    156.95084   -674.13713   -55.033829     45448.57 
    1710    270.16914    25.072696     183.7787   -673.92274   -591.70691     45448.57 
    1715    272.80998      20.8731     178.7634   -671.91296   -87.684138     45448.57 
    1720    284.81211    20.313212    172.08744   -669.64238    179.92874     45448.57 
    1725    291.04857    19.858644    171.95605   -662.90423    945.20937     45448.57 
    1730    287.67654    19.342495    181.69677   -652.23443   -26.078444     45448.57 
    1735    292.46132    22.673697    173.58489   -645.50758   -986.24645     45448.57 
    1740    306.90803    24.049016    175.79957   -639.81017    1153.0698     45448.57 
    1745    295.52468    23.929032    181.37742   -634.07866    324.73497     45448.57 
    1750    307.21348    27.102066    176.35312   -630.98417   -1787.2108     45448.57 
    1755    296.75619    27.966073    176.82705    -629.1752    1246.0399     45448.57 
    1760    292.63871    26.678266    181.25657   -627.11629   -151.05635     45448.57 
    1765     301.3067    23.885294    184.16748   -625.75598   -379.93841     45448.57 
    1770    283.26502    28.139364    174.67098   -623.06507   -1742.7534     45448.57 
    1775    279.15868    24.859302    219.20573   -618.29484    406.96217     45448.57 
    1780    299.60491    29.449662    189.34487   -618.04176    755.35747     45448.57 
    1785    292.56093    24.491919    192.57421   -617.00735    1679.6793     45448.57 
    1790    286.44132    23.330592    190.31804   -614.70511   -1208.5074     45448.57 
    1795    292.00619    23.896506    191.79622   -612.42807    1568.8409     45448.57 
    1800    297.06035    29.417031     189.1305   -609.03919    355.13058     45448.57 
    1805    324.30178    23.514373    173.72468   -603.17854   -1457.9413     45448.57 
    1810    299.53734    21.818521    194.95974    -594.7356   -485.08233     45448.57 
    1815    318.21621    24.237784    179.27265   -589.04286     1257.529     45448.57 
    1820    306.56706    22.265961     183.8741   -582.93839     -79.8453     45448.57 
    1825    317.94005    18.459533    186.35369   -577.89799   -1126.7639     45448.57 
    1830    325.61036    21.467889    184.31072    -576.2092   -568.77763     45448.57 
    1835    326.29963    27.375098    187.59012   -577.68001    1225.2295     45448.57 
    1840    317.56206     30.45668    182.10444   -581.45264    542.13841     45448.57 
    1845    324.94567    27.166179     191.4793   -589.02088   -626.98903     45448.57 
    1850    331.10421    21.164948    181.36889   -602.82156   -98.300047     45448.57 
    1855    310.62612    22.497129    172.74945   -615.66344    1354.5756     45448.57 
    1860    299.28032    19.537305    173.69266   -623.78238   -1651.2599     45448.57 
    1865    294.58902    18.182325    178.75838   -627.39522   -212.67501     45448.57 
    1870    305.11893    23.210653    162.62981   -631.13479    362.76151     45448.57 
    1875    315.94871    25.765358    164.04117   -634.29192    176.29962     45448.57 
    1880    279.46428    21.259774    173.44195   -634.25001   -461.32327     45448.57 
    1885    302.87322    20.552838    177.20008   -635.22183   -931.80638     45448.57 
    1890    324.12774    22.628252    163.35798   -633.27648     577.9484     45448.57 
    1895    306.68513    20.940542    176.96757   -632.35861   -243.15198     45448.57 
    1900    309.69621    25.692694    154.14607   -632.30401   -193.10808     45448.57 
    1905    319.36478    29.629433    164.32181   -630.41771    1325.9445     45448.57 
    1910    314.22424    34.896038    164.47436   -629.72244    205.81264     45448.57 
    1915    305.29576    28.354992     157.3674   -630.15417   -895.31601     45448.57 
    1920     299.3977    23.138728    180.04192   -628.77444    313.46445     45448.57 
    1925    315.77685    18.007801     162.7319   -626.08572   -22.085267     45448.57 
    1930    304.54219    18.023262    176.86897   -624.02124   -1840.8447     45448.57 
    1935    305.08913    19.710024    174.92179   -622.00981    336.54476     45448.57 
    1940    300.49746    27.337412    170.37719    -619.8649    1052.1522     45448.57 
    1945     300.2237    33.167585    183.72714   -617.45579    -89.17726     45448.57 
    1950    310.30625    28.830444    179.11372   -615.04609   -1059.0288     45448.57 
    1955    292.09077    27.450576    179.81611    -612.6174   -401.34238     45448.57 
    1960    301.63755    18.071017    188.43269   -610.73021    793.07341     45448.57 
    1965    313.08022    19.800802    166.65627   -608.13549    1144.4576     45448.57 
    1970     300.6363    18.651703    186.07802   -605.43139    1905.4018     45448.57 
    1975    309.90004    19.065564    175.27191   -602.84239    303.02977     45448.57 
    1980    299.14848     20.81357    190.02924   -598.91385   -999.31485     45448.57 
    1985    301.48317    14.315451     179.3313   -596.48744   -1654.5812     45448.57 
    1990    312.26327    17.043602    184.57644   -594.57961   -867.77446     45448.57 
    1995    327.77486    21.687223    177.90918   -593.82858   -363.68074     45448.57 
2000        0.96603142305386024979 13.895913344075292883 0.9935988620199146526 216 -970.02715746550393305
    2000    325.71388    19.731205    177.92192   -595.26315    378.41005     45448.57 
    2005     304.1951     25.20806    190.99091    -599.4846   -375.58581     45448.57 
    2010    291.01866    25.740751    184.07962   -605.58831     569.5543     45448.57 
    2015    294.01033    21.023668    192.55395   -615.51912   -443.41958     45448.57 
    2020    309.25326    16.670402    174.83543   -625.23765   -52.974217     45448.57 
    2025    283.40158    22.447462    191.75599   -630.93655    658.00538     45448.57 
    2030    284.45025     23.33329    184.04751   -638.48272    399.43067     45448.57 
    2035    287.22321    21.820098    161.69842   -644.70848   -726.53581     45448.57 
    2040    282.41873    19.249946    166.03561   -645.21443   -968.10616     45448.57 
    2045    281.29599    22.615151    181.33563   -643.49382    116.13516     45448.57 
    2050    275.31978    23.428827    181.01633   -638.85274   -755.31564     45448.57 
    2055    299.19108    28.275954    184.05389   -633.65502    558.49837     45448.57 
    2060    290.63547    31.427837    183.36689   -630.49887    617.90058     45448.57 
    2065     294.4109    35.146074     175.2653   -626.36073    705.59443     45448.57 
    2070    312.51679     28.53036    179.61764   -622.28867    716.13941     45448.57 
    2075    297.85223    28.813472    175.43254    -620.6807   -753.90842     45448.57 
    2080     281.8055    26.129505    192.55886   -617.69622   -147.87395     45448.57 
    2085    284.86559    28.960666    198.62073   -614.70127    119.78156     45448.57 
    2090    296.26578    25.687302    179.29896   -614.04666   -979.22869     45448.57 
    2095    310.58221      24.0995    171.49791   -613.39268   -1264.5442     45448.57 
    2100     286.7494    23.661574    188.50863   -611.92256     1490.992     45448.57 
    2105    298.41895    24.006213    185.02049   -611.14955     781.6916     45448.57 
    2110    301.42457     25.07792    183.29736   -610.38864    -1028.305     45448.57 
    2115    308.34556    29.471663    183.03843    -609.6812    956.22486     45448.57 
    2120    308.91316     31.78688    179.44622   -611.18387   -383.87962     45448.57 
    2125     312.9514    29.413876     176.2788   -613.37488   -571.57585     45448.57 
    2130    301.20302     23.65965    182.75611   -615.18258    1497.8934     45448.57 
    2135    302.80839    30.491235    177.55946   -618.15059   -180.84952     45448.57 
    2140    289.37155    28.947717    181.46864   -622.16304   -319.99828     45448.57 
    2145    297.54638    30.476999    166.50503   -625.42358    376.38324     45448.57 
    2150    291.78903    27.592697    181.08041   -626.44323    151.30271     45448.57 
    2155    293.55141    25.976986    183.66469   -628.42522    152.86162     45448.57 
    2160     305.9369    22.566418    164.70263   -630.71592   -569.17132     45448.57 
    2165    285.97266    17.171303    197.85738   -633.62031    45.278107     45448.57 
    2170    299.13719    17.287706    163.79193   -641.68281   -809.45491     45448.57 
    2175    282.72127    19.368118    177.00234   -651.77825    844.25814     45448.57 
    2180    272.04415    27.489341    167.55425   -660.33297   -374.64746     45448.57 
    2185    263.20097    22.356058    178.03648   -668.43441   -1243.2447     45448.57 
    2190    287.71682    17.311969    153.45275    -672.4343   -643.41948     45448.57 
    2195    284.91867    19.556004    167.84894   -672.59616    119.90573     45448.57 
    2200    290.66611    15.595495    157.82334   -672.01731     330.7763     45448.57 
    2205    276.03719    19.082654    170.77014    -667.3558    265.55201     45448.57 
    2210    269.71324    21.307057    175.48842   -660.43969    588.98399     45448.57 
    2215    305.82252    24.287778    155.37554   -653.07069    166.68828     45448.57 
    2220    304.89666    23.831482    169.43599   -642.35116     365.1995     45448.57 
    2225    295.64244    22.748705    185.28579   -633.01797   -744.86761     45448.57 
    2230    283.82164    17.628523    194.33914    -629.4204    158.84618     45448.57 
    2235    300.44588    19.872928    166.59545   -627.14234   -743.86229     45448.57 
    2240    306.46261    19.981999    179.93274   -624.49691   -184.45677     45448.57 
    2245     297.4618    21.782443    168.28103   -621.99916   -252.66499     45448.57 
    2250    288.77126      20.1067     182.4771   -618.80805   -199.37661     45448.57 
    2255    299.19486     25.90549    178.99468   -616.57391   -564.04009     45448.57 
    2260    312.37984    23.279577    173.36685   -614.80975    1083.3093     45448.57 
    2265    312.42735    20.121456    170.21465   -612.19541   -357.49842     45448.57 
    2270    278.29476    23.912694    191.07177   -609.85838   -809.61023     45448.57 
    2275    320.98517    21.809801    160.56839   -609.78569    479.39588     45448.57 
    2280    309.56233    18.991591    175.97676   -608.92842    382.51553     45448.57 
    2285    313.61542    18.172033    166.57912    -608.2514    61.988249     45448.57 
    2290    305.10521    17.030433    179.91707   -608.01928    433.18535     45448.57 
    2295    304.52249    18.676548    172.87813   -610.80837   -1094.2559     45448.57 
    2300    303.17728    21.438935    163.67504   -616.43618    1385.9935     45448.57 
    2305    288.85881    17.983302    171.80746   -620.93564   -9.3074793     45448.57 
    2310    292.07326    19.715116    177.18095   -624.93298   -879.28516     45448.57 
    2315    292.60753    24.390909    170.12701    -630.5394    697.00869     45448.57 
    2320    288.46562    28.361744    175.82476   -637.24586     40.73102     45448.57 
    2325    304.82488    27.072804    158.00709   -642.19853    995.07119     45448.57 
    2330    290.78491    23.263078    166.35447   -646.25018   -18.970113     45448.57 
    2335    307.66855    22.193727    152.19287   -649.70228   -619.82226     45448.57 
    2340    299.56272    25.251167    164.53767   -650.05365    97.849358     45448.57 
    2345    290.71218    21.412042    169.65457   -652.39889    426.62468     45448.57 
    2350    303.10285    20.931721    149.79831   -653.94107   -1431.4601     45448.57 
    2355    288.77037    21.378132     173.2985   -651.34966    648.98565     45448.57 
    2360    299.16821    21.077046    159.00316   -649.34685    822.51734     45448.57 
    2365    280.44077    23.352839    168.49135   -643.75424    -1473.435     45448.57 
    2370    302.07977    22.030268    162.11338   -633.96521   -250.29451     45448.57 
    2375    325.29265    21.762349    160.13649   -622.61141    1896.1979     45448.57 
    2380    320.96984    23.585414    169.25175   -612.00304    381.90864     45448.57 
    2385     308.0345     21.55709    177.17109   -606.18967    9.4652279     45448.57 
    2390     312.1053     25.00897    170.86076   -604.72037   -672.59569     45448.57 
    2395     308.6517     26.23591    175.06069   -602.69597   -1184.5229     45448.57 
    2400    308.98017    19.930958    189.96621    -602.5882   -37.358507     45448.57 
    2405    325.12231    20.048653    170.54256   -606.23402    24.412114     45448.57 
    2410    316.38267    25.711876    173.38834   -611.09221    978.23316     45448.57 
    2415    302.55516    27.469395    173.43089   -615.52644    589.08701     45448.57 
    2420    304.58422    30.212196    163.50549   -621.47606   -1164.5991     45448.57 
    2425    282.82724    28.638316     179.4971   -626.01788    98.941012     45448.57 
    2430    293.24638    27.880619    174.85768    -628.6031    826.64613     45448.57 
    2435    298.11998    26.213373    166.07713   -630.84369   -802.14069     45448.57 
    2440    296.43473    21.418744    175.56583    -633.7895    436.10781     45448.57 
    2445    287.45157    25.719874    167.98612   -637.95215   -510.59576     45448.57 
    2450    287.31237    24.081967    162.04281   -640.97374   -959.47223     45448.57 
    2455    288.19366     20.75599    176.56857   -641.16981   -1581.2793     45448.57 
    2460    293.52896      22.9404    167.20076    -641.8596   -237.10134     45448.57 
    2465    286.24255    25.476344     176.6542   -642.02703   -1286.0461     45448.57 
    2470    280.75397     25.02067    176.50705   -642.01656    2147.0992     45448.57 
    2475    292.85786    21.723469    162.05273    -642.0433    564.89664     45448.57 
    2480    277.53214     24.59457    184.89499   -639.00533    1059.7439     45448.57 
    2485    286.97841    28.317625    169.06418   -633.72026    641.59651     45448.57 
    2490    290.19383    23.768024    179.88087    -626.8921   -524.23312     45448.57 
    2495    293.12378    26.801061    184.75218   -619.13713   -1296.2228     45448.57 
2500        0.97563629541060270522 13.871562544793068383 0.99288762446657186089 203 -959.83913163085139786
    2500    302.19177    24.394198    186.20684   -612.13949    902.90327     45448.57 
    2505    313.47518    26.199655     178.2452   -607.17029   -32.006989     45448.57 
    2510    304.40499    26.875155    189.81723   -603.16079   -620.16486     45448.57 
    2515    309.19811    24.388009    175.59379    -602.2398    1570.6417     45448.57 
    2520    311.88339    22.980511    180.77085   -602.99961   -1039.4887     45448.57 
    2525    305.97926    23.489036    181.05859   -604.36332   -1350.5935     45448.57 
    2530    301.13578    25.897764    172.56357   -608.00967   -593.28131     45448.57 
    2535    306.55474    24.023764    166.55535   -614.08588   -374.63691     45448.57 
    2540    309.99058     26.28236    155.48514   -618.70799    339.40227     45448.57 
    2545    274.39134    22.242097     179.6031   -621.05737    65.751063     45448.57 
    2550    301.01277    19.189729    165.66532   -626.64625    736.79088     45448.57 
    2555     298.3853    15.172926     166.8542   -632.90885    301.65549     45448.57 
    2560     290.8823    15.084611    169.93344    -639.0708   -1304.1157     45448.57 
    2565    286.05132    19.267052    166.82544   -645.94745   -921.61498     45448.57 
    2570    289.60938    23.260533    171.65694   -653.15603   -87.212914     45448.57 
    2575    284.24439    24.339465    163.00052   -660.22097   -854.22064     45448.57 
    2580    298.74327    26.875816    162.51352   -665.15362    1095.0135     45448.57 
    2585    293.83491    27.391675    159.49324   -668.74536    2407.3075     45448.57 
    2590    279.07417    24.652291    166.32374   -673.77986    466.53983     45448.57 
    2595    262.83698    21.734323    165.22595   -676.44176    -499.2884     45448.57 
    2600    288.70173     20.20882    158.64292   -677.29933   -1709.7892     45448.57 
    2605    288.79401    22.912539    155.92212   -675.22641     374.4889     45448.57 
    2610    285.62999     24.53385    158.55181   -666.10782   -521.07474     45448.57 
    2615    297.65868    27.009686    165.80922   -653.38707   -313.63611     45448.57 
    2620       309.66    35.106695    148.87145   -640.45056    799.39709     45448.57 
    2625    298.23558    32.064164    167.88607   -629.32919    469.32107     45448.57 
    2630    286.35834    26.937004    165.03698   -621.50898   -24.178121     45448.57 
    2635    307.64135    22.491911    165.02527   -615.90673    943.86204     45448.57 
    2640     309.3849    17.108704    171.29974   -609.72702    826.75811     45448.57 
    2645    314.75711     16.50755    167.41425   -606.84228   -523.99939     45448.57 
    2650    297.78523    19.015446    185.86422   -605.03313    -1648.526     45448.57 
    2655    320.12109    21.602435    170.06514    -604.6973     201.9269     45448.57 
    2660    320.62872     20.39338    170.20853   -609.42473   -831.01887     45448.57 
    2665    323.94915    17.677839    156.87587    -616.6965    703.24753     45448.57 
    2670    306.57601    20.748715    160.47173   -622.40774   -674.07041     45448.57 
    2675    288.25818    22.888412    164.84465   -629.09018    682.50102     45448.57 
    2680    280.65587    22.102025    171.44908   -633.89959    425.98327     45448.57 
    2685    295.34766    25.504462    161.37457   -636.63836   -17.429394     45448.57 
    2690    300.80888    23.518857    160.95906   -636.99783    288.01628     45448.57 
    2695    297.45717    22.791627     167.3587   -636.07167   -114.59533     45448.57 
    2700    296.26144    20.583362    157.05094   -636.43651   -590.45138     45448.57 
    2705    292.96092    22.822137    156.84962   -634.75778   -436.25451     45448.57 
    2710    302.62013    23.058362     157.1787   -630.49463   -560.78138     45448.57 
    2715    306.18929    24.786231     165.6163   -624.47353    198.57622     45448.57 
    2720      310.556    24.641716    179.14474   -615.03678    760.21807     45448.57 
    2725    295.87496    26.255577    176.12673   -605.02162   -945.90246     45448.57 
    2730     283.6413    25.682124    188.33182   -595.14947    96.028551     45448.57 
    2735    310.38016    21.885731    172.87813   -586.02728    873.67355     45448.57 
    2740    320.53869    29.599313    182.42488   -579.13454    1191.6147     45448.57 
    2745    332.15338    37.647342    163.20957   -575.81558    848.43379     45448.57 
    2750    321.88266     35.57718    182.78718   -575.92953    1079.8728     45448.57 
    2755    324.59861    27.613689    175.95071   -579.51192   -2028.9357     45448.57 
    2760    322.29164    23.973922    174.05882   -586.14461   -911.91614     45448.57 
    2765    303.39376    22.546229    169.38159   -592.44387   -1093.9611     45448.57 
    2770    301.11497    20.191597    174.40157   -597.51266    486.02885     45448.57 
    2775    312.60086    18.782539    163.06995   -604.33402     1094.977     45448.57 
    2780    305.64272    18.527947    159.27343   -608.72213    375.18252     45448.57 
    2785    299.93534    20.557282    168.57985   -610.00487    868.82972     45448.57 
    2790     315.9077    26.526715    161.07008   -612.18401    866.97386     45448.57 
    2795    311.58958     35.86973    158.57755   -612.67504   -990.45483     45448.57 
    2800    314.30965    29.054393    159.65029   -613.16239   -1573.4281     45448.57 
    2805    309.70535    25.669541    172.15377   -616.92216    1345.4774     45448.57 
    2810    318.83817    23.294632    158.15518   -622.98183    1382.1801     45448.57 
    2815    293.55727    24.243636    177.81721   -627.50631    440.70351     45448.57 
    2820    306.45363    23.525326    172.13986   -632.93161   -297.37639     45448.57 
    2825    296.64967    27.998282    161.35903   -640.55535   -998.50733     45448.57 
    2830    277.57995    28.011415     162.4767   -644.45184   -1027.1232     45448.57 
    2835    290.70642      23.0977    167.94602   -644.94289    83.421548     45448.57 
    2840    302.62579    19.820639    157.94047   -646.24193    513.99543     45448.57 
    2845    290.00547    24.738849    164.78223   -645.04325    148.67328     45448.57 
    2850    280.31599    23.773416    188.16166   -641.89433    97.119348     45448.57 
    2855     298.2974    21.206271    169.39638   -641.27213   -899.37687     45448.57 
    2860    293.86171    24.044392    172.87605   -640.85667   -359.11159     45448.57 
    2865    293.14825    29.084633    165.94999   -639.68565    836.32862     45448.57 
    2870    292.42401    30.020449    166.93325   -637.38306    1450.2736     45448.57 
    2875    300.24337    28.910996    173.19414   -635.47782    142.92273     45448.57 
    2880    301.98515    26.253752    173.31387   -634.57832   -876.25275     45448.57 
    2885    306.13682    26.457502    165.48989   -635.62472    121.98382     45448.57 
    2890    315.65163    24.381248    160.02884   -635.36664   -105.15887     45448.57 
    2895    294.97816    25.640311    168.02747   -634.98479    -571.5998     45448.57 
    2900    299.74056    23.782215    163.01272   -637.46971    337.46441     45448.57 
    2905    300.07938    28.725111    163.53417   -638.05512   -2.1919283     45448.57 
    2910    288.30784    26.248554     164.3983    -638.8951   -1005.8946     45448.57 
    2915    299.15249     22.31431    162.32986   -640.68427    248.24807     45448.57 
    2920    283.65573    14.945335    173.42642   -638.56889    694.81319     45448.57 
    2925    298.32456    20.254493    155.55994   -635.46128    492.27825     45448.57 
    2930    298.14481    23.120689    170.55472   -629.21315   -1283.1645     45448.57 
    2935    323.13613    23.375946    163.86822   -620.19983    789.24007     45448.57 
    2940    313.81825    25.350283    175.50456   -611.57301    442.42748     45448.57 
    2945    310.12722    28.319172    178.95168   -606.81976   -865.97656     45448.57 
    2950    323.91308    28.111622    166.61115   -602.91588   -532.33948     45448.57 
    2955    287.28746    24.528006    194.16682   -598.82716    834.50989     45448.57 
    2960    308.41105     22.53162    167.84681   -597.57711    306.90192     45448.57 
    2965    306.78502     25.79053    173.38775   -595.47894   -189.98124     45448.57 
    2970    305.24575    28.323095    183.79755   -593.37183    1967.7804     45448.57 
    2975    328.42833     23.18212    157.56237   -594.34317    566.34651     45448.57 
    2980    315.66938    18.240199    184.82018   -596.29124   -1557.6969     45448.57 
    2985    307.66322     16.42508    178.68416   -601.20019    -1026.508     45448.57 
    2990     299.7999    25.744007    176.83973   -611.89823   -328.46905     45448.57 
    2995    283.46308    22.869981    180.34252   -623.70737   -596.96746     45448.57 
3000        0.97311003316209054859 13.80180683997225799 0.99146514935988627748 214 -974.81614225952989727
    3000    296.81401    23.127918    163.52373   -633.30411    804.69697     45448.57 
    3005    269.61554    23.827155    174.90006    -637.5472    182.74581     45448.57 
    3010     294.8071    17.736259    167.00137   -642.05683   -66.345873     45448.57 
    3015    288.37998      15.4934    153.77565   -644.15889   -715.11057     45448.57 
    3020    283.01848    19.377834    166.38788   -642.09906   -981.18135     45448.57 
    3025    283.43338    17.903017    171.43387   -639.27914    843.61791     45448.57 
    3030    297.86501    19.543601    175.06346   -636.93551    975.83293     45448.57 
    3035    289.87956    21.864334    165.25255   -632.97571   -608.86268     45448.57 
    3040    288.21588    22.872164    174.55883   -629.12555   -324.79294     45448.57 
    3045    297.57084    19.186399    156.64284   -625.09843      11.6749     45448.57 
    3050    304.66707    23.271774    176.32649   -618.96215    386.37248     45448.57 
    3055     301.1554    28.974494    170.83161   -613.91988   -397.46972     45448.57 
    3060    295.07579    34.430452    171.59296   -610.02563   -264.01374     45448.57 
    3065    325.80187     30.01345    169.42124   -605.42019    417.24944     45448.57 
    3070    332.43033    29.617097    181.73952   -602.50617    438.77672     45448.57 
    3075    307.74248    30.254348    178.21268   -605.55032    525.56588     45448.57 
    3080    300.37508    27.949619    167.97997   -615.98245   -1181.9162     45448.57 
    3085    296.31394    29.119822    159.01634   -632.05232   -1150.5557     45448.57 
    3090    290.43084    30.394245    159.14712   -647.45841   -414.65974     45448.57 
    3095    274.42256    25.823064    164.25152   -655.92306    740.40103     45448.57 
    3100    276.24564    20.881627      165.515   -658.04572   -5.7662264     45448.57 
    3105    298.69762    19.570336    154.74061   -659.09849   -717.24656     45448.57 
    3110    293.82517    23.613804    164.83984   -658.88995   -91.905389     45448.57 
    3115    285.61493    28.099022     154.9892    -657.4557    817.41918     45448.57 
    3120    288.58605    23.665194    161.94682   -654.94112   -40.790603     45448.57 
    3125    299.86274    21.766089    152.47024   -650.28313   -77.762886     45448.57 
    3130    288.91586    26.028578    158.36458   -642.39204    128.30038     45448.57 
    3135    294.21829    21.162972    164.96386   -635.30858    534.80332     45448.57 
    3140    302.30414    22.393232    165.98533   -626.94722   -1193.4414     45448.57 
    3145    306.03894     22.92928    169.17155   -619.23613   -487.48167     45448.57 
    3150    315.68905    20.397679     166.4185    -616.1556     155.6511     45448.57 
    3155    301.18978    23.558389    169.35646   -612.60879    526.82844     45448.57 
    3160    310.14694    28.638606    164.84196   -610.46691   -748.12967     45448.57 
    3165    325.01108    30.171524    160.88037   -610.38753    1282.6435     45448.57 
    3170    319.92601    32.655297    166.57217    -612.6962    24.837745     45448.57 
    3175    309.00396    28.934732     164.7823    -618.2759   -1056.0555     45448.57 
    3180    313.01495    30.301027    145.42238   -625.31036   -2096.0525     45448.57 
    3185     294.1418     27.10061    163.08179   -631.86754    -567.9513     45448.57 
    3190    298.59122    30.922793     152.0892   -636.30533    578.60838     45448.57 
    3195    294.51605    37.208493    154.65821   -637.81014    1393.3717     45448.57 
    3200    288.51201    27.387936    163.17036   -638.46116    1469.6024     45448.57 
    3205    310.25538    22.067217    138.32016   -638.20623    447.73364     45448.57 
    3210    313.33231    19.496852    149.99743   -634.80641     352.5142     45448.57 
    3215    304.07352    23.722258    162.88681   -633.85972   -230.72999     45448.57 
    3220    309.40252    17.959167    143.17623   -634.84024   -1115.7799     45448.57 
    3225    303.54564    23.228697    161.81528   -632.44849   -938.16724     45448.57 
    3230    303.35439    28.179409    156.39091   -630.28156   -19.292434     45448.57 
    3235    292.10391     28.23403    177.03025   -628.64426   -135.52689     45448.57 
    3240    283.61476    28.213085    177.42666   -626.75368    1024.2516     45448.57 
    3245     308.1336    24.564432    169.03567   -625.61571    582.41612     45448.57 
    3250     311.8115    23.671669    169.68538   -622.21951   -624.36313     45448.57 
    3255    311.97098    23.034674    162.49318   -617.49669   -303.83862     45448.57 
    3260     302.9283     21.21009    169.57307   -611.38019    1021.8169     45448.57 
    3265    304.30769    20.324457      173.725   -604.74345   -1158.1517     45448.57 
    3270    298.62069    25.094175    171.45702   -598.90661   -54.697152     45448.57 
    3275    288.53392    21.921335    190.27261     -591.893    172.30594     45448.57 
    3280    299.40603    20.356886    177.91381   -586.51159    996.36697     45448.57 
    3285    305.46494    22.044317    181.99656   -582.92898   -137.52683     45448.57 
    3290    312.02891    26.476295    177.94936   -577.97062   -605.61587     45448.57 
    3295     311.0172    29.449729    178.55061   -576.56179    637.11369     45448.57 
    3300    312.98769    24.382081    172.99574   -578.87344    237.53115     45448.57 
    3305    308.59736    23.998156    182.33687   -580.41001   -1238.5341     45448.57 
    3310    308.42738     26.33183    175.54326   -585.64466    1797.0074     45448.57 
    3315    315.73553    24.881925    173.77389   -594.38999    398.42891     45448.57 
    3320    307.46166    27.582202    156.81753   -603.52777   -801.14459     45448.57 
    3325    292.27545    26.084794    158.00394   -610.70814   -1606.1161     45448.57 
    3330    284.50879      23.7601    175.26483    -614.0896    516.61029     45448.57 
    3335    299.86438     21.32068    178.13574   -617.89178    431.51097     45448.57 
    3340    299.77307    20.691928    162.15805   -623.08064   -211.61699     45448.57 
    3345    291.71192    19.328572    164.45951   -627.14193    152.41555     45448.57 
    3350    292.65952    23.423454    167.34368   -629.71605    445.52197     45448.57 
    3355    303.84938    30.583371    155.03143    -632.2673    -1297.225     45448.57 
    3360    306.94763    32.203704    155.28839   -634.15167   -1158.3242     45448.57 
    3365    282.29496    31.432848    169.25293   -636.01886    344.54395     45448.57 
    3370     291.4171     28.41178    156.91517     -636.242    1170.3805     45448.57 
    3375    295.32782    24.987734    167.58707   -634.11591    121.29666     45448.57 
    3380    298.12885    21.994347    160.67897   -632.28427    434.77424     45448.57 
    3385    308.90071    28.033561    163.48016   -628.11839     1100.251     45448.57 
    3390     314.2421    30.292228    164.52488   -621.24678    133.86463     45448.57 
    3395    312.87025    23.226446    169.56894   -615.54217    707.14951     45448.57 
    3400    305.02443    25.001121    163.94266   -610.55247   -266.06068     45448.57 
    3405    299.72878    21.358112    173.03349   -605.37979   -603.62573     45448.57 
    3410    302.86718    15.882451    168.02449   -601.13905    230.17462     45448.57 
    3415    292.43799    16.897719    182.34392   -597.88723   -1445.7145     45448.57 
    3420     301.8693    22.016665    183.10553   -590.50074    304.16143     45448.57 
    3425    299.19249    25.916961    188.18191   -583.66273    1654.4733     45448.57 
    3430    303.94933    29.780787    201.89089   -580.09733   -287.35481     45448.57 
    3435    322.60147    30.262987    170.83249   -579.07588    -493.3445     45448.57 
    3440     323.1538    25.623638    170.64098   -582.10345    587.77448     45448.57 
    3445    309.35154    23.603034     181.9819   -589.35589   -665.80497     45448.57 
    3450    310.50181    28.226825    173.54441   -600.84474   -569.75022     45448.57 
    3455    299.27656    31.120451    164.23054   -615.12182    815.65622     45448.57 
    3460    286.06232    30.897906    171.74487   -623.87162    976.40482     45448.57 
    3465    292.21879    24.928693    165.48255     -626.113    657.04578     45448.57 
    3470     299.4652    24.883053    181.77084   -628.18154     47.35641     45448.57 
    3475     312.0397     23.00703    167.92241   -632.37377   -570.19823     45448.57 
    3480    308.64712    21.395998    157.11009   -637.11048   -328.80866     45448.57 
    3485    284.58448    23.691921    173.70697   -640.90003   -821.48784    45623.413 
    3490     286.1684     24.36741    159.00585    -643.4399   -664.98331    45623.413 
    3495    289.71365    20.056088    151.78293   -645.28763   -630.49549    45623.413 
3500        0.96509605085402272451 13.908708351177375917 0.98506401137980093008 210 -982.18219451743823356
    3500    294.70875    22.193537    157.23417   -643.09247   -261.95933    45623.413 
    3505    283.80189    24.187373    163.99598   -638.78722    183.28151    45623.413 
    3510     298.3328     23.60588    157.03573   -634.48629    342.66378    45623.413 
    3515    308.90396    24.255481    164.22235    -627.5367   -1106.2321    45623.413 
    3520    306.41974    24.953058    162.14627   -619.11581    438.52131    45623.413 
    3525    311.05401    26.394439    167.31478   -612.48442    1291.9537    45623.413 
    3530    304.49808    23.432069    178.27069   -607.30697    760.65457    45623.413 
    3535    317.07978    21.938247    169.40484   -603.22121   -943.62588    45623.413 
    3540    318.20556    25.604064    165.58569   -602.18746    -454.1575    45623.413 
    3545    297.80836    26.794185    168.56276   -603.43041    1097.7372    45623.413 
    3550    313.75144    22.337048     152.8084   -605.43983    -735.1304    45623.413 
    3555     307.3615    18.934318    163.38837   -607.84936   -282.20999    45623.413 
    3560    291.94019    18.416412    174.82065   -609.49346    651.03814    45623.413 
    3565    290.68258    18.441747     174.9327   -614.50251   -52.078175    45623.413 
    3570    298.55613    19.830895    162.02914   -625.64913   -606.62073    45623.413 
    3575    316.68346      20.3219    139.69593   -638.73476   -64.460991    45623.413 
    3580    298.80549    20.714897     159.8305   -650.02576   -160.74948    45623.413 
    3585    290.86623    18.657344    149.33006   -658.41572   -978.39084    45623.413 
    3590    274.66863    16.527706    159.87711   -662.33858   -736.37711    45623.413 
    3595    296.87956    19.247569    146.40392   -663.03034     626.5689    45623.413 
    3600    314.11664    20.050437    148.76354   -663.60986    1311.5546    45623.413 
    3605    282.01463    23.696369    149.36387   -660.86958    331.69921    45623.413 
    3610     280.4845    23.456999    157.98552    -656.4591   -258.79195    45623.413 
    3615    297.80823    20.940438    150.37062   -649.75593     92.34095    45623.413 
    3620    297.80153    21.159469    163.83973   -640.17265   -746.56457    45623.413 
    3625    292.27098     18.73147    160.43795   -632.32541    212.09783    45623.413 
    3630    297.08538    18.149594    161.22419   -625.30376    764.88833    45623.413 
    3635    299.01275    18.126961    164.96463   -618.41813   -269.93621    45623.413 
    3640    312.06687    24.024299    162.98733   -614.54438    219.45904    45623.413 
    3645    305.15108    27.219939    163.08493   -612.19283    -705.6709    45623.413 
    3650    293.87565    30.620861    172.61539   -610.66987   -1026.1484    45623.413 
    3655    285.45417    24.417399    186.95082    -608.1339   -814.51323    45623.413 
    3660    296.92676    16.060816    173.23822   -606.31181   -1188.3253    45623.413 
    3665    304.96769    14.305637    159.69325   -605.72046   -308.21602    45623.413 
    3670    294.15652    18.530228    171.37284   -601.98271    1744.0121    45623.413 
    3675    315.38395    21.095538    171.20542    -598.0731    720.57318    45623.413 
    3680    318.59469    20.975911    168.40473   -596.88666   -57.904294    45623.413 
    3685       308.93    24.801505    170.38446   -598.18243   -150.26646    45623.413 
    3690    297.70831    27.477103    166.42292   -600.01909   -573.84718    45623.413 
    3695    298.52128    26.009279    179.77053   -602.20389   -404.67499    45623.413 
    3700     324.7049    18.761563    163.93981   -607.85951   -734.32944    45623.413 
    3705    284.76092    19.351204    180.32467   -619.39725    441.73772    45623.413 
    3710     285.0406     18.86551    165.27923   -631.21665    2834.6115    45623.413 
    3715    275.12648    16.539331    164.43176   -637.77695   -1077.0315    45623.413 
    3720     299.2587    13.898109    151.11518   -642.69348   -379.01093    45623.413 
    3725    287.42916    17.111747    160.09307   -646.11036    553.82673    45623.413 
    3730    297.72023    24.501453    152.96216   -647.00998    -1546.207    45623.413 
    3735    281.46963     27.69708     162.6331   -644.07786   -1321.3613    45623.413 
    3740    289.36414    33.656494    176.34469   -641.64499    250.23112    45623.413 
    3745    304.91835    26.625891    159.34986   -638.37252    1621.0964    45623.413 
    3750    284.91513    25.942321    169.18623   -633.17949   -1220.0058    45623.413 
    3755    297.92501    23.019131    175.62021    -628.7739    170.40275    45623.413 
    3760     288.4444    21.604961    180.84191   -624.07431    879.83791    45623.413 
    3765     294.4116    24.528128    176.78447   -617.73262    602.90482    45623.413 
    3770    286.67053    30.869031     175.3085   -608.47351   -1147.8489    45623.413 
    3775    312.61805    28.426396    174.88043   -599.02649    1216.3759    45623.413 
    3780    315.46656    25.271261    174.95999   -591.93994    341.55602    45623.413 
    3785    305.38094    24.819508    179.89848   -587.61575   -783.35023    45623.413 
    3790    319.66551    20.800515    157.99671   -584.36133    -898.4697    45623.413 
    3795    309.61126    20.836021    191.46384   -581.49061   -566.26244    45623.413 
    3800     307.4108    24.314715    170.32774   -583.44179   -108.38162    45623.413 
    3805    295.73949    29.193385    175.77232   -587.44865   -582.45647    45623.413 
    3810    308.15715    21.529735    168.90698   -592.63316    400.88483    45623.413 
    3815    302.11091    17.632729    163.51735   -603.44855    1647.4002    45623.413 
    3820    299.00605    14.197103    160.40628   -619.96778   -426.99343    45623.413 
    3825     297.8856    10.734371    163.37948   -635.19255   -887.07671    45623.413 
    3830    305.88837    12.897918    154.54467   -644.70544   -6.7788726    45623.413 
    3835    279.84908     17.65525    160.90048   -649.68721   -222.54423    45623.413 
    3840    276.57239    22.289999    153.14141   -651.23411    182.22011    45623.413 
    3845    292.52976    24.429331    147.42807   -650.35531   -32.893195    45623.413 
    3850     275.7657    22.120143     173.0588    -646.4864    192.52204    45623.413 
    3855    291.64634     20.61961    156.44199   -641.62234   -2533.2975    45623.413 
    3860    295.09222    16.950535    159.91224   -636.77549    478.44547    45623.413 
    3865    308.30549    18.046767     152.2474   -631.54921    345.50676    45623.413 
    3870    307.10584    27.105132    154.81888   -624.59187   -114.29141    45623.413 
    3875    305.13834    31.193893    162.35001   -618.36967     1582.364    45623.413 
    3880    319.17483    27.259111     156.3114   -615.60682    1351.3029    45623.413 
    3885    312.41771    24.122348    159.65319   -613.73547   -527.70112    45623.413 
    3890    321.03748    20.351616    163.30801   -611.98871   -52.928945    45623.413 
    3895    303.58012    21.889408    172.97061   -613.36755   -632.33396    45623.413 
    3900    299.36296    21.195169    159.47888   -619.65562   -1544.0401    45623.413 
    3905    297.08435     23.02955    159.84665   -625.24884   -120.87521    45623.413 
    3910    283.43637    30.009045    170.16185   -628.91236    510.30321    45623.413 
    3915    289.16387    27.127527    158.17965   -634.77171     961.3892    45623.413 
    3920    293.99101    26.748492    149.80485   -640.17986    80.926789    45623.413 
    3925    296.56262    20.784853    147.03172   -642.96279   -1083.1166    45623.413 
    3930     282.0181    17.418412    155.23492    -644.7418    443.87643    45623.413 
    3935    288.19899    18.079066     162.4675    -646.5474   -780.71793    45623.413 
    3940    296.03062    21.619088    153.97827   -649.25622     -166.649    45623.413 
    3945    293.97445    20.989754    153.00651   -649.69251    1015.6131    45623.413 
    3950    286.12153    22.961972    167.97965   -648.39005   -401.84496    45623.413 
    3955    307.83946    28.713675    132.85649   -648.09017   -643.11406    45623.413 
    3960       284.95      25.1475    174.91391    -643.9567   -10.991339    45623.413 
    3965    289.18986    22.930985    150.88232   -637.46103    690.24409    45623.413 
    3970    297.80215    25.302289    161.68227   -630.75754    427.75362    45623.413 
    3975     298.1291    29.506206    171.40234   -621.12719   -986.07043    45623.413 
    3980    303.31976    26.616469    172.82034   -611.60828    1178.9916    45623.413 
    3985    304.44868    25.475692     176.8226   -606.18995     942.2707    45623.413 
    3990    308.84676    28.021259    169.53848   -603.13645   -939.10829    45623.413 
    3995    303.44453    23.270741    160.57324   -601.91752   -1368.8455    45623.413 
4000        0.9690762027676067536 13.793858789628027139 0.99146514935988627748 217 -957.8767379442958827
    4000    309.89793    21.437784    169.50343   -601.31045   -388.10189    45623.413 
    4005    308.89286    21.553345    174.49672   -601.56651   -54.278751    45623.413 
    4010     293.4839    24.760414    174.65743   -603.99807    1058.1052    45623.413 
    4015    289.35665    19.678765    170.26881    -607.2967    1669.0223    45623.413 
    4020    290.33138    16.667099    161.97233   -609.89023   -1217.8465    45623.413 
    4025    289.60487    18.946917    169.61736   -611.21239   -490.15354    45623.413 
    4030    324.54712    17.656905    165.53894   -612.13183   -1144.3507    45623.413 
    4035    297.18832    20.902816    188.28616   -615.60098   -473.89058    45623.413 
    4040    303.89962    26.126516    158.99537   -624.19409     841.2048    45623.413 
    4045    306.54879    21.663881    160.21057   -634.27996    1077.5568    45623.413 
    4050    290.73416    22.023125    163.24636   -644.14439    860.18531    45623.413 
    4055    279.59456    21.110992    156.09193   -652.28241     1862.188    45623.413 
    4060    275.59397    20.017126    154.04432   -657.30078    1012.8261    45623.413 
    4065    291.83198    22.591992    148.10184   -656.99663   -2787.9044    45623.413 
    4070    282.37232    23.943362    154.77684   -654.23314   -1233.2368    45623.413 
    4075    289.75493    22.342908    165.78315   -651.21463    312.73245    45623.413 
    4080    299.84192    24.401416    156.46356   -644.98579    146.24295    45623.413 
    4085    307.92296    24.905865    165.46329   -640.56184    428.71609    45623.413 
    4090      305.332    30.315884    160.76648   -635.33221    610.24694    45623.413 
    4095    296.90642    26.455445    160.40149   -630.11291    1495.2597    45623.413 
    4100    291.88128    27.680941    164.37612   -626.20967   -10.815137    45623.413 
    4105    311.68508    26.774291    166.90184    -619.4673   -139.75175    45623.413 
    4110    295.40522    27.611539    173.60945   -615.18684    1359.5877    45623.413 
    4115    284.34843    27.870357    175.61832   -612.85013   -1077.2905    45623.413 
    4120    298.47586    27.723575     168.2909    -607.7836    -1644.783    45623.413 
    4125    305.34287    30.505376    163.13159   -602.54765   -283.14736    45623.413 
    4130     316.4215    23.508935     164.5293   -595.77707   -714.22879    45623.413 
    4135    316.19511    26.107465    177.16652   -585.32005    504.18735    45623.413 
    4140    317.67848    28.432118    174.52209   -573.39996    896.29449    45623.413 
    4145    338.45313    27.034146    183.52865   -559.16905    1266.8547    45623.413 
    4150    346.16214    30.826398    173.77338   -549.67724    37.008466    45623.413 
    4155    336.79747    30.885702    177.19394   -547.42953   -1133.1918    45623.413 
    4160    319.99643    24.005479     187.6252   -549.58128   -75.056968    45623.413 
    4165    322.90153    19.686606     177.1643   -559.82416    1361.2086    45623.413 
    4170    336.95278    23.525834    161.02586   -574.73514    569.56342    45623.413 
    4175    309.22566    25.070355    180.84139   -583.73241    458.29963    45623.413 
    4180    295.73882    24.700692    181.89289   -590.34983    1139.7315    45623.413 
    4185     309.7854    21.972205    177.21579   -598.06661     396.8225    45623.413 
    4190    297.70748    24.973567    168.35293   -601.99049   -2548.2336    45623.413 
    4195     296.5957    24.994956     164.3111   -604.39936   -837.48071    45623.413 
    4200    296.90058    21.834845    172.53298   -607.37779   -484.69035    45623.413 
    4205    315.45587    20.553447    171.06074   -611.17972    38.097482    45623.413 
    4210    295.35269    21.485532    178.08435   -616.75702    1312.8323    45623.413 
    4215     293.9609    20.149002    172.86465   -625.40308   -120.40495    45623.413 
    4220    292.28605    22.355197    166.22272   -633.39659   -1380.3658    45623.413 
    4225    287.24645    27.090913    172.82622     -638.393    22.684552    45623.413 
    4230    294.06719     25.50561    168.15034   -643.32104   -598.82946    45623.413 
    4235    297.86202    18.014508    161.37481   -649.45632   -418.88324    45623.413 
    4240     281.1276    19.257084     149.3769     -653.357    168.28492    45623.413 
    4245    268.33918     21.37474    165.32645    -653.1638    1412.7002    45623.413 
    4250    301.57516    22.984822    143.00381   -651.52036    662.87023    45623.413 
    4255    307.15173    22.642563    153.25489   -646.60783    286.44687    45623.413 
    4260    300.90727     27.12588    159.06658    -637.7952   -247.11156    45623.413 
    4265    306.30323    23.862169    163.65627   -633.22482   -1832.7896    45623.413 
    4270    313.00126    20.895655    154.20365   -629.48921   -1076.3919    45623.413 
    4275     304.8876    17.724985     160.2611   -624.96429    704.62855    45623.413 
    4280    290.11425    22.334059    171.24582   -620.68528    1830.7371    45623.413 
    4285    305.68023    28.690285    157.53361   -615.79519    445.91086    45623.413 
    4290    305.14425    29.720809     167.2889   -609.77953    634.71387    45623.413 
    4295    324.59176    31.096934    149.50162   -601.72135    -1502.611    45623.413 
    4300       315.36    23.117889    167.06219   -590.33197   -1901.3834    45623.413 
    4305    319.47363    22.081463    188.16398   -577.99869   -1393.4763    45623.413 
    4310     327.4518    19.244629    173.72064    -569.9935    1163.3191    45623.413 
    4315    315.14287     23.14481    191.83889   -566.66082    -257.6358    45623.413 
    4320    315.10317    19.895733    181.46427   -566.97656    1449.1893    45623.413 
    4325    312.60774    23.044345    190.45256   -569.95987    360.67029    45623.413 
    4330    307.30518    25.876941    193.32328   -577.11912   -582.96078    45623.413 
    4335    306.96898    21.315573    174.28969   -592.13684   -1806.0886    45623.413 
    4340    304.25468    26.433415    167.22419    -609.3962    131.75841    45623.413 
    4345    302.79054    26.303085    168.48584    -619.4126   -926.80899    45623.413 
    4350    288.47446    27.437516    175.15244   -623.60707    2649.0634    45623.413 
    4355    288.98691    28.635906    163.94682   -628.05271    297.07929    45623.413 
    4360    301.88519    24.856941    165.29154   -630.33179    920.98593    45623.413 
    4365    303.80291    26.750523    172.44152   -630.36869   -1022.0847    45623.413 
    4370    300.33182     23.75809    179.53325   -631.78462    398.07217    45623.413 
    4375    298.94677    30.767703    153.34955    -637.7731   -825.53646    45623.413 
    4380    285.74501    30.154739    159.68957   -642.28767   -453.57246    45623.413 
    4385    278.71252    29.819256    155.06197   -641.92608   -968.38229    45623.413 
    4390    269.45712    28.888037    174.43941   -640.65397    875.96692    45623.413 
    4395    291.32672    25.979853    160.70698   -637.66515    534.98696    45623.413 
    4400     308.9282    19.075586    165.52709    -630.6665    1543.2286    45623.413 
    4405    298.97199     19.52447    172.86887   -624.17194   -586.14885    45623.413 
    4410     301.4645    20.860855    165.12818   -618.46357   -717.31024    45623.413 
    4415    303.99312    23.631244    180.59041   -611.37622   -1893.8132    45623.413 
    4420    311.52314    23.919067    168.48443   -607.25292    339.25629    45623.413 
    4425    300.29797    22.956635    173.46562   -605.38102   -10.169329    45623.413 
    4430    302.57539    24.319512    166.42189   -601.47041    488.97174    45623.413 
    4435    295.85637    25.150343    174.58708   -597.91136   -935.89614    45623.413 
    4440    311.34531    23.010515    172.07079   -597.03868    225.09453    45623.413 
    4445    315.48681      19.2255    167.94063   -594.22152    537.20307    45623.413 
    4450    312.97349    23.847581    166.84159   -593.59739   -92.700667    45623.413 
    4455    314.83506    21.948918    157.49439   -595.94984    276.67145    45623.413 
    4460    305.36511    19.284565    162.22832   -598.90794   -270.42302    45623.413 
    4465    303.22563    19.453521    167.79821   -606.05971    338.16568    45623.413 
    4470    286.35892    22.345084    169.66177   -614.32753   -60.401344    45623.413 
    4475    302.99406    22.397214    160.41722   -620.24397   -804.25595    45623.413 
    4480    310.67216    23.123895    155.38516   -627.00846   -620.22452    45623.413 
    4485    305.65815    26.373441    166.85555   -633.75625   -582.88436    45623.413 
    4490     299.9101    29.968529    154.94937   -640.01217    171.92451    45623.413 
    4495    288.49661    29.742029    165.64374   -645.83146   -264.63853    45623.413 
4500        0.96524246510161149093 13.858573182647518252 0.99146514935988627748 218 -996.58614192531649678
    4500    301.00953    24.768732    157.23619   -650.24678    1539.5391    45623.413 
    4505    298.87929     23.44756    153.54158   -653.44575   -239.92098    45623.413 
    4510    266.78313    20.648296    171.12263   -657.32142    791.37441    45623.413 
    4515    289.45903    17.899268    137.69323   -660.55389   -330.66591    45623.413 
    4520    277.09305    18.826357    166.24839   -657.75521   -1160.1951    45623.413 
    4525    276.95362    19.027488    166.81275   -654.12457   -534.15685    45623.413 
    4530    289.69943    19.046605    157.88048   -648.32464    196.47549    45623.413 
    4535    294.60073    22.545191    163.40509   -637.83408     271.1765    45623.413 
    4540    299.78616    23.542907    166.10371   -628.76743    896.20179    45623.413 
    4545     296.9928    22.789976    155.57952   -622.34992   -574.28783    45623.413 
    4550    294.30961    23.108747    171.18593     -615.734    992.91664    45623.413 
    4555    313.46664    17.496579    162.36908   -611.73344    177.63058    45623.413 
    4560     300.7783    15.983782    163.25996   -610.42901   -1201.3009    45623.413 
    4565    300.23992    18.784746    160.17837   -610.17222   -206.04353    45623.413 
    4570    302.67736    18.495148    179.48165   -609.28691     874.9462    45623.413 
    4575    300.97247    17.222028    161.07945   -609.42923    375.77816    45623.413 
    4580    292.68865    18.525798    166.06651    -610.4688    434.79369    45623.413 
    4585    305.38131    20.691735    151.97474   -609.16447   -72.607122    45623.413 
    4590    303.06643    19.256359    173.62732    -608.1701   -46.749666    45623.413 
    4595    303.23234    18.841501    169.88817   -610.21631   -769.48318    45623.413 
    4600    307.44943    24.978017    153.32188    -612.4813   -220.73302    45623.413 
    4605    307.88264    26.407869    167.96587   -616.15694    898.80663    45623.413 
    4610    301.41484    19.252699    158.05405   -622.57237   -885.84442    45623.413 
    4615    273.57171    22.403853    162.04904    -628.0979    434.80552    45623.413 
    4620    299.53838    18.447501     150.1639   -633.62331   -692.75551    45623.413 
    4625    299.51556    18.224367    167.88261   -639.90195   -476.05243    45623.413 
    4630    290.19395    22.208287    144.82234    -647.2873   -114.98837    45623.413 
    4635    277.50208     24.67327    158.71192   -654.68122    123.22265    45623.413 
    4640    284.62389    23.148885    156.52074   -659.91428    655.06773    45623.413 
    4645    287.09485    24.960468    160.26758   -663.96233    1948.8504    45623.413 
    4650    291.06217     21.92659    148.14544   -668.64341    74.850524    45623.413 
    4655    285.41937    24.515943    139.77655   -672.55026   -741.70429    45623.413 
    4660    271.66129    26.348631     161.3092   -672.71888   -70.164615    45623.413 
    4665    282.42985    27.907575    145.40642   -669.78227    -650.8135    45623.413 
    4670    274.33763    30.441306    154.25605   -661.75953    779.75771    45623.413 
    4675    289.08915    31.794666     150.6072   -646.25568    795.64802    45623.413 
    4680    295.64043    28.820213    162.24755   -632.00232    332.69302    45623.413 
    4685    309.59234    22.217231    142.42817   -625.00871   -1489.2012    45623.413 
    4690    295.21765    19.271395    169.85548   -617.11386    267.71674    45623.413 
    4695    298.93159    21.116236    173.42963     -612.459    618.31992    45623.413 
    4700    306.30342     22.26112    164.56253   -611.21837    636.98292    45623.413 
    4705    310.00841    25.353782    164.53784   -609.86962    -1004.835    45623.413 
    4710    308.13979    25.638163    158.84714   -610.06791    952.09722    45623.413 
    4715    306.49921    19.435413    167.08818    -611.1816   -266.25532    45623.413 
    4720    289.18109    17.332415    179.80822   -613.85346   -517.30337    45623.413 
    4725    299.05748    20.014588    148.71728   -619.31678    -1058.107    45623.413 
    4730    292.39106    20.361927    168.83472   -621.24879   -451.50448    45623.413 
    4735    305.40181      17.7599    159.99385   -623.16908   -881.71381    45623.413 
    4740    289.61735    16.957469     160.3295   -627.58906   -1.5622996    45623.413 
    4745    296.16686     19.35792    147.96086   -631.39285    592.49523    45623.413 
    4750    291.31781     20.06805    160.56363   -633.12579    765.84282    45623.413 
    4755     294.2313    21.381425    158.61393   -633.63377   -646.21675    45623.413 
    4760    288.91741    20.000487    150.89645   -635.03328   -1211.2344    45623.413 
    4765    280.20824    21.072121    160.63054   -633.69597    1035.9356    45623.413 
    4770    297.24694    18.002891    144.19568   -628.36606    823.36044    45623.413 
    4775     303.9471    17.106292     158.1539   -618.73118    186.66736    45623.413 
    4780    306.05117    22.240885    171.87752   -607.81534   -1348.0902    45623.413 
    4785    303.27385    27.231996    166.67535   -600.40179    -462.9541    45623.413 
    4790    310.64109    23.039286    168.99882   -593.63104    81.541651    45623.413 
    4795    297.69161    22.490387    174.66789   -589.03464    90.840465    45623.413 
    4800    313.97564    25.963645    150.97313   -586.55192    -197.5825    45623.413 
    4805    302.26475    22.071628    180.98019   -583.08474    916.26444    45623.413 
    4810    293.48665    23.030747    177.20654    -582.4086   -315.36101    45623.413 
    4815    305.68412     21.81998     164.5278   -582.55753   -7.4228657    45623.413 
    4820    312.49534    24.836667     170.0473   -582.15799   -178.74876    45623.413 
    4825    314.97866    25.462691    177.25262   -581.82474    1349.3513    45623.413 
    4830    307.10151    23.642909    168.13324   -585.11318   -1488.4847    45623.413 
    4835    305.90991    22.645462       172.11   -592.83192   -908.72378    45623.413 
    4840    290.87705    23.391275    184.63199   -601.13166    970.56935    45623.413 
    4845    299.58181    20.089549    179.49544   -614.41113   -11.926183    45623.413 
    4850    291.42095    20.912243    165.38227   -631.06667   -867.31367    45623.413 
    4855    313.56323    27.087456    146.51288   -642.19569    334.20757    45623.413 
    4860    304.77672    20.776749    153.71951   -645.87485    116.39434    45623.413 
    4865    289.56805    22.102436    175.98383   -648.08689   -30.189996    45623.413 
    4870    292.01366    24.403528    154.10143   -652.07344   -1368.6988    45623.413 
    4875    293.97582    25.584182    150.37529   -654.18651   -524.81115    45623.413 
    4880    283.50606    25.282388     165.0856    -653.1355    724.15447    45623.413 
    4885    268.68799    27.116553    159.58682     -648.544   -126.42842    45623.413 
    4890    275.34934    25.967974    164.49744   -643.66606    517.34711    45623.413 
    4895    295.98444    20.656286    165.65193   -637.18445    1028.5843    45623.413 
    4900    297.91436    16.662233    167.31532   -627.79297   -1486.3504    45623.413 
    4905    294.32931    21.703848    174.35725   -621.03296   -1866.0276    45623.413 
    4910    299.86381    26.394434    156.56797    -617.1776    166.87759    45623.413 
    4915    296.50629    23.433366    163.94587   -611.76183    517.29362    45623.413 
    4920    317.52934    18.994407    149.98629   -607.53863    870.39167    45623.413 
    4925    309.46135    17.908415    165.84594   -602.98776    378.42109    45623.413 
    4930    301.81461     17.83109     172.1587   -598.67306   -430.81042    45623.413 
    4935    320.08652    18.456289    175.15148   -597.32137   -272.20801    45623.413 
    4940    326.67181    21.615471    161.06286       -599.5    541.95985    45623.413 
    4945    321.18839    23.831759    160.19862   -603.74579    789.36493    45623.413 
    4950    317.25933    26.100235    171.93027   -609.64896    1459.0345    45623.413 
    4955    304.13469    26.443897    163.06136     -619.423   -1192.3515    45623.413 
    4960    304.80831     24.09687    148.99138   -629.85397     -1999.19    45623.413 
    4965      300.817    17.782991    156.09224   -634.61737   -1025.4642    45623.413 
    4970     293.9838    22.421461    161.93708   -636.28405    220.87671    45623.413 
    4975    294.28052    26.813859    154.65453   -636.10687    337.52886    45623.413 
    4980    297.86144    30.224845    162.26231   -635.91611    49.294536    45623.413 
    4985    287.74902    32.697033    151.27113   -634.28874    1156.5896    45623.413 
    4990    298.52025    31.561256    160.54805   -630.23037    319.32095    45623.413 
    4995    297.25763    23.094277     157.0226   -626.94235   -629.71523    45623.413 
5000        0.96963296673682874971 13.821085220750644496 0.98933143669985779134 208 -976.96674201524331238
    5000    306.02501     20.03557    154.97798    -624.8566     143.1744    45623.413 
    5005    299.33602    19.914695    170.82542   -621.26142    864.51132    45623.413 
    5010    304.73955    18.175493    169.06407   -619.45003   -1121.0314    45623.413 
    5015    305.45907    20.864417    157.43173   -618.36458    153.36211    45623.413 
    5020    301.29103    23.804255     161.4029   -616.41654    600.25061    45623.413 
    5025    328.43761    24.149651    152.37572   -615.20614    1219.4272    45623.413 
    5030     312.4768    26.114584     166.9373   -614.05098   -284.34147    45623.413 
    5035    292.29569    23.412498    171.93005   -618.86648   -943.26904    45623.413 
    5040    275.86423    22.643915    180.08003   -625.47507   -803.31984    45623.413 
    5045    283.38178    27.050122    176.28678   -632.91552   -211.80023    45623.413 
    5050    277.71792    26.197122    162.07169   -641.25624   -846.71382    45623.413 
    5055    278.64564    22.146246    169.11401   -647.91324    463.03645    45623.413 
    5060    298.69086    16.217485    147.27252   -653.63857    -386.2145    45623.413 
    5065    281.65419    14.734115    163.27922   -658.20511    919.91015    45623.413 
    5070    267.15094    14.844064     157.1242   -660.02884    -142.2794    45623.413 
    5075    265.88596    18.029115    158.46986   -659.08353   -802.36351    45623.413 
    5080    290.62378    19.517471    157.11664   -655.88011   -192.34465    45623.413 
    5085    294.83106    23.001267    147.46026   -647.21771   -729.90462    45623.413 
    5090    284.00586    30.756229    170.71089   -636.88509    1549.9635    45623.413 
    5095    273.28262      31.7062    176.98662   -626.67081     306.7254    45623.413 
    5100    290.08846    27.918426    166.52646   -616.95194    123.81551    45623.413 
    5105     304.1047    20.457445    168.77715   -610.83174   -993.15242    45623.413 
    5110    287.40226    21.365079    181.01819   -607.75758    899.15729    45623.413 
    5115    296.72436    25.325082    169.78673   -607.39043    137.80823    45623.413 
    5120    310.72341    28.679818    171.78003   -607.81021    975.55815    45623.413 
    5125    314.68403    33.363074    150.05224   -609.72345   -493.34598    45623.413 
    5130    307.66613    34.203953    164.10411   -611.11152    847.99089    45623.413 
    5135    306.67816    24.537761    165.70115   -612.25929    285.94065    45623.413 
    5140     307.4633    20.251323    156.88428   -616.42309   -606.47538    45623.413 
    5145    317.11009    23.350344    157.88775   -621.17189   -1092.1365    45623.413 
    5150    299.25476    23.059317    166.21544    -626.5447   -145.85733    45623.413 
    5155    283.98311    28.868077    169.99986   -633.45083   -286.35469    45623.413 
    5160    297.46992    27.383288    151.74978   -640.10531   -754.68397    45623.413 
    5165    294.60632    24.002735    158.66915   -646.20397    2201.0218    45623.413 
    5170    272.55108    22.917958    160.35537    -648.5511    922.39386    45623.413 
    5175    284.09381    19.546442    163.33898   -649.52777   -668.26055    45623.413 
    5180    284.31545    23.497667    154.33353   -650.32266   -856.05208    45623.413 
    5185    292.00066    29.344409    155.10027   -646.52782    472.14916    45623.413 
    5190    295.32393     35.78985    166.77256   -639.04009    -183.7146    45623.413 
    5195    286.38983    36.592617    162.15082   -630.68914    115.62669    45623.413 
    5200    299.64711    26.700469    158.78022   -620.91707    1310.9931    45623.413 
    5205    312.46561    19.084743     160.0917   -607.60142    1208.5726    45623.413 
    5210    303.79031     19.72545    178.23693   -598.13255   -570.54057    45623.413 
    5215    315.80557     22.42678    151.56419   -596.80274   -1407.0199    45623.413 
    5220    321.41505    17.427433    159.16687   -596.63639     468.3211    45623.413 
    5225    304.48896    24.627637    160.52582   -594.34126    390.18894    45623.413 
    5230    302.01715    21.946799    182.41026   -594.26985    900.15212    45623.413 
    5235    301.72579    22.052768    170.04268   -596.97139   -1033.6432    45623.413 
    5240    302.36123    22.545787    170.25727   -600.20233    376.42157    45623.413 
    5245     309.4935     21.55834    173.12553   -604.81235   -1614.5847    45623.413 
    5250    310.18639    15.538873    158.78874   -611.02591   -485.19742    45623.413 
    5255    317.70313    13.612091    144.54039   -618.47158   -1052.8929    45623.413 
    5260    297.31821    14.239603    167.75729    -625.3114    463.35705    45623.413 
    5265    302.14756    19.017157    146.55653   -630.72606    1110.0686    45623.413 
    5270     293.2343    25.205623    158.24214   -634.47713    13.243338    45623.413 
    5275    287.30686    29.170501    155.66272   -637.25096     724.2068    45623.413 
    5280    299.88607    27.508992    134.18433   -638.17216    1310.5655    45623.413 
    5285    286.48175    22.918401    155.76239   -633.66807    292.66508    45623.413 
    5290    295.52042     18.58688     163.7023   -626.76437   -380.52492    45623.413 
    5295    291.93596    13.722386    166.30397   -619.44098   -117.49055    45623.413 
    5300    295.91944    15.999422    173.72471   -610.19122   -244.51907    45623.413 
    5305    308.82712    23.698011    178.10713   -603.61772   -880.36935    45623.413 
    5310    304.34504    28.726775     172.6391   -598.53917   -1550.8327    45623.413 
    5315    298.34178    27.835931    179.22652   -596.41825    -987.0983    45623.413 
    5320    305.35028    27.936643    167.03011   -595.96962   -120.81618    45623.413 
    5325    303.91007    23.927238    173.36439   -596.32723     966.0864    45623.413 
    5330    315.93379    22.916262    166.89041   -600.06202    1151.1484    45623.413 
    5335    296.58161    21.778565    165.43577   -601.90852     1030.451    45623.413 
    5340    303.74132    23.895223    176.31987   -603.31327   -281.13526    45623.413 
    5345    313.85209    27.598048     165.4823   -605.77428   -335.38308    45623.413 
    5350    299.55592    29.679352    174.75162   -610.09295    914.13223    45623.413 
    5355    306.12209    27.635965    172.14511   -615.03413    -1920.816    45623.413 
    5360    305.42583    26.080257    171.52103   -622.13579   -265.98869    45623.413 
    5365    297.46821    26.872037    171.11368   -630.58418     374.7476    45623.413 
    5370    309.93943     24.39062      164.804   -638.24284    250.26445    45623.413 
    5375    296.52221    24.955739    155.33575   -645.55491   -230.69784    45623.413 
    5380    293.48751    23.478399    157.54374   -648.98411   -398.70388    45623.413 
    5385    292.33013    28.921598     158.0946    -650.5988    749.74625    45623.413 
    5390    296.32821    34.175649    152.13641   -650.75604   -777.14153    45623.413 
    5395    271.06526    25.312414     175.4462   -648.61482    149.11737    45623.413 
    5400    275.35758      20.1643      174.246   -645.85587    804.16704    45623.413 
    5405    292.70456    17.108761    160.01225   -643.04043    447.30314    45623.413 
    5410    296.25312    20.184932    153.37802   -638.49023   -555.11436    45623.413 
    5415    296.85174    21.189905    164.31884   -632.39061     485.5804    45623.413 
    5420     305.7998    23.540419    160.25144   -626.71361    390.14423    45623.413 
    5425    305.87661    26.710589    167.65204   -622.22974   -1212.8866    45623.413 
    5430    299.71423     27.58105    173.89769   -620.75173    681.90581    45623.413 
    5435    304.54349    23.013969    165.52218   -619.31972   -1000.7727    45623.413 
    5440    304.76193    17.758574    174.30309   -620.42894    52.712125    45623.413 
    5445    302.44815    16.358656    158.11669   -620.89679   -1620.8901    45623.413 
    5450    300.57452     19.15525    175.41966    -621.7122    678.13092    45623.413 
    5455    297.71473    21.225776     173.6761    -624.2598    989.69567    45623.413 
    5460    287.98036    28.474953    167.10342   -625.58689    -621.1955    45623.413 
    5465    282.76983    29.696292    155.93931   -626.91089    1143.3127    45623.413 
    5470     280.9128    24.847409    175.07175   -625.15695    628.37142    45623.413 
    5475    282.43017    21.218371    172.14042   -621.83066   -1486.8724    45623.413 
    5480    290.32629     21.21129    176.41197   -617.22131    -1267.902    45623.413 
    5485    296.37009    21.537752    185.46155   -610.70152    311.49162    45623.413 
    5490    301.72836    23.594553    161.33123   -604.78955    13.402214    45623.413 
    5495    317.59053    19.403194    159.89998   -597.23203   -680.99536    45623.413 
5500        0.964467279615870976 13.835539431141510747 0.98577524893314372179 220 -942.3073130556022079
    5500    308.33634    19.749011    174.18059   -587.53777    98.423676    45623.413 
    5505    304.75572    21.504708    163.20754   -577.71877     406.1122    45623.413 
    5510     304.0459    21.774606    187.31959   -566.64197    1181.0951    45623.413 
    5515    330.42497    20.651746    184.93548   -556.03801   -537.06994    45623.413 
    5520    319.65944      27.6031    188.56846   -550.35575   -458.30135    45623.413 
    5525    318.81717    26.106614    191.08735   -548.86119   -681.56507    45623.413 
    5530    326.90139    19.051588      185.923   -551.78437   -352.70772    45623.413 
    5535    315.05286    17.746339    184.00483   -558.36907   -215.94563    45623.413 
    5540    328.38141    15.833441    158.79695   -564.65248    358.53905    45623.413 
    5545    303.20991    18.112341    182.53661   -567.84427    92.944026    45623.413 
    5550    313.47314    22.501244    175.31496   -571.36699    -65.16531    45623.413 
    5555     310.1362    23.451847    167.02862   -577.15034   -393.22607    45623.413 
    5560    327.85642    23.284865    158.05157   -583.68557   -635.41522    45623.413 
    5565     296.9612    18.848791    172.56892   -590.10011    1867.6067    45623.413 
    5570    307.30127    21.855957     154.9201   -596.49448   -31.594887    45623.413 
    5575    296.04689    22.103779    174.49493   -600.30189     451.3494    45623.413 
    5580    300.92845    23.816231    173.47475   -604.27566    170.46358    45623.413 
    5585    309.66668    22.838565    161.12909   -608.63922   -361.62288    45623.413 
    5590    307.30284    24.083434    168.65723   -614.83002    625.83084    45623.413 
    5595    297.00306    21.186572    163.51743   -621.69646   -538.24749    45623.413 
    5600    299.26722    19.365279    171.10593   -628.74182   -668.10895    45623.413 
    5605    297.09338    28.014771    160.28647    -633.6585    683.82271    45623.413 
    5610    299.33207    31.829351     164.6604   -637.54993   -1024.4732    45623.413 
    5615     284.9188    25.230746    169.34717   -643.26809    642.27599    45623.413 
    5620    291.30873    22.475146    151.91957   -647.29033    1043.8386    45623.413 
    5625    276.53924    20.574938     158.1579   -647.18854    353.91909    45623.413 
    5630      279.936    19.352571    157.68774   -646.18009   -897.64329    45623.413 
    5635    305.40313    16.701102    159.51326   -641.57757   -1519.7442    45623.413 
    5640    298.65652    23.058308     164.3744   -637.45244    -1617.001    45623.413 
    5645    307.20644    29.401435    167.49065   -637.17177    475.19296    45623.413 
    5650    296.04014    24.737694    152.99518    -635.7559    971.50295    45623.413 
    5655    291.60745     22.91029    161.33648     -633.896     977.0411    45623.413 
    5660    293.97189     20.91517    160.68668   -631.36958    1717.9218    45623.413 
    5665    306.83695     22.22694    161.12913   -630.63148    246.21575    45623.413 
    5670    303.56589    25.671675    160.14059   -629.43542   -839.29098    45623.413 
    5675    287.09749    23.052028    171.19725   -627.70007   -174.95078    45623.413 
    5680    288.52469    21.688362    164.26981   -627.84313   -856.10075    45623.413 
    5685     291.5459    21.821683    156.64111   -627.02843   -1150.1839    45623.413 
    5690    319.87248     19.60146    152.05178   -625.13108    310.49882    45623.413 
    5695    294.80488    19.626599    170.17658   -621.59715   -732.40079    45623.413 
    5700     308.6316    19.327876    164.54402   -620.25861    1086.9878    45623.413 
    5705    320.71422    17.913687    152.16775   -620.93702   -177.81722    45623.413 
    5710    302.21115    18.977525    181.16714   -621.24667    882.54233    45623.413 
    5715    306.40915    20.560806    164.86704   -625.25048     436.4074    45623.413 
    5720    300.66502    25.423021     157.0401   -632.33353   -247.83652    45623.413 
    5725    300.82223    25.010168    156.09568   -637.59785   -1499.4924    45623.413 
    5730    280.86433    19.690004    176.51253   -643.20878    369.84389    45623.413 
    5735    289.66576    18.741516     155.2962   -650.99873   -1125.3238    45623.413 
    5740    291.38605    24.250001    156.67042   -656.61886    1886.1314    45623.413 
    5745    275.01143    25.662126    165.36408   -660.19113    1782.0231    45623.413 
    5750     274.1612    25.062128    155.34567   -663.79662   -718.06268    45623.413 
    5755    278.92327    24.924817    145.00575   -664.71673    770.76591    45623.413 
    5760    289.73237    24.144705    145.46226     -661.637   -72.307174    45623.413 
    5765    285.71611    19.184958    166.41956   -651.74741   -1983.5442    45623.413 
    5770    291.18086    22.088394    171.92131   -635.36927    1044.2823    45623.413 
    5775    307.63602    25.080776    169.31837   -623.46957    277.83826    45623.413 
    5780    315.94477    21.259375    153.42924   -616.20956    417.34686    45623.413 
    5785    301.84381    17.438541    163.81147   -608.33404   -888.87229    45623.413 
    5790    313.58675    18.691637     167.1314   -606.16336   -1480.6771    45623.413 
    5795    314.39498     20.31318    165.05129   -605.28054   -414.26677    45623.413 
    5800    291.67465    20.518331    190.22389   -603.54895     370.3235    45623.413 
    5805    301.94515    22.833805    162.09728   -604.87503   -1230.4404    45623.413 
    5810    308.68209     23.77576    181.26714   -606.19628    1549.6412    45623.413 
    5815    316.00008    23.872453    158.02277   -610.50173     850.1558    45623.413 
    5820    299.57625    20.534531    178.22869   -616.21617    148.27194    45623.413 
    5825    301.92346    19.930114    161.27527   -623.89816   -989.30375    45623.413 
    5830    288.07714    22.747301    164.57046   -628.91991    513.86524    45623.413 
    5835    288.21719    24.908467    163.66174   -633.56588   -1347.1289    45623.413 
    5840    294.82639    21.968245    163.62664   -639.18505    1289.1148    45623.413 
    5845    308.46102    27.454288    143.22508   -643.54599    138.57893    45623.413 
    5850    291.88553    26.343434    153.63214   -647.63841   -1579.7249    45623.413 
    5855    283.42069     29.40801    159.78121   -648.74787    54.259947    45623.413 
    5860    293.55505    26.672089    155.77407   -648.57136    551.38388    45623.413 
    5865    287.96336    22.163373    165.46921   -647.45603   -854.90483    45623.413 
    5870    291.48804    24.281495    150.98614    -642.1909   -813.27736    45623.413 
    5875    302.03431    28.402428    163.30906   -632.57298    60.175548    45623.413 
    5880     319.9622    29.483715    160.46891   -618.52995    332.62186    45623.413 
    5885    318.78186    28.734117    165.85999   -606.94423    100.32226    45623.413 
    5890    313.07978    25.188841    170.68766   -599.81053    52.322488    45623.413 
    5895    315.83151    25.951223    162.13179   -596.24044    270.50322    45623.413 
    5900    318.28283    28.447052    167.91076   -595.47344    223.53286    45623.413 
    5905    307.10882     30.29303    180.28052    -595.7534   -739.96858    45623.413 
    5910    319.74795    28.088818    155.34742   -602.28387    1178.2529    45623.413 
    5915    313.22423    27.317602    150.49854   -606.20711   -534.92611    45623.413 
    5920    286.70628    23.496159    170.10718   -610.20381   -985.24842    45623.413 
    5925    290.99406    18.665983    155.56504   -614.15014    1776.7906    45623.413 
    5930    296.19062     20.27093    155.69961   -616.50404    391.99317    45623.413 
    5935    300.58502    21.565974    165.98956   -615.34776    154.92489    45623.413 
    5940    323.65163    21.174792    159.95241   -615.02451    935.62554    45623.413 
    5945    303.20489    19.539811    165.90608   -618.84283   -239.70989    45623.413 
    5950    295.33136    18.413655    171.96866   -623.79332    299.13567    45623.413 
    5955    278.53054    21.622356    175.17223   -628.59192   -1318.0863    45623.413 
    5960    287.62352    21.514506    156.91727   -636.65708   -1162.5497    45623.413 
    5965    299.67398    23.097519    159.79686   -645.48757    581.08486    45623.413 
    5970    281.54035    19.386469    154.22218   -654.95677   -891.72646    45623.413 
    5975    287.32902    20.962274    153.83857   -664.80136   -498.22078    45623.413 
    5980    284.58404    20.572635    153.17638   -670.71471    643.10816    45623.413 
    5985     283.4817    17.992822    156.29621   -674.39797   -17.156798    45623.413 
    5990    289.55782    19.785547     150.9639   -675.08955    273.42379    45623.413 
    5995     301.3461    26.345186    144.26921   -674.29385    741.21084    45623.413 
6000        0.97199657869420208467 13.803485451901030601 0.99217638691322906919 214 -990.20555904250579715
    6000    276.95499    32.305901    169.26364   -671.54318   -480.89226    45623.413 
    6005    278.35061    32.260807    152.85999    -666.5125    947.56673    45623.413 
    6010    281.78016    25.683989    163.17628   -660.08199   -1204.6534    45623.413 
    6015     273.9125     21.80006     160.7944   -650.55011   -687.60392    45623.413 
    6020    289.64153    23.087893    171.26627   -639.39919    1416.6515    45623.413 
    6025    292.10476    29.093493    158.40267     -632.837    -84.73278    45623.413 
    6030    304.31291    29.380593    155.34088   -629.10476   -234.43697    45623.413 
    6035    297.55299    27.461133    165.78806   -626.12008    1174.8164    45623.413 
    6040    310.50006     27.48831    157.55578   -625.19019    119.33759    45623.413 
    6045    316.46578    25.223908    165.70685   -623.73088   -561.79829    45623.413 
    6050    318.73006    26.545005    159.26125   -624.90513   -142.32238    45623.413 
    6055    284.18883     32.45074    177.60163   -628.11023    697.84412    45623.413 
    6060    293.70847    30.570735    162.56431   -630.74601     671.8811    45623.413 
    6065       295.04    24.983754    165.96449   -633.15775    509.91109    45623.413 
    6070    294.60799    21.368423    165.58637    -635.3122   -333.53279    45623.413 
    6075    298.72101    18.334878    169.47264   -636.68922    -618.6287    45623.413 
    6080    306.99945    15.591653    167.66536   -639.74677   -218.05213    45623.413 
    6085    294.79041    18.041471    158.82735   -645.83272   -596.62535    45623.413 
    6090    274.23439    20.895177    164.24117   -649.44689    543.09096    45623.413 
    6095    274.08642     18.98291    160.22228   -651.86164    319.76524    45623.413 
    6100    279.80913    20.498577    154.08877   -651.16388   -180.16517    45623.413 
    6105    298.49327    24.559172    157.02568   -645.60409   -61.914994    45623.413 
    6110    307.82287    22.849152    149.52932   -636.96347    -395.9358    45623.413 
    6115    288.31876    19.258084    183.41155   -624.59067   -983.38149    45623.413 
    6120     303.1729    20.519575    157.47556   -614.35674     557.4526    45623.413 
    6125    304.41742    18.898214    172.68353   -607.43211    652.23231    45623.413 
    6130    288.24088     21.92426    173.06365   -601.97664   -239.82496    45623.413 
    6135    303.10765    22.225037    174.37658   -597.69371   -1425.9502    45623.413 
    6140    303.50398    21.374183    178.78792   -594.48446   -45.238362    45623.413 
    6145    305.31916     16.97697    183.17561   -595.11656    680.55697    45623.413 
    6150    302.08737    15.768134    184.91449   -597.75631     1135.003    45623.413 
    6155    304.86464    19.161784    161.09998   -602.42948    216.49065    45623.413 
    6160     288.3165    19.398747    164.50938   -605.95365   -1496.9997    45623.413 
    6165    305.20229    18.745645    173.49562   -608.31232   -2067.9936    45623.413 
    6170    328.82465    18.687014    156.56878   -612.63018    -229.2589    45623.413 
    6175     326.8272    17.295618    155.71349    -619.3306    265.02121    45623.413 
    6180    308.91124    18.663258    154.86486   -627.82744    1087.5596    45623.413 
    6185    293.81092    22.593155    154.97382   -635.11617    312.35528    45623.413 
    6190    297.72675    24.164181    151.69442   -639.62827     542.9488    45623.413 
    6195    291.67924    28.515987    166.17221   -641.58658   -1296.2564    45623.413 
    6200    298.75631    30.283821    157.93135   -643.46882    724.69644    45623.413 
    6205    299.12677    29.048917    151.62313   -643.98552    713.84836    45623.413 
    6210    292.59188    27.025801    165.72206   -642.47852    451.62035    45623.413 
    6215    294.53948    21.789096    169.19037   -641.18607   -292.58403    45623.413 
    6220    304.21225    21.369785     171.3973    -640.9269    595.96143    45623.413 
    6225    292.07097    22.285371     155.7291    -640.0523    -359.8395    45623.413 
    6230    297.89265    24.753158    165.39256   -638.24112   -1105.0256    45623.413 
    6235    313.92979    30.020997    168.77854   -637.13328   -872.81567    45623.413 
    6240    301.49715    23.644494    162.98443   -639.00016    1514.9533    45623.413 
    6245    298.37476    21.385074    156.35766   -641.94394    137.52986    45623.413 
    6250    275.96972    24.572814    168.05413   -641.02292    418.76648    45623.413 
    6255    295.69588    23.384748    160.58656   -639.41629    383.47907    45623.413 
    6260    291.44669    22.601079    169.53837   -637.84511   -700.15904    45623.413 
    6265    296.26351    22.350042    162.84657   -635.02374   -679.67077    45623.413 
    6270    313.00823    17.079644    149.68625    -630.7696   -1086.6675    45623.413 
    6275    292.27266    18.216388    178.00622   -623.80773    21.259068    45623.413 
    6280    284.49821    20.214593    181.82465   -617.02179    1132.4799    45623.413 
    6285    306.86774    22.113163    160.55834   -609.86855   -875.27211    45623.413 
    6290    304.15388    19.204586    176.37441   -601.74223   -165.69431    45623.413 
    6295    321.67893    23.877885    165.76445   -592.54276    438.21695    45623.413 
    6300    320.84237    25.639972    177.01621   -584.03936   -690.25131    45623.413 
    6305    309.38012    23.215354     174.3499   -580.90496    -973.4421    45623.413 
    6310    326.95919    18.241577     164.6845   -580.91339    1732.4794    45623.413 
    6315    318.68198    19.692338    172.97294   -581.43742    1064.1452    45623.413 
    6320    313.82675    20.436034    167.67069   -586.38439    1272.6674    45623.413 
    6325    299.02192    23.133081    170.14489   -594.74664   -1932.0552    45623.413 
    6330    305.64061    24.506209     167.1446   -605.64829    510.26698    45623.413 
    6335    306.79028    24.280656    169.03745   -618.67263    1480.7556    45623.413 
    6340    299.70378    26.047755    162.54172   -630.71104   -1311.7201    45623.413 
    6345    295.63089    25.990177    155.02311   -638.16624   -1117.5014    45623.413 
    6350    279.43783    23.917759    169.95579   -639.42671    635.97635    45623.413 
    6355    272.61976    21.759473    158.57547   -638.26438   -1564.2041    45623.413 
    6360    297.59724     21.47928    160.29742    -635.8592   -454.72756    45623.413 
    6365    294.46462    22.966343    169.07071   -631.48151    110.75019    45623.413 
    6370    294.01894    29.853084    174.88989   -629.88329    1805.1277    45623.413 
    6375    292.72446    39.620702    151.57462    -628.1218    661.52158    45623.413 
    6380    285.03489    40.696613    166.88014   -623.41672   -131.33827    45623.413 
    6385    316.89168    35.774055     165.4743   -618.83774   -680.12039    45623.413 
    6390    308.77554    25.127664    160.91899    -613.8064    538.12035    45623.413 
    6395     300.6833     20.27668    165.38413   -610.02071   -1653.7945    45623.413 
    6400    305.69503    22.225631    163.82397   -606.48727   -164.94667    45623.413 
    6405     306.0115    26.558409     167.0247   -602.51786    823.88102    45623.413 
    6410    305.24848    26.854634    161.62541   -599.92268    320.07956    45623.413 
    6415    319.58705    26.885084    167.02239   -599.12563   -701.81449    45623.413 
    6420    311.18591    24.390289    170.10472   -598.66229   -5.6854347    45623.413 
    6425    301.13615    28.826052    178.35424   -602.21804    197.41427    45623.413 
    6430    301.84533    26.948603    158.53344   -606.75088   -397.03182    45623.413 
    6435    307.79155    22.248174    163.84731   -612.97758   -652.67734    45623.413 
    6440    314.43998    23.517676    151.49014   -623.13802   -616.73678    45623.413 
    6445    290.44261     25.28605    167.55073   -634.33585    1431.5067    45623.413 
    6450    287.32916    24.037163    148.74036   -643.08342    1753.3386    45623.413 
    6455    276.81893    25.682934    170.17293   -646.52287    -15.45684    45623.413 
    6460    285.36752     25.89077    164.55564   -646.78132   -59.728318    45623.413 
    6465    293.56187     28.02345    153.74946   -647.74855   -307.60144    45623.413 
    6470    298.56881    24.182062    149.47833   -647.45973   -669.38045    45623.413 
    6475    299.63507    23.806363    165.18612   -644.54569   -648.87596    45623.413 
    6480    291.69221    19.249676    169.92652   -642.57062    614.63516    45623.413 
    6485    297.64202    25.816332    150.92605   -642.91599   -79.413394    45623.413 
    6490    277.39033    26.443447    155.35719   -641.30024   -517.43687    45623.413 
    6495    306.55624    28.733673    154.13453   -636.84941    516.98505    45623.413 
6500        0.97198412068354600457 13.836581583584189659 0.99431009957325755533 213 -996.17657625485310291
    6500    317.47801    27.400418    167.33636    -630.8887     745.4034    45623.413 
    6505    308.11415    28.267772    163.78208     -627.733   -413.99553    45623.413 
    6510    318.79637    24.843759    151.11699   -626.42019   -887.25432    43590.551 
    6515    304.87949     22.10856    165.11532   -623.91888    968.17893    43590.551 
    6520    306.56468    20.799681     162.0859   -623.81202    945.75862    43590.551 
    6525    300.99837    23.662644    150.13053   -622.76345   -1257.7109    43590.551 
    6530    309.38679    26.721177    158.89839   -620.27708    1054.6775    43590.551 
    6535    313.71781    23.493645    149.81779   -621.07533    5.8355204    43590.551 
    6540    299.57643    23.562249    148.76341    -622.9112   -910.34533    43590.551 
    6545    299.07424    18.331262    150.50033   -621.84993    83.054718    43590.551 
    6550    296.30906    16.070109     165.3831   -620.81276    157.33937    43590.551 
    6555     304.8794    17.660427    152.97667   -620.93749    -1343.855    43590.551 
    6560    310.40386    23.955272    147.41604   -619.90204   -522.52258    43590.551 
    6565    301.14088    23.530843     156.1397    -617.7446    548.14329    43590.551 
    6570    307.58161    22.760316    156.92217   -616.90319   -41.903789    43590.551 
    6575     309.3625    21.716704    148.11684   -618.54697    852.35176    43590.551 
    6580    317.90447    21.559825    138.20737   -621.37159     863.7004    43590.551 
    6585     294.1881    20.161509     169.0269   -622.19479   -164.42378    43590.551 
    6590    304.44076    22.159047    150.94071   -625.27823    135.54566    43590.551 
    6595    297.35509    20.298735    155.36143   -630.77491   -2053.9684    43590.551 
    6600    295.99058     21.23805    162.29803   -633.76637    3.7455943    43590.551 
    6605    292.70839    21.230658    149.02179    -637.4366    459.37184    43590.551 
    6610    306.79632    22.461571    146.47544   -643.14315   -437.52201    43590.551 
    6615    301.38597    21.608337    134.08716   -647.70125    1599.3491    43590.551 
    6620    281.02237     19.19453    152.52385   -651.59137     1581.892    43590.551 
    6625    292.78862    18.248409    149.53993   -655.15099   -1151.1656    43590.551 
    6630    281.46597    19.964862    154.22491   -658.85897    215.14372    43590.551 
    6635    264.69555    23.965148    150.67192   -660.91936   -1909.4763    43590.551 
    6640    285.43416    26.143722    152.71085   -658.98281   -480.87707    43590.551 
    6645     288.3735    22.558661    164.34238    -652.8553    1362.1916    43590.551 
    6650    294.50223    21.542168    152.02615   -644.80756    308.67784    43590.551 
    6655    307.76764    17.533154    142.87933   -635.53782    -1387.408    43590.551 
    6660    303.82941    21.852233    148.39737    -624.2676    234.57552    43590.551 
    6665    304.02327    20.566558    162.84653   -615.82819   -2455.2832    43590.551 
    6670     304.9208    18.368268    157.23906   -610.78805    178.79408    43590.551 
    6675    316.52835    20.222908    153.79628   -608.13781    1049.7204    43590.551 
    6680    309.45037    22.206016    159.72753   -606.19056    -95.40694    43590.551 
    6685    291.58558    21.651967    175.94255   -605.47831    2535.1815    43590.551 
    6690    303.69428    19.889153    148.79308    -608.3816    587.94725    43590.551 
    6695    291.85655    20.146099    162.40218   -609.04701   -701.45423    43590.551 
    6700    297.61137    21.058278    169.04009   -607.06332    723.03911    43590.551 
    6705    296.86242    23.567352    153.74776   -607.16089   -1840.7363    43590.551 
    6710    304.31089    18.407919    151.42309   -607.93953    350.75228    43590.551 
    6715    300.20219    17.154431    172.37063   -607.00392    1194.4669    43590.551 
    6720    307.99858    20.395483    162.45233    -609.4296   -57.680971    43590.551 
    6725    287.82825    21.185625    155.32751   -613.81334   -597.71245    43590.551 
    6730    294.61709    19.306847      165.952   -618.08971    441.27134    43590.551 
    6735    305.61421    17.047185    141.53257   -626.87903    1.9141579    43590.551 
    6740    300.46851    17.404436    154.74927   -635.87017    350.33105    43590.551 
    6745    294.84121    12.933882    142.89613   -643.41374   -1280.2537    43590.551 
    6750    289.13643    17.026851     153.2317   -649.92667   -344.63972    43590.551 
    6755     279.8114    18.178353    166.57796   -654.95361    48.597855    43590.551 
    6760    288.99161    20.048067    144.84668   -659.71781   -1370.5115    43590.551 
    6765     295.0174    26.841159    146.53289   -662.84159    391.56428    43590.551 
    6770    296.15655     31.14359    148.54151   -664.30211    1794.5609    43590.551 
    6775    276.67777    32.302953    153.80908   -663.89798   -159.28139    43590.551 
    6780    283.01076    34.735274    145.78088   -663.03998     477.0973    43590.551 
    6785    287.93299     34.11842    147.86847   -659.05666    1205.8952    43590.551 
    6790    290.83876    26.452659    159.04933   -650.12805   -1167.4035    43590.551 
    6795    300.66631    22.404997    151.61321   -640.51077   -717.40725    43590.551 
    6800    288.83092     23.77662    146.42842    -630.2069   -313.42559    43590.551 
    6805    306.85617    23.956242     155.3766    -621.2801    652.19222    43590.551 
    6810    309.99181    22.365744    139.03585   -617.53088    1815.2797    43590.551 
    6815    312.10962    21.172313    156.16279   -614.40034    240.26978    43590.551 
    6820    306.72653    22.288729    158.19979   -611.65785   -1574.7607    43590.551 
    6825    299.30117     21.77648    165.22392   -612.32373   -1226.6281    43590.551 
    6830     284.2283    25.027614    158.06401   -613.12167   -497.01017    43590.551 
    6835    300.81869     22.85087    150.96612   -612.54259    -53.83033    43590.551 
    6840    301.32518    22.239449    169.02891     -610.435    2098.5714    43590.551 
    6845    318.69195    25.467211    143.74295   -609.17866   -4.1301282    43590.551 
    6850    306.44306    24.601836    162.73021   -609.48076    -49.91038    43590.551 
    6855    304.35462    22.441271    149.88339   -610.31994   -1096.0662    43590.551 
    6860    296.45623    21.582645    163.66797   -612.24456   -1167.5049    43590.551 
    6865    301.17752    23.422382    150.34222   -614.71537   -621.60076    43590.551 
    6870     287.0343    21.016923    150.92586   -615.86624    1769.9775    43590.551 
    6875    291.79617    18.921505    162.52625   -618.49288    606.85016    43590.551 
    6880    305.64087    23.491329    146.94127   -620.98596   -119.00936    43590.551 
    6885     292.4608    24.100795    148.25138    -621.1415   -435.96039    43590.551 
    6890      286.487    23.798283    161.11603   -623.48654    -1415.253    43590.551 
    6895    305.59427    22.231001    140.72676   -627.28087   -594.62993    43590.551 
    6900    295.90007    23.212575    147.47484   -627.27533    45.858355    43590.551 
    6905    294.92931    23.549518    162.68133   -627.74091    88.936307    43590.551 
    6910     288.3854    28.503059    150.17659   -628.30286   -104.86663    43590.551 
    6915    279.46705    21.538255    153.21737   -625.59344    18.962888    43590.551 
    6920    295.17983    15.774038    151.35777    -623.7305   -769.85867    43590.551 
    6925    299.07254    18.455701    140.37452   -618.15716    625.54814    43590.551 
    6930    312.66874    20.321797    149.94846   -608.63472    1156.9088    43590.551 
    6935     298.5579    22.255401    163.59311   -601.48358    451.57149    43590.551 
    6940    308.05836    33.002198    161.76698   -595.66949    867.54538    43590.551 
    6945    303.95407    39.749248    159.76738   -590.51031   -888.71834    43590.551 
    6950     303.5142     31.38148    174.57694   -587.75126    255.65265    43590.551 
    6955    318.47819    26.670458    158.28676   -587.61943    938.59807    43590.551 
    6960    305.84243    30.566418    152.18668    -590.3418    658.48636    43590.551 
    6965    317.28206     26.91487    143.48161   -593.27499   -28.505984    43590.551 
    6970    302.36197     15.81671    161.78506    -597.5786   -576.82501    43590.551 
    6975    295.49547    18.526215    152.49898   -605.01304   -1125.0552    43590.551 
    6980    296.67012    16.978807    150.78707    -614.0327     535.4135    43590.551 
    6985    316.16963    17.724216    138.36725   -623.86399   -472.21643    43590.551 
    6990    292.89206    19.290025    157.27011   -634.16992    -121.4383    43590.551 
    6995    292.31175    22.975343    151.32583   -644.31996     469.1224    43590.551 
7000        0.95877562817181927191 13.867972755130681506 0.98221906116642965223 208 -994.12773573239587677
    7000    298.78188    23.099031    141.34109    -650.3515   -224.54138    43590.551 
    7005    306.92747    22.638392    140.70855   -653.48219    148.86471    43590.551 
    7010     291.7283    27.028162    148.04314   -653.74071   -868.03852    43590.551 
    7015    284.85649    25.123486    145.40079    -654.7724   -132.63877    43590.551 
    7020    293.69706    20.831701    137.36305   -654.07483    654.34736    43590.551 
    7025    297.12019    19.081501    143.12887   -651.25388     -99.2387    43590.551 
    7030    297.29955    21.951839     143.3523   -647.09063    -1622.942    43590.551 
    7035    291.58116    25.591318    151.39186   -641.88242   -428.17705    43590.551 
    7040    303.45822    31.626501    141.16012   -637.23411    351.19811    43590.551 
    7045    299.40201    26.167608    160.05673   -631.99863   -433.88445    43590.551 
    7050    311.59408    19.112018    141.68488   -627.97721    1260.1427    43590.551 
    7055    287.73544    19.913808    152.97808   -625.24867   -769.52131    43590.551 
    7060    294.66992    21.153624    147.40957   -620.69948    670.39855    43590.551 
    7065    299.15399    21.416474    162.41382    -614.6108    1169.1559    43590.551 
    7070    303.60777    25.830951      152.679   -608.38189   -75.374654    43590.551 
    7075    309.08935    25.714936    160.04903   -601.32844    676.29677    43590.551 
    7080    313.02122     20.02312    160.81906   -598.26298   -970.89965    43590.551 
    7085    320.97048    18.061308    158.72848   -597.88345   -1623.2157    43590.551 
    7090    312.23072     24.54162    160.68478    -598.6329     752.6014    43590.551 
    7095    306.51875    24.278455    160.13619   -602.57652    616.77021    43590.551 
    7100    307.42697    21.545499    161.95606   -605.23326    144.24811    43590.551 
    7105    306.20559    23.160193    166.43791   -607.04823   -950.42479    43590.551 
    7110    295.88028    29.965395      168.605   -609.90099   -895.74678    43590.551 
    7115    299.90462    30.087876      164.114   -612.33115    272.52784    43590.551 
    7120    311.07922    26.130182    157.06101   -612.93673    1495.0785    43590.551 
    7125    306.98337    21.294917    154.73986   -615.20597     412.9259    43590.551 
    7130    296.91286    19.171457    162.04699   -618.40774    567.83357    43590.551 
    7135    305.68915    23.329548    147.00595    -620.8937    34.446267    43590.551 
    7140    298.63085    24.677083    155.45343   -623.12974   -2588.6232    43590.551 
    7145    295.99473    23.035624    160.86038   -626.07113   -530.20484    43590.551 
    7150    302.38599    26.660161    149.10812   -630.13407    815.45361    43590.551 
    7155    300.41737    25.573387    153.46283   -634.27935   -104.20794    43590.551 
    7160     288.9484     28.13943    151.46011   -637.19047    894.07072    43590.551 
    7165    296.59712    26.032611    156.43419   -641.10695     1335.944    43590.551 
    7170    293.26495     22.83231    142.40922   -645.45554    137.18767     44235.76 
    7175    287.80175    17.487018    140.96803   -646.50717   -1071.3256     44235.76 
    7180    283.90712    13.870579    153.62281   -645.46449   -930.13559     44235.76 
    7185     294.9463    16.957321    148.66317   -644.40978   -5.9141473     44235.76 
    7190    302.39288    17.195101    142.36611   -639.89948   -857.28715     44235.76 
    7195    293.61897    20.688288    147.94184   -631.16377    526.42539     44235.76 
    7200    286.64948    28.953166    170.36051   -619.84055    766.62792     44235.76 
    7205    299.30155      30.1229    157.76852   -608.82528    151.45007     44235.76 
    7210    308.92238    21.039726    163.75637   -600.01023   -2281.7703     44235.76 
    7215    306.47324    20.230161    167.99796   -594.49925    2090.8341     44235.76 
    7220     298.2353    24.439624    161.59055   -592.34395    1224.4407     44235.76 
    7225    320.53185    25.775727    141.50393   -591.48578   -809.79406     44235.76 
    7230    307.51215     23.21835    159.49319   -591.78985    -504.2905     44235.76 
    7235    298.28531    26.206981    162.28586   -593.27541   -67.624719     44235.76 
    7240    311.22534    31.743217    150.00705   -595.57666   -793.83074     44235.76 
    7245    292.31899    28.428978    168.66946   -598.05759   -494.74107     44235.76 
    7250    303.50331    26.071602    159.18179   -601.74557    1624.2893     44235.76 
    7255    306.42598    24.341431    161.20309     -605.814    2064.2867     44235.76 
    7260    286.90616    20.524998    162.06304   -610.35517   -1659.9701     44235.76 
    7265    299.95344    23.446336    143.50107   -616.22356   -1328.4351     44235.76 
    7270    294.06532    27.772727    159.03945   -621.68035    739.99404     44235.76 
    7275    297.86463    26.563024     156.1763   -628.81107    1245.5436     44235.76 
    7280     287.8469    31.403602    148.05557   -637.35831   -962.29141     44235.76 
    7285    301.39536    26.634177     156.3909   -648.66928    1577.3276     44235.76 
    7290    296.63568    29.589646    140.59241    -658.4597    363.75569     44235.76 
    7295    262.28909    24.790005    154.70233    -663.7987    -1927.034     44235.76 
    7300    276.78179    22.339929    149.25674   -666.92333   -254.71207     44235.76 
    7305    274.74055     22.12304    152.82469   -666.65363    235.33686     44235.76 
    7310    270.44024    25.379862    150.84612   -663.33768    20.926503     44235.76 
    7315    285.24126     26.36959    154.01353   -658.80524    695.26734     44235.76 
    7320    284.26759     35.66898    142.07982    -654.7848   -35.771406     44235.76 
    7325    283.98057    35.683413    142.55581   -650.73468    1704.8465     44235.76 
    7330    296.14834    28.176322    144.41659   -645.53294    722.36602     44235.76 
    7335    295.55137    24.045971    146.09081   -639.83637   -343.86777     44235.76 
    7340    288.76253    21.380065    156.30347   -634.11141   -1089.1032     44235.76 
    7345    308.18458    19.228494    159.57591   -628.64082   -25.368574     44235.76 
    7350    312.93662    21.839039     148.9735   -626.75135   -1107.3583     44235.76 
    7355    302.06423     22.79137    153.94125   -626.12778       729.38     44235.76 
    7360    275.88384    24.456183    160.29572   -624.64039   -588.29894     44235.76 
    7365    293.77013    24.748922    149.65989   -624.48446   -1140.5194     44235.76 
    7370    304.29538    20.681712    153.08901   -622.13296    852.91483     44235.76 
    7375    302.19097    23.591716    159.82837   -617.85712    274.30117     44235.76 
    7380    300.85842    20.256917     154.4795    -614.5402    -1322.689     44235.76 
    7385    308.39646    19.357162    147.13046   -612.88763   -1069.8444     44235.76 
    7390    307.43001    17.907264    146.44024   -610.31252    943.98956     44235.76 
    7395    301.36561    23.798805    156.80463   -603.94585    1003.5118     44235.76 
    7400    329.91711    28.260033    165.13792     -597.532    514.65661     44235.76 
    7405    335.73604    34.171236    158.51095   -593.42119    431.96432     44235.76 
    7410    320.00717    34.855208    154.96526    -588.1307    -999.1227     44235.76 
    7415    316.23553    24.033929    163.08828    -587.1972   -218.15675     44235.76 
    7420     306.4291    19.269305    162.55194   -589.81474   -539.54566     44235.76 
    7425    311.08162    18.694356    158.54429   -593.61436   -198.81492     44235.76 
    7430    295.28863    18.316875     159.0004   -600.24721    86.952459     44235.76 
    7435      310.812    19.760418    148.76786   -609.43701    525.53508     44235.76 
    7440    301.52279    25.321219    157.02937   -617.42463    237.97416     44235.76 
    7445    283.23703    27.323421    157.70175   -625.18504    -1599.468     44235.76 
    7450    279.42926    28.274738    141.48737   -630.39584    661.68082     44235.76 
    7455    275.83552    24.318164    154.87384   -632.01114   -413.48506     44235.76 
    7460    293.89208    18.126535    148.36036   -631.70611    490.17415     44235.76 
    7465    290.07881    19.758807    162.31656   -627.55242   -246.89596     44235.76 
    7470     289.7024    24.712719    150.48501   -623.81244    121.04458     44235.76 
    7475     292.9119     26.46296     159.2215   -619.12861    108.30292     44235.76 
    7480    289.85972    23.130427     170.8761   -611.33668   -164.94054     44235.76 
    7485    309.63205    20.342496    160.94154   -605.95238   -1985.6323     44235.76 
    7490    301.85949    18.211612    155.71246   -601.29801   -204.93648    46614.471 
    7495     297.1832    22.704321    164.00679   -596.37813    231.43189    46614.471 
7500        0.96679009274843163979 13.902004005530955055 0.98862019914651499963 203 -931.53354962406774575
    7500    294.08469    27.349129    160.73768   -593.16186    267.45212    46614.471 
    7505     298.9773    29.423101    145.70102    -590.1029   -1057.3995    46614.471 
    7510    314.73317    27.646169    169.72079   -584.58766    703.10953    46614.471 
    7515    322.64216    26.942552    161.56909   -580.90558   -316.46834    46614.471 
    7520    317.60654    23.634845    169.61746   -581.79551    577.83011    46614.471 
    7525     301.0254    26.749476    165.43148   -586.98542    236.21296    46614.471 
    7530    283.18633    29.880222    168.76033   -598.86811    1646.4344    46614.471 
    7535    286.34892    30.140584    162.70572   -614.54416   -141.08048    46614.471 
    7540    291.27615    32.104655    158.12014    -627.4411    411.35162    46614.471 
    7545    301.06848    36.310248    133.74369   -636.03382    219.86427    46614.471 
    7550    298.67736     32.65558     149.3176   -640.92105   -893.71666    46614.471 
    7555    286.33101    30.610018    149.89661   -644.53167    -553.5038    46614.471 
    7560    286.98747    25.621889    148.27916   -649.00614    609.52273    46614.471 
    7565    282.74236    27.632155    144.46472   -651.53433    778.12186    46614.471 
    7570    267.87278    32.024213    151.70883   -650.17137    596.81934    46614.471 
    7575    290.65978     34.14497    145.39817   -645.92638     -1478.47    46614.471 
    7580    295.03423    28.265193    156.33106    -639.4879   -678.94422    46614.471 
    7585    306.37604    22.668306    151.57897   -632.95802    813.04187    46614.471 
    7590    309.60111    20.484587    155.61826   -626.37536   -879.69512    46614.471 
    7595    313.67367    21.091615    144.36392   -622.23345   -991.42451    46614.471 
    7600    298.98403    22.713019    144.01283   -618.56974    91.682773    46614.471 
    7605    279.27234    23.911322    167.38408    -612.7565   -149.75153    46614.471 
    7610    302.36557    25.863727    154.63614   -609.04056    1027.3808    46614.471 
    7615    310.61427    28.139579    141.98095    -606.7532    850.80919    46614.471 
    7620    297.54781    28.404532    161.49879   -600.62152   -230.75028    46614.471 
    7625    295.48555    23.020275    158.01306   -594.34693    81.994272    46614.471 
    7630    309.21363    19.970996    161.87214   -588.60629   -697.48702    46614.471 
    7635    314.47804    18.355939    154.46136    -582.6561   -137.98751    46614.471 
    7640    308.70952    21.493628    166.04107   -578.12068    344.31866    46614.471 
    7645    323.93574    23.699586     156.9127   -575.61714    1316.4384    46614.471 
    7650    312.75302    28.230371    156.86635   -574.50199   -461.18995    46614.471 
    7655    322.41249    19.879416     161.2686   -574.69429   -2045.7905    46614.471 
    7660    317.71721     17.06642    164.48594   -580.79153   -1627.4738    46614.471 
    7665    308.12078    24.212971     151.7108   -594.73601   -540.27179    46614.471 
    7670    301.76807    21.798902    143.67706   -609.58229    611.75425    46614.471 
    7675    279.76361    21.496214    154.57258   -619.07235    1874.2364    46614.471 
    7680    301.71605    19.806024    140.23647   -623.62347    1036.5914    46614.471 
    7685    293.20971    13.852052    161.69663   -625.89218    120.97346    46614.471 
    7690    306.90298     12.37886    138.69812   -629.48408   -1480.9498    46614.471 
    7695    296.25108    20.493685    145.78883   -631.76073   -1794.9505    46614.471 
    7700    292.18455    23.695271    142.67058   -633.33884    568.93403    46614.471 
    7705    298.00956    25.204855    147.84654    -633.8826    562.38959    46614.471 
    7710    287.96395    23.445848    154.04064   -632.74422     941.9758    46614.471 
    7715    310.00226    17.318162    146.19464   -632.94115    1433.0543    46614.471 
    7720    300.67164    19.052004    145.71669    -630.8103   -364.86249    46614.471 
    7725    299.52832    21.670884    151.86559   -628.41116   -254.90899    46614.471 
    7730    275.95786    26.365386    160.49624   -626.00534   -1315.0961    46614.471 
    7735    307.61523    29.499505    143.92946   -622.40359    440.15469    46614.471 
    7740    313.81928    22.451864    153.84175   -616.14091    225.51746    46614.471 
    7745    319.93779    20.598715     151.7093   -609.18174    460.55054    46614.471 
    7750    310.91696    26.512735     156.2707   -604.20025    1416.1878    46614.471 
    7755    315.99326     27.68286    148.20763   -601.43036    718.92028    46614.471 
    7760    305.10827    25.249476    160.21015   -599.24359   -1451.5032    46614.471 
    7765    318.44088    21.583341    154.29386    -598.3403    -1428.951    46614.471 
    7770    317.08755    19.049485    164.78632   -598.48895    19.424823    46614.471 
    7775    298.16791    19.496229    169.47864    -602.4621    433.04246    46614.471 
    7780    298.54672    19.892117    152.40973   -611.35735   -1532.0636    46614.471 
    7785    298.00854    22.421244    162.43056   -621.62206    1232.5293    46614.471 
    7790    295.94806    29.095274    141.14809   -633.08865   -217.56568    46614.471 
    7795     282.8775    27.784576    144.98644   -640.81062   -557.73492    46614.471 
    7800    283.76312    23.335949    144.71191   -643.46051   -108.66885    46614.471 
    7805    279.02065    20.008461    153.65731   -644.31778    -750.4184    46614.471 
    7810    288.81719    17.957129    143.04423   -644.61255    778.28184    46614.471 
    7815    289.38977    17.665416    149.96355   -642.83216    431.81438    46614.471 
    7820    297.04544    18.297783    143.59253   -639.91291    42.274423    46614.471 
    7825    296.02551    25.710435    151.81958   -635.80492    1024.3949    46614.471 
    7830     295.2078    26.915387    150.10003   -630.61777   -682.32311    46614.471 
    7835    294.44472    24.206387    156.30755   -624.89282   -162.15964    46614.471 
    7840    304.94576    23.932209     143.5209   -618.05192    291.49808    46614.471 
    7845    301.26135    25.191044    151.75559   -609.77257   -164.00292    46614.471 
    7850    305.20265    24.120294    149.71612   -603.55154   -1271.3626    46614.471 
    7855    337.40486    20.725687    139.49446   -601.23238    1466.3486    46614.471 
    7860    310.08547    25.473378    157.91127   -599.36598   -599.84024    46614.471 
    7865    310.79812    26.551256    153.01762     -599.107   -1509.6873    46614.471 
    7870    295.00379    24.172839    170.35089   -600.55173    718.97262    46614.471 
    7875    307.50126    24.959946    167.91363   -602.87257    574.51674    46614.471 
    7880    311.01971    26.133916    154.45686   -606.31194    682.30352    46614.471 
    7885    296.09055    26.654589    158.38404   -610.54642    674.28538    46614.471 
    7890    287.69652    22.199122     160.7975   -613.87816    153.56674    46614.471 
    7895    295.91127    20.130437    150.69468   -617.03538   -394.93716    46614.471 
    7900    320.72908    20.512763     141.6356   -619.92146   -580.83158    46614.471 
    7905    293.15384    23.593208    165.90041   -621.50793    525.08259    46614.471 
    7910    293.87141     23.27594    157.62475   -625.52916    1780.0779    46614.471 
    7915    289.01051    29.959275     148.9169   -629.71071    273.03347    46614.471 
    7920    296.09872    26.239505    145.18009   -632.26349   -1669.9487    46614.471 
    7925    285.41961    20.535301    160.21022   -634.05081   -385.18907    46614.471 
    7930    275.18408    19.364711    152.89524   -635.67495    336.59834    46614.471 
    7935    287.33038     23.11028    143.71256   -633.26893   -2192.6747    46614.471 
    7940    293.78986     22.97099    163.77489   -625.33448   -209.85477    46614.471 
    7945    310.23118    26.286125    152.78472   -617.26357    1476.4577    46614.471 
    7950    316.87217    28.768263    139.24368   -607.73251    1101.1521    46614.471 
    7955    325.06459    26.626308    155.60248   -598.99622    227.74268    46614.471 
    7960     324.8563    23.913379    150.60551   -594.75793    222.78356    46614.471 
    7965    320.08343    22.585163    161.61964   -593.77649    330.65191    46614.471 
    7970    304.97458    24.417381    160.13317   -594.25413   -1733.0511    46614.471 
    7975    314.76012    23.227337    154.65676   -596.21607   -262.17069    46614.471 
    7980    300.60099     27.06135    155.83482   -600.48869    688.48832    46614.471 
    7985    310.26472    29.590951    143.68477   -607.05366     1624.723    46614.471 
    7990    289.81833    22.557849     160.8651   -612.46353    1076.0631    46614.471 
    7995    304.65271    20.482192    148.93653   -619.45356    1036.2653    46614.471 
8000        0.95681026593130003022 13.790793551083313062 0.98506401137980093008 213 -956.95521610749972297
    8000    287.01501    27.137685    151.97648   -626.71785   -739.68525    46614.471 
    8005    290.80731    27.219363    140.73223   -632.60667    43.028199    46614.471 
    8010    293.82868    22.580901    154.52529   -637.42334   -669.39531    46614.471 
    8015    284.63042     18.41173     152.0078   -643.72757   -45.903442    46614.471 
    8020    275.34916    17.822329     147.0938   -649.59941   -919.10793    46614.471 
    8025     277.5224    19.706061     150.5922   -652.27216    32.299669    46614.471 
    8030    284.26173    22.189107     149.7645   -653.09897   -1129.3628    46614.471 
    8035    279.81595    24.535457    149.03269   -652.02778    644.11163    46614.471 
    8040    291.94458    25.789659    133.72956   -646.92094    356.97981    46614.471 
    8045    289.09193    23.326393    154.86692   -635.79087   -444.19378    46614.471 
    8050    302.76114    21.449329    155.90761    -624.7391    713.36605    46614.471 
    8055    283.65797    19.949182    156.57589   -614.76014    2126.8831    46614.471 
    8060    299.60448     19.63558    158.23972   -606.13334   -695.40494    46614.471 
    8065    320.81364    21.131523    146.35803   -600.28938   -1712.7009    46614.471 
    8070    323.71216    21.834378    163.23023   -596.18159    699.35115    46614.471 
    8075    312.30837     15.88388    159.74502   -594.47199   -70.148702    46614.471 
    8080    299.29989    17.007349    153.19217   -595.89781   -329.90867    46614.471 
    8085    309.41305    17.893402    156.13164   -597.75979    662.70059    46614.471 
    8090    307.03569    19.619704    161.22254   -599.62514   -293.45909    46614.471 
    8095    299.11848    21.735009    166.31395   -603.86229   -866.12259    46614.471 
    8100    323.66898    25.973134    136.72854   -611.58855    59.374868    46614.471 
    8105    292.07193    31.462951    158.49348   -618.76165   -401.77952    46614.471 
    8110    287.33971    29.971138    146.12227   -623.79435    641.59183    46614.471 
    8115    294.17903    23.371333    156.26827   -628.35004    682.17374    46614.471 
    8120    289.33132    20.359984    152.76921   -631.68609   -817.12431    46614.471 
    8125    294.59879    20.070223    146.43297   -633.34511    650.57184    46614.471 
    8130    286.02324    19.789672    159.64316   -635.22397   -776.76793    46614.471 
    8135     296.3885    18.872193    146.60581   -637.69842   -1114.2312    46614.471 
    8140    284.70633     18.83524    152.52763   -636.45454    966.56088    46614.471 
    8145    270.54549    25.366615    161.83589   -632.82554   -233.36999    46614.471 
    8150    293.02619    26.428205    153.26354    -627.7829     336.1607    46614.471 
    8155    304.07593    24.878311    150.61891   -616.43621   -125.08448    46614.471 
    8160    295.96745    17.188494    176.95061   -601.49126    24.999501    46614.471 
    8165    307.72003    14.002649    163.33709    -591.6984     20.56189    46614.471 
    8170    311.53818     19.38077    152.51322   -586.84198    496.58196    46614.471 
    8175    315.69857    16.348832    161.83267   -584.07405   -329.15908    46614.471 
    8180    310.23787    17.380833    163.46893   -583.13727    746.65064    46614.471 
    8185    311.61181    18.546006     168.1441   -583.79105    -736.1486    46614.471 
    8190     286.6229    21.797236     171.7352    -587.3587   -2307.2095    46614.471 
    8195    304.69298    23.877034    143.42967   -591.39529    54.410855    46614.471 
    8200    306.67913    26.911562    161.05491   -593.54548   -311.78503    46614.471 
    8205    297.46082    34.142429    155.56602   -595.80958    497.57986    46614.471 
    8210    310.66515    35.891147    147.24541   -599.73217    41.055235    46614.471 
    8215    314.24767    29.762582    148.18114   -604.46093   -576.05918    46614.471 
    8220    298.44924    26.842242    168.98724   -613.47438    635.54989    46614.471 
    8225    296.74544    25.827351    139.48443   -623.64688   -387.84238    46614.471 
    8230    291.92684    23.619814    153.95772   -631.99054   -115.63895    46614.471 
    8235    281.98505    25.244667    156.54891   -637.16518    868.99802    46614.471 
    8240    293.57372      31.6365    148.06533   -640.91466    615.79906    46614.471 
    8245    306.99363    28.922803    144.05563   -644.46903   -1511.7767    46614.471 
    8250    299.85645    21.737886    152.39216   -645.41897   -518.39162    46614.471 
    8255     295.6021    17.782346    143.12845   -647.11676   -1011.9183    46614.471 
    8260     293.1922    17.180776    144.30713    -646.5962   -600.10874    46614.471 
    8265    286.62848    24.919208    145.35908   -643.57147     1004.415    46614.471 
    8270      286.772    24.267413    160.37217   -642.26338    581.88211    46614.471 
    8275    300.02268    20.668596    141.23203   -639.68501   -845.99313    46614.471 
    8280    283.26253    21.519379    153.69653   -635.43532    1245.6597    46614.471 
    8285    292.55273    19.521379    156.16069   -632.41495   -333.56288    46614.471 
    8290    308.32801    20.449007    140.89602   -630.27269   -1088.7546    46614.471 
    8295    289.79669    19.644758    152.69839   -626.27034   -300.95364    46614.471 
    8300    299.31888    19.162626    147.16933   -622.93283   -894.92854    46614.471 
    8305    303.86468    21.439536    158.33577   -620.00716    185.04214    46614.471 
    8310    294.83456    27.195016    149.88937   -618.62189    1223.1558    46614.471 
    8315    292.66792    31.438379    156.47002    -616.6183    194.03132    46614.471 
    8320    303.70439    28.406619    150.24253   -614.55594    379.15609    46614.471 
    8325    314.35948    30.883446    143.72549   -614.63679   -770.45329    46614.471 
    8330    303.58845    27.021341    160.81894   -612.72375    419.58808    46614.471 
    8335    312.24594    24.489442    146.24663   -614.27852   -359.74708    46614.471 
    8340    289.22312    25.214974    152.17128   -617.32126     1079.663    46614.471 
    8345    292.76967    23.972429    165.47238    -617.0515    -23.92906    46614.471 
    8350    300.11361    26.513846    162.23079   -618.26712    944.38833    46614.471 
    8355    290.65202    23.502767    159.95857   -619.87424   -955.69971    46614.471 
    8360    293.34766    25.126153    162.62771   -618.23581   -169.92785    46614.471 
    8365    307.44584    24.805025    161.15899   -618.95563   -1080.1678    46614.471 
    8370    303.69542       26.286    151.60388   -621.96722   -779.75629    46614.471 
    8375    287.79051    23.956151     147.8034   -621.82873   -202.99875    46614.471 
    8380    308.84934    18.655771    152.28663   -621.63237    1381.4246    46614.471 
    8385    309.91581    22.121762    157.12992    -621.6809    74.128766    46614.471 
    8390    304.03654    25.346332    145.04384   -623.91155    324.75909    46614.471 
    8395     308.2715     27.13524    146.41768   -626.45159   -951.75117    46614.471 
    8400    295.28115     31.48164    154.01981   -627.59284    612.18099    46614.471 
    8405    281.90641    32.735323    158.20078   -628.23929    140.66324    46614.471 
    8410    298.31705    28.090595    145.77333   -628.69916     192.4057    46614.471 
    8415    316.17322    26.689093    142.99558   -627.66382    983.94182    46614.471 
    8420    293.62353    28.275785    148.13187   -624.81306    390.21918    46614.471 
    8425    304.88135    24.429451    153.91718   -622.96241   -1991.4114    46614.471 
    8430    309.48755    20.230852    143.64841   -617.59254   -845.21931    46614.471 
    8435    291.31988    27.318561    167.59714   -611.32882    -254.7821    46614.471 
    8440    322.90604    24.676549    152.70317   -605.88531    277.70752    46614.471 
    8445    318.19481     25.07732    152.86672   -596.96502    213.85219    46614.471 
    8450    307.07857    20.138916    172.22026   -590.23144    652.99393    46614.471 
    8455    310.51215    19.216669    159.91945   -588.45844     11.31293    46614.471 
    8460    308.44178    24.486039    149.38972   -587.35046    859.34194    46614.471 
    8465    313.78158    27.424685    150.52461   -585.86387    61.704328    46614.471 
    8470    325.86311     26.21133    156.66125    -586.5102   -368.47567    46614.471 
    8475    311.41963    24.296969    150.39455    -591.1262   -715.89808    46614.471 
    8480    306.86006    22.833869    158.91526   -596.73955   -438.56646    46614.471 
    8485    308.75592    22.942608    152.79753   -604.74586   -687.74938    46614.471 
    8490    302.20107    22.720706    148.31871   -615.79314     1405.682    46614.471 
    8495    291.52965     17.97247    160.97789   -623.53785    216.86132    46614.471 
8500        0.96976396324917069069 13.737539843000396544 0.99004267425320058305 215 -959.43782355713074139
    8500    286.56175    14.837212    156.24012   -629.72198   -444.37216    46614.471 
    8505    292.75692    17.652371    154.08897    -634.8227    1515.4244    46614.471 
    8510    289.80167    21.256168    150.66776   -637.02101   -448.35313    46614.471 
    8515      288.128    19.870466      148.526   -638.94705    212.35972    46614.471 
    8520    294.49929    20.055217    149.13836   -638.58323    1086.0516    46614.471 
    8525    276.55224     22.91962    160.60296   -636.63926   -1006.9841    46614.471 
    8530    287.37906    23.937948    147.47615   -634.39704   -1429.5914    46614.471 
    8535    288.46007    21.596848    162.75061   -630.68089   -1018.4036    46614.471 
    8540    306.79952    22.791599    145.11089   -627.79915    1207.1934    46614.471 
    8545    303.31695    22.913288    150.85101   -625.02039     967.7962    46614.471 
    8550     289.4645    27.126339    165.15069   -622.24564    218.79524    46614.471 
    8555    283.22125    36.038238    152.70049    -618.1328   -700.58209    46614.471 
    8560    291.74383    25.040207    170.19267   -611.63477    544.09167    46614.471 
    8565    318.83459     19.39312    153.32962   -605.51956   -140.44851    46614.471 
    8570    314.25075    17.432195    152.30422   -597.31762    321.66931    46614.471 
    8575    304.26314    17.545736    166.89177   -588.61591   -630.99179    46614.471 
    8580    326.57847    18.139139    162.22236   -583.70723    1287.9536    46614.471 
    8585    313.08734    19.495113    166.47716   -579.34077   -894.87186    46614.471 
    8590    314.44769    24.380889    167.28921   -574.65873     -959.022    46614.471 
    8595    322.96753    29.069214    172.08667   -569.18602   -1327.5511    46614.471 
    8600    340.56833    31.075202    157.18807    -564.2894    1042.0142    46614.471 
    8605    325.42134    32.667136    168.71448   -561.38363    943.32458    46614.471 
    8610    318.91448    33.236869    163.25537   -563.15414    1991.8452    46614.471 
    8615    305.80021    31.328621    165.48391   -568.03362    123.04428    46614.471 
    8620    313.69415    27.714191    162.58191   -574.33035   -854.75055    46614.471 
    8625     299.7624    22.727926    184.00768   -580.77361   -911.28323    46614.471 
    8630    302.65893    24.281031    163.09902   -590.06412    659.43151    46614.471 
    8635    331.96011    21.259543    155.87859   -601.93384   -718.07516    46614.471 
    8640    319.83844    26.042749    160.12106   -612.83444   -45.855638    46614.471 
    8645     295.6533     25.35226    161.75818   -621.35197    1683.3909    46614.471 
    8650    294.70835    20.209424     146.6265    -629.7662   -367.08175    46614.471 
    8655    309.96402    16.031867    140.94528   -635.25376   -262.55625    46614.471 
    8660    275.45445    16.468548    161.06449   -636.38175   -599.94569    46614.471 
    8665    287.56883    15.219595    146.47857   -636.70817   -925.47181    46614.471 
    8670    290.71727    16.914048    163.22862   -634.20745   -56.556865    46614.471 
    8675    314.09837    20.520242    148.33925   -633.09422    1747.2719    46614.471 
    8680    308.22588    20.264074     161.8122   -631.87494    6.2298056    46614.471 
    8685    297.95497    27.504429    173.01956   -630.64611    1789.7371    46614.471 
    8690    314.26496    30.555337    152.29184   -635.51734   -620.36307    46614.471 
    8695    285.78427    34.922026    162.43367   -639.07411   -1480.6324    46614.471 
    8700    295.57349    27.801752    147.70399   -642.69204    32.382534    46614.471 
    8705     286.8118    23.473965    155.71841   -648.23685   -227.56065    46614.471 
    8710    284.42885    24.059406    148.27156   -650.94843    698.34194    46614.471 
    8715    287.47771    22.353893    150.21532   -650.86489   -423.12207    46614.471 
    8720    293.38883    19.257463    168.09315   -649.93749    397.69683    46614.471 
    8725    297.19444    26.869404    149.97446   -648.56573     190.9605    46614.471 
    8730    289.64769    27.331022    153.88471   -645.99521   -688.80062    46614.471 
    8735    287.39522    23.733218     161.7999    -637.9053   -193.73043    46614.471 
    8740    272.14462    23.961694    171.26466   -628.53215    1117.3823    46614.471 
    8745     300.6364     20.53304     156.8992   -619.12914    430.45501    46614.471 
    8750    309.45391    20.294828    158.71554   -608.69809     545.3739    46614.471 
    8755    305.14998    28.155208    162.76563    -601.3477   -678.17586    46614.471 
    8760    295.83698    27.053075    175.54854   -595.75818   -641.24288    46614.471 
    8765    301.38042     26.00671    179.09697    -592.6521   -690.47702    46614.471 
    8770    315.68149    19.940093    169.61431   -591.34825   -682.27828    46614.471 
    8775    300.27044    20.893202    177.53455   -591.81164    301.21341    46614.471 
    8780    299.25012     25.56347    170.83184   -595.27159    1327.3596    46614.471 
    8785    285.01181    26.304571    174.58001   -597.73898   -401.16907    46614.471 
    8790    305.76903     22.56919    164.35159   -599.60795   -1316.4879    46614.471 
    8795    305.94189    20.575951    167.63101   -601.64551   -940.64344    46614.471 
    8800    313.65044    23.142439    149.93366   -604.53708   -369.71185    46614.471 
    8805    300.50489    23.334806    183.36933   -610.04986   -347.08947    46614.471 
    8810    304.19757    27.630748    167.67369    -620.3278    61.140393    46614.471 
    8815    300.56333    27.075483     147.2383   -632.33534    1629.2545    46614.471 
    8820    279.76452    25.938896    172.13743   -642.19643     60.33173    46614.471 
    8825    281.63884    25.061897    152.88514   -647.59901   -513.97475    46614.471 
    8830    279.91752    22.635251    159.66325   -649.76803    471.36285    46614.471 
    8835    291.53292    20.042047    155.97598   -650.25794   -462.11933    46614.471 
    8840    296.51926    26.342386     159.2279   -648.78207   -1960.1974    46614.471 
    8845    283.66188    25.872101    155.37086    -648.0184    -813.1702    46614.471 
    8850    288.61299    21.942291    147.82573   -647.08767    1351.1664    46614.471 
    8855    280.99997     19.47574    165.65196   -641.89369    397.44457    46614.471 
    8860    297.40923    24.045285    152.41619   -635.97393    489.14481    46614.471 
    8865    297.30681    28.230821    150.34161   -629.25136   -1314.0417    46614.471 
    8870    305.79653    27.686291    166.95858   -621.94137    299.11553    46614.471 
    8875    319.23579     24.46525     152.9834   -617.85018    133.93516    46614.471 
    8880    300.78159     24.92312    173.78129   -614.98712   -667.73184    46614.471 
    8885    308.76706    24.262781    163.82667   -614.16483    680.96052    46614.471 
    8890    315.57663     20.68594    159.95522   -615.26378    20.519434    46614.471 
    8895    298.38114    20.005134    156.94872   -616.61436    173.81812    46614.471 
    8900    290.00855    27.390452    156.00465   -618.81979    293.66055    46614.471 
    8905    296.66994    21.223205    167.90809   -619.86008    25.572449    46614.471 
    8910    304.80854    20.781244    174.48647   -620.02611    1065.4495    46614.471 
    8915    310.03292    21.935837    163.50119   -621.59902   -747.14772    46614.471 
    8920    288.22965    25.486518    171.08821   -624.10667   -627.39894    46614.471 
    8925    300.47519    20.642849    157.03624     -628.022   -985.97761    46614.471 
    8930    304.31711    24.771256    158.07063   -630.17909    500.66628    46614.471 
    8935     296.7016    28.920392    169.91265   -631.60434    -71.44907    46614.471 
    8940    289.35336    25.917583     167.4019   -634.21897    140.33062    46614.471 
    8945    308.91102      28.9307    159.62676   -637.46997    266.40582    46614.471 
    8950    295.09788    30.216634    153.46442   -641.47711    690.88701    46614.471 
    8955    277.27852    26.140671    162.99846   -648.76084    229.93008    46614.471 
    8960    275.73777    23.454724    148.48305   -659.11378   -87.619719    46614.471 
    8965    280.13624    20.091634    161.04412   -669.24158   -1164.5601    46614.471 
    8970    273.81525    20.530471    145.74302    -679.0563    283.64513    46614.471 
    8975    260.05593    24.568418     145.6323   -684.98835    169.22862    46614.471 
    8980    271.12869     24.88445    148.69037   -685.34816    1272.3875    46614.471 
    8985    275.19067    27.909636    151.65635   -681.53782   -5.3061683    46614.471 
    8990    278.45929    34.458902    142.92011    -674.9514   -970.45431    46614.471 
    8995    288.32995    26.245691     149.3585   -666.29777   -562.95089    46614.471 
9000        0.97299574327179294553 13.765130284225110202 0.99715504978662883317 214 -970.88036598804069399
    9000    272.83122    25.408404    161.97789   -656.96276   -672.82092    46614.471 
    9005    297.43483    23.143706    145.94297   -649.26762    -620.0226    46614.471 
    9010    301.42518    17.442817    163.64965   -642.62834    1645.6468    46614.471 
    9015    280.67534    19.237281    171.86684   -637.09145   -39.178476    46614.471 
    9020    292.62169    20.828087    157.43982   -633.33567   -705.35844    46614.471 
    9025    311.92867    23.695124    158.62099   -631.29063   -961.41348    46614.471 
    9030    297.96513     24.90305    155.89058   -628.50111    -199.5645    46614.471 
    9035    297.65432    28.102063    166.47643   -624.34431    616.03245    46614.471 
    9040    289.23164    26.156555    178.68197   -621.83926    661.08252    46614.471 
    9045    317.31066    22.416556    143.52036   -620.99151    551.75295    46614.471 
    9050    310.63321    18.134055    157.13163   -618.72613    432.39227    46614.471 
    9055    294.34588    20.375869    159.72383   -615.87176    217.22434    46614.471 
    9060    301.16339    17.378776    165.45144   -612.07972   -657.41763    46614.471 
    9065    307.02246     20.08112    169.33859   -607.58417   -961.86097    46614.471 
    9070    291.47063    25.930878    171.32895   -603.46997    750.74554    46614.471 
    9075    296.21428    27.534927    171.44286   -597.41062    -731.9364    46614.471 
    9080    313.65214    26.755616    180.14847   -589.40383    224.58202    46614.471 
    9085    314.40668    28.783276    185.13613   -582.48548    276.02344    46614.471 
    9090    330.94474    30.379533     157.2963   -581.06375    79.921831    46614.471 
    9095    326.79889    24.277285     162.1924   -580.42188    562.98902    46614.471 
    9100    317.66853     21.21819    163.33776   -581.73725   -1327.5471    46614.471 
    9105    280.42149    19.281574    168.97899   -587.29305   -253.29379    46614.471 
    9110    284.49032     17.74277    163.67971   -594.57898    511.53779    46614.471 
    9115    305.32344    16.707367    167.01708    -602.1887    322.67292    46614.471 
    9120    299.07098     20.31693    166.49546   -612.21486   -110.86086    46614.471 
    9125    301.50533    17.128579    155.37893   -623.36319    1579.8191    46614.471 
    9130    274.47851    23.079072    163.49831   -631.09714   -392.15768    46614.471 
    9135    298.04818    24.041251    154.12481    -633.8289   -762.64291    46614.471 
    9140     290.9584    23.911943    163.82547   -634.15987   -988.60125    46614.471 
    9145    273.49648    16.755299    170.55531   -635.36515    312.84736    46614.471 
    9150    289.33214    19.788041    157.37926   -635.08001   -725.29135    46614.471 
    9155    295.62178    20.752439    153.02158   -631.70667   -1015.6497    46614.471 
    9160    288.19425       24.909    159.53953   -627.80612   -326.07395    46614.471 
    9165    303.77722    23.082959    152.94746   -623.82372    2284.2219    46614.471 
    9170    308.66879    16.755474    154.33184    -618.6357    783.55548    46614.471 
    9175    296.24385    16.751114    162.08464    -614.8464    615.36057    46614.471 
    9180    309.33534    22.995453    154.35565   -611.52828    497.82221    46614.471 
    9185     301.9487    23.250718    175.76215   -608.19193   -1081.5001    46614.471 
    9190    317.44501    21.228144      166.637   -606.66128     -1094.74    46614.471 
    9195    298.44384    26.487228    171.71928   -607.14089    572.76632    46614.471 
    9200    289.36457    33.435863    164.40436   -609.63102    138.23937    46614.471 
    9205    315.67893    25.683405    160.47144   -612.81719    667.99961    46614.471 
    9210    296.54016    22.716406    161.56039   -614.15503   -80.299038    46614.471 
    9215    276.00709    21.169742    178.33251    -615.5885   -1582.5068    46614.471 
    9220    299.67488    16.672781    154.47063    -618.4876   -69.597185    46614.471 
    9225     302.8864     16.18392    161.66936    -618.8447    857.42936    46614.471 
    9230    298.72914    21.049502    170.76904   -617.28687   -2072.5681    46614.471 
    9235    304.84808    21.808988    155.62471   -617.29006    749.37123    46614.471 
    9240    291.17258    17.597135    171.78195   -617.23307    1502.9847    46614.471 
    9245    298.95784     18.37922    161.69104   -616.86153    284.60577    46614.471 
    9250    301.38696    19.435894    171.33516   -617.91214   -194.49164    46614.471 
    9255    304.88516    18.769184    156.79465   -619.50585    342.52945    46614.471 
    9260    303.15677    21.510912    161.53395   -620.71652    589.77085    46614.471 
    9265    298.90823    24.784737    149.52128   -621.14919   -1445.0012    46614.471 
    9270      298.984    24.011577    160.57049   -621.90056    -47.64938    46614.471 
    9275    309.51168    22.113275    153.15987   -623.77464   -9.7362563    46614.471 
    9280     318.1873    23.737586    138.80706   -626.03868    342.83066    46614.471 
    9285    295.38943    20.212634    162.66274   -626.14192   -1013.4441    46614.471 
    9290    296.67832    20.321399    158.34502   -629.85039    814.25221    46614.471 
    9295    288.95759     24.35684    153.84316   -635.08527    30.594096    46614.471 
    9300    277.13853    21.561808    166.66826   -638.07081    -8.497857    46614.471 
    9305    281.22422    18.751222    151.75342   -641.48486    1679.8265    46614.471 
    9310    289.72173     18.76438    148.04177   -644.89427    352.57788    46614.471 
    9315    302.59513     18.81204    148.40183   -645.47872   -134.16165    46614.471 
    9320    284.90033    23.455306    150.12108   -644.54565   -1292.6559    46614.471 
    9325    289.75364     25.53138    149.16251   -643.52664   -777.25593    46614.471 
    9330    295.95519    22.825184    156.69525   -639.85548    2060.5277    46614.471 
    9335    295.21378    26.300581    153.25911   -632.59003   -728.65882    46614.471 
    9340     294.9735    25.246287     156.2636   -624.02338    -847.8298    46614.471 
    9345    304.54688    28.334422    163.08427   -614.87201    398.70378    46614.471 
    9350    320.78924    29.262886    141.81992   -607.60115    295.21978    46614.471 
    9355    308.36344    33.278239    160.77963   -601.12559   -333.77544    46614.471 
    9360    330.49445    26.012425    155.43113   -598.37424    463.90204    46614.471 
    9365    327.96305    23.253568    158.23788   -601.15458    294.73341    46614.471 
    9370    311.47224    21.387947    169.54769   -604.37888    76.361289    46614.471 
    9375    300.94345    29.962468    161.23793   -608.41842    461.54309    46614.471 
    9380    289.49591    27.557462    162.82981   -613.74806   -881.82046    46614.471 
    9385    303.24465    23.592142    150.66655   -618.17875   -579.28377    46614.471 
    9390    301.90551     23.20757    152.13768   -621.15915   -239.12311    46614.471 
    9395    315.94049    19.339575    146.35704   -622.30984   -418.47731    46614.471 
    9400    296.82988    19.045345    156.02411   -624.34298    262.37681    46614.471 
    9405     302.8392    23.318726    151.05457   -628.45317    531.45814    46614.471 
    9410    280.77363    21.852092    161.98603   -632.48844    1029.8199    46614.471 
    9415    302.36324    21.942001    145.27782   -640.35151   -117.88956    46614.471 
    9420    297.08488    24.557592    148.33818   -654.26365   -490.60254    46614.471 
    9425    293.42793    20.819545    135.76051   -669.19634   -1031.0563    46614.471 
    9430     278.6576    16.039267    148.90076   -677.37546   -120.95946    46614.471 
    9435    282.00443    16.540684    137.44266   -682.87608    314.58035    46614.471 
    9440    273.42442    21.768604    139.92468   -683.55857   -1104.8606    46614.471 
    9445       267.46    25.444714    145.49569   -678.34481    1353.8514    46614.471 
    9450    272.56698     22.40376    138.66776   -671.42069   -391.18836    46614.471 
    9455     272.3125    25.500705    151.51306   -663.39957   -916.68509    46614.471 
    9460    293.54679    27.688491    135.36714   -654.88817     59.52046    46614.471 
    9465    287.79028    23.564755     158.2692   -645.87677    691.30878    46614.471 
    9470    291.03497    18.223663    155.15662   -639.36855   -850.84707    46614.471 
    9475    286.67488     16.51976    149.99208   -633.34152    989.25973    46614.471 
    9480    286.61987    18.368569    167.90166   -625.32516    1526.9874    46614.471 
    9485    300.15998    20.065642    176.30305    -617.9831   -1018.7948    46614.471 
    9490    309.44832    23.895095    160.88865    -612.6815   -1765.6813    46614.471 
    9495    305.83253    28.855701    157.56193   -610.33375   -1576.1182    46614.471 
9500        0.96010501909356527062 13.831574930824693581 0.98862019914651499963 215 -953.70520415722728558
    9500    300.29595    27.803534     157.2393   -608.18688    1059.5252    46614.471 
    9505    293.24348    22.241353     164.5487   -605.09176    123.30124    46614.471 
    9510    310.32948    13.530946    162.63739   -602.66669    340.73436    46614.471 
    9515     298.1025    13.584493    170.24898   -599.52062    576.44792    46614.471 
    9520     325.5579    13.033559    153.59206   -597.51394    1429.2924    46614.471 
    9525    310.41697    17.612358    172.05737   -597.49004   -389.83042    46614.471 
    9530    311.38836    20.097094    160.66663   -600.64355   -1495.1289    46614.471 
    9535    314.43242    23.436007    163.16103   -606.27819    -1380.029    46614.471 
    9540    310.72309    24.348347    158.81273   -614.93078    119.78574    46614.471 
    9545    290.70872    26.760837    163.74763   -626.45473    485.38231    46614.471 
    9550    310.18738    24.177545    147.73524   -636.78208    513.66743    46614.471 
    9555     292.5276    23.629955    157.61285   -644.34108    746.72527    46614.471 
    9560    278.05672    24.438533    141.82706   -648.66666    83.895855    46614.471 
    9565    291.17499    19.655531    154.20337   -649.05834    -682.8911    46614.471 
    9570    284.42073    20.761254    163.21074   -646.61746    1222.9479    46614.471 
    9575    293.43033    19.665249    149.64021   -644.78808   -1451.7666    46614.471 
    9580    295.49834    20.986936    163.38362   -640.70725   -419.95213    46614.471 
    9585    282.13839    23.527929    175.39624   -635.21999    843.18357    46614.471 
    9590    293.35372    25.079802    171.71012   -632.98873    72.517489    46614.471 
    9595    302.00718    28.820987     160.1435    -630.6739    1203.3485    46614.471 
    9600    295.53515    29.707472    164.98004   -625.98052     736.5247    46614.471 
    9605    292.81247     27.20166    170.76552   -622.06815   -817.19705    46614.471 
    9610    299.25739    21.298686    176.90961    -617.1652    1780.9713    46614.471 
    9615    304.30008    18.493068    168.24643   -611.05807   -897.56926    46614.471 
    9620    301.26081      18.6253    160.79529   -608.26233     111.3806    46614.471 
    9625    316.22548    16.375817    152.22593    -604.4493   -595.60732    46614.471 
    9630    305.67872     18.34434    169.17581   -597.70574   -1063.9343    46614.471 
    9635    297.74442    21.972289    163.86351   -590.45986   -443.41112    46614.471 
    9640    319.99734    18.156454    160.47107    -579.0689   -1200.9961    46614.471 
    9645    326.75637    19.648169    173.37302   -565.29818    386.87178    46614.471 
    9650    315.15332    19.788789    189.45473   -555.81051   -575.02914    46614.471 
    9655    328.18899    22.641898    174.04803   -549.81965    378.23677    46614.471 
    9660    330.22727    26.317867    190.91255   -548.05928    1207.4532    46614.471 
    9665    329.75239    26.617223    180.84106   -553.58455    -17.79212    46614.471 
    9670    327.83684    26.092424    158.64849   -562.95511    949.02672    46614.471 
    9675    309.05949    21.633612    188.43966   -573.89259     270.9517    46614.471 
    9680    314.76653    18.507887    153.96643   -583.35454    580.26252    46614.471 
    9685    306.92273     17.31476    166.51135   -589.25212    254.95693    46614.471 
    9690    308.19835    16.119303    170.36556   -594.45871   -764.11119    46614.471 
    9695     318.2951    20.183172    162.98371   -598.99705   -309.65162    46614.471 
    9700    315.02984    25.501326    166.21233   -605.36653   -397.24185    46614.471 
    9705    298.21566    22.726496    158.84104   -614.01796   -922.17228    46614.471 
    9710    297.62183    20.689069    162.14164   -620.85423   -160.02791    46614.471 
    9715    296.80023     22.37078    156.28034   -625.73243    953.09203    46614.471 
    9720    299.20491    17.637082    163.73612   -630.87076    292.10396    46614.471 
    9725    301.78529    14.396099    147.31803   -636.07444   -364.57544    46614.471 
    9730    282.98908    22.352111    163.86567   -640.18382    321.20036    46614.471 
    9735    295.69356    24.417378     151.7533   -642.96852   -511.50025    46614.471 
    9740    291.54828    24.564076    147.43988   -645.63573    374.33461    46614.471 
    9745    297.22893    24.124285    147.08579   -647.53709    315.20958    46614.471 
    9750     292.4563    25.945706    153.32376   -646.28312    68.900389    46614.471 
    9755    278.62936    26.946217    159.86908   -644.00845     -552.736    46614.471 
    9760    293.12345    23.434833    160.67914   -640.80007   -349.95404    46614.471 
    9765    303.96576    23.566467    166.59353   -634.61626    732.30215    46614.471 
    9770    294.40616    21.035341    160.17609   -627.85275   -303.58995    46614.471 
    9775     299.7392    22.767435    157.12739   -619.71081   -129.99128    46614.471 
    9780    286.29574    25.395537    173.52289   -608.84559   -448.66654    46614.471 
    9785    311.03873    22.130264     170.7884   -600.55862    607.73913    46614.471 
    9790    326.81871    18.277135    154.43474   -595.30144   -1229.9955    46614.471 
    9795    310.60043    19.215726    163.65395    -590.2413    264.76603    46614.471 
    9800    312.17149    22.285632     176.9011   -589.02162    1477.8141    46614.471 
    9805    310.31124    17.973101    168.45969   -591.42839    940.49683    46614.471 
    9810    305.20963    25.271923    164.69156   -595.28792   -1224.3132    46614.471 
    9815    308.33951    26.986173    155.38541   -599.32338     1006.587    46614.471 
    9820    297.97987    25.796366    173.94181   -600.74019    545.09249    46614.471 
    9825    309.56236    18.284607    172.90166   -604.06843   -1107.3052    46614.471 
    9830    312.76346    18.221788    153.96885   -609.57643    -2460.065    46614.471 
    9835    306.87425    16.135194    165.88008   -614.27579    897.52025    46614.471 
    9840    295.85688    16.953664    178.56998   -619.59822   -791.10301    46614.471 
    9845    299.85016    23.205164    153.53296   -624.97149   -362.10452    46614.471 
    9850    303.96049    22.960102    148.12117   -626.81922   -466.84879    46614.471 
    9855    310.57068    18.754375    163.39751   -627.97454    849.92087    46614.471 
    9860    309.28562    22.073246    136.14529   -630.89202    566.09012    46614.471 
    9865    284.19464     21.07332    157.48106   -630.51059   -257.53708    46614.471 
    9870     291.0561      17.1791    157.61551   -628.87924     1125.241    46614.471 
    9875    290.78601    19.490156    169.96452   -627.90889    1493.7977    46614.471 
    9880    292.29988     22.45746    156.48599   -625.85858   -1432.4653    46614.471 
    9885    311.54565    23.131498    148.70598   -623.16414    305.30773    46614.471 
    9890    306.40684     25.06549    151.13364   -618.46879    179.97512    46614.471 
    9895    307.34577    27.620597    166.11581   -613.86759    344.86765    46614.471 
    9900    312.80428    26.859509    157.41579   -611.34115    -532.4677    46614.471 
    9905    316.86315    27.461759    150.18805   -609.25319   -30.128973    46614.471 
    9910    305.28187    25.232825    161.27914   -606.80515   -391.53393    46614.471 
    9915    313.51891    22.606361    143.85774   -604.72219   -1008.8445    46614.471 
    9920    306.80133    21.068464    163.19263   -602.06427    502.08073    46614.471 
    9925    303.34268    22.963349    161.22997   -599.89863     1105.089    46614.471 
    9930    311.46262    25.338431    161.59524   -598.16193    1404.4239    46614.471 
    9935    297.56542     30.29736    156.91075   -595.86845   -574.67345    46614.471 
    9940    305.41205    34.244034    164.66548   -592.05667   -1313.7186    46614.471 
    9945    297.62506    25.914415    164.89441   -585.67114   -498.26001    46614.471 
    9950    320.41995    18.822912    167.24086    -581.8189   -450.70426    46614.471 
    9955    316.47169    17.797494    167.39201   -579.42255   -1001.5025    46614.471 
    9960    327.14973    20.050114    165.63575   -580.08426    473.24497    46614.471 
    9965    304.14923    21.696733       182.63   -583.54987   -345.56226    46614.471 
    9970    301.04052    28.093079    175.25836   -591.02313    367.55125    46614.471 
    9975    305.98638    30.698609    155.04632   -601.71101    150.16251    46614.471 
    9980    297.50545    25.434332    170.75775   -610.18563    817.01016    46614.471 
    9985    292.22133    17.928555     161.3917   -617.71916    145.64086    46614.471 
    9990    292.79597    13.325978    162.66405   -623.18506   -800.91426    46614.471 
    9995     289.5538    19.009064    154.95312   -625.84752   -1384.1651    46614.471 
10000        0.96179237270569306606 13.890735692418914482 0.98862019914651499963 216 -946.70762912727229832
   10000    277.24358    19.777575     169.2312   -627.71319    404.48345    46614.471 
Loop time of 234.159 on 1 procs for 10000 steps with 387 atoms

Pair  time (%) = 6.1152 (2.61156)
Bond  time (%) = 0.344856 (0.147274)
Neigh time (%) = 0.0138528 (0.005916)
Comm  time (%) = 0.0201507 (0.00860556)
Outpt time (%) = 0.372971 (0.159281)
Other time (%) = 227.292 (97.0674)

Nlocal:    387 ave 387 max 387 min
Histogram: 1 0 0 0 0 0 0 0 0 0
Nghost:    0 ave 0 max 0 min
Histogram: 1 0 0 0 0 0 0 0 0 0
Neighs:    21727 ave 21727 max 21727 min
Histogram: 1 0 0 0 0 0 0 0 0 0
FullNghs:  43454 ave 43454 max 43454 min
Histogram: 1 0 0 0 0 0 0 0 0 0

Total # of neighbors = 43454
Ave neighs/atom = 112.284
Ave special neighs/atom = 2.65633
Neighbor list builds = 4
Dangerous builds = 0
