LAMMPS (9 Oct 2012)
# 3d protein simulation

units real

timestep 2

dimension	3

boundary s s s
#boundary p p p

neighbor	10 bin
neigh_modify	delay 5

atom_modify sort 0 0.0

special_bonds fene

atom_style	peptide

bond_style harmonic

pair_style vexcluded 2 3.5 3.5

read_data data.testeo
  3 = max bonds/atom
  orthogonal box = (-200 -200 -200) to (200 200 200)
  1 by 1 by 1 MPI processor grid
  153 atoms
  202 bonds
  5 = max # of 1-2 neighbors
  5 = max # of special neighbors

pair_coeff * * 0.0
pair_coeff 1 1 20.0 3.5 4.5
pair_coeff 1 4 20.0 3.5 4.5
pair_coeff 4 4 20.0 3.5 4.5
pair_coeff 3 3 20.0 3.5 3.5


velocity	all create 300.0 2349852

group		alpha_carbons id 1 4 7 10 13 16 19 22 25 28 31 34 37 40 43 46 49 52 55 58 61 64 67 70 73 76 79 82 85 88 91 94 97 100 103 106 109 112 115 118 121 124 127 130 133 136 139 142 145 148 151
51 atoms in group alpha_carbons

group		beta_atoms id 3 6 9 12 15 18 21 24 27 30 33 36 39 42 45 48 51 54 57 60 63 66 69 72 75 78 81 84 87 90 93 96 99 102 105 108 111 114 117 120 123 126 129 132 135 138 141 144 147 150 153
51 atoms in group beta_atoms

group		oxygens id 2 5 8 11 14 17 20 23 26 29 32 35 38 41 44 47 50 53 56 59 62 65 68 71 74 77 80 83 86 89 92 95 98 101 104 107 110 113 116 119 122 125 128 131 134 137 140 143 146 149 152
51 atoms in group oxygens


fix		  1 all nvt temp 300.0 300.0 1.0
fix		  2 alpha_carbons backbone beta_atoms oxygens fix_backbone_coeff.data testeo.seq
Chain flag on
Chi flag on
Rama flag on
Rama_P flag on
SSWeight flag on
ABC flag on
DebyeHuckel on
ABC flag on
AMH-Go flag on

#fix		  3 all fixprueba 10



variable    stepq equal step
#variable E_bond  equal emol
#fix energy all print 10 "${stepq} ${E_bond}"



thermo		1
dump		1 all atom 10 dump.lammpstrj

dump_modify	1 sort id




#minimize 1.0e-4 1.0e-6 100 1000

reset_timestep	0
run		5000
Memory usage per processor = 0.857471 Mbytes
Step Temp E_pair E_mol TotEng Press Volume 
       0          300    54.408864    955.49334     898.8149    -33253.58    10890.368 
       1    247.65644    54.251203    914.23474    833.71812   -33787.257    10890.368 
       2    283.14187    54.341349    826.56511    762.75012   -31872.841    10890.368 
       3    243.11916    54.666054    687.47942    607.46543    -28752.14    10890.368 
       4    298.92498     54.98844    585.31678    532.83982   -26061.967    10890.368 
       5    261.38275    55.400669    476.70898    410.64345   -23090.327    10890.368 
       6    307.79459    55.737689    395.63033    354.05557   -20456.032    10890.368 
       7    273.26979    56.036509    319.67024    266.60849   -17828.789    10890.368 
       8    312.50327    56.188245     262.1737    230.70451   -15443.676    10890.368 
       9    279.37918    56.175901    211.36672     168.6991   -13199.925    10890.368 
      10    314.42843    55.951329    172.41532    148.57604   -11157.508    10890.368 
      11    281.95141    55.445462    138.32311    101.89026   -9336.6527    10890.368 
      12     315.0385    54.675974    111.11381    90.448414   -7696.0745    10890.368 
      13    282.88871    53.549609    86.629986     50.74426   -6323.0036    10890.368 
      14     315.2548    52.168859    66.419247    43.144052   -5089.1791    10890.368 
      15    283.48176    50.439328    48.612281    7.4563692    -4111.342    10890.368 
      16    315.44943    48.531687    34.962619    3.8903232   -3187.0559    10890.368 
      17    284.23461    46.347209    24.964919    -25.57882   -2444.5759    10890.368 
      18    315.55312    44.079941    19.765585   -22.170729   -1643.7644    10890.368 
      19    284.90529    41.617211    19.161424   -42.600753   -910.71017    10890.368 
      20    315.34507     39.15689    22.958047    -30.71313   -1.3244137    10890.368 
      21    285.21727    36.586557    30.709746   -42.283153    963.82302    10890.368 
      22    314.99214    34.105486    40.862872   -23.836066    2191.4159    10890.368 
      23    285.28778    31.581657    52.732656   -30.467548    3565.8808    10890.368 
      24    314.89608    29.200382    64.178481   -10.197216    5222.2329    10890.368 
      25    285.28815     26.82134     74.83429   -17.467661    7012.7416    10890.368 
      26    315.03907    24.629809    83.298501   0.12604402    8974.4019    10890.368 
      27    285.23289    22.481144    90.054918   -10.784488    10928.122    10890.368 
      28    315.13822    20.530788    94.903153    3.7627018    12846.446    10890.368 
      29    285.19805    18.633459     98.65033   -9.8325479    14525.639    10890.368 
      30     315.1464    16.924405    101.33569    3.0680998    15961.185    10890.368 
      31    285.19676    15.281848    103.18623   -11.735358    16934.085    10890.368 
      32    315.15377    13.836057    103.80722 -0.042658988    17525.813    10890.368 
      33    285.14655    12.503781    102.81772   -16.650182    17502.566    10890.368 
      34    315.18523     11.39218    99.950455   -7.2681531    17081.105    10890.368 
      35    285.04499    10.413254    94.941451   -26.741876    16026.801    10890.368 
      36    315.18596    9.5993543    88.471529   -19.815537    14687.449    10890.368 
      37     285.0403    8.8640477    80.796877   -40.945673     12801.26    10890.368 
      38    315.15252    8.2401281    73.289281   -34.211326    10806.044    10890.368 
      39     285.2198    7.6754483    66.309064   -53.768814     8429.281    10890.368 
      40    315.06836    7.1877869    60.918888   -44.378099    6144.9669    10890.368 
      41    285.43691    6.7148996    57.087887   -60.090292    3670.5879    10890.368 
      42    314.91892    6.2790269    55.026243   -47.096914    1459.6082    10890.368 
      43    285.57026    5.8674138    54.305291   -59.177597   -780.56483    10890.368 
      44    314.78133    5.5115009    54.536013   -43.675502   -2621.8026    10890.368 
      45    285.63184    5.1891287    55.298113   -53.878881   -4340.1359    10890.368 
      46    314.69617     4.923465    56.269277   -37.438547   -5587.0395    10890.368 
      47    285.67358    4.6994726     57.45296   -46.891511   -6653.8119    10890.368 
      48    314.59601    4.5248629    58.908922   -29.762726   -7267.8479    10890.368 
      49    285.72308    4.3800967    60.969466     -37.9891   -7727.8302    10890.368 
      50    314.44098    4.2619576    63.673172   -19.459561   -7839.1405    10890.368 
      51    285.76437    4.1488303    67.203617   -25.950669   -7889.3135    10890.368 
      52    314.32558    4.0478473    71.063094   -6.3125057   -7720.0676    10890.368 
      53    285.77711    3.9540606    75.028887   -12.504446   -7615.4628    10890.368 
      54    314.40028     3.868371    78.196786    5.9737129   -7426.1506    10890.368 
      55    285.72257    3.7804808    80.204565   -3.1172572   -7402.2136    10890.368 
      56    314.59983    3.6979181    80.530425    11.443196   -7354.4624    10890.368 
      57    285.56945    3.6105446    79.148228   -2.6978367   -7513.3159    10890.368 
      58    314.71908    3.5227891    76.434555    7.3883805   -7635.5768    10890.368 
      59     285.4423    3.4261794    72.682659   -10.797558   -7920.3833    10890.368 
      60    314.73128    3.3274612    68.717386    -3.202688   -8080.2114    10890.368 
      61    285.45883    3.2204568    64.720423   -22.666909   -8291.0056    10890.368 
      62     314.6984    3.1109147    61.285828   -15.221791    -8263.513    10890.368 
      63    285.56643    2.9953512    58.302121   -33.944833   -8165.1419    10890.368 
      64    314.64721    2.8838534     55.97956   -25.505238   -7730.6682    10890.368 
      65     285.6805    2.7595103    54.092925   -42.900458   -7117.3578    10890.368 
      66    314.58812    2.6354418    52.719277   -33.327378   -6134.8105    10890.368 
      67    285.78568    2.5118164    51.780868   -49.365211   -4940.2649    10890.368 
      68    314.51334     2.405786    51.442688   -38.508262   -3416.1512    10890.368 
      69    285.89877    2.3198914    51.861537   -52.783642   -1723.5682    10890.368 
      70     314.4003    2.2692091    53.205007   -40.063357    188.61775    10890.368 
      71    286.01267    2.2591312    55.713145   -51.859843    2161.0299    10890.368 
      72    314.24145    2.3012666    59.256791   -36.756483    4195.4482    10890.368 
      73    286.09666     2.409172    63.939521   -45.878533    6126.4386    10890.368 
      74    314.08709    2.5841206    69.148362   -28.734227    7953.1603    10890.368 
      75    286.13882    2.8436965    74.766312   -36.201665    9501.6661    10890.368 
      76    314.02733    3.1699956    79.857985   -18.485844    10804.874    10890.368 
      77    286.14291    3.5794335    84.201557   -26.337092    11675.789    10890.368 
      78    314.08632    4.0338186    87.010431   -9.9978535    12219.041    10890.368 
      79      286.101    4.5504805    88.161102   -20.188999    12237.394    10890.368 
      80    314.18554    5.0699313    87.462643    -6.517953    11945.322    10890.368 
      81    286.02697    5.6039844    84.973481   -19.784148    11135.497    10890.368 
      82    314.24374    6.0879884    81.164975   -8.7371942    10135.445    10890.368 
      83    285.98096    6.5321276    76.179331    -24.31244    8721.7913    10890.368 
      84    314.24443    6.8729442    70.848772   -14.724976    7285.6202    10890.368 
      85    286.01219    7.1145336    65.269236   -30.988806    5580.7993    10890.368 
      86    314.19743    7.2365196    60.267826   -21.287327    4018.1606    10890.368 
      87    286.11628    7.2554302    55.857265   -36.520709    2328.8354    10890.368 
      88    314.10329    7.1812271    52.616533   -25.339368    895.85195    10890.368 
      89    286.24202    7.0275898    50.487918   -38.381758    -556.7569    10890.368 
      90    313.97165    6.8237484    49.668327   -25.094301   -1693.8987    10890.368 
      91    286.33847    6.5751066     50.02215   -35.813102   -2792.4622    10890.368 
      92    313.85235    6.3184772    51.328195   -20.846442   -3566.3258    10890.368 
      93    286.38681     6.052435    53.379588   -30.283226    -4290.234    10890.368 
      94    313.80555    5.8091091    55.699398    -14.95822   -4722.9757    10890.368 
      95    286.39411    5.5795733    58.157485   -24.720874   -5126.2685    10890.368 
      96    313.81432    5.3829947    60.409406    -10.26338    -5297.133    10890.368 
      97    286.39221    5.2031891    62.642599   -21.084529   -5493.3656    10890.368 
      98    313.79295    5.0482611    64.890114   -7.3554475   -5526.8738    10890.368 
      99    286.43345    4.8986077    67.645605   -18.209579   -5640.0804    10890.368 
     100    313.68857    4.7573211    70.999215   -3.8007504   -5639.1427    10890.368 
     101    286.50949    4.6130958    75.363375   -13.103709   -5746.3647    10890.368 
     102    313.54441    4.4704826     80.28574    2.8602024   -5758.1953    10890.368 
     103    286.55306    4.3109647    85.705693   -5.0242195   -5879.2082    10890.368 
     104    313.51785    4.1422647    90.486034     11.17525   -5883.7948    10890.368 
     105     286.5135    3.9493893    94.136879    2.0427481   -5960.4115    10890.368 
     106    313.66561    3.7471845    95.608372    15.575818   -5872.3377    10890.368 
     107    286.35936    3.5138342    94.584597    2.2091305   -5799.4453    10890.368 
     108    313.80001    3.2741332    91.215697    11.541973   -5529.6033    10890.368 
     109    286.21819    3.0172335    85.795363   -5.8921333   -5244.0732    10890.368 
     110     313.8206    2.7719234    79.617222    1.0316792   -4755.3104    10890.368 
     111    286.26928    2.5245221    73.147198   -17.249469   -4242.3636    10890.368 
     112    313.76864    2.2996146    67.647194   -9.6887412   -3548.1567    10890.368 
     113    286.43235     2.079367    63.160239   -26.097352   -2837.7017    10890.368 
     114    313.68324    1.8817513     60.12746   -16.600459   -1980.6896    10890.368 
     115    286.54603    1.7002128    58.115817   -31.084999   -1141.7645    10890.368 
     116    313.63133    1.5556155    56.901006   -20.616303   -200.00132    10890.368 
     117    286.57606    1.4462286    55.987442   -34.848344    683.63542    10890.368 
     118    313.61999    1.3949091    55.190181   -24.804827    1621.9487    10890.368 
     119    286.59251    1.3901025    54.431786    -39.59837    2456.8821    10890.368 
     120    313.58452    1.4130195    53.988522   -29.745479    3302.0428    10890.368 
     121    286.68422    1.4601781    54.220808   -43.773244    3987.4174    10890.368 
     122    313.46939    1.5229452    55.512943   -32.273771     4654.678    10890.368 
     123    286.82639    1.6001218     58.24494   -43.416998    5135.3122    10890.368 
     124    313.26971    1.6794048    62.268954   -28.881876    5590.8631    10890.368 
     125    286.92107    1.7594211    67.618204   -36.661419    5848.1982    10890.368 
     126    313.10855    1.8300752    73.376414   -19.841928    6091.0095    10890.368 
     127    286.94427    1.9009191    79.207885   -26.329665    6136.4618    10890.368 
     128    313.13228    1.9669657      83.8902   -9.8759322    6175.1827    10890.368 
     129    286.89922    2.0331194    87.107863   -18.276532    6003.0168    10890.368 
     130    313.26262    2.0915393    88.279853   -4.5512294    5826.9894    10890.368 
     131    286.81664    2.1441504     87.57123   -16.236892     5426.488    10890.368 
     132    313.32213    2.1848739    85.473645   -4.9969848    5027.4561    10890.368 
     133    286.81382    2.2157188    82.494276   -18.235196    4391.7866    10890.368 
     134    313.27182     2.233542    79.527526   -7.2045003    3767.5846    10890.368 
     135    286.90392    2.2409036    76.857783   -19.452184    2903.2794    10890.368 
     136    313.16258    2.2399742    74.925665   -7.0305886    2072.5067    10890.368 
     137    286.98089    2.2330332    73.525597   -17.676446    1022.2447    10890.368 
     138    313.09951    2.2239083     72.49671   -4.4345223    52.979625    10890.368 
     139     286.9877    2.2174241    71.382861    -15.06946   -1087.8828    10890.368 
     140    313.12709    2.2211335    69.973395   -2.7507146    -2079.973    10890.368 
     141    286.94656    2.2420055     68.04411   -15.010158   -3166.6957    10890.368 
     142    313.15817    2.2836265    65.879968   -4.2622382   -4028.7324    10890.368 
     143    286.94547    2.3489074    63.650977   -17.714754   -4900.7571    10890.368 
     144    313.12075     2.428239    61.936455   -7.2757925   -5492.1488    10890.368 
     145    287.02817    2.5187766    60.953245   -20.019624   -6034.8296    10890.368 
     146    313.01708    2.6133333    60.933841   -8.3159402   -6277.7801    10890.368 
     147    287.12561    2.7214001    61.799525   -19.229323   -6437.2229    10890.368 
     148    312.91271    2.8323223    63.194102   -6.0949853   -6310.2659    10890.368 
     149    287.17272    2.9515286    64.808193   -15.912989   -6096.1593    10890.368 
     150    312.87721    3.0658235    66.118103   -2.5432965   -5638.1939    10890.368 
     151    287.17384    3.1807051    66.970324   -12.719809   -5126.1502    10890.368 
     152     312.8782    3.2874708    67.270867 -0.048597329   -4440.6761    10890.368 
     153    287.17882    3.3963295    67.248029   -10.902979   -3769.1875    10890.368 
     154    312.84593    3.4966714    67.230758    1.4411131   -3014.8281    10890.368 
     155    287.21721    3.5963445    67.546606   -9.2563984   -2354.2282    10890.368 
     156    312.78641    3.6878214    68.341311    3.4291462   -1683.3357    10890.368 
     157    287.24574     3.778726    69.619787    -6.925361    -1167.867    10890.368 
     158    312.78114    3.8551455    70.992912    5.5135571   -673.37118    10890.368 
     159    287.20664    3.9212793    72.138754   -5.9568922   -368.09746    10890.368 
     160    312.85501    3.9719191    72.565946    4.6293008   -84.689767    10890.368 
     161    287.10887    4.0122484    72.087108    -9.475422     14.04108    10890.368 
     162    312.91352    4.0401011    70.812358   -1.2623154    133.54673    10890.368 
     163    287.07297    4.0590013    68.991018   -17.299478    107.65243    10890.368 
     164    312.89798    4.0702557    67.272092   -9.8007656    161.18451    10890.368 
     165    287.17931    4.0788189    66.028589   -25.236672    126.89979    10890.368 
     166    312.81121    4.0880323     65.69177   -16.258308    227.92207    10890.368 
     167    287.32867    4.1028165     66.31332   -29.345905    298.89972    10890.368 
     168    312.70079    4.1266352    67.648628    -18.32413    546.68415    10890.368 
     169    287.41222    4.1800827    69.382607   -29.599211    811.10682    10890.368 
     170    312.65046    4.2741742    70.895818     -17.7979    1262.8322    10890.368 
     171     287.4219    4.4146683    71.885215   -29.074709    1725.8887    10890.368 
     172     312.6561    4.5797355    72.084064   -17.920868    2331.6317    10890.368 
     173     287.4209    4.7692551    71.605591   -30.017355    2900.2412    10890.368 
     174    312.62948    4.9564686    70.829362    -19.27469    3536.5994    10890.368 
     175    287.48427    5.1456868    70.183711    -30.95447    4052.3534    10890.368 
     176    312.52239    5.3154955    70.159725   -19.069447    4552.7222    10890.368 
     177    287.58582    5.4783702    71.035518   -28.705797    4847.5022    10890.368 
     178    312.37228    5.6260209    72.751908   -14.844156    5068.3376    10890.368 
     179    287.64607    5.7719737    75.175399   -22.551086    5010.6791    10890.368 
     180    312.30517    5.9068748    77.641287   -7.8178843     4848.737    10890.368 
     181    287.63432    6.0438353    79.779598   -15.705633    4375.0335    10890.368 
     182    312.37374    6.1731617    80.940596   -2.2706738    3823.1343    10890.368 
     183     287.5605    6.3063511    80.954734    -12.47228    2978.5663    10890.368 
     184    312.46476      6.43273    79.846213   -1.4181527    2132.4636    10890.368 
     185    287.49895    6.5654056    77.807939   -13.968301    1064.8855    10890.368 
     186    312.48626    6.6976337    75.417008   -4.3764727    99.059236    10890.368 
     187    287.51685    6.8473809    72.877159    -17.63542   -993.66752    10890.368 
     188    312.45354    7.0046303    70.645274   -8.0833097   -1893.8618    10890.368 
     189    287.56457    7.1831422    68.576051    -21.01166   -2828.4727    10890.368 
     190    312.42912    7.3669447    66.689489   -11.326949   -3499.5129    10890.368 
     191    287.56983    7.5674407    64.562326   -24.514955   -4127.1189    10890.368 
     192    312.44498    7.7622787    62.132001   -15.609661   -4457.0927    10890.368 
     193    287.53944    7.9595296    59.099061   -30.005038   -4703.5617    10890.368 
     194    312.45839     8.135363    55.820084   -22.210115   -4668.1052    10890.368 
     195     287.5578    8.2966722    52.354615    -37.31627   -4559.2825    10890.368 
     196    312.42379     8.421338    49.401143   -29.458527   -4220.3631    10890.368 
     197    287.66906    8.5153725    47.165104   -43.469049   -3855.0016    10890.368 
     198    312.32709    8.5684159     46.12616   -33.930115   -3338.8982    10890.368 
     199    287.80472    8.5812159    46.331455   -45.490434    -2858.868    10890.368 
     200    312.19612    8.5539202    47.692662    -33.72722   -2297.3209    10890.368 
     201    287.89335    8.4876512    50.074599   -43.035895   -1824.6931    10890.368 
     202    312.09547    8.3927376    52.979548   -29.810437   -1314.0725    10890.368 
     203    287.93074    8.2692777    56.307551   -38.075344   -925.63766    10890.368 
     204    312.04657    8.1359505    59.553914   -24.474161   -514.08578    10890.368 
     205    287.94451    7.9927804    62.827871   -32.635877   -231.82686    10890.368 
     206    312.01411    7.8637378    65.812454   -19.130253    91.107003    10890.368 
     207     287.9569    7.7549273    68.735796   -27.354206    307.60387    10890.368 
     208    311.98197    7.6822755    71.329236   -13.944688    595.23873    10890.368 
     209    287.96191    7.6423375    73.718825   -22.331318    811.89878    10890.368 
     210    311.98045    7.6359552    75.555456   -9.3547198    1139.0018    10890.368 
     211    287.93836    7.6549029    76.806765   -18.606689    1434.7927    10890.368 
     212    312.02694    7.6849081    77.213711    -6.853058     1865.134    10890.368 
     213    287.88433    7.7108861    76.747868   -17.816964    2285.5375    10890.368 
     214    312.08289    7.7077716    75.515567   -7.7470235    2835.1531    10890.368 
     215    287.83868    7.6571556    73.609054   -20.435315    3357.9557    10890.368 
     216    312.10496    7.5483219    71.450318   -11.591256    3971.4942    10890.368 
     217    287.84036    7.3606689    69.123181   -25.121962    4513.2595    10890.368 
     218    312.09383    7.1062774    67.005552   -16.660155    5088.8495    10890.368 
     219     287.8731    6.7700688    64.992866   -30.267915    5527.2002    10890.368 
     220    312.07508    6.3929387    63.213745   -21.825666    5947.6811    10890.368 
     221    287.90083    5.9612521    61.414582   -35.459287    6171.2873    10890.368 
     222    312.06346    5.5278725    59.639782   -27.185646    6342.7466    10890.368 
     223    287.92495    5.0764141    57.702088   -41.000317    6278.0081    10890.368 
     224    312.04429    4.6591279    55.809857   -32.827316    6159.0753    10890.368 
     225    287.97839    4.2581751    53.960211   -46.394752    5797.3968    10890.368 
     226    311.99493    3.9175558    52.491306   -37.652466    5408.7978    10890.368 
     227    288.06843    3.6157526    51.476771   -50.067792    4794.3758    10890.368 
     228    311.91215    3.3782612    51.110251    -40.02993    4199.5538    10890.368 
     229    288.15722    3.1857971     51.36774   -50.804314    3413.0888    10890.368 
     230    311.82738    3.0488582    52.114586   -39.462808    2700.8979    10890.368 
     231    288.20789    2.9511603     53.18654   -49.109029      1843.38    10890.368 
     232    311.78537    2.8933417      54.2449    -37.29044    1108.6673    10890.368 
     233    288.21781    2.8598963    55.139343   -46.918279    273.97765    10890.368 
     234    311.78089    2.8484317    55.681485   -35.492167   -403.93225    10890.368 
     235    288.22036    2.8535825    55.947846   -45.630652   -1144.5912    10890.368 
     236    311.75728    2.8752358    56.098601   -34.501848    -1713.457    10890.368 
     237    288.25749    2.8933223    56.432217   -44.447436   -2324.1636    10890.368 
     238    311.68039    2.8899114    57.197158   -32.686104   -2766.4862    10890.368 
     239    288.32159    2.8666876    58.635149   -41.395985   -3266.2832    10890.368 
     240    311.57786    2.8257116    60.617682   -28.428454   -3611.7848    10890.368 
     241    288.35863    2.7666339    63.069911   -36.012212   -4011.4111    10890.368 
     242    311.54871    2.6981919    65.377379   -22.736891   -4256.5756    10890.368 
     243    288.32971    2.6203273    67.217127   -30.966757   -4539.9087    10890.368 
     244    311.63017    2.5462403    68.001156   -19.243167    -4654.293    10890.368 
     245    288.24067    2.4770921    67.562794   -29.942247   -4778.7231    10890.368 
     246    311.71582    2.4254553    66.010043   -20.588527   -4717.0809    10890.368 
     247    288.18738    2.3927596    63.585703   -33.421564   -4637.6056    10890.368 
     248    311.71533    2.3963376    61.033591   -25.053963   -4363.8827    10890.368 
     249    288.25907    2.4472698    58.732902    -37.64419   -4055.9935    10890.368 
     250    311.61983    2.5518496    57.322359   -28.039369   -3564.6171    10890.368 
     251    288.38556    2.7145356    56.921699   -38.394433   -3033.7872    10890.368 
     252    311.48113    2.9053354    57.536343   -26.667269   -2341.5654    10890.368 
     253    288.46242    3.1404675    58.956739   -34.921587   -1617.7974    10890.368 
     254    311.40262    3.4024277     60.67114   -22.052603   -771.38821    10890.368 
     255    288.46703    3.7122965    62.387715   -29.947204     61.74651    10890.368 
     256    311.42425    4.0334712    63.624197   -17.630045    953.24137    10890.368 
     257    288.42585    4.3843299    64.307263   -26.771075    1762.1118    10890.368 
     258    311.47117     4.728431    64.385277   -15.803715    2550.9832    10890.368 
     259    288.39583    5.0899613    64.018769   -26.274245    3173.3742    10890.368 
     260    311.47786    5.4319519    63.447042   -16.132378    3717.5691    10890.368 
     261    288.41003    5.7783402    62.815332   -26.987381    4026.8943    10890.368 
     262    311.44652    6.0959855    62.290749   -16.844926    4235.3297    10890.368 
     263    288.44497    6.4094367    61.849537   -27.413537    4174.8919    10890.368 
     264    311.40996     6.683507    61.482179   -17.020268    4028.9308    10890.368 
     265     288.4703    6.9341649    61.078583   -27.362363    3625.0452    10890.368 
     266    311.38521    7.1397717    60.619048    -16.92689    3200.2174    10890.368 
     267     288.4884    7.3158552    60.060416   -27.261366    2570.2323    10890.368 
     268    311.35893    7.4420597    59.512369   -16.841965    2001.9089    10890.368 
     269     288.5173     7.526918    59.043675   -27.020026    1314.0528    10890.368 
     270    311.31085    7.5644503    58.829427   -16.307266    773.14963    10890.368 
     271    288.56321    7.5584724    58.976191   -25.869752    191.36878    10890.368 
     272      311.241    7.5104529    59.542994   -14.496334   -180.49931    10890.368 
     273    288.60814    7.4169057    60.584491    -23.20543   -530.37193    10890.368 
     274    311.17585    7.2927173    61.932054    -11.20585   -641.31217    10890.368 
     275    288.63019     7.147023    63.559963   -19.398589   -700.71048    10890.368 
     276    311.15027     6.996646    65.132179    -7.309414   -547.78617    10890.368 
     277    288.61725    6.8313384    66.590102   -15.815072   -368.46541    10890.368 
     278    311.17301     6.671921    67.634941   -4.4044152    -43.52521    10890.368 
     279    288.58013    6.5057862    68.266382   -13.957672    248.96152    10890.368 
     280    311.21009    6.3465038    68.418939    -3.601415    606.98459    10890.368 
     281    288.55137    6.1759843    68.195531   -14.242117    846.71457    10890.368 
     282    311.22156    6.0072986    67.765575   -4.6251691    1080.9966    10890.368 
     283    288.56118    5.8228252    67.273906   -15.683854    1129.9458    10890.368 
     284    311.19399    5.6476278    66.924983   -6.0939276     1146.344    10890.368 
     285    288.60448    5.4723189    66.799254   -16.785155    949.94799    10890.368 
     286    311.14038    5.3374155    66.944589   -6.6977684    742.17403    10890.368 
     287    288.65344    5.2640816       67.339   -16.671372    338.26152    10890.368 
     288     311.0899    5.2502513    67.857805   -6.0550612   -29.839325    10890.368 
     289    288.67992     5.277292    68.437995   -15.599436   -531.41029    10890.368 
     290    311.06394    5.3195332     68.92876   -4.8641613   -916.09379    10890.368 
     291     288.6869    5.3645601    69.318164   -14.450551    -1354.306    10890.368 
     292    311.05243    5.3942922    69.563153   -3.8954236   -1602.3616    10890.368 
     293    288.69012    5.3928361    69.730864   -13.699944    -1826.306    10890.368 
     294    311.04032    5.3506399    69.874952   -3.3497639   -1822.2543    10890.368 
     295    288.69785    5.2580179    70.086384   -13.306759   -1752.8115    10890.368 
     296    311.02648    5.1203658    70.399034    -3.096163   -1459.7322    10890.368 
     297    288.70338    4.9239355    70.863935   -13.207009   -1103.2838    10890.368 
     298    311.02129     4.698062    71.421302   -3.2260429   -572.97666    10890.368 
     299    288.70006    4.4394841    72.077485   -13.670497   -26.963408    10890.368 
     300    311.02895      4.18435    72.708195   -4.1088035    607.24081    10890.368 
     301    288.68801    3.9177244    73.301927   -15.109053    1176.2454    10890.368 
     302    311.04467      3.67361    73.734088   -6.1186303    1751.7143    10890.368 
     303    288.67523    3.4349831    73.977907    -17.76812     2177.765    10890.368 
     304    311.06022    3.2284358    73.952467   -9.3589548    2551.1133    10890.368 
     305    288.66914    3.0349893    73.607298   -21.595533     2717.083    10890.368 
     306     311.0703    2.8601969    72.951609   -13.667721    2819.5134    10890.368 
     307    288.67735    2.6878643     71.93179   -26.307511     2693.081    10890.368 
     308    311.06609    2.5352683    70.691996   -18.603766    2523.8656    10890.368 
     309    288.71209      2.38801    69.209493     -31.2253    2141.6102    10890.368 
     310    311.03856     2.259261    67.742172   -23.292833    1775.4775    10890.368 
     311    288.77634    2.1303811     66.30242   -35.311854     1251.509    10890.368 
     312      310.981    2.0121651    65.166476   -26.618242    809.93553    10890.368 
     313    288.86207    1.8981872    64.371182     -37.4303    264.18445    10890.368 
     314    310.89004    1.8004142    64.095957   -27.491973   -142.55693    10890.368 
     315    288.94846    1.7032647    64.382913   -36.680457    -594.3977    10890.368 
     316    310.77961    1.6128609    65.207442   -25.322661   -874.57194    10890.368 
     317    289.00974    1.5209062    66.564199   -32.971607    -1169.433    10890.368 
     318    310.69294    1.4342909    68.163076   -20.584727   -1285.7628    10890.368 
     319    289.02323    1.3448003    69.896641      -27.557   -1405.6613    10890.368 
     320    310.68857    1.2615252    71.309806   -15.233267   -1361.7068    10890.368 
     321    288.97673    1.1751966    72.239076   -23.044462    -1327.848    10890.368 
     322    310.76956    1.0969443    72.388411   -12.113526   -1157.9951    10890.368 
     323    288.88531    1.0251004    71.697983    -22.00162   -1022.7308    10890.368 
     324    310.86363    0.9570702    70.324975    -13.04797   -785.33103    10890.368 
     325    288.80794   0.88274023    68.376733     -24.9996   -615.37025    10890.368 
     326    310.90963   0.81687949    66.343011   -17.433254   -370.64266    10890.368 
     327    288.79978   0.75936603    64.333435    -30.31476   -205.01258    10890.368 
     328    310.90813   0.72121703    62.742801    -23.07441    23.642455    10890.368 
     329    288.83884   0.71126152     61.50235   -35.882353    159.97559    10890.368 
     330    310.88978   0.73771966    60.687499   -28.438796    360.01066    10890.368 
     331     288.8783   0.80357187    60.102573   -40.969844    478.67723    10890.368 
     332    310.87396   0.90647984    59.677432     -33.3689    672.02603    10890.368 
     333     288.9165    1.0596247    59.289469   -45.685506    783.87178    10890.368 
     334    310.84751    1.2481116    58.961071   -37.825901    971.52438    10890.368 
     335    288.97665    1.4938196    58.704955   -49.569538    1076.6712    10890.368 
     336    310.79238    1.7805691    58.602108   -40.975948    1245.3354    10890.368 
     337    289.05501     2.149524    58.680727   -51.576864    1313.2882    10890.368 
     338    310.71663    2.5591655    58.929103   -41.892472    1423.1311    10890.368 
     339     289.1212    3.0327756    59.331526   -51.242627    1409.1513    10890.368 
     340    310.64332    3.5169463    59.813843   -40.604597    1423.0673    10890.368 
     341    289.16614    4.0412666    60.405557   -48.993695    1294.7263    10890.368 
     342     310.5788     4.546761    61.074384   -37.674465    1191.6018    10890.368 
     343    289.19608    5.0766905    61.913898    -45.37197    945.10312    10890.368 
     344    310.52709    5.5820998    62.844943   -33.605215    737.22001    10890.368 
     345    289.20254    6.1028308    63.862128   -41.023817    394.69703    10890.368 
     346    310.52558     6.584623    64.679997   -29.427215    124.14704    10890.368 
     347     289.1632    7.0643742    65.092592   -37.603512   -245.08173    10890.368 
     348    310.59277    7.4888425    64.792751   -27.231779   -496.48676    10890.368 
     349    289.08493    7.8883835    63.582229    -37.23617   -799.17081    10890.368 
     350    310.66437    8.2167411    61.611855   -28.544337   -945.99493    10890.368 
     351    289.04666    8.5016288    58.973883    -40.03356   -1100.5366    10890.368 
     352     310.6589    8.7212224    56.362828   -31.905996   -1079.3403    10890.368 
     353    289.11936    8.8950745     54.07095   -42.912499   -1054.2063    10890.368 
     354    310.55333    9.0026381    52.752148   -33.492167   -872.99274    10890.368 
     355    289.24008     9.050661    52.550342   -42.281358   -696.02397    10890.368 
     356    310.40116    9.0328063    53.487182   -30.788076   -396.09925    10890.368 
     357    289.30714    8.9459456    55.407814    -37.51205   -126.33704    10890.368 
     358    310.32152    8.7969076    57.731475   -24.929903    221.43242    10890.368 
     359    289.29587    8.5744395    60.236215   -31.334048    491.13935    10890.368 
     360    310.34503    8.3057544    62.354079   -19.231698    786.65243    10890.368 
     361    289.25019    7.9731972    64.168425   -26.626256     949.2369    10890.368 
     362    310.36991    7.6218188    65.584695   -15.388073    1096.2734    10890.368 
     363    289.23706    7.2279527    66.973422   -23.361654    1060.0562    10890.368 
     364    310.33835    6.8421692    68.400592   -12.210776    991.61833    10890.368 
     365    289.24711    6.4370321    70.086003   -19.962176    719.65572    10890.368 
     366    310.32339    6.0643161    71.713913   -8.7548687    433.39162    10890.368 
     367    289.20067    5.6953199    73.098503   -17.044353   -45.267551    10890.368 
     368    310.42041    5.3781663    73.670006   -7.1302997   -486.27914    10890.368 
     369    289.06111    5.0898599    73.115756    -17.85691   -1071.4723    10890.368 
     370    310.56525    4.8701131     71.36773   -10.525937   -1548.4906    10890.368 
     371    288.92661     4.703868    68.423804   -24.138491   -2103.9729    10890.368 
     372     310.6329    4.6175437    65.018562   -18.620573   -2488.9459    10890.368 
     373    288.95145    4.6063776    61.383956   -33.048974   -2891.6293    10890.368 
     374    310.59851    4.6507968    58.395439    -27.10695   -3089.5823    10890.368 
     375    289.10172    4.7520613    56.103024   -39.942136   -3266.9837    10890.368 
     376    310.49678    4.9020132    54.824014   -32.123254   -3241.4743    10890.368 
     377    289.23429    5.1143595    54.293879   -42.690427   -3179.8005    10890.368 
     378    310.40491    5.3624389    54.294008   -33.255481     -2931.86    10890.368 
     379    289.29249    5.6600132    54.525177   -42.518854   -2651.8071    10890.368 
     380     310.3566    5.9704291    54.783851   -32.436976    -2226.898    10890.368 
     381    289.32234    6.3099162     55.09068   -41.178045   -1798.6545    10890.368 
     382    310.29463    6.6321341    55.580121   -30.589486    -1281.818    10890.368 
     383    289.37575    6.9566766    56.564823   -38.366606   -814.26797    10890.368 
     384    310.18111    7.2403258    58.154892   -26.647471   -310.01106    10890.368 
     385    289.42428    7.5007875    60.549751   -32.974477    99.149629    10890.368 
     386    310.10407    7.7030839    63.293888   -20.346315     512.6441    10890.368 
     387    289.39306    7.8589945    66.183996   -26.526641    801.10582    10890.368 
     388    310.20284    7.9464335    68.316267   -14.955748    1086.7783    10890.368 
     389    289.23608    7.9641815    69.323859   -23.793239    1237.2863    10890.368 
     390    310.40674    7.9130273    68.797327   -15.396983     1395.964    10890.368 
     391    289.04088    7.7970062    66.780622   -28.115681    1422.4816    10890.368 
     392     310.5164    7.6419737    63.971211   -22.386349    1481.7869    10890.368 
     393    289.03195    7.4467098      60.8411   -36.638523    1424.5719    10890.368 
     394    310.48036    7.2441147    58.440233   -30.672783    1430.8747    10890.368 
     395    289.20873    7.0227933    57.066476     -43.0575    1348.0947    10890.368 
     396    310.34387    6.8102159    57.018038   -34.736369    1357.4228    10890.368 
     397    289.35331     6.589389    58.052095    -44.33309     1305.281    10890.368 
     398    310.25262    6.3860886    59.531734   -34.289238    1364.0121    10890.368 
     399    289.35985    6.1826847    60.903544   -43.151175    1384.3101    10890.368 
     400    310.30042     6.000366    61.458486   -33.652634    1522.3331    10890.368 
     401    289.28251    5.8208506    60.968669   -44.027806    1624.7925    10890.368 
     402    310.36163    5.6609996    59.615148   -35.959153    1826.5675    10890.368 
     403    289.28205    5.5029328    57.772193   -47.244197    1969.4806    10890.368 
     404    310.30252    5.3578674    56.281815   -38.868201    2177.2563    10890.368 
     405    289.41631    5.2093738     55.63759   -48.370858    2286.5763    10890.368 
     406    310.11035    5.0699139    56.270957   -37.577948    2425.7599    10890.368 
     407    289.54078     4.925137    58.264744   -43.912641    2432.5388    10890.368 
     408    309.93545    4.7873359    61.077382   -30.829897    2446.9699    10890.368 
     409    289.54759    4.6402345    64.365569   -35.698502    2304.2848    10890.368 
     410    309.97099    4.4964001    67.113459   -22.768827    2168.9845    10890.368 
     411    289.43764    4.3392216    69.058196   -29.337581    1868.8657    10890.368 
     412    310.13148     4.182383    69.802449   -18.699804    1591.9343    10890.368 
     413    289.31542    4.0059839    69.641162   -28.004048    1155.1999    10890.368 
     414      310.198    3.8263357    69.088918   -19.036578    769.55389    10890.368 
     415      289.327    3.6223331    68.707518   -28.979496    242.04411    10890.368 
     416    310.12065    3.4154406    68.990606     -19.4601   -203.57232    10890.368 
     417     289.4152    3.1844163    70.137534   -27.906404     -763.543    10890.368 
     418    310.01646    2.9569181     71.83197   -17.037825   -1207.7236    10890.368 
     419    289.42796    2.7199699    73.748931   -24.529486   -1724.3027    10890.368 
     420    310.05396    2.5059269    75.050372   -13.859396    -2093.667    10890.368 
     421    289.31288     2.291651    75.284352   -22.902189   -2502.6856    10890.368 
     422     310.2108    2.1036416    74.110492   -14.422517   -2741.4151    10890.368 
     423    289.15431    1.9195452    71.430955   -26.400129   -2986.3708    10890.368 
     424    310.32233    1.7577829    67.888957   -20.107295    -3059.918    10890.368 
     425    289.11241    1.6031243    63.650221   -33.704734   -3139.1604    10890.368 
     426    310.33211    1.4743727    59.707303   -27.826122   -3066.9283    10890.368 
     427     289.1987    1.3594218    56.049564   -40.901106   -3009.8734    10890.368 
     428    310.28465    1.2712738    53.246343   -34.096104   -2825.7876    10890.368 
     429    289.28765    1.2006518     50.97185   -45.971821   -2667.9794    10890.368 
     430    310.25365    1.1542622     49.29808   -38.414949   -2404.6693    10890.368 
     431    289.31583    1.1261894    47.842581    -49.87554   -2179.8836    10890.368 
     432    310.25755    1.1204628    46.633173   -42.332647   -1864.5577    10890.368 
     433    289.33184     1.138566    45.568012   -53.900401   -1602.6782    10890.368 
     434    310.23677    1.1756963     44.92619   -46.240874   -1274.6002    10890.368 
     435    289.40996     1.232891     44.91922   -57.056571   -1018.1588    10890.368 
     436    310.13605     1.302035    45.804047   -48.131759   -711.07617    10890.368 
     437    289.53481    1.3859183    47.828766   -56.805303   -487.75262    10890.368 
     438    309.96885    1.4731143    50.761738   -45.753571   -225.11343    10890.368 
     439    289.62252     1.570618     54.66829   -51.997523   -59.655549    10890.368 
     440    309.83324    1.6665604    58.766494   -39.292183    139.81252    10890.368 
     441    289.63152    1.7688719    63.007294   -44.381253    233.65345    10890.368 
     442    309.81023    1.8646564     66.53069    -31.45313    360.11629    10890.368 
     443    289.58006    1.9594516    69.426324   -37.009996    376.95564    10890.368 
     444    309.85554    2.0384335    71.296446   -24.902399     428.1472    10890.368 
     445    289.51771     2.107425    72.441219   -31.531185    358.83539    10890.368 
     446    309.88946    2.1550097    72.916762   -20.237507    329.58219    10890.368 
     447    289.47156    2.1850496    72.962585   -27.627376    177.91367    10890.368 
     448    309.91975     2.195889    72.657348   -16.930312    79.067388    10890.368 
     449    289.40781    2.1930128    71.923804   -25.200132   -131.11561    10890.368 
     450    310.00449    2.1793233    70.716194   -15.591539   -267.06613    10890.368 
     451    289.29485    2.1563002    68.751888   -25.632382   -493.27094    10890.368 
     452    310.12618    2.1301662    66.220654     -17.7908   -617.85361    10890.368 
     453    289.19278    2.1022259     62.97332   -29.860496   -806.25191    10890.368 
     454    310.19124    2.0804379    59.696665   -23.276513   -872.41923    10890.368 
     455    289.21856    2.0674906    56.478283   -35.857274   -979.84978    10890.368 
     456    310.13956     2.069528    54.127256   -28.717684   -957.53083    10890.368 
     457    289.37207    2.0924163    52.749083   -39.508543   -965.26654    10890.368 
     458     309.9738    2.1383325    52.661546   -30.168482   -848.98437    10890.368 
     459    289.52544    2.2171319    53.804447   -37.985836   -757.17737    10890.368 
     460    309.77833     2.323644    55.800918    -26.24942   -555.45642    10890.368 
     461      289.588    2.4684756     58.48008   -31.782452   -388.03209    10890.368 
     462     309.6735    2.6301586    61.120728   -18.830206   -135.57093    10890.368 
     463    289.55934    2.8143421    63.665193   -23.810268    67.619141    10890.368 
     464    309.68091     2.989532    65.610015   -11.037473    326.44179    10890.368 
     465    289.48542    3.1695992    67.156002   -16.702241    491.82644    10890.368 
     466    309.72375    3.3223764    68.220877   -4.8161185    675.13314    10890.368 
     467    289.40863    3.4560398    69.119572   -11.324003    726.09803    10890.368 
     468    309.76609    3.5453685     69.89479   0.11891145    776.65559    10890.368 
     469    289.32257    3.5956872    70.732151   -7.1263993    667.37448    10890.368 
     470    309.84539    3.5982716     71.51971    3.6616489    564.90627    10890.368 
     471    289.18542    3.5556869     72.29268   -4.6469217    298.71371    10890.368 
     472    310.00415    3.4806024    72.881927    5.1882764    67.146728    10890.368 
     473    288.95812    3.3933791     73.33375   -4.5326528   -297.86447    10890.368 
     474    310.27891    3.3315416    73.611344    4.4505824   -581.99547    10890.368 
     475    288.52781    3.2929431    73.819816   -6.5478899    -963.8167    10890.368 
     476    310.86844    3.2953862    73.988142    2.2325861   -1207.6175    10890.368 
     477     287.4656    3.3460155    74.174844   -9.9924269   -1506.7258    10890.368 
     478    312.47711     3.436766    74.316881  -0.31250242   -1627.5391    10890.368 
     479    284.25714    3.5751925    74.387487   -15.003581   -1773.0838    10890.368 
     480    318.06563    3.7177168    74.271068   -1.6024492   -1693.9341    10890.368 
     481    271.72396    3.8686905    73.945272   -24.808307   -1663.5778    10890.368 
     482    308.90169    3.9914412    73.428301   -10.032818   -1397.5791    10890.368 
     483    275.88445    4.0996503    72.569863   -27.324682   -1162.9878    10890.368 
     484    314.91515    4.1677273    71.540173   -11.788344   -754.98634    10890.368 
     485    282.54651    4.2002352    70.202047   -28.727667   -411.00894    10890.368 
     486    317.24498    4.1869224    68.758696   -15.280409    33.850147    10890.368 
     487    278.25765    4.1267805    66.889307   -35.194983    362.28886    10890.368 
     488    323.63961    4.0357015    64.885569    -16.76523    767.45173    10890.368 
     489    272.36028    3.8991043    62.334513   -42.486613    948.27077    10890.368 
     490    317.11787    3.7497481    59.850285   -24.478543    1195.0946    10890.368 
     491    281.47852    3.5679042    57.098562   -43.019411    1188.5757    10890.368 
     492    318.14031    3.3895097     54.75754    -28.33216    1201.7523    10890.368 
     493     279.6912    3.1902182    52.724449   -47.257698    944.75072    10890.368 
     494    321.06559    3.0097946    51.561426   -29.146716    757.60051    10890.368 
     495    274.77068    2.8260984    51.225824    -49.83852    286.68506    10890.368 
     496    325.72408    2.6746047    51.740923    -25.67492   -23.259905    10890.368 
     497    294.46523    2.5228408    53.019333    -37.96954   -567.90846    10890.368 
     498    310.14666    2.3952147    54.718654   -28.644884   -991.18636    10890.368 
     499    297.79467    2.2689919    56.840965   -31.587178   -1468.9513    10890.368 
     500    307.66087    2.1646927    58.374314   -25.198766   -1771.5351    10890.368 
     501    287.90675     2.057108    59.273752   -32.924974   -2048.1925    10890.368 
     502    366.24094    1.9759147    59.283858    2.8180838   -1982.1907    10890.368 
     503    157.94347    1.9104409     59.59984   -90.653291   -2331.1689    10890.368 
     504    298.39891    1.8974791    58.857165   -27.536473   -1926.3118    10890.368 
     505    91.179961    1.9239906    56.451027   -123.10649   -1728.9722    10890.368 
     506    124.02197    1.9372524    55.024689   -109.59855   -1452.3608    10890.368 
     507    55.927858    2.0324997    47.912158   -147.50502   -303.58905    10890.368 
     508    31.825108     2.041423    46.616563   -159.91591   -190.76358    10890.368 
     509     2764.229    2.0457062    37.833793    1067.1621    5713.7942    10890.368 
     510 1.1840502e-05    2.0365122    36.863781   -186.57115    444.70374    10890.368 
     511 0.00060657869    2.0275259    35.952047    -187.8095    431.69928    10890.368 
     512  0.031597149     2.018752    35.081131   -188.98722    419.18927    10890.368 
     513    1.7529304    2.0096391    34.195698   -189.42777    409.59619    10890.368 
     514    623.75663    1.9716235    30.625809    87.400322     1536.076    10890.368 
     515  0.010111649    1.7121195    20.645484   -218.99402   -688.65641    10890.368 
     516 0.00055889218    1.7083621    19.670099   -220.11883   -654.85442    10890.368 
     517  0.028181795    1.7046561     18.76909   -221.14868   -622.52554    10890.368 
     518    1.5164015    1.7007608    17.882357   -221.50811   -586.85853    10890.368 
     519    549.85452    1.6838133     14.45351    22.877888    596.37597    10890.368 
     520 1.5781808e-05    1.4939003    66.700262   -178.59033    1288.5658    10890.368 
     521 3.0438886e-06    1.4890959    61.211537   -184.40539    1255.1903    10890.368 
     522 0.00014581815    1.4845574    56.217073   -189.70533     1221.514    10890.368 
     523  0.007011667    1.4802638    51.671099   -194.53465    1187.7013    10890.368 
     524   0.33943507    1.4761818    47.517927   -198.80708    1154.3701    10890.368 
     525    19.516513    1.4715813    43.026034   -194.91169    1150.3539    10890.368 
     526    4492.9984    1.4354476    13.350776    1799.9464    9210.8983    10890.368 
     527 1.4449491e-10    1.4333491    12.607535   -236.61018     641.3408    10890.368 
     528 7.2379046e-09    1.4312986     11.92666   -237.39875    617.35415    10890.368 
     529 3.6311361e-07     1.429292     11.30251   -238.12702    594.07066    10890.368 
     530 1.8238911e-05     1.427326     10.73018   -238.80013    571.47831    10890.368 
     531 0.00091729806    1.4253973    10.205163   -239.42243    549.56435    10890.368 
     532  0.046353902    1.4234962    9.7216745   -239.98047    528.32093    10890.368 
     533    2.8168072    1.4212597     9.191055   -239.36648     508.7515    10890.368 
     534    4094.4886     1.398816    5.2963176    1609.5299    8019.5566    10890.368 
     535 1.9872261e-09    1.3972537    5.2095631   -245.76516    221.60106    10890.368 
     536 1.0287223e-07    1.3957017    5.1295118   -245.90873     211.0337    10890.368 
     537 5.3660984e-06     1.394154    5.0550362   -246.04598    200.80808    10890.368 
     538 0.00028036147    1.3926099    4.9856936   -246.17728    190.91206    10890.368 
     539   0.01474508    1.3910613    4.9207542   -246.29739    181.31091    10890.368 
     540    1.0073666    1.3890783    4.8431715   -246.00363     171.1885    10890.368 
     541    3432.5208     1.360534    4.1222547    1306.9347    6520.9063    10890.368 
     542 1.2583737e-07    1.3589091    4.1100341   -248.34982   -10.977941    10890.368 
     543 6.205685e-06     1.357399    4.0995544   -248.41071   -14.026292    10890.368 
     544 0.00033595358    1.3558881    4.0893588   -248.47097   -17.002561    10890.368 
     545  0.018433131    1.3543565    4.0793002    -248.5235   -19.914985    10890.368 
     546    1.8660243    1.3517076     4.062386   -247.79057   -21.410494    10890.368 
     547    21832.535    1.2689332    3.7236605     9640.324    41330.061    10890.368 
     548 6.8934177e-61    1.2674056    3.7167445   -251.67565   -190.32785    10890.368 
     549 3.7351209e-59    1.2658841    3.7100456   -251.72188   -189.35289    10890.368 
     550 2.0243385e-57    1.2643688    3.7035505   -251.76779   -188.44378    10890.368 
     551 1.0973965e-55    1.2628596    3.6972468   -251.81339    -187.5979    10890.368 
     552 5.9503144e-54    1.2613563    3.6911229   -251.85869   -186.81271    10890.368 
     553 3.2270557e-52    1.2598591    3.6851679   -251.90369   -186.08581    10890.368 
     554 1.7504827e-50    1.2583677    3.6793719   -251.94842   -185.41487    10890.368 
     555 9.4970549e-49    1.2568823    3.6737255   -251.99287   -184.79765    10890.368 
     556 5.1534143e-47    1.2554026    3.6682199   -252.03707   -184.23202    10890.368 
     557 2.7968661e-45    1.2539288     3.662847   -252.08101   -183.71591    10890.368 
     558 1.5181496e-43    1.2524607    3.6575992   -252.12471   -183.24735    10890.368 
     559 8.2417572e-42    1.2509982    3.6524693   -252.16818   -182.82445    10890.368 
     560 4.4749033e-40    1.2495414    3.6474509   -252.21142   -182.44538    10890.368 
     561 2.4299795e-38    1.2480903    3.6425377   -252.25443   -182.10838    10890.368 
     562 1.3196945e-36    1.2466446    3.6377239   -252.29723   -181.81179    10890.368 
     563 7.1679164e-35    1.2452045    3.6330043   -252.33982   -181.55398    10890.368 
     564 3.8936628e-33    1.2437698    3.6283737   -252.38221   -181.33339    10890.368 
     565 2.1152753e-31    1.2423405    3.6238275   -252.42439   -181.14855    10890.368 
     566 1.1492542e-29    1.2409166    3.6193612   -252.46638   -180.99801    10890.368 
     567 6.2445839e-28     1.239498    3.6149709   -252.50819   -180.88041    10890.368 
     568 3.3933366e-26    1.2380847    3.6106527    -252.5498    -180.7944    10890.368 
     569 1.8440992e-24    1.2366766     3.606403   -252.59124   -180.73874    10890.368 
     570 1.0022443e-22    1.2352737    3.6022184    -252.6325   -180.71219    10890.368 
     571 5.4474467e-21    1.2338759    3.5980959   -252.67358   -180.71358    10890.368 
     572 2.9610163e-19    1.2324833    3.5940324   -252.71449   -180.74178    10890.368 
     573 1.6095905e-17    1.2310957    3.5900253   -252.75524   -180.79571    10890.368 
     574 8.7501452e-16    1.2297131    3.5860719   -252.79582   -180.87433    10890.368 
     575 4.7570639e-14    1.2283356    3.5821699   -252.83624   -180.97662    10890.368 
     576 2.5863378e-12    1.2269629    3.5783171    -252.8765   -181.10164    10890.368 
     577 1.4062185e-10    1.2255952    3.5745112   -252.91661   -181.24845    10890.368 
     578 7.6461092e-09    1.2242323    3.5707503   -252.95656   -181.41616    10890.368 
     579 4.1576452e-07    1.2228743    3.5670326   -252.99636   -181.60392    10890.368 
     580 2.2609093e-05    1.2215209    3.5633562   -253.03601   -181.81086    10890.368 
     581 0.0012311864    1.2201705    3.5597146   -253.07502   -182.03428    10890.368 
     582  0.072090606    1.2187235    3.5558401   -253.08529   -182.16079    10890.368 
     583    36.461554    1.2115816    3.5369639   -236.80685    -114.3404    10890.368 
     584 3.6529438e-19   0.79824636    4.9238676   -263.46707    -766.6387    10890.368 
     585 6.3966614e-22   0.79752926     4.816042   -263.59786   -772.02098    10890.368 
     586 3.299051e-20   0.79683731    4.7148113   -263.72148   -777.07201    10890.368 
     587 1.7028464e-18   0.79616931    4.6197339   -263.83844    -781.8044    10890.368 
     588 8.7966918e-17    0.7955241    4.5303991   -263.94916   -786.23037    10890.368 
     589 4.548073e-15   0.79490061    4.4464249   -264.05407   -790.36171    10890.368 
     590 2.3534566e-13   0.79429782    4.3674559   -264.15355   -794.20985    10890.368 
     591 1.2188834e-11   0.79371476    4.2931614   -264.24796   -797.78582    10890.368 
     592 6.3183197e-10   0.79315054    4.2232337   -264.33764   -801.10029    10890.368 
     593 3.2781632e-08   0.79260428    4.1573863   -264.42289   -804.16355    10890.368 
     594 1.7023751e-06   0.79207519    4.0953525   -264.50401   -806.98558    10890.368 
     595 8.8491708e-05   0.79156247    4.0368809   -264.58123   -809.57595    10890.368 
     596 0.0046168737   0.79106402    3.9815891   -264.65302   -811.94248    10890.368 
     597   0.27854585   0.79050625    3.9214783    -264.6101   -813.93034    10890.368 
     598    377.84427   0.78587014    3.4844268   -94.153725   -117.14513    10890.368 
     599  6.74363e-47      1.43152    319.69652    78.454991   -4803.3093    10890.368 
     600 8.7237632e-48    1.4000431    298.55207    55.294722    -4496.969    10890.368 
     601 3.7938171e-46    1.3706347      278.881    33.737866   -4207.6693    10890.368 
     602 1.667988e-44    1.3431509    260.57765     13.67006   -3934.4066    10890.368 
     603 7.408341e-43    1.3174583    243.54418    -5.014668   -3676.2415    10890.368 
     604 3.3216385e-41    1.2934331    227.68994   -22.414533   -3432.2943    10890.368 
     605  1.50245e-39    1.2709707    212.93093    -38.62057   -3201.4669    10890.368 
     606 6.8516649e-38    1.2500968    199.18935      -53.717   -2982.7268    10890.368 
     607 3.1484517e-36    1.2307378    186.39313   -67.781969    -2775.908    10890.368 
     608 1.4570641e-34    1.2127842    174.47535   -80.888126    -2580.331    10890.368 
     609 6.7878118e-33    1.1961348    163.37393   -93.102862   -2395.3586    10890.368 
     610 3.1816656e-31    1.1806955    153.03131    -104.4887   -2220.3929    10890.368 
     611 1.4999306e-29    1.1663791     143.3941   -115.10368   -2054.8725    10890.368 
     612 7.1090427e-28    1.1531049    134.41276   -125.00163   -1898.2706    10890.368 
     613 3.3862422e-26    1.1407978    126.04132   -134.23256   -1750.0921    10890.368 
     614 1.6204914e-24    1.1293883    118.23712   -142.84288   -1609.8719    10890.368 
     615 7.7886581e-23    1.1188116    110.96054   -150.87569    -1477.173    10890.368 
     616 3.7587272e-21     1.109008    104.17482   -158.37103   -1351.5843    10890.368 
     617 1.8208129e-19    1.0999217    97.845826   -165.36606   -1232.7193    10890.368 
     618 8.8517384e-18     1.091501     91.94184   -171.89535   -1120.2142    10890.368 
     619 4.3174844e-16    1.0836981    86.433414   -177.99097   -1013.7268    10890.368 
     620 2.1124382e-14    1.0764392     81.29319   -183.68281   -912.58098    10890.368 
     621  1.03658e-12    1.0696457    76.495696   -188.99866   -816.79657    10890.368 
     622 5.100379e-11    1.0632859    72.017315    -193.9643   -726.12673    10890.368 
     623 2.5159869e-09    1.0573309    67.836102   -198.60368   -640.30183    10890.368 
     624 1.2440908e-07    1.0517537    63.931657   -202.93905   -559.06763    10890.368 
     625 6.1655239e-06    1.0465291    60.285017   -206.99112   -482.18435    10890.368 
     626 0.00030619965    1.0416338    56.878535   -210.77903   -409.42498    10890.368 
     627  0.015239879    1.0370452    53.695195    -214.3149   -340.53517    10890.368 
     628   0.76754064    1.0326989    50.689028   -217.32216   -273.25347    10890.368 
     629    61.503364    1.0264032    46.327957   -194.66543   -60.167161    10890.368 
     630    3.9269392   0.98945175    8.6910334   -263.61705    1440.2997    10890.368 
     631  0.043146075   0.98900824    8.5802403   -265.58072    1414.7736    10890.368 
     632    4.3036832   0.98792617    8.3297941   -263.93848    1383.6975    10890.368 
     633    18301.027   0.96765894    5.6438064    8022.6503    35025.762    10890.368 
     634 1.2906753e-50   0.96742373    5.5329346   -269.35603    225.21178    10890.368 
     635 6.5896674e-49   0.96718971    5.4296474   -269.46801    229.36917    10890.368 
     636 3.3697593e-47   0.96695682    5.3333027   -269.57293    233.09757    10890.368 
     637 1.725979e-45   0.96672501    5.2433155   -269.67139    236.41953    10890.368 
     638 8.8549149e-44   0.96649426    5.1591531   -269.76394     239.3564    10890.368 
     639 4.5504558e-42   0.96626454    5.0803301   -269.85106    241.92846    10890.368 
     640 2.3423658e-40   0.96603586    5.0064042   -269.93322    244.15492    10890.368 
     641 1.207785e-38   0.96580822    4.9369722   -270.01082    246.05402    10890.368 
     642 6.2382606e-37   0.96558164    4.8716663   -270.08424    247.64308    10890.368 
     643 3.2275883e-35   0.96535612    4.8101515   -270.15382    248.93853    10890.368 
     644 1.6727582e-33   0.96513171    4.7521217   -270.21987    249.95597    10890.368 
     645 8.6841283e-32   0.96490842    4.6972979   -270.28268    250.71023    10890.368 
     646 4.5159876e-30   0.96468629    4.6454254   -270.34251    251.21537    10890.368 
     647 2.3523723e-28   0.96446535    4.5962716   -270.39959    251.48479    10890.368 
     648 1.2273758e-26   0.96424566    4.5496243   -270.45413    251.53117    10890.368 
     649 6.4144079e-25   0.96402723    4.5052894   -270.50634     251.3666    10890.368 
     650 3.3576138e-23   0.96381012    4.4630896    -270.5564    251.00256    10890.368 
     651 1.7602968e-21   0.96359436     4.422863   -270.60446    250.44995    10890.368 
     652 9.2428607e-20   0.96337999    4.3844614   -270.65068    249.71915    10890.368 
     653 4.8604352e-18   0.96316706    4.3477493   -270.69519    248.82003    10890.368 
     654 2.5596105e-16    0.9629556    4.3126028   -270.73813    247.76196    10890.368 
     655 1.3498429e-14   0.96274565    4.2789084    -270.7796    246.55387    10890.368 
     656 7.1282512e-13   0.96253725    4.2465622   -270.81971    245.20423    10890.368 
     657 3.769227e-11   0.96233044    4.2154691   -270.85855    243.72112    10890.368 
     658 1.9955826e-09   0.96212525    4.1855419   -270.89621    242.11222    10890.368 
     659 1.0578243e-07   0.96192171    4.1567006   -270.93278    240.38482    10890.368 
     660 5.6139008e-06   0.96171986    4.1288718   -270.96832    238.54588    10890.368 
     661 0.00029837478   0.96151965    4.1019781   -271.00279    236.60182    10890.368 
     662  0.016203703   0.96131704    4.0754219   -271.02999    234.54681    10890.368 
     663    2.1325179   0.96089092     4.020778   -270.14241     233.9636    10890.368 
     664    34299.672    0.9503308    3.2970625    15268.278    65222.078    10890.368 
     665 8.5599414e-97     0.950122    3.2326758   -272.40417   -19.540936    10890.368 
     666 4.3010369e-95   0.94992684    3.1740178    -272.4772    -29.14501    10890.368 
     667 2.1630411e-93   0.94974444    3.1205686   -272.54449   -38.365588    10890.368 
     668 1.0888426e-91   0.94957398     3.071856   -272.60654   -47.218121    10890.368 
     669 5.4864899e-90   0.94941467    3.0274506   -272.66381   -55.717499    10890.368 
     670 2.7674168e-88   0.94926583    2.9869625   -272.71673   -63.878064    10890.368 
     671 1.3974208e-86   0.94912678     2.950037   -272.76568   -71.713624    10890.368 
     672 7.064401e-85   0.94899691    2.9163518     -272.811   -79.237466    10890.368 
     673 3.5755459e-83   0.94887567     2.885614   -272.85302   -86.462375    10890.368 
     674 1.8119745e-81   0.94876251     2.857557   -272.89201   -93.400643    10890.368 
     675  9.19451e-80   0.94865696    2.8319387   -272.92826   -100.06409    10890.368 
     676 4.6719271e-78   0.94855855     2.808539   -272.96198   -106.46407    10890.368 
     677 2.3772702e-76   0.94846686    2.7871575   -272.99341    -112.6115    10890.368 
     678 1.211434e-74    0.9483815    2.7676122   -273.02274   -118.51687    10890.368 
     679 6.1827664e-73   0.94830211    2.7497374   -273.05015   -124.19022    10890.368 
     680 3.1604591e-71   0.94822833    2.7333826   -273.07581   -129.64124    10890.368 
     681 1.6181661e-69   0.94815986    2.7184108   -273.09986   -134.87918    10890.368 
     682 8.298921e-68   0.94809639    2.7046973   -273.12245   -139.91296    10890.368 
     683 4.2634806e-66   0.94803766    2.6921289    -273.1437   -144.75111    10890.368 
     684 2.1941576e-64    0.9479834    2.6806024   -273.16373   -149.40182    10890.368 
     685 1.1312198e-62   0.94793338    2.6700242   -273.18263   -153.87294    10890.368 
     686  5.84271e-61   0.94788737    2.6603088   -273.20051   -158.17202    10890.368 
     687 3.0232916e-59   0.94784516    2.6513787   -273.21744   -162.30626    10890.368 
     688 1.5672986e-57   0.94780657    2.6431633   -273.23352   -166.28261    10890.368 
     689 8.1401886e-56   0.94777141    2.6355984   -273.24881   -170.10768    10890.368 
     690 4.2357513e-54    0.9477395    2.6286256   -273.26337   -173.78784    10890.368 
     691 2.208204e-52    0.9477107    2.6221916   -273.27727   -177.32919    10890.368 
     692 1.1533401e-50   0.94768485    2.6162481   -273.29057   -180.73757    10890.368 
     693 6.0350241e-49   0.94766182    2.6107511    -273.3033   -184.01857    10890.368 
     694 3.1637001e-47   0.94764147    2.6056607   -273.31553   -187.17754    10890.368 
     695 1.6614796e-45   0.94762369    2.6009403   -273.32728   -190.21964    10890.368 
     696 8.741067e-44   0.94760836    2.5965568    -273.3386   -193.14976    10890.368 
     697 4.606676e-42   0.94759538    2.5924802   -273.34953   -195.97262    10890.368 
     698 2.4319055e-40   0.94758465    2.5886829   -273.36009   -198.69274    10890.368 
     699 1.285943e-38   0.94757607    2.5851401   -273.37031   -201.31442    10890.368 
     700 6.8106941e-37   0.94756955    2.5818291   -273.38023   -203.84181    10890.368 
     701 3.6127083e-35   0.94756502    2.5787291   -273.38986   -206.27886    10890.368 
     702 1.9192098e-33    0.9475624    2.5758215   -273.39922   -208.62937    10890.368 
     703 1.0210225e-31   0.94756162    2.5730891   -273.40835   -210.89696    10890.368 
     704 5.4393385e-30    0.9475626    2.5705165   -273.41725   -213.08511    10890.368 
     705 2.9015433e-28   0.94756529    2.5680894   -273.42594   -215.19714    10890.368 
     706 1.5497378e-26   0.94756963    2.5657952   -273.43444   -217.23624    10890.368 
     707 8.2871961e-25   0.94757555     2.563622   -273.44277   -219.20545    10890.368 
     708 4.4366116e-23   0.94758301    2.5615593   -273.45093   -221.10769    10890.368 
     709 2.3777387e-21   0.94759196    2.5595974   -273.45894   -222.94576    10890.368 
     710 1.2756182e-19   0.94760235    2.5577275   -273.46681   -224.72232    10890.368 
     711 6.8500976e-18   0.94761413    2.5559417   -273.47455   -226.43993    10890.368 
     712 3.6818701e-16   0.94762727    2.5542327   -273.48217   -228.10103    10890.368 
     713 1.9806733e-14   0.94764172    2.5525939   -273.48967   -229.70798    10890.368 
     714 1.0663695e-12   0.94765745    2.5510193   -273.49707   -231.26301    10890.368 
     715 5.745552e-11   0.94767442    2.5495035   -273.50437   -232.76827    10890.368 
     716 3.0978803e-09   0.94769261    2.5480416   -273.51158   -234.22581    10890.368 
     717 1.6714265e-07   0.94771197     2.546629    -273.5187    -235.6376    10890.368 
     718 9.0241232e-06   0.94773248    2.5452616   -273.52574   -237.00557    10890.368 
     719 0.00048898917   0.94775419    2.5439316   -273.53251   -238.33475    10890.368 
     720  0.031101065   0.94778079    2.5424234   -273.52673   -239.78793    10890.368 
     721    53.239402   0.94805503    2.5298493   -249.49395    -152.8405    10890.368 
     722 7.1266648e-68    1.5808894    83.966768   -181.95956   -5037.4258    10890.368 
     723 1.8773909e-69    1.5742349     78.33256   -187.98288   -4891.5366    10890.368 
     724 9.0640772e-68    1.5679454    73.155393   -193.52574   -4752.6483    10890.368 
     725 4.3919151e-66    1.5619994    68.396681   -198.62861   -4620.2745    10890.368 
     726 2.1352037e-64    1.5563763    64.021153   -203.32851   -4494.1195    10890.368 
     727 1.0413193e-62    1.5510557     59.99656   -207.65928   -4373.8234    10890.368 
     728 5.0933238e-61    1.5460187    56.293418   -211.65186   -4259.0501    10890.368 
     729 2.4981087e-59    1.5412542    52.884763   -215.33456   -4149.3173    10890.368 
     730 1.2284098e-57    1.5367658    49.745957   -218.73322   -4044.4229    10890.368 
     731 6.0553246e-56    1.5325355    46.854451    -221.8715    -3944.185    10890.368 
     732 2.9918488e-54    1.5285448    44.189607    -224.7711   -3848.3457    10890.368 
     733 1.4814963e-52    1.5247767    41.732547   -227.45183   -3756.6636    10890.368 
     734 7.3515108e-51    1.5212154    39.465998   -229.93184   -3668.9125    10890.368 
     735 3.6553532e-49    1.5178465    37.374154   -232.22772   -3584.8803    10890.368 
     736 1.8210641e-47    1.5146566    35.442551   -234.35468   -3504.3681    10890.368 
     737 9.089396e-46    1.5116334    33.657949   -236.32661   -3427.1893    10890.368 
     738 4.5449961e-44    1.5087657    32.008231   -238.15625   -3353.1687    10890.368 
     739 2.2766648e-42    1.5060428    30.482303   -239.85525   -3282.1417    10890.368 
     740 1.1423876e-40    1.5034552    29.070006   -241.43429   -3213.9537    10890.368 
     741 5.7419753e-39    1.5009939     27.76204   -242.90313   -3148.4591    10890.368 
     742 2.890879e-37    1.4986508    26.549885   -244.27073   -3085.5211    10890.368 
     743 1.4578368e-35    1.4964183    25.425741   -245.54529   -3025.0109    10890.368 
     744 7.3635978e-34    1.4942893    24.382459    -246.7343   -2966.8072    10890.368 
     745 3.7253482e-32    1.4922574    23.413492   -247.84466   -2910.7957    10890.368 
     746 1.8877063e-30    1.4903166    22.512839   -248.88266   -2856.8687    10890.368 
     747 9.5805191e-29    1.4884613    21.675002   -249.85409   -2804.9246    10890.368 
     748 4.8699906e-27    1.4866865    20.894941   -250.76423   -2754.8674    10890.368 
     749 2.4794185e-25    1.4849874    20.168036   -251.61794   -2706.5987    10890.368 
     750 1.2643081e-23    1.4833597    19.490053   -252.41968   -2660.0296    10890.368 
     751 6.4570857e-22    1.4817995    18.857106   -253.17352   -2615.0908    10890.368 
     752 3.3029351e-20    1.4803028    18.265636    -253.8832   -2571.7061    10890.368 
     753 1.692165e-18    1.4788664    17.712374   -254.55215   -2529.8031    10890.368 
     754 8.6828766e-17    1.4774868    17.194325   -255.18353   -2489.3137    10890.368 
     755 4.4623287e-15    1.4761611    16.708739   -255.78023   -2450.1731    10890.368 
     756 2.2968611e-13    1.4748866    16.253092   -256.34488   -2412.3203    10890.368 
     757 1.1840792e-11    1.4736606    15.825069   -256.87993   -2375.6972    10890.368 
     758 6.113592e-10    1.4724808    15.422543   -257.38761    -2340.249    10890.368 
     759 3.1613886e-08    1.4713448    15.043564   -257.86997   -2305.9235    10890.368 
     760 1.6372696e-06    1.4702507    14.686339   -258.32889   -2272.6714    10890.368 
     761 8.4922182e-05    1.4691964    14.349218   -258.76607   -2240.4454    10890.368 
     762 0.0044133837    1.4681796    14.030542    -259.1814   -2209.1784    10890.368 
     763   0.23553912    1.4671736    13.721289   -259.48561   -2177.6264    10890.368 
     764    35.286822    1.4648484    13.030096    -244.5291   -2038.3912    10890.368 
     765 0.0062672809    1.4509061     32.43196   -246.21845    958.27118    10890.368 
     766 0.00066467757    1.4502557    29.987015   -248.88353    910.53087    10890.368 
     767  0.032740369    1.4498497    27.745121   -251.31368    864.27049    10890.368 
     768    1.6665211     1.449659    25.623121   -252.89067    820.97395    10890.368 
     769    273.19577    1.4501875    20.457687   -135.52028    1211.4346    10890.368 
     770 1.9024176e-10    1.7574985    103.31129   -175.02337   -3544.1393    10890.368 
     771 3.5199079e-11    1.7453105    94.850043   -183.89562   -3378.9176    10890.368 
     772 1.6586879e-09    1.7337575    87.107783   -192.01373   -3223.0427    10890.368 
     773 7.8557926e-08    1.7228028    80.022747   -199.44245   -3075.9224    10890.368 
     774 3.7378584e-06    1.7124116    73.538536   -206.24092    -2937.006    10890.368 
     775 0.00017860569    1.7025516    67.603627   -212.46307   -2805.7811    10890.368 
     776 0.0085680388    1.6931916    62.170592   -218.15502   -2681.7472    10890.368 
     777      0.41391    1.6842703    57.178418    -223.2046   -2563.2885    10890.368 
     778     23.82577    1.6741256    51.723628   -218.31463   -2385.4561    10890.368 
     779    3683.6843    1.5861273    14.665535    1401.1507    5743.0396    10890.368 
     780 2.5984406e-08    1.5824837    13.679999   -268.89839   -1218.7936    10890.368 
     781 1.2892652e-06    1.5790155    12.778318   -269.84438   -1177.2234    10890.368 
     782 6.4229886e-05    1.5757029    11.950459   -270.71293   -1137.6716    10890.368 
     783 0.0032025723    1.5725372    11.190144   -271.50927   -1100.0194    10890.368 
     784   0.16132859     1.569481    10.484987   -272.17757   -1063.5229    10890.368 
     785    12.900926    1.5649722    9.4953288   -267.44382   -986.05764    10890.368 
     786    5350.1259    1.4745716    5.0103198    2146.2904    10297.821    10890.368 
     787 1.1115297e-13    1.4752617    4.7761968   -278.02715    104.60133    10890.368 
     788 5.5491895e-12    1.4759317     4.562713   -278.27057    87.079072    10890.368 
     789 2.7715633e-10    1.4765813    4.3680474   -278.49359    70.279197    10890.368 
     790 1.3849122e-08    1.4772104    4.1905336   -278.69799    54.174595    10890.368 
     791 6.9234959e-07    1.4778187    4.0286537   -278.88537    38.738926    10890.368 
     792 3.4629224e-05    1.4784063    3.8810229   -279.05722    23.946558    10890.368 
     793 0.0017337539    1.4789736    3.7463153   -279.21421    9.7687347    10890.368 
     794  0.089168516    1.4795357    3.6201346   -279.32331   -4.0285871    10890.368 
     795    13.463978    1.4809047    3.3443006   -273.59195   -11.992354    10890.368 
     796    134.53171     1.611236    38.912882   -183.05666    -1838.353    10890.368 
     797    27.610128     1.635429    51.305492   -218.65782   -2364.7447    10890.368 
     798    3115.7481     1.721236    97.349179     1228.621    2509.2092    10890.368 
     799 1.2572504e-05    1.7091004    89.255753   -191.52792   -3255.6512    10890.368 
     800 0.00059713686    1.6974871    81.810009   -199.30665   -3103.0349    10890.368 
     801  0.028307887    1.6864611    75.005487   -206.40252   -2958.9499    10890.368 
     802    1.3600845    1.6758865    68.726662   -212.35766   -2819.0942    10890.368 
     803    98.565713     1.660692    60.119912   -177.30384   -2437.8937    10890.368 
     804   0.89851093    1.4619194    3.8560253   -279.86045    29.650356    10890.368 
     805 0.0085269917    1.4616757    3.7117498    -280.4211    17.883901    10890.368 
     806   0.55261118    1.4615761    3.5400681   -280.36262     4.963845    10890.368 
     807     556.3106    1.4610035    2.5706493   -29.642521    953.29256    10890.368 
     808 1.1577646e-14    1.5983667    286.14308    7.1580096   -5296.4515    10890.368 
     809 5.3584108e-15    1.5834825    258.76909   -20.815113   -4992.8965    10890.368 
     810 2.5929548e-13    1.5694891     234.0656   -46.059153   -4710.1927    10890.368 
     811 1.309264e-11    1.5564918    211.76886   -68.843339   -4446.6914    10890.368 
     812 6.8354614e-10     1.544439     191.6415   -89.410088   -4201.1935    10890.368 
     813 3.6353998e-08    1.5332577    173.46986   -107.97771   -3972.2856    10890.368 
     814 1.9300368e-06    1.5228805    157.06158   -124.74272    -3758.678    10890.368 
     815 9.9988777e-05    1.5132454    142.24349   -139.88203   -3559.1927    10890.368 
     816  0.004962507    1.5042953    128.85943    -153.5531   -3372.7414    10890.368 
     817   0.23508759    1.4959702    116.75819   -165.81057   -3197.7624    10890.368 
     818    11.255005    1.4878606    105.31076   -172.51032   -3005.6195    10890.368 
     819    1488.0317    1.4637663     73.40494    464.01767     318.7853    10890.368 
     820    1.3804717    1.4507683    57.748622   -225.53464   -2224.0801    10890.368 
     821    26.537335    1.4446205    50.814846   -221.21126   -2039.2322    10890.368 
     822    3289.6966    1.4028482    12.380396    1218.1639    5167.8311    10890.368 
     823 1.1459653e-05    1.4014421     11.43409    -273.3042   -1047.8993    10890.368 
     824  0.016798671    1.4001498    10.588098   -274.15633   -1009.7846    10890.368 
     825    1.1563209    1.3988768    9.7779442   -274.46287   -969.41798    10890.368 
     826    374.21704    1.3937939    6.7961308   -108.45634   -99.960447    10890.368 
     827 3.6116611e-07    1.4529242    186.45692   -90.690593    1912.7552    10890.368 
     828    1.0639473    1.4429684    168.96448   -108.34202    1868.2158    10890.368 
     829    67.623739    1.4326594    150.54809   -97.284239    1936.9019    10890.368 
     830     628.3406    1.3828074    50.477016    52.758948    2412.8094    10890.368 
     831    49.251716    1.3743218    27.376493   -233.76152    1009.8893    10890.368 
     832    1009.5475    1.3705549    9.3260285    182.30819    2392.8558    10890.368 
     833    23.996984    1.3723181     3.750018   -270.25465    168.15667    10890.368 
     834    508.35943    1.3771824    3.4785254   -51.321517    720.41347    10890.368 
     835    67.651105    1.4237901    44.133737   -209.76569   -1731.1838    10890.368 
     836    50.177786    1.4363906    58.524054   -202.90475   -2111.6484    10890.368 
     837     656.1729    1.4790523    114.73814    129.85791   -2182.3148    10890.368 
     838    71.556391    1.5105757    161.88264   -85.899144   -4197.8025    10890.368 
     839    420.33925    1.5447973    222.07643    135.42062   -4653.0252    10890.368 
     840    202.78361    1.5754895    301.60704    121.35015   -6479.0604    10890.368 
     841    378.65612    1.5819046    356.67524    260.31386   -7085.7201    10890.368 
     842    233.43976    1.5573266    386.76163    227.94814   -7848.1226    10890.368 
     843    370.70803    1.5101265    372.12455    275.62203   -7289.7976    10890.368 
     844    239.58448    1.4357648    316.12869     157.3837   -6505.5133    10890.368 
     845    341.88167    1.3602252    247.83708     131.4655   -5021.5755    10890.368 
     846    257.14463     1.283192     174.5397    15.421089   -3722.1652    10890.368 
     847    328.79019    1.2220629    114.02748   -16.195038   -2257.1266    10890.368 
     848     272.5028    1.1737391    66.126231   -92.408337   -1121.7965    10890.368 
     849    324.20124    1.1444699    36.313816    -100.6112    31.824165    10890.368 
     850    273.69285     1.129878     24.28388   -136.46184     832.2824    10890.368 
     851    333.13626    1.1284678    30.968601   -102.94253    1676.5071    10890.368 
     852    253.26318    1.1394125     55.72513   -113.72897    2076.3736    10890.368 
     853    285.07362     1.155222    91.960588   -61.990876    2483.7667    10890.368 
     854    279.10945    1.1783104     157.5223    2.9255093     2716.145    10890.368 
     855    267.28758    1.1898422    212.35083    54.136203    2721.2441    10890.368 
     856    244.28089    1.1884743    294.34241    128.38123    2494.9897    10890.368 
     857    285.17689    1.1709673    326.31794    180.03491    2369.3071    10890.368 
     858     165.2986    1.1169054    332.49092    132.55646    1668.8424    10890.368 
     859    330.49896    1.0910621    306.33134    180.57155    1797.2868    10890.368 
     860     132.8768    1.0522074    219.86343    1.7342556    1088.1519    10890.368 
     861    306.01552    1.0436574    180.87261    39.675412    1305.0092    10890.368 
     862    134.55899    1.0336178    102.47339   -119.84479    696.84686    10890.368 
     863    265.15586    1.0317893    79.558012   -84.737405       817.31    10890.368 
     864    108.54294     1.032779    42.854801   -194.41189    68.823142    10890.368 
     865    158.95268    1.0335347    38.291442   -176.37536    15.365062    10890.368 
     866     59.92786    1.0401251    45.496072   -212.96457   -911.04178    10890.368 
     867    29.926611    1.0398672    46.560681   -225.19785   -1054.9846    10890.368 
     868    2888.6964    1.0310854     41.38909    1066.2224    4101.3434    10890.368 
     869 1.3640079e-05    1.0291441    38.110795   -246.09024   -1353.4378    10890.368 
     870 0.00066787955    1.0273419    35.108529   -249.29557   -1315.9616    10890.368 
     871  0.032718653    1.0256625    32.361433    -252.2186    -1280.228    10890.368 
     872    1.6484853    1.0240553     29.77958   -254.25169   -1242.2406    10890.368 
     873     228.8833    1.0204334    24.140085   -157.35016   -729.26248    10890.368 
     874 1.8623514e-09    1.0156725    91.653018   -194.62756   -366.92981    10890.368 
     875 3.4280944e-10    1.0135563    83.571444   -202.90992   -324.42737    10890.368 
     876 1.607971e-08    1.0117316    76.243886    -210.4188   -286.41209    10890.368 
     877 7.5822695e-07    1.0101695    69.598094   -217.22827   -252.46436    10890.368 
     878 3.5925797e-05     1.008844    63.568899   -223.40511   -222.20367    10890.368 
     879 0.0017096866    1.0077313    58.097432   -229.00896   -195.28162    10890.368 
     880  0.081744464    1.0068092    53.126978   -234.06321   -171.22171    10890.368 
     881    4.0690015    1.0060297    48.434988   -237.06099   -141.63651    10890.368 
     882    685.26578    1.0043994     36.04288    58.897405    1210.0267    10890.368 
     883    16.335371    1.0146486    4.0833862   -276.50535     28.38517    10890.368 
     884   0.91328841    1.0163933    4.3378715   -283.20113   -15.110257    10890.368 
     885    204.16957    1.0219535    4.4633859   -190.90766    315.97021    10890.368 
     886 8.5834423e-39    1.5327711    491.67555    242.63215   -6792.6382    10890.368 
     887 3.4810136e-39     1.506439    455.71863    204.13056   -6450.2807    10890.368 
     888 3.5433714e-37    1.4818988    422.46042    168.49795   -6128.9487    10890.368 
     889 5.392448e-35    1.4590154    391.69294    135.51469   -5827.1854    10890.368 
     890 1.3613642e-32    1.4376648    363.22479    104.97848   -5543.6429    10890.368 
     891 6.253495e-30    1.4177333    336.87971    76.702955   -5277.0735    10890.368 
     892 5.4647336e-27    1.3991164    312.49536    50.516386   -5026.3221    10890.368 
     893 8.6458254e-24     1.381718     289.9222    26.260473   -4790.3188    10890.368 
     894 2.0722834e-20      1.36545    269.02243    3.7892637   -4568.0723    10890.368 
     895 5.5801502e-17    1.3502311    249.66902    -17.03184   -4358.6636    10890.368 
     896 1.1836967e-13    1.3359868    231.74486   -36.326998   -4161.2411    10890.368 
     897 1.4435307e-10    1.3226482    215.14197   -54.210768   -3975.0144    10890.368 
     898 8.2956315e-08     1.310152    199.76073   -70.788873   -3799.2505    10890.368 
     899 2.1223232e-05    1.2984399    185.50924   -86.158893   -3633.2689    10890.368 
     900 0.0025925632    1.2874578    172.30263   -100.40985   -3476.4324    10890.368 
     901   0.17939842    1.2771509    160.05638    -113.5539   -3327.7513    10890.368 
     902    9.2794077    1.2671382    148.31319   -122.12002   -3165.2358    10890.368 
     903    1064.1016    1.2415656    119.49155     324.6244   -788.46188    10890.368 
     904    40.061117    1.2057454    81.459673   -180.59283    -2203.015    10890.368 
     905    658.51547    1.1796518    55.532347    71.394038   -616.05224    10890.368 
     906    125.84442    1.1336415    17.523668   -211.70535   -849.38417    10890.368 
     907    413.65105    1.1139221    6.7165184   -93.512974    85.551851    10890.368 
     908    136.76716    1.0913312     10.15127   -216.58525    214.60183    10890.368 
     909    233.54559    1.0907919    20.927913   -161.67912    614.58817    10890.368 
     910    49.269781    1.1193034    92.876426   -169.36887    789.46716    10890.368 
     911    5.6501832    1.1258485     99.96646   -181.54958    758.82351    10890.368 
     912    896.97319    1.1681756    95.554991    218.29496    2771.4036    10890.368 
     913    70.895775     1.232199    84.327944   -167.24123    1519.6365    10890.368 
     914    740.72644    1.3158095    73.768591    125.35687    3010.8446    10890.368 
     915    98.060941      1.39046    67.424727   -172.63822    1834.1664    10890.368 
     916    608.02803    1.4812218     64.15938    54.567669    2671.7497    10890.368 
     917    136.65324    1.5372082    64.987964   -158.46531    1515.6747    10890.368 
     918    495.18415    1.5780013      69.7908    8.8809645    1663.8846    10890.368 
     919    179.93894    1.5816884    76.456416   -126.66327    493.38379    10890.368 
     920    417.19746     1.552045    87.485483   -6.6496866    100.53776    10890.368 
     921    215.04489    1.5072521    99.870534   -84.004544   -1082.9052    10890.368 
     922    368.62079    1.4462444     117.5009    5.8132732   -1761.8323    10890.368 
     923      240.145    1.3978179    136.77411   -30.592162    -2872.255    10890.368 
     924    339.15134    1.3635801     159.8813    39.920664   -3552.2881    10890.368 
     925    262.24179    1.3524046    182.82808    29.935849   -4398.0412    10890.368 
     926    324.33735    1.3553643    202.86702    79.095889   -4766.4396    10890.368 
     927    256.51331    1.3557905    215.22486    60.506076   -5079.2258    10890.368 
     928    340.55808    1.3531759    214.29077    96.224552   -4746.1029    10890.368 
     929    272.03464    1.3485645    198.43064    46.899219   -4349.8687    10890.368 
     930     327.5756    1.3394329    171.58464    42.475971   -3470.3225    10890.368 
     931    293.27547    1.3246893     138.6244   -8.6883916   -2588.9094    10890.368 
     932    303.46192    1.3178755     107.5971   -37.184943   -1600.6502    10890.368 
     933    304.93512    1.3332783    81.947686   -63.599382    -645.2558    10890.368 
     934    299.77217    1.3784905    65.627989   -82.938932    217.70148    10890.368 
     935    303.37555    1.4542488    60.239571   -86.658642    987.37327    10890.368 
     936    289.89586    1.5752818    68.241368   -83.921653    1664.2097    10890.368 
     937    297.48564    1.7044179    85.384889   -62.114381    2147.6608    10890.368 
     938    288.86038    1.8813877    117.29118   -32.178136    2543.2731    10890.368 
     939    291.14536    2.0218889    149.31665    2.5977134    2752.4719    10890.368 
     940    281.88513    2.1744613    192.47796    43.590612    2815.6144    10890.368 
     941     294.4101     2.258628    220.24784    78.112677    2772.5844    10890.368 
     942    265.20435    2.3241742    242.04559    87.166026    2474.6975    10890.368 
     943     312.7545    2.3376098    241.00841    107.19064    2325.7182    10890.368 
     944    248.29114    2.3204201    217.47292     52.80734    1827.4608    10890.368 
     945      327.366    2.2871072    190.45995    60.056181    1712.1772    10890.368 
     946     247.4986    2.2136948    149.44569   -19.403455    1216.8191    10890.368 
     947    331.75911    2.1374254    121.42877   -10.782368    1128.9588    10890.368 
     948    254.62925    2.0218251    93.176365   -75.549179    675.83316    10890.368 
     949    330.13918    1.9257938    79.255519   -56.013051    579.98049    10890.368 
     950     260.0653    1.8030801    72.130243   -95.135875     138.3514    10890.368 
     951    325.26948    1.7193607    73.985921   -63.311813    18.005326    10890.368 
     952     261.2028    1.6469962    84.113105   -80.830365   -415.38812    10890.368 
     953    320.05026    1.6233356    96.043435   -40.571109   -536.28292    10890.368 
     954    258.72912    1.6365441     115.0663    -46.48986   -932.18358    10890.368 
     955     316.8573    1.6763264    130.26592   -2.5499562    -1003.035    10890.368 
     956    257.48153    1.7563108    150.58158    -5.895249   -1314.4889    10890.368 
     957    318.00356    1.8235768    164.75159    37.814933   -1310.4052    10890.368 
     958    263.48726    1.9065969    179.45757     29.75268   -1494.9666    10890.368 
     959    323.69084    1.9663465    186.92227     65.17664   -1396.3485    10890.368 
     960    267.90691    2.0349853    187.39607    39.949451   -1451.0161    10890.368 
     961    327.61599    2.0865581    179.95758    58.228118   -1236.4251    10890.368 
     962    266.56835      2.13725    162.28145    10.416055   -1189.0065    10890.368 
     963    324.75658    2.1799289    141.45941    13.264826   -911.80828    10890.368 
     964     267.9686    2.2261488    117.41299   -39.509244   -842.39607    10890.368 
     965    318.89898    2.2773875    96.330487   -40.222707   -589.98024    10890.368 
     966    270.23293    2.3341185    80.555307   -80.295443   -553.48999    10890.368 
     967    339.14376    2.3856126    72.392034   -58.733438   -328.70901    10890.368 
     968    262.81464    2.4428338    73.849775    -92.60535   -409.13325    10890.368 
     969    319.13046     2.473673    82.582268   -58.159606   -274.06057    10890.368 
     970    268.98437    2.4710643    101.61571   -60.686847   -340.39101    10890.368 
     971    314.72033    2.4207101    122.28295   -17.717621    -225.5076    10890.368 
     972    276.58038    2.3093584    149.20961   -5.7661904   -251.44764    10890.368 
     973    320.73691    2.1746599    173.24599    40.434413   -109.19603    10890.368 
     974    278.33501     1.997904     194.6226    44.533801   -100.65629    10890.368 
     975    331.44986    1.8224426    206.78661    81.819729     105.9343    10890.368 
     976    268.47275     1.654823    207.15731    53.693095     106.2132    10890.368 
     977    405.11029    1.5276519    194.30662    101.82743    466.81808    10890.368 
     978    211.79636    1.4234053    169.09007   -12.582001    166.33045    10890.368 
     979    392.83253    1.3691135    142.65389    41.503314    517.82914    10890.368 
     980    222.09881    1.3324212    108.91738   -71.324527    133.13158    10890.368 
     981    379.54055    1.3334722    85.302795   -24.706841     324.3863    10890.368 
     982    235.83184    1.3663194    66.517293   -109.42952   -150.23557    10890.368 
     983    363.22933    1.4182259    60.456952   -58.047326   -145.33956    10890.368 
     984    249.43889     1.498033    65.700727   -104.25561   -690.28922    10890.368 
     985    343.79774    1.5843583     80.48073   -46.328607   -833.22864    10890.368 
     986    262.14834    1.6994939    105.84318   -57.314727   -1352.7756    10890.368 
     987    329.19467    1.8188884    132.95014    0.8166714   -1509.6352    10890.368 
     988    272.78722    1.9606542    160.63337    3.5168464   -1810.5479    10890.368 
     989     329.2755    2.0930225    180.58431    49.403424   -1722.2775    10890.368 
     990    271.93729    2.1968099     190.2404    33.098645   -1642.3946    10890.368 
     991    328.17531    2.2581923    189.27935    57.330832   -1156.2312    10890.368 
     992    272.31328    2.2759502    180.27946    22.451472   -736.56343    10890.368 
     993    336.33546     2.243608    167.04907    37.444612    14.844914    10890.368 
     994    290.98173    2.1504858     152.9807    1.9339429    571.56803    10890.368 
     995    307.79137      2.00348    139.14686   -5.2062788    1229.0382    10890.368 
     996    291.05207    1.8312027    126.54397   -26.189229    1707.3339    10890.368 
     997     307.9618     1.647834    113.66669   -32.049429    2141.9519    10890.368 
     998    291.09932    1.4918474    101.75214   -51.967069    2332.0655    10890.368 
     999    308.33491    1.3624321    90.756347   -55.219843    2406.0656    10890.368 
    1000    291.04694     1.274228    83.254064    -70.29312    2212.5284    10890.368 
    1001    309.04787    1.2122501    80.665033   -64.112067    1868.1801    10890.368 
    1002     290.2962    1.1711021    84.786547   -67.569988    1272.8223    10890.368 
    1003    309.26988    1.1387729    96.744756   -45.736006    543.88007    10890.368 
    1004    288.64485    1.1292893    115.11457    -35.18749   -376.88462    10890.368 
    1005    308.61802     1.143261    139.48468  0.053106608   -1373.8378    10890.368 
    1006    288.58611    1.1764205    164.22016    17.504694   -2441.1566    10890.368 
    1007    307.54913     1.227241    186.58492    50.085936   -3418.7741    10890.368 
    1008    291.75785    1.2873599    199.68824    56.965553    -4235.537    10890.368 
    1009    306.85047    1.3582655     201.2537    65.321434    -4719.069    10890.368 
    1010    287.41081    1.4264859    190.53576    44.631054   -4867.9923    10890.368 
    1011    318.39203    1.4945943    169.01401    34.924712   -4533.7083    10890.368 
    1012    294.10521    1.5485794    143.36554   -4.3692121   -3989.4011    10890.368 
    1013    305.76304    1.5910369    117.60712   -27.417788   -3155.5114    10890.368 
    1014     304.8246    1.6296071    94.846883   -52.733553    -2196.186    10890.368 
    1015    294.17639     1.667971    78.264591   -75.513188   -1183.9817    10890.368 
    1016      316.079    1.7028042    69.820532   -74.497525   -151.60584    10890.368 
    1017    273.77863    1.7366948    71.164527   -91.772073    827.76646    10890.368 
    1018    310.05549    1.7498951    81.286304   -63.934043    1716.1239    10890.368 
    1019    286.89723    1.7535569    100.78738   -52.807704    2454.1162    10890.368 
    1020    341.91837    1.7561651    126.91938     0.839798    3144.9049    10890.368 
    1021    269.60961    1.7519749    158.04595    2.1214516    3395.4561    10890.368 
    1022    325.84355    1.7357448    185.95533    58.081176    3625.3463    10890.368 
    1023    280.02746    1.6967165    205.24427     58.49782    3386.3665    10890.368 
    1024    379.05451    1.6293529    210.13789    109.04203    3155.8779    10890.368 
    1025    245.29924    1.5415297    199.40018    37.269539    2269.4648    10890.368 
    1026    354.89192    1.4698801    177.00302     63.07783    1761.5225    10890.368 
    1027    261.11765     1.421926    147.82988   -10.782327    800.94584    10890.368 
    1028    336.84243    1.4033758     119.9769   -6.7576653    178.05641    10890.368 
    1029    273.05512    1.4068967    97.770473   -60.213894   -657.16781    10890.368 
    1030     335.5634    1.4302417    83.377735   -48.315767   -1179.7907    10890.368 
    1031    151.49905    1.4647862    76.575436   -140.00476   -2008.8885    10890.368 
    1032    572.52435    1.5065716    74.424197    47.519415   -1538.9441    10890.368 
    1033    141.67476    1.5423465    75.059491   -147.65289   -2486.6698    10890.368 
    1034    626.77959    1.5739867     78.42669    75.405263   -1500.5699    10890.368 
    1035    107.11164    1.5906543    81.255056   -156.94179   -2248.1187    10890.368 
    1036     815.6948    1.6035983    84.608376    168.16842   -373.65024    10890.368 
    1037    38.251495    1.6067068    83.958514   -184.34757   -1395.6255    10890.368 
    1038    1032.8214    1.6057798    77.216013    259.56336    1145.3662    10890.368 
    1039     28.09897    1.6057218    67.655694   -205.52044   -140.87101    10890.368 
    1040    673.60419    1.6064094    56.735339    75.464386     1600.234    10890.368 
    1041    94.035767    1.6401769    38.298509   -206.50337    1737.8801    10890.368 
    1042    227.34764    1.6624617    36.435352   -148.02511    2325.9226    10890.368 
    1043    17.449005    1.8185444    60.977585   -216.43419    2759.0698    10890.368 
    1044    5.7475622    1.8084318     58.27422   -224.66316    2673.5681    10890.368 
    1045    1862.0487    1.7404034    41.356662    598.02514    5836.3917    10890.368 
    1046  0.084662784    1.7150765    35.668499   -251.79865    2155.1256    10890.368 
    1047    1.9976374    1.7018915    32.876481   -253.97868    2087.0178    10890.368 
    1048    293.79475    1.6704027    26.504853   -128.73627    2460.3397    10890.368 
    1049 3.0682023e-08    1.4499954    72.968352   -215.70025   -2921.3422    10890.368 
    1050 4.9272361e-09    1.4450685    66.748136   -222.16211   -2775.5936    10890.368 
    1051 2.3441364e-07    1.4405246    61.094195   -228.03509   -2637.7316    10890.368 
    1052 1.1198108e-05    1.4363365    55.953477    -233.3743   -2507.2559    10890.368 
    1053 0.0005369531    1.4324786    51.277995   -238.22936    -2383.702    10890.368 
    1054   0.02584206     1.428926    47.023248   -242.63553   -2266.5633    10890.368 
    1055    1.2646048     1.425611     43.09536   -246.15173   -2151.5832    10890.368 
    1056    112.49052    1.4203457    36.866558   -202.21961   -1751.1918    10890.368 
    1057 0.0022376411    1.4694871    30.129825   -258.36946    1368.2867    10890.368 
    1058 0.00026548629    1.4656367    27.310801   -261.37031    1325.1098    10890.368 
    1059  0.012776587    1.4620193    24.782819   -264.06025    1282.8566    10890.368 
    1060   0.62320407      1.45858    22.489266   -266.23443    1242.2091    10890.368 
    1061    51.109829    1.4533207    19.173327   -246.91294    1271.0792    10890.368 
    1062     5.806332    1.3767586    26.870806   -262.39333   -787.52299    10890.368 
    1063   0.72331391    1.3776088    25.064176   -266.49913   -771.05557    10890.368 
    1064     94.90262    1.3796749    20.815424   -228.06275   -511.55762    10890.368 
    1065 0.00010095164    1.4486488    89.508176   -198.05352    690.93307    10890.368 
    1066 3.3931727e-05    1.4450015    79.396391   -208.46319     694.8622    10890.368 
    1067 0.0015335759    1.4415445    70.466622   -217.66388    695.06279    10890.368 
    1068  0.069883816    1.4382662    62.576018   -225.77157    692.24169    10890.368 
    1069    3.2690616    1.4350906    55.456853   -231.67286    692.59366    10890.368 
    1070    325.17262    1.4287621    42.641651   -99.078737     1285.832    10890.368 
    1071 0.0026032398    1.3443314     37.59716   -254.48713   -381.04502    10890.368 
    1072 0.00043681987    1.3469006    33.598319   -258.48095   -347.89852    10890.368 
    1073  0.020589246    1.3492853     30.05455   -262.00703   -317.58071    10890.368 
    1074   0.98649636    1.3515298    26.869956   -264.74316    -287.6577    10890.368 
    1075    87.074929    1.3552596    21.949932   -230.63384   -78.620243    10890.368 
    1076  0.011445422      1.43996    65.892064   -223.40187    46.097702    10890.368 
    1077 0.0037821304    1.4363192    58.250572   -231.23408    69.447196    10890.368 
    1078   0.17332146    1.4328911    51.518355   -238.05966    89.399572    10890.368 
    1079    8.4506613    1.4294607    45.227588   -240.76452    122.49672    10890.368 
    1080    1730.8474    1.4162981    24.787689     518.5963    3445.5724    10890.368 
    1081   0.16873216    1.4113142     18.84464   -271.68651    163.20695    10890.368 
    1082    2.7962511    1.4091146     16.64967   -272.77064    170.07249    10890.368 
    1083    719.63917    1.4009309    9.9151104    45.007799    1533.2778    10890.368 
    1084    5.9311107    1.3358834    31.749622   -257.74619   -195.92957    10890.368 
    1085    1.3563246    1.3370626    29.483277   -262.08272   -190.90426    10890.368 
    1086    229.64635    1.3413057    22.799763   -165.30971     288.3355    10890.368 
    1087 7.4611984e-09    1.4626031    152.91631   -135.00266   -456.74064    10890.368 
    1088 3.0182605e-09    1.4563346     134.7184   -153.55611    -381.0061    10890.368 
    1089 1.2898207e-07     1.450523    118.72579   -169.86783   -315.17112    10890.368 
    1090 5.5905199e-06     1.445131    104.66986   -184.21054   -257.99693    10890.368 
    1091 0.00024534946    1.4401242    92.314884   -196.82347   -208.39717    10890.368 
    1092  0.010886684    1.4354712    81.453501   -207.91256   -165.39871    10890.368 
    1093   0.48879586     1.431133    71.881487   -217.47835   -127.21088    10890.368 
    1094    24.622382    1.4265864    62.428608   -216.21051    -45.17298    10890.368 
    1095     3285.051    1.4002121    19.110808    1216.5847    6305.4796    10890.368 
    1096 8.8564943e-07    1.3982498    17.062939   -273.93205    63.319106    10890.368 
    1097 4.1648232e-05    1.3964094    15.278218   -275.77832    67.711886    10890.368 
    1098 0.0019804878    1.3946683     13.70803   -277.40422     71.28896    10890.368 
    1099  0.094592859    1.3930153    12.322505   -278.80001    74.339673    10890.368 
    1100    5.2666901    1.3911876    10.905903   -277.92934    86.786087    10890.368 
    1101    4353.4225    1.3754537    3.1330351      1683.94    8356.4282    10890.368 
    1102 1.8536792e-10    1.3748121    3.0283316   -288.63955    75.997585    10890.368 
    1103 8.9165431e-09    1.3741964    2.9367397   -288.74289    74.980392    10890.368 
    1104 4.3027311e-07    1.3736039    2.8564184   -288.83428    73.976429    10890.368 
    1105 2.0772133e-05    1.3730331    2.7860065   -288.91511    72.988779    10890.368 
    1106  0.001003891    1.3724824    2.7242677   -288.98625    72.021062    10890.368 
    1107  0.050213901    1.3719322    2.6683183   -289.02955    71.131563    10890.368 
    1108    9.2255782    1.3703907    2.5353853   -285.03175    85.733876    10890.368 
    1109    412.33554    1.2791722    60.469063   -45.369735     336.2506    10890.368 
    1110     17.94691    1.2628202     84.97647   -199.56557   -581.52958    10890.368 
    1111    1075.4958    1.2366432    118.96255    313.55087    1184.8306    10890.368 
    1112    44.215715    1.2046159    156.35623   -116.37659    -1084.808    10890.368 
    1113    984.41229    1.1943634    163.75924    316.90241    554.83261    10890.368 
    1114    49.370665    1.2093648    135.42389   -135.24233   -1158.6751    10890.368 
    1115    903.32938    1.2359321    93.465153    209.60989    650.65928    10890.368 
    1116    50.396617    1.2652592    54.299367   -215.99934   -762.90031    10890.368 
    1117    779.92959    1.2930632    26.566604    86.936745     799.4111    10890.368 
    1118    98.976502    1.3331396    5.9387542   -241.81501   -321.34613    10890.368 
    1119    687.32429    1.3739827    5.6049927    25.041096    879.36722    10890.368 
    1120    108.62823    1.4248932    24.750657   -217.07592   -215.11822    10890.368 
    1121    694.60016    1.4895699    64.454469    89.387593     821.9977    10890.368 
    1122     84.57026    1.5633963     113.3402   -136.75744   -463.26615    10890.368 
    1123    846.64171    1.6761954     175.1613    272.09962    818.26993    10890.368 
    1124    42.263254    1.7775137    202.47417   -63.964701    -769.2997    10890.368 
    1125     1471.481    1.9032239    186.66233    568.29061    2051.1646    10890.368 
    1126    1.3116563    1.9144845    159.67567   -125.23754    -648.0857    10890.368 
    1127    42.921295    1.9057034    139.29043   -127.22817   -504.44755    10890.368 
    1128    1930.9151      1.86122    59.654632    646.57472    3299.7867    10890.368 
    1129  0.011079197    1.8551165    51.800908   -236.36895   -358.26179    10890.368 
    1130   0.41268691    1.8503671     46.16709    -241.9935   -348.83092    10890.368 
    1131    22.574448     1.845119    40.305948    -238.0001   -299.09107    10890.368 
    1132    3910.2585    1.8027046    7.5063979    1489.3161    7073.0402    10890.368 
    1133 4.2460908e-09    1.8011778    6.9231301   -282.98251   -367.20411    10890.368 
    1134 2.0587329e-07    1.7997347    6.4051782   -283.54103   -370.74591    10890.368 
    1135 1.0013584e-05    1.7983667    5.9440855   -284.04032   -374.16619    10890.368 
    1136 0.00048748288    1.7970686    5.5335374   -284.48668   -377.45373    10890.368 
    1137  0.023813835    1.7958322    5.1669773   -284.87677   -380.56679    10890.368 
    1138     1.337761    1.7944802    4.7928128   -284.69266   -381.55004    10890.368 
    1139    1443.3531    1.7837094     2.696719    366.27907    2327.8551    10890.368 
    1140    9.5684374    1.7665115    3.1200527   -283.33327   -474.53567    10890.368 
    1141    78.636611    1.7591129    4.9365836     -250.385   -382.26597    10890.368 
    1142 0.0035777551    1.7204872    175.33246   -114.78035   -1847.8191    10890.368 
    1143 0.0025384039    1.7214197    156.94899   -133.43544   -1705.6897    10890.368 
    1144   0.10979643    1.7221659    140.54135   -150.03436   -1575.8519    10890.368 
    1145    4.8757835    1.7227544    125.66296   -162.96874   -1446.5443    10890.368 
    1146    363.77733    1.7236658    102.29651    -24.05415   -568.92806    10890.368 
    1147   0.93270417    1.7399992    4.7138145   -286.93605   -128.46977    10890.368 
    1148  0.013899082    1.7377465    4.5024849   -287.57394   -123.27876    10890.368 
    1149   0.74590202    1.7351797    4.2961605   -287.46076   -115.44207    10890.368 
    1150    930.29156    1.7136556    2.9646307    132.29032    1704.2106    10890.368 
    1151    7.0756526    1.5585583    33.994937   -253.03638    218.53396    10890.368 
    1152    1.4446655    1.5579611    32.320378   -257.35036    197.16744    10890.368 
    1153    326.43258    1.5602646    25.768636   -117.02943    781.27847    10890.368 
    1154 1.0589752e-08    1.8576411    93.555808   -195.98187    -1708.831    10890.368 
    1155 2.3103229e-09    1.8478215     84.62253   -205.21279   -1610.2044    10890.368 
    1156 1.0700666e-07    1.8386442    76.580928   -213.52384   -1518.6674    10890.368 
    1157 4.9868623e-06    1.8300536    69.340177   -221.00854   -1433.6353    10890.368 
    1158 0.00023370126    1.8219989    62.818885   -227.75059   -1354.5764    10890.368 
    1159  0.011008053     1.814434    56.943624   -233.82098   -1280.9822    10890.368 
    1160   0.52303446    1.8072862    51.625832   -239.08869   -1211.1759    10890.368 
    1161    30.624183    1.7989793    45.717697   -231.56155   -1074.5482    10890.368 
    1162    2314.4496    1.7286592    6.6255257    762.73906    3988.2325    10890.368 
    1163 5.3431734e-05    1.7253984    6.1443586   -286.39746   -395.65247    10890.368 
    1164 0.0020594399     1.722539    5.7988576   -286.75433   -382.18989    10890.368 
    1165   0.10361737    1.7197286    5.4796757   -287.03877    -369.0665    10890.368 
    1166    9.8645408    1.7148972    4.9697197   -283.14392     -328.659    10890.368 
    1167    6118.0666     1.592283    11.295096    2491.2716    11854.603    10890.368 
    1168 2.4123214e-15    1.5919362    10.430284   -281.63581    205.20452    10890.368 
    1169 1.1863375e-13    1.5916554    9.6476952   -282.46454    191.66238    10890.368 
    1170 5.8382879e-12    1.5914342    8.9394582   -283.21553    178.55101    10890.368 
    1171 2.8749998e-10    1.5912716    8.2984597   -283.89619     166.0622    10890.368 
    1172 1.416588e-08    1.5911698    7.7182833   -284.51315    154.02335    10890.368 
    1173 6.9838171e-07    1.5911221     7.193121   -285.07247    142.39977    10890.368 
    1174 3.4448674e-05    1.5911226    6.7177208    -285.5796    131.18685    10890.368 
    1175 0.0017003502    1.5911655    6.2872667   -286.03882    120.37999    10890.368 
    1176  0.084718234    1.5912467    5.8939904    -286.4222    110.02778    10890.368 
    1177      6.50968    1.5914226    5.3642305   -284.07953    106.95573    10890.368 
    1178    13093.529    1.6073423    4.2050953    5643.8415     24595.93    10890.368 
    1179 1.5613692e-35    1.6074767    4.0125565   -288.81133   -296.35466    10890.368 
    1180 7.6849871e-34    1.6075886    3.8386584   -288.98798   -287.64305    10890.368 
    1181 3.7836558e-32    1.6076787    3.6815654   -289.14746   -279.37257    10890.368 
    1182 1.863412e-30    1.6077481    3.5396248   -289.29145   -271.51841    10890.368 
    1183 9.1798091e-29    1.6077975    3.4113487   -289.42149   -264.05733    10890.368 
    1184 4.5236133e-27    1.6078279    3.2953969   -289.53895    -256.9676    10890.368 
    1185 2.2297941e-25    1.6078401    3.1905625   -289.64507   -250.22884    10890.368 
    1186 1.099443e-23     1.607835    3.0957585   -289.74097   -243.82196    10890.368 
    1187 5.4226479e-22    1.6078134    3.0100055   -289.82765   -237.72903    10890.368 
    1188 2.6753692e-20    1.6077761    2.9324209   -289.90601   -231.93325    10890.368 
    1189 1.3203632e-18    1.6077239    2.8622095   -289.97688   -226.41879    10890.368 
    1190 6.5184617e-17    1.6076576    2.7986548   -290.04098    -221.1708    10890.368 
    1191 3.2191731e-15    1.6075779    2.7411107   -290.09899    -216.1753    10890.368 
    1192 1.5903676e-13    1.6074855    2.6889948   -290.15149   -211.41913    10890.368 
    1193 7.8598106e-12    1.6073812    2.6417822   -290.19902   -206.88989    10890.368 
    1194 3.8859435e-10    1.6072656    2.5989993   -290.24208    -202.5759    10890.368 
    1195 1.9220302e-08    1.6071394    2.5602191   -290.28109   -198.46614    10890.368 
    1196 9.5107416e-07    1.6070031    2.5250565   -290.31645   -194.55022    10890.368 
    1197 4.7086737e-05    1.6068574    2.4931619   -290.34849   -190.81798    10890.368 
    1198 0.0023406865    1.6067023     2.464119   -290.37665   -187.24302    10890.368 
    1199   0.14011244    1.6065074    2.4325659   -290.34595   -182.88819    10890.368 
    1200    281.31989    1.6043722    2.2085227   -163.17051    394.74316    10890.368 
    1201 2.3347906e-89     2.017902    1403.0871    1160.1409    -2726.525    10890.368 
    1202 4.447398e-90    1.9552109     1267.696    1020.2983    -2217.726    10890.368 
    1203 8.862352e-89    1.8974968    1145.4882    894.04391   -1769.4927    10890.368 
    1204 1.9284671e-87    1.8443637    1035.1687    780.04514   -1375.3936    10890.368 
    1205 4.5431456e-86     1.795447     935.5712    677.10164   -1029.6556    10890.368 
    1206 1.1497759e-84    1.7504115    845.64487    584.13189   -727.09687    10890.368 
    1207 3.1041713e-83    1.7089488    764.44298    500.16122   -463.06708    10890.368 
    1208 8.8841831e-82    1.6707752    691.11239     424.3112    -233.3934    10890.368 
    1209 2.6801661e-80    1.6356301    624.88416    355.78997   -34.332089    10890.368 
    1210 8.4791251e-79    1.6036512    565.06516    293.88397    138.75012    10890.368 
    1211 2.8001506e-77    1.5749736    511.03119    237.95052    287.58573    10890.368 
    1212 9.612781e-76    1.5492713    462.21865    187.40881    414.82326    10890.368 
    1213 3.4176065e-74    1.5262502    418.11927    141.73496    522.88646    10890.368 
    1214 1.2540883e-72    1.5056452    378.27469    100.45641    613.94729    10890.368 
    1215 4.7352078e-71    1.4872173    342.27146    63.146899    689.95133    10890.368 
    1216 1.8346637e-69    1.4707512    309.73663    29.421802    752.64083    10890.368 
    1217 7.2761077e-68     1.456053    280.33373   -1.0659128    803.57526    10890.368 
    1218 2.9470726e-66    1.4429621     253.7592   -28.629403    844.39977    10890.368 
    1219 1.2166089e-64    1.4313352    229.73912   -53.551266    876.10917    10890.368 
    1220  5.10958e-63    1.4210259    208.02629    -76.08662    899.80777    10890.368 
    1221 2.1795958e-61    1.4119025    188.39758   -96.465759    916.49251    10890.368 
    1222 9.4292145e-60     1.403846    170.65161   -114.89658    927.05337    10890.368 
    1223 4.1314171e-58     1.396749     154.6066    -131.5668    932.28432    10890.368 
    1224 1.8311272e-56    1.3905149    140.09843   -146.64588    932.89313    10890.368 
    1225 8.2008165e-55    1.3850563    126.97894   -160.28689    929.51017    10890.368 
    1226 3.7075261e-53    1.3802945    115.11434   -172.62803    922.69641    10890.368 
    1227 1.6904837e-51    1.3761583    104.38382   -183.79415    912.95053    10890.368 
    1228 7.767588e-50    1.3725838     94.67828   -193.89799    900.71535    10890.368 
    1229 3.5941195e-48    1.3695129    85.899198   -203.04141    886.38361    10890.368 
    1230 1.6735681e-46    1.3668935    77.957575   -211.31642     870.3032    10890.368 
    1231 7.8375424e-45    1.3646786    70.773021   -218.80617    852.78178    10890.368 
    1232 3.6895053e-43    1.3628255    64.272915   -225.58576    834.09103    10890.368 
    1233 1.7450052e-41    1.3612959     58.39165   -231.72308    814.47038    10890.368 
    1234 8.288477e-40    1.3600552    53.069948   -237.27946    794.13049    10890.368 
    1235 3.952115e-38    1.3590722    48.254248   -242.31035    773.25618    10890.368 
    1236 1.8910599e-36    1.3583187    43.896148   -246.86584    752.00931    10890.368 
    1237 9.0773898e-35    1.3577693    39.951907   -250.99125    730.53114    10890.368 
    1238 4.3698777e-33    1.3574011    36.381994    -254.7275    708.94458    10890.368 
    1239 2.1091869e-31    1.3571935    33.150677   -258.11163     687.3562    10890.368 
    1240 1.0204561e-29    1.3571277    30.225658   -261.17709    665.85798    10890.368 
    1241 4.9478102e-28     1.357187    27.577737   -263.95416    644.52895    10890.368 
    1242 2.4037328e-26    1.3573564     25.18052    -266.4702    623.43658    10890.368 
    1243 1.1698684e-24    1.3576221    23.010141   -268.74996    602.63811    10890.368 
    1244 5.7029041e-23    1.3579719    21.045018   -270.81583    582.18171    10890.368 
    1245 2.7842015e-21    1.3583947     19.26564   -272.68805    562.10748    10890.368 
    1246 1.3611128e-19    1.3588807    17.654359   -274.38494    542.44842    10890.368 
    1247 6.6623153e-18    1.3594209    16.195216   -275.92307    523.23122    10890.368 
    1248 3.2647328e-16    1.3600073    14.873775   -277.31744    504.47707    10890.368 
    1249 1.6014733e-14    1.3606327    13.676979    -278.5816    486.20224    10890.368 
    1250 7.8632785e-13    1.3612907    12.593017   -279.72783    468.41877    10890.368 
    1251 3.864252e-11    1.3619754    11.611204   -280.76724    451.13492    10890.368 
    1252 1.9005284e-09    1.3626816    10.721871   -281.70988     434.3557    10890.368 
    1253 9.3540599e-08    1.3634056    9.9162724   -282.56485    418.15309    10890.368 
    1254 4.606922e-06    1.3641549    9.1864962   -283.34037    402.63305    10890.368 
    1255 0.00022703467    1.3649288    8.5253803    -284.0438    387.60637    10890.368 
    1256  0.011203728    1.3657226     7.925973   -284.67761    373.07766    10890.368 
    1257   0.57681307    1.3665672    7.3594339   -285.02604    359.46057    10890.368 
    1258    131.54803    1.3695321    5.7446975   -227.41426    560.29914    10890.368 
    1259 1.6722162e-20    1.9230097    326.51868    44.552083    -4378.048    10890.368 
    1260 5.6391133e-21    1.8919042    296.03786     12.97205   -4094.5395    10890.368 
    1261 2.2696919e-19    1.8629299    268.45298   -15.608988   -3832.0444    10890.368 
    1262 9.3158319e-18    1.8359178    243.48593   -41.478734    -3588.826    10890.368 
    1263 3.8919283e-16    1.8107133    220.88563   -64.896981   -3363.3024    10890.368 
    1264 1.652208e-14     1.787175    200.42536   -86.098346   -3154.0321    10890.368 
    1265 7.116399e-13    1.7651736    181.90034   -105.29475   -2959.7008    10890.368 
    1266 3.1056637e-11    1.7445907    165.12562   -122.67764   -2779.1097    10890.368 
    1267 1.3715371e-09     1.725318    149.93412   -138.41998   -2611.1646    10890.368 
    1268 6.1225467e-08    1.7072562    136.17486   -152.67809   -2454.8664    10890.368 
    1269 2.7598622e-06    1.6903145    123.71142   -165.59321   -2309.3025    10890.368 
    1270 0.00012550913    1.6744096    112.42051   -177.29299   -2173.6381    10890.368 
    1271 0.0057536789    1.6594646     102.1904   -187.89068   -2047.0966    10890.368 
    1272   0.26599693     1.645391    92.908233   -197.39033   -1928.3492    10890.368 
    1273    13.138466    1.6312339    83.924002   -200.86631   -1785.7917    10890.368 
    1274    2265.1885    1.5768159    52.070982    786.50992    2955.6783    10890.368 
    1275 0.0030539868    1.5663236    46.717475   -245.35019   -1265.8447    10890.368 
    1276   0.12266674     1.557908    42.629426   -249.52797    -1196.986    10890.368 
    1277    6.3207295    1.5494257    38.656785   -250.83136   -1116.0704    10890.368 
    1278    1769.9758    1.5141243    23.486833    532.56453    2532.3556    10890.368 
    1279   0.13736719    1.5012784    18.781467   -274.17819   -726.62624    10890.368 
    1280    2.0864485    1.4960687    17.123936   -275.00569   -682.09138    10890.368 
    1281    563.67275    1.4775891    11.786818   -26.060263    532.09287    10890.368 
    1282 0.0022411217    1.3598352    59.055351   -231.17278     813.7535    10890.368 
    1283 0.00055218554    1.3577208    53.686177   -236.78605    791.90514    10890.368 
    1284  0.026338565    1.3559071    48.823892   -241.85989     769.6348    10890.368 
    1285    1.2757557    1.3543441    44.365501   -245.95965    749.07915    10890.368 
    1286    105.43724    1.3521762    37.682637   -205.76496    907.60613    10890.368 
    1287  0.022753396    1.3913492    23.676429   -269.37236   -700.56174    10890.368 
    1288 0.0021928735    1.3905174     21.61654    -271.4932   -663.45515    10890.368 
    1289   0.10700878    1.3897702    19.749434     -273.359   -628.21911    10890.368 
    1290     5.939874    1.3890146    17.831267   -272.68112   -579.56259    10890.368 
    1291    3794.1632    1.3858426    6.8960721    1432.5207     6892.039    10890.368 
    1292 2.498508e-08    1.3856098    6.4519626    -287.0017   -308.13658    10890.368 
    1293 1.2202533e-06    1.3853899    6.0531458   -287.40635   -293.45218    10890.368 
    1294 6.0082838e-05     1.385181      5.69217   -287.77221   -279.54276    10890.368 
    1295  0.002960515    1.3849815    5.3652678   -288.10187   -266.35236    10890.368 
    1296   0.14909719    1.3847862    5.0627525   -288.34159     -253.295    10890.368 
    1297    18.777678    1.3843923    4.4732603   -280.49627   -191.05828    10890.368 
    1298    50.787134    1.4204179    45.752997   -222.71145    691.62232    10890.368 
    1299   0.19013622    1.4226032    49.985686    -241.2236    617.49255    10890.368 
    1300    1071.5034    1.4088186    43.869393     237.9261    2661.9569    10890.368 
    1301    64.957723    1.3230149    8.8509785    -254.2623    548.80495    10890.368 
    1302      151.165     1.304767    6.4779449   -217.76186    590.14093    10890.368 
    1303    13.045301    1.2559274    61.253231   -224.91367    -823.0509    10890.368 
    1304    4.0442127    1.2579313    58.035607   -232.29987    -826.2707    10890.368 
    1305    1100.5956    1.2669197    41.481491    247.55007    1389.3936    10890.368 
    1306    50.529745    1.2920166    15.789043   -254.59706    -361.7068    10890.368 
    1307    646.36046    1.3184102    5.1777183    4.4280323    926.08296    10890.368 
    1308    127.44342    1.3922215    11.622344   -224.26526    130.96696    10890.368 
    1309    327.68425    1.4417534    30.382267   -114.42825    542.60994    10890.368 
    1310    50.356535    1.6214569    139.11696   -128.97594   -157.34984    10890.368 
    1311    8.1063331    1.6344795    145.65262    -141.3892   -241.61861    10890.368 
    1312    8717.4407    1.5966642     85.83908    3744.0623     16622.85    10890.368 
    1313 1.7831621e-21    1.5835289    77.397454   -214.29783    61.920995    10890.368 
    1314 8.2773034e-20    1.5712534    69.810678   -222.05888     76.74687    10890.368 
    1315 3.8641938e-18    1.5597735    62.991744   -229.03503    88.761227    10890.368 
    1316 1.8132281e-16    1.5490306    56.862547   -235.30611    98.310453    10890.368 
    1317 8.5476447e-15    1.5389707    51.352971   -240.94375    105.70272    10890.368 
    1318 4.0461374e-13    1.5295443    46.400066   -246.01227    111.21205    10890.368 
    1319 1.9224502e-11    1.5207059    41.947314   -250.56943    115.08193    10890.368 
    1320 9.1649117e-10    1.5124138    37.943963    -254.6671    117.52859    10890.368 
    1321 4.3824315e-08    1.5046294    34.344442   -258.35184     118.7439    10890.368 
    1322 2.1012868e-06    1.4973172    31.107825   -261.66549    118.89798    10890.368 
    1323 0.00010100025    1.4904447    28.197349   -264.64558    118.14169    10890.368 
    1324  0.004865813     1.483981    25.579786   -267.32399    116.61691    10890.368 
    1325   0.23589606    1.4778713    23.215144   -269.64123    114.85153    10890.368 
    1326     14.23716    1.4707111    20.580796   -265.99603    137.94738    10890.368 
    1327    6098.7849    1.3945206    2.8313486     2472.618    11599.323    10890.368 
    1328 4.484741e-16    1.3933273    2.7593222   -290.71565   -2.6076903    10890.368 
    1329 2.2106531e-14    1.3921914    2.6944353   -290.78528   -5.6563924    10890.368 
    1330 1.0898193e-12    1.3911099    2.6359864   -290.84817   -8.5850642    10890.368 
    1331 5.3732246e-11    1.3900802    2.5833431   -290.90499   -11.397445    10890.368 
    1332 2.6494853e-09    1.3890994    2.5359351   -290.95633   -14.097272    10890.368 
    1333 1.3065734e-07    1.3881652     2.493248    -291.0027   -16.688268    10890.368 
    1334 6.443989e-06    1.3872753    2.4548172   -291.04461   -19.174127    10890.368 
    1335 0.00031796835     1.386427    2.4202114   -291.08235   -21.558839    10890.368 
    1336  0.016012683    1.3856014    2.3884221   -291.11019   -23.865119    10890.368 
    1337    1.9385386    1.3839123    2.3289035   -290.30498   -25.033129    10890.368 
    1338    33375.241    1.3158166    7.1014422    14835.284    63189.816    10890.368 
    1339 2.8671791e-93    1.3180171    6.6254066   -286.95855   -272.93495    10890.368 
    1340 1.4084686e-91    1.3201323    6.1954819   -287.39495    -262.7862    10890.368 
    1341 6.9212857e-90    1.3221648    5.8071724   -287.78884   -253.21686    10890.368 
    1342 3.4022083e-88    1.3241171    5.4564225   -288.14437   -244.18921    10890.368 
    1343 1.6728543e-86    1.3259919    5.1395734   -288.46529   -235.66834    10890.368 
    1344 8.2275047e-85    1.3277916    4.8533244   -288.75497   -227.62191    10890.368 
    1345 4.0474524e-83    1.3295189    4.5946975   -289.01647   -220.01999    10890.368 
    1346 1.9915475e-81    1.3311761    4.3610059   -289.25253    -212.8348    10890.368 
    1347 9.8013854e-80    1.3327658    4.1498253   -289.46564   -206.04057    10890.368 
    1348 4.8246466e-78    1.3342905    3.9589684   -289.65804   -199.61336    10890.368 
    1349 2.3753021e-76    1.3357524    3.7864614   -289.83175   -193.53092    10890.368 
    1350 1.1696131e-74    1.3371541    3.6305232   -289.98859   -187.77255    10890.368 
    1351 5.7601115e-73    1.3384976    3.4895465    -290.1302   -182.31897    10890.368 
    1352 2.8371394e-71    1.3397853    3.3620809   -290.25807   -177.15223    10890.368 
    1353 1.3976161e-69    1.3410193    3.2468174   -290.37353   -172.25559    10890.368 
    1354 6.8857189e-68    1.3422017    3.1425744    -290.4778   -167.61343    10890.368 
    1355 3.3928294e-66    1.3433346    3.0482857   -290.57196   -163.21115    10890.368 
    1356 1.6719513e-64    1.3444199    2.9629888     -290.657   -159.03512    10890.368 
    1357 8.2400901e-63    1.3454596    2.8858149    -290.7338   -155.07258    10890.368 
    1358 4.0614887e-61    1.3464555    2.8159797   -290.80317   -151.31161    10890.368 
    1359 2.0020825e-59    1.3474093    2.7527753   -290.86583   -147.74102    10890.368 
    1360 9.8700862e-58     1.348323    2.6955625   -290.92242   -144.35034    10890.368 
    1361 4.8663259e-56     1.349198    2.6437643   -290.97355   -141.12975    10890.368 
    1362 2.399507e-54     1.350036    2.5968596   -291.01974   -138.07001    10890.368 
    1363 1.1832676e-52    1.3508386    2.5543779   -291.06147   -135.16248    10890.368 
    1364 5.835578e-51    1.3516073    2.5158946   -291.09918   -132.39901    10890.368 
    1365 2.8782247e-49    1.3523434    2.4810259   -291.13324   -129.77196    10890.368 
    1366 1.4197298e-47    1.3530485    2.4494254   -291.16403   -127.27412    10890.368 
    1367 7.0036966e-46    1.3537237    2.4207802   -291.19185   -124.89873    10890.368 
    1368 3.4553362e-44    1.3543704    2.3948077   -291.21699   -122.63939    10890.368 
    1369 1.7048868e-42    1.3549899    2.3712525   -291.23972   -120.49009    10890.368 
    1370 8.4128711e-41    1.3555832    2.3498842   -291.26026   -118.44516    10890.368 
    1371 4.1518127e-39    1.3561515    2.3304942   -291.27883   -116.49925    10890.368 
    1372 2.049169e-37    1.3566959    2.3128945   -291.29561   -114.64731    10890.368 
    1373 1.0115008e-35    1.3572175    2.2969148   -291.31079   -112.88456    10890.368 
    1374 4.9935027e-34    1.3577171    2.2824016   -291.32452    -111.2065    10890.368 
    1375 2.4654574e-32    1.3581959    2.2692158   -291.33693   -109.60888    10890.368 
    1376 1.2174347e-30    1.3586547    2.2572321   -291.34816   -108.08765    10890.368 
    1377 6.0124704e-29    1.3590944    2.2463369   -291.35832   -106.63901    10890.368 
    1378 2.9697703e-27    1.3595157    2.2364276    -291.3675   -105.25935    10890.368 
    1379 1.4670986e-25    1.3599196    2.2274115   -291.37582   -103.94527    10890.368 
    1380 7.2488081e-24    1.3603068    2.2192047   -291.38334   -102.69351    10890.368 
    1381 3.5821975e-22     1.360678    2.2117316   -291.39015   -101.50103    10890.368 
    1382 1.770571e-20    1.3610339    2.2049234   -291.39631   -100.36491    10890.368 
    1383 8.7531398e-19    1.3613753    2.1987181    -291.4019   -99.282402    10890.368 
    1384 4.3282009e-17    1.3617027    2.1930598   -291.40695   -98.250894    10890.368 
    1385 2.1406761e-15    1.3620167    2.1878975   -291.41153   -97.267908    10890.368 
    1386 1.0590151e-13     1.362318    2.1831854   -291.41568   -96.331094    10890.368 
    1387 5.2404589e-12    1.3626071    2.1788819   -291.41944   -95.438219    10890.368 
    1388 2.5939498e-10    1.3628846    2.1749495   -291.42285   -94.587166    10890.368 
    1389 1.2843664e-08    1.3631509     2.171354   -291.42594   -93.775922    10890.368 
    1390 6.3616026e-07    1.3634066    2.1680647   -291.42875   -93.002566    10890.368 
    1391 3.1538486e-05    1.3636523    2.1650518   -291.43128   -92.264811    10890.368 
    1392 0.0016115317    1.3638957    2.1622072   -291.43294   -91.536429    10890.368 
    1393   0.26940302    1.3645229    2.1554447   -291.31717   -89.170225    10890.368 
    1394    23700.331    1.4052788    3.1772263    10447.922     45090.29    10890.368 
    1395 2.3833234e-65    1.4038072    3.0715081   -290.41075    12.676588    10890.368 
    1396 1.1794166e-63    1.4024084    2.9761868   -290.51242    8.8524496    10890.368 
    1397 5.8485649e-62    1.4010784     2.890247    -290.6043    5.1784011    10890.368 
    1398 2.9090714e-60    1.3998138    2.8127725   -290.68733    1.6501363    10890.368 
    1399 1.4535114e-58    1.3986111    2.7429366   -290.76237    -1.736702    10890.368 
    1400 7.3111953e-57    1.3974671     2.679993   -290.83019   -4.9864963    10890.368 
    1401 3.7142138e-55    1.3963788    2.6232681   -290.89149    -8.103631    10890.368 
    1402 1.9147897e-53    1.3953433    2.5721542    -290.9469   -11.092473    10890.368 
    1403 1.0087388e-51    1.3943579    2.5261027   -290.99699   -13.957353    10890.368 
    1404 5.4858407e-50    1.3934201    2.4846186   -291.04227   -16.702556    10890.368 
    1405 3.1250845e-48    1.3925275    2.4472549   -291.08321   -19.332301    10890.368 
    1406 1.9040599e-46    1.3916777    2.4136085   -291.12022   -21.850741    10890.368 
    1407 1.2776099e-44    1.3908687    2.3833153   -291.15368   -24.261944    10890.368 
    1408 9.8281608e-43    1.3900984    2.3560469   -291.18395   -26.569895    10890.368 
    1409 9.145288e-41    1.3893649    2.3315068   -291.21131   -28.778483    10890.368 
    1410 1.102342e-38    1.3886663    2.3094275   -291.23606   -30.891501    10890.368 
    1411 1.8676363e-36     1.388001    2.2895674   -291.25845   -32.912644    10890.368 
    1412 4.8510708e-34    1.3873672    2.2717087   -291.27869   -34.845501    10890.368 
    1413 2.0797132e-31    1.3867635    2.2556547   -291.29701   -36.693559    10890.368 
    1414 1.5170001e-28    1.3861883    2.2412278   -291.31358   -38.460196    10890.368 
    1415 1.7903399e-25    1.3856403    2.2282679   -291.32858   -40.148689    10890.368 
    1416 2.9189863e-22    1.3851181    2.2166304   -291.34214   -41.762204    10890.368 
    1417 5.0783395e-19    1.3846206    2.2061848   -291.35442   -43.303806    10890.368 
    1418 6.9492898e-16    1.3841464    2.1968135   -291.36553   -44.776455    10890.368 
    1419 5.6998732e-13    1.3836946    2.1884103   -291.37559   -46.183005    10890.368 
    1420 2.3596355e-10     1.383264    2.1808791    -291.3847   -47.526214    10890.368 
    1421 4.7129487e-08    1.3828535    2.1741337   -291.39294   -48.808735    10890.368 
    1422 4.8929066e-06    1.3824623    2.1680958   -291.40041   -50.033142    10890.368 
    1423 0.00031518346    1.3820887    2.1626855   -291.40704   -51.203445    10890.368 
    1424  0.018038849      1.38169     2.157289   -291.40586   -52.421448    10890.368 
    1425    15.551693    1.3789322    2.1300577   -284.40489   -31.626145    10890.368 
    1426 1.0918585e-07    1.2459931    235.79562   -51.627321   -2773.2915    10890.368 
    1427   0.33437246    1.2402402    213.48993   -74.422258   -2586.6167    10890.368 
    1428    22.478506    1.2354803    192.44423   -86.038576   -2364.7922    10890.368 
    1429    1801.4308    1.2278783    132.07583    657.88441     1559.409    10890.368 
    1430    0.6631171    1.2279284    115.48471   -175.07507   -1706.7847    10890.368 
    1431    62.120323    1.2288648     102.8124   -160.26085   -1464.5359    10890.368 
    1432    481.00623    1.2763492     21.63635   -53.863785    297.77655    10890.368 
    1433    89.194127    1.3144084    7.4164203   -245.93663   -160.96313    10890.368 
    1434    906.93157     1.399783    4.4992431     121.7451    1747.3152    10890.368 
    1435     22.18871     1.448056    10.567392   -272.76445    183.09252    10890.368 
    1436    344.33707    1.5129848    22.209754   -114.65847    908.33049    10890.368 
    1437    112.57575    1.8150976    100.04749   -138.62531    656.99735    10890.368 
    1438    88.000151    1.9255102    130.90813     -117.586    614.49647    10890.368 
    1439    494.42565    2.3572454    234.73631    175.50844    1336.6993    10890.368 
    1440    86.421599    2.6576592    297.62637    57.199307    492.64496    10890.368 
    1441    499.61752    3.1545245    363.84056    316.33534    1216.8189    10890.368 
    1442    186.02549    3.6704796    392.60242    208.53506    607.57736    10890.368 
    1443     443.3186    4.0561828    372.10569    308.11851    1135.1921    10890.368 
    1444    219.24201    4.1252337    319.25382    153.46547    757.32964    10890.368 
    1445    374.44123    3.9179403     247.4697    148.59852    1070.1159    10890.368 
    1446    250.78069    3.5436752    182.37852    22.671379    784.15747    10890.368 
    1447    337.45772    3.0814415    127.64912    1.9854496    827.36049    10890.368 
    1448    269.81029     2.589379    85.281137   -75.973464    502.98073    10890.368 
    1449    325.98375    2.1517204    57.580763    -82.16036    362.58402    10890.368 
    1450    272.70106    1.7981606    43.085218   -123.55849    -40.49351    10890.368 
    1451    342.85523    1.5523057    41.513785   -94.718557   -242.34956    10890.368 
    1452    183.37516    1.4011108    51.239083   -157.23258   -877.75337    10890.368 
    1453    477.51631     1.333185    69.950397   -4.0020933   -629.11144    10890.368 
    1454    182.73764    1.3450819    96.376198   -108.79591   -1455.0159    10890.368 
    1455    478.95197    1.4322525    129.61977    61.903035   -1079.0689    10890.368 
    1456    178.02764    1.5672271     164.4077   -36.174402   -1703.0563    10890.368 
    1457    493.95631    1.7182332    201.41555    147.49174   -965.92978    10890.368 
    1458    170.00926    1.8094193    228.32781    29.853127    -1260.913    10890.368 
    1459    526.04237    1.8487585     245.9228    209.62777    7.0918165    10890.368 
    1460     153.6708    1.8280718    243.02608    37.054237     -87.8205    10890.368 
    1461    578.13767    1.7538531    218.08152     201.6197    1506.4217    10890.368 
    1462    123.47932    1.6718495    186.10642   -39.165559    1160.7209    10890.368 
    1463    694.87497    1.5539431     139.7626    169.85038    2708.5663    10890.368 
    1464    78.950829     1.465251    105.73442    -145.5709    1724.7879    10890.368 
    1465    901.12753    1.3802219    70.192102    189.15462    3339.0265    10890.368 
    1466    32.815071    1.3346841    49.524813   -226.15846    1612.6198    10890.368 
    1467    733.80393    1.3013907    33.230866    74.229909    2787.3935    10890.368 
    1468    120.34072    1.2676763    14.212986   -223.83675     1108.438    10890.368 
    1469    450.47266     1.276165    13.864716   -74.672737    1306.3546    10890.368 
    1470     136.0699    1.3675318    39.626308   -190.03672   -372.95199    10890.368 
    1471    222.97946     1.439134    59.193202   -129.99846   -735.42129    10890.368 
    1472    23.483757    1.9024899    167.88704   -105.06554   -3369.2845    10890.368 
    1473    17.786512    1.9186218    161.66064   -114.05191   -3335.9156    10890.368 
    1474    3632.0354    1.8969511    103.52234    1462.8446    4258.3088    10890.368 
    1475 4.2485269e-07    1.8802177    95.269784   -191.45669   -2517.6471    10890.368 
    1476 2.0052473e-05    1.8641634    87.720046   -199.40879   -2393.7407    10890.368 
    1477 0.00095272723    1.8487244    80.800469   -206.70105    -2276.332    10890.368 
    1478  0.045486931    1.8338419    74.455055   -213.37255   -2165.2899    10890.368 
    1479    2.2145253    1.8192595    68.539416   -218.63221   -2054.5155    10890.368 
    1480    204.67028    1.7931957    58.546353   -137.45505   -1481.1899    10890.368 
    1481 0.00026106545    1.5037488    16.601621   -275.25165    565.29472    10890.368 
    1482 1.3334557e-05    1.5003123    15.271758   -276.65706    546.94869    10890.368 
    1483 0.00065544733    1.4970384    14.064933   -277.93357    529.04432    10890.368 
    1484  0.032286467    1.4939125    12.968409   -279.08082    511.62984    10890.368 
    1485    1.6994713    1.4907215    11.905238   -279.45324    496.58446    10890.368 
    1486    619.60902    1.4768304    7.8567196   -3.8015345    1586.7376    10890.368 
    1487 0.0049808788    1.3465844    65.645618   -226.45459    -1405.326    10890.368 
    1488  0.001386916    1.3476612     59.82455   -232.41636   -1326.0951    10890.368 
    1489  0.066126199    1.3487148    54.538085   -237.79804    -1251.662    10890.368 
    1490    3.2532023    1.3497745    49.595737   -241.41108   -1173.7873    10890.368 
    1491    442.27831    1.3525516    38.467369   -53.874578   -167.29062    10890.368 
    1492 0.0095998566    1.4373374    20.759889   -271.30271    417.36949    10890.368 
    1493 0.00084385206    1.4340773    18.994209   -273.15437    405.74999    10890.368 
    1494  0.041299706     1.431017    17.393722   -274.81236    394.22345    10890.368 
    1495    2.1431396    1.4279697    15.857445   -275.47065    385.95245    10890.368 
    1496    652.03851    1.4160855    10.486755    13.339502    1567.5076    10890.368 
    1497   0.18663534    1.3301056    40.532552   -252.35423   -763.11174    10890.368 
    1498  0.043283617    1.3321875    36.941064   -256.07371   -719.02776    10890.368 
    1499    2.1656297    1.3342908    33.566075   -258.54484   -671.87012    10890.368 
    1500    304.58845    1.3397109    26.058803   -129.15064    4.8847542    10890.368 
    1501 2.7613993e-07    1.5373622    82.867328   -207.11732    304.20558    10890.368 
    1502 6.0258713e-08    1.5280623    74.970786   -215.28305    314.70117    10890.368 
    1503 2.8154338e-06    1.5193519    67.851992   -222.64802    322.49339    10890.368 
    1504 0.00013223714    1.5111908     61.43362    -229.2916    327.92297    10890.368 
    1505 0.0062406715    1.5035415    55.645852   -235.28282    331.30442    10890.368 
    1506   0.29647839    1.4963509    50.413016   -240.57353    333.43876    10890.368 
    1507    15.960513    1.4886798    45.059563   -239.02693    363.16322    10890.368 
    1508    4227.0534    1.4376323    16.237409    1638.9663    8322.1612    10890.368 
    1509 1.975554e-09     1.434461    14.875178   -277.66573    275.57544    10890.368 
    1510 9.7486488e-08    1.4314769      13.6458   -278.95342    268.00835    10890.368 
    1511 4.8111876e-06    1.4286662    12.535468   -280.11763    260.42321    10890.368 
    1512 0.00023705538    1.4260178    11.532609   -281.17021    252.85434    10890.368 
    1513  0.011662268    1.4235201    10.626298   -282.11747    245.34757    10890.368 
    1514   0.58995913    1.4210923    9.7829156   -282.74285    238.75445    10890.368 
    1515     93.94668    1.4150434    7.8502235   -242.48298    395.65065    10890.368 
    1516 2.768573e-11    1.2676628    197.36912   -92.499311    -2148.927    10890.368 
    1517 2.6971787e-11    1.2717542    178.56925   -111.71501   -2002.1548    10890.368 
    1518 4.0402493e-09    1.2756976    161.59678   -129.06006   -1866.9631    10890.368 
    1519 5.192299e-07     1.279495    146.27254   -144.71801   -1742.3365    10890.368 
    1520 5.1787057e-05    1.2831489    132.43503   -158.85423   -1627.3547    10890.368 
    1521 0.0038192517    1.2866619    119.93862   -171.61622    -1521.175    10890.368 
    1522   0.21430624    1.2900398     108.6433   -183.05539   -1422.5767    10890.368 
    1523     10.62565    1.2934422    97.964481   -189.24068   -1307.6713    10890.368 
    1524    1462.1602    1.3047746    67.917474    437.76798    1734.7704    10890.368 
    1525    1.8090367    1.3123445    52.258144   -239.85399   -881.82232    10890.368 
    1526    34.393808    1.3161339     45.41593   -232.06017   -744.48762    10890.368 
    1527    1927.7167    1.3619375    5.8881317    585.70976    3433.8247    10890.368 
    1528 0.0059463091    1.3637013    5.2457639   -288.34477   -212.23795    10890.368 
    1529   0.42652851    1.3643653    4.9545579   -288.44543   -200.51435    10890.368 
    1530    135.61614    1.3673672    3.8476521   -228.29526    103.86391    10890.368 
    1531 3.1430203e-09      1.66045     201.3166   -84.703992    459.36672    10890.368 
    1532 0.00090557936    1.6405066    182.62435   -104.02999    490.76924    10890.368 
    1533   0.27476444    1.6220689    165.68365   -121.42541    516.40549    10890.368 
    1534    16.104262    1.6042684    149.66638    -130.8219    566.84897    10890.368 
    1535    1668.9037    1.5520202    104.89775    571.69882    3744.3328    10890.368 
    1536   0.63306902    1.5329076    89.499645   -200.11602    572.41993    10890.368 
    1537     32.38924     1.520685     79.97291   -195.60058    629.26001    10890.368 
    1538    2298.1332     1.441387    26.618783    775.56893    4817.5033    10890.368 
    1539   0.43434658     1.435481    23.399605   -268.83541    428.23416    10890.368 
    1540    54.040489    1.4293804    20.217619   -247.86786    507.53225    10890.368 
    1541    109.23291    1.3466325     8.388787   -235.82159   -77.275517    10890.368 
    1542    77.500065     1.337828     16.50512   -241.98329   -330.80126    10890.368 
    1543    563.84373    1.3262376    75.689014    38.821716   -302.12165    10890.368 
    1544    49.502624    1.3304017    111.88308   -157.12611   -1715.1264    10890.368 
    1545    404.72752    1.3428003    171.22189    64.706999   -1712.3969    10890.368 
    1546    190.60619    1.3777235    290.06305    89.805255   -3379.0735    10890.368 
    1547    250.76843    1.4146411    386.25289    216.02169   -4259.7799    10890.368 
    1548    240.46847    1.4961306    534.47845    364.09082   -5888.1703    10890.368 
    1549    286.72415    1.5929925     642.4546    496.64007   -7118.4763    10890.368 
    1550    261.66253    1.7463838    692.91898    538.24809     -8234.17    10890.368 
    1551     329.1799    1.8583102     635.6128    510.74235    -8062.749    10890.368 
    1552    225.29978    1.9163931    506.21432    331.01635    -7339.779    10890.368 
    1553    321.36604    1.9185289    377.84362    242.53518   -5963.2008    10890.368 
    1554     245.0728     1.887921    255.34374    81.829868   -4749.6915    10890.368 
    1555    324.14496    1.8417779    159.86166    19.297241   -3335.3957    10890.368 
    1556    270.81185    1.7853183    85.875062    -81.05449   -2220.7617    10890.368 
    1557    322.55865    1.7329162    37.853267   -106.97122    -1038.196    10890.368 
    1558    278.50954    1.6910466    12.698194   -152.62247   -132.88059    10890.368 
    1559    324.78631    1.6616588    10.470138   -133.60209    827.79468    10890.368 
    1560    272.00588    1.6443914    31.204756   -135.64361    1514.7058    10890.368 
    1561    322.07425    1.6399733    73.476557   -68.737533    2274.8001    10890.368 
    1562    262.70905    1.6477608    138.77204   -27.462591    2741.3393    10890.368 
    1563    301.06291     1.666134    219.72726    74.435709    3271.6151    10890.368 
    1564    251.86049    1.6951539    314.49141    151.25785    3546.9089    10890.368 
    1565    280.45028    1.7331674    401.52441    255.73791    3855.1948    10890.368 
    1566    280.89999    1.7927164    465.49439    324.52457    4003.9074    10890.368 
    1567    317.30821    1.8618867    466.83876    345.15607    4041.6833    10890.368 
    1568    266.72229    1.9162469    406.68523      262.117    3718.9025    10890.368 
    1569    303.06678    1.9341629    317.73592    187.31088     3394.292    10890.368 
    1570    276.25642    1.9160763    226.68667    80.446227     2806.845    10890.368 
    1571     306.2072    1.8738957    150.46759    13.766582    2231.4923    10890.368 
    1572     288.9564     1.820343    91.723927   -56.777152    1465.1828    10890.368 
    1573    308.80773     1.765691     53.41221   -89.623332    695.65963    10890.368 
    1574    290.59324     1.715324    34.560446   -119.67304   -218.31471    10890.368 
    1575    314.57509    1.6740274    34.336547   -111.26459   -1111.4957    10890.368 
    1576     275.7342     1.645751    52.590072   -112.04425    -2209.513    10890.368 
    1577    312.79085    1.6374928    85.207431     -63.0425   -3123.4531    10890.368 
    1578    278.10511    1.6524857    127.87777   -35.454221   -4105.4817    10890.368 
    1579     307.2442    1.7010604     177.6887    29.494277   -4861.2301    10890.368 
    1580    284.73249    1.7844715    220.26261    64.941583   -5394.2707    10890.368 
    1581    306.26536    1.9030978     245.7368    104.14826   -5394.0406    10890.368 
    1582    292.20522    2.0299508    244.84601    100.66189   -4927.8174    10890.368 
    1583    303.51708    2.1323025    220.08703    83.586472   -3951.7197    10890.368 
    1584    292.36255    2.1931708    182.55506    41.823504   -2753.5901    10890.368 
    1585    304.29347    2.2182899    143.40623    7.3240213   -1407.5687    10890.368 
    1586    295.64642    2.2203597    111.88625   -29.970445   -177.60242    10890.368 
    1587    307.15501    2.2145084    90.744053   -48.379371    957.21173    10890.368 
    1588    282.44229    2.2132228    80.764943   -72.201822    1840.9439    10890.368 
    1589    316.79246    2.2237504    80.478906   -59.343715     2615.348    10890.368 
    1590    282.17731    2.2524857     89.18295   -68.386126    3084.5886    10890.368 
    1591    318.74673    2.2929859    103.21985   -38.946673    3423.1211    10890.368 
    1592    278.81173    2.3394709     121.7893   -38.765609    3388.5837    10890.368 
    1593    333.01583    2.3704052    139.42128      4.06111    3299.1834    10890.368 
    1594    283.98111    2.3780698    155.43852  -0.71784137    2778.8569    10890.368 
    1595    334.19322    2.3526683    167.05885    35.408633     2287.739    10890.368 
    1596    269.78814    2.2900821    174.39348    15.300531    1433.5493    10890.368 
    1597    345.72692      2.20436    175.41342    51.726871    874.74012    10890.368 
    1598    271.10953     2.097088    169.80265    12.372603    34.329792    10890.368 
    1599    330.91752     1.999102    158.63114    27.377017   -379.50802    10890.368 
    1600    293.76662    1.9125683    141.57766    -8.254105   -803.22251    10890.368 
    1601    303.30495    1.8544312    121.79771   -25.850944   -957.64923    10890.368 
    1602    294.38754    1.8322106     104.0416   -49.565895   -981.10685    10890.368 
    1603    304.15825    1.8324286    89.815451   -60.925472   -840.75582    10890.368 
    1604    294.42381    1.8316549      83.3072   -72.688879   -658.43587    10890.368 
    1605    306.15133    1.8317001    85.746127   -65.032607   -371.59565    10890.368 
    1606    291.88038    1.8316249    97.375329   -59.196935   -134.72054    10890.368 
    1607    302.92446     1.818753    118.60201   -31.535152    155.99059    10890.368 
    1608    314.06628    1.7841944    146.23742    3.1215362    408.70977    10890.368 
    1609    283.83973    1.7215945    175.84204    21.300345    534.82209    10890.368 
    1610    318.42236    1.6372585    200.12736    63.410924    718.50966    10890.368 
    1611    283.34788    1.5529681    212.08502    61.140792    691.30167    10890.368 
    1612    349.42847    1.5118387    205.89924    85.616907    769.19499    10890.368 
    1613    255.60464     1.552354    182.35492    19.278797    472.96413    10890.368 
    1614      346.667    1.6718543    148.95081    26.074673    456.63339    10890.368 
    1615    255.36633    1.8567492    114.23225   -51.472924    18.864231    10890.368 
    1616    347.71751    2.0849635    85.964523   -39.388437    -134.7279    10890.368 
    1617    257.60605    2.3390513    68.422117   -99.049685   -694.49471    10890.368 
    1618    348.27713    2.5957055    64.308337   -63.008022   -957.78621    10890.368 
    1619    257.93737    2.8425533    74.224834   -94.524372   -1602.0723    10890.368 
    1620    344.94181    3.0604822    97.209176   -32.185407   -1915.7457    10890.368 
    1621    257.58472    3.2278031    130.39555   -38.270947   -2525.5532    10890.368 
    1622    337.60501    3.3159113    167.92134    36.054364   -2713.0509    10890.368 
    1623    264.36342    3.2971528    201.37907    36.903451   -3001.7384    10890.368 
    1624    334.91545    3.1582263    220.11444    87.961843   -2738.2735    10890.368 
    1625    269.83267    2.9206113    217.20155    55.512182   -2425.9899    10890.368 
    1626     333.7263    2.6264096     194.2661    61.052076   -1621.6302    10890.368 
    1627    297.02518    2.3162576    159.96798    9.3746867   -870.75694    10890.368 
    1628    300.67374     2.026299    125.32034   -24.424831   -38.677305    10890.368 
    1629    304.23393    1.7674465    97.528314   -51.294451    724.04317    10890.368 
    1630    297.31284    1.5482623    80.863869   -71.539647    1340.6187    10890.368 
    1631    256.05663    1.3724531    75.851972   -95.395015    1737.6249    10890.368 
    1632    332.23731    1.2186341    83.108104   -53.367441    2251.4589    10890.368 
    1633     263.9829    1.1143449    100.04711   -66.687173    2312.9713    10890.368 
    1634    313.11315    1.0321126    124.13237   -19.257969    2463.3518    10890.368 
    1635    284.70223   0.95426401    151.29217   -3.4923613    2319.1392    10890.368 
    1636    299.85887   0.88463257    174.49355    28.250854     2133.261    10890.368 
    1637     296.6886   0.82406125    187.90733    41.831783    1821.4121    10890.368 
    1638    301.76259   0.77749707     189.4609    46.992809    1458.9685    10890.368 
    1639    297.12679    0.7475079    180.19123    36.242643    1096.2876    10890.368 
    1640    299.37308   0.72299764     163.6119    20.565676     762.4803    10890.368 
    1641    300.02483   0.73343719    145.94967    2.4716887    502.60646    10890.368 
    1642    284.88418    0.8405282    129.16964   -22.309417    268.01956    10890.368 
    1643     309.2546    1.0583045    116.14038   -25.533486    179.18396    10890.368 
    1644    270.36665    1.4078359    106.55744   -53.928652    30.938061    10890.368 
    1645    303.23355    1.8364849    100.71334   -45.780341      85.2037    10890.368 
    1646    295.79684    2.3634179    97.422163   -53.032254    116.64328    10890.368 
    1647    302.98469    2.8827771    96.515873     -50.8541    212.39888    10890.368 
    1648    296.07893    3.4057808    97.683053   -52.607751    309.95198    10890.368 
    1649     302.5763    3.8187095    101.06534   -45.777371    425.38786    10890.368 
    1650    296.27549    4.1272874    107.76071   -41.165206    497.18981    10890.368 
    1651    301.74509    4.2599645    117.53055   -28.081054    536.43458    10890.368 
    1652    296.25684    4.2124999    131.95026    -15.24882    482.81997    10890.368 
    1653    300.82954    3.9929607    148.34701    3.9635324    372.75635    10890.368 
    1654    295.95376    3.5957932    167.14434    21.183563     141.9219    10890.368 
    1655    301.56287    3.1204672    182.03896     38.99313   -132.42232    10890.368 
    1656    294.94823    2.5488527    190.95436     45.07892   -520.24812    10890.368 
    1657    303.87491    2.0419094    188.79702    46.899429   -873.96846    10890.368 
    1658    292.12261    1.5649471    174.25454    26.726329   -1292.2713    10890.368 
    1659    304.62428    1.2202216     152.4126    10.068259   -1599.8227    10890.368 
    1660    290.98746   0.94585501    125.00919   -24.218384   -1937.7463    10890.368 
    1661    305.05584   0.77176057    101.18453   -42.418677   -2155.1977    10890.368 
    1662    292.87063    0.6679048    81.831214   -68.084312   -2396.5436    10890.368 
    1663    305.07843   0.63897154    71.893354   -73.113972   -2539.5556    10890.368 
    1664    294.55356   0.67720441    71.278537   -78.915396   -2687.4912    10890.368 
    1665    303.51967   0.77711082    79.929202   -66.271559   -2729.0127    10890.368 
    1666    294.66567   0.93808206    97.557439   -52.316653   -2714.1892    10890.368 
    1667    301.65235    1.1312392    119.45533   -26.530464   -2556.9221    10890.368 
    1668    294.24443    1.3751949     144.7886   -3.3879432   -2258.8217    10890.368 
    1669    302.42344    1.6185963    165.41163    22.217734    -1781.073    10890.368 
    1670    293.57705     1.872961    180.15452     34.24533   -1105.7862    10890.368 
    1671    305.10375    2.0636369    184.11688    44.171191   -308.97335    10890.368 
    1672    291.60243    2.1943222    178.42567    32.375904    592.06468    10890.368 
    1673     306.3051    2.2277389    166.82919    26.639297    1460.4978    10890.368 
    1674    290.69619    2.1722769    151.22097     2.343919     2257.979    10890.368 
    1675    306.61118    2.0508297    137.24789   -6.3128433    2919.5123    10890.368 
    1676     291.4349    1.8675273    124.73002   -27.827924    3394.7022    10890.368 
    1677    306.57598    1.6723975    116.32626   -31.102899    3710.7962    10890.368 
    1678    292.28934    1.4618851    110.76426   -44.471367    3789.9766    10890.368 
    1679     306.2682    1.2839651    108.37923   -41.133614    3728.8262    10890.368 
    1680    292.74087    1.1289305    108.28496   -47.302953    3418.2634    10890.368 
    1681    305.88288    1.0240855    110.11725   -38.897465    3015.0698    10890.368 
    1682    292.91492    0.9420273    113.93818   -39.896054    2391.1518    10890.368 
    1683    305.51447    0.8753028    119.11121   -27.912778    1748.9721    10890.368 
    1684     292.9106   0.81167608    126.17436   -25.493694    934.71017    10890.368 
    1685    305.34188   0.75962604    133.59585   -11.719628    194.82048    10890.368 
    1686    292.70206   0.71316647    141.56368   -9.0596654   -632.00523    10890.368 
    1687    305.68631   0.68156092    147.63995    2.9991899   -1279.5016    10890.368 
    1688    292.18911   0.66292885    151.44821    0.6385514   -1905.2284    10890.368 
    1689    306.40912   0.66330332    151.48227    7.0868632   -2276.2044    10890.368 
    1690    291.48792   0.68890882    147.57859    -3.420723   -2543.4924    10890.368 
    1691    306.92383   0.73992218    141.06627   -2.5520967   -2561.1783    10890.368 
    1692     291.2078   0.82508811    132.32685   -17.756933   -2473.1998    10890.368 
    1693     307.0631   0.92689105    124.24062   -17.926543   -2210.3013    10890.368 
    1694    291.50925    1.0515618    116.93785   -31.484089    -1892.487    10890.368 
    1695    306.91391    1.1709527    112.30239   -28.506022   -1483.6407    10890.368 
    1696    291.89397    1.2924778    109.90032   -37.215915   -1078.3369    10890.368 
    1697    306.65183    1.3880763    109.85063   -30.309083   -652.98266    10890.368 
    1698    292.05595    1.4617376    111.58762    -35.08598   -288.62303    10890.368 
    1699      306.502    1.4957909    114.24464   -25.929886    45.977896    10890.368 
    1700    292.02949    1.4926919    117.68024   -29.205465    262.25639    10890.368 
    1701     306.4774    1.4560849    121.09552   -19.452378    417.06511    10890.368 
    1702    291.94594    1.3886228    124.96139   -22.453941    407.08609    10890.368 
    1703    306.45727    1.3112414    128.74678   -12.411622    336.18125    10890.368 
    1704    291.85206    1.2243468    133.06371   -15.117937    83.502527    10890.368 
    1705    306.48782    1.1519918    137.02048   -4.9497443    -189.9919    10890.368 
    1706    291.65097    1.0910693    140.74698   -8.4093959   -618.32653    10890.368 
    1707    306.75787    1.0560367    142.96765   0.27497363   -991.37146    10890.368 
    1708    291.25858    1.0469753    143.34053   -6.6637668   -1445.1143    10890.368 
    1709    307.21252    1.0896004     141.3827    -1.473091   -1751.5189    10890.368 
    1710    290.80322     1.191839    136.74204   -13.414312   -2053.1264    10890.368 
    1711    307.58737    1.3228344     130.5618   -11.704915   -2161.5252    10890.368 
    1712    290.58264    1.4819514    122.61898    -26.96796   -2213.4404    10890.368 
    1713    307.75699    1.6250173    115.07799   -26.418437   -2074.8006    10890.368 
    1714     290.7557    1.7577564    107.83104    -41.21675   -1868.4928    10890.368 
    1715    307.68082    1.8534183    102.91294   -38.589966   -1514.9242    10890.368 
    1716    291.18609    1.9274142    100.43361   -49.015473   -1116.2302    10890.368 
    1717    307.29575    1.9770521    101.27025    -41.62848   -629.12136    10890.368 
    1718    291.55499    2.0226232    105.67999   -45.408774   -131.97967    10890.368 
    1719    306.71349    2.0700371    112.67232   -32.641059    399.05029    10890.368 
    1720    291.63475    2.1369574    122.41322   -30.840814     902.1149    10890.368 
    1721    306.41129    2.2171009    132.18662   -15.158702    1393.0775    10890.368 
    1722    291.40418    2.3158019    142.05627   -12.517145     1816.032    10890.368 
    1723    306.74977    2.3828064    149.16925    1.5899181    2199.0541    10890.368 
    1724    290.89903    2.4088283    153.88944  -0.39247096    2457.7753    10890.368 
    1725    307.39764    2.3876179    155.19383    9.0942425    2650.2241    10890.368 
    1726    290.30081    2.3199908    153.60414   0.60821851    2672.3913    10890.368 
    1727    307.95488    2.2264275    149.85787    5.5144998    2646.4956    10890.368 
    1728    289.81386     2.102475    143.77824   -8.3597219    2438.3728    10890.368 
    1729    308.36503    1.9806516      136.771    -6.871312    2231.6082    10890.368 
    1730    289.54956    1.8512317    128.03124   -24.284927    1866.2622    10890.368 
    1731    308.59603    1.7468687    119.53753   -24.355634    1565.3988    10890.368 
    1732    289.72406    1.6605439    110.74753   -41.789055    1148.0885    10890.368 
    1733    308.53521    1.6056338    104.03662   -39.778118    838.07829    10890.368 
    1734    290.32688     1.577848    99.513955   -51.914568    453.54935    10890.368 
    1735    307.97199    1.5753154    98.809889   -43.625445    193.98413    10890.368 
    1736     290.8756    1.5897848    102.51465   -46.231293   -108.55649    10890.368 
    1737     306.8856    1.6128517    110.20227   -29.779529   -275.56515    10890.368 
    1738    290.95377    1.6442995    122.55725   -23.049728   -449.51729    10890.368 
    1739    306.16339    1.6802227    136.17999   -1.3594713   -478.72616    10890.368 
    1740    290.53309    1.7291858    150.97242    7.0533604   -483.29539    10890.368 
    1741    307.27329    1.7857682    161.20741    24.817217   -345.14602    10890.368 
    1742    289.14898    1.8673355    165.50802    20.074394   -178.98114    10890.368 
    1743    309.21732    1.9558078     161.2418    23.626074    87.614386    10890.368 
    1744    287.05107    2.0621681    148.13887   -1.1503129    304.60502    10890.368 
    1745    309.98021    2.1610757    131.40728    -8.853669    549.76381    10890.368 
    1746    287.08531    2.2668863    112.26731   -39.454283    652.31867    10890.368 
    1747    310.11078    2.3627163    97.675209   -44.129798    737.42778    10890.368 
    1748    288.82737    2.4648621     88.22783   -63.249746    631.28399    10890.368 
    1749    309.15218    2.5566714    86.910743   -54.968885    501.95981    10890.368 
    1750    289.85376    2.6575303    93.795736   -56.090693    170.05806    10890.368 
    1751    307.26629    2.7567568    106.79836   -34.379775    -161.1037    10890.368 
    1752    289.74692    2.8742833    125.61624   -22.645179     -660.871    10890.368 
    1753    306.85039    2.9855607    143.66292    3.7324377   -1084.4647    10890.368 
    1754    289.01096    3.0958666    159.94169    12.221732   -1596.0813    10890.368 
    1755    309.02119     3.163166    167.82051    29.082196   -1909.7706    10890.368 
    1756    287.08756    3.1869514    166.94847    17.884716    -2198.159    10890.368 
    1757    310.82091    3.1505071    158.16169    19.373148   -2227.4558    10890.368 
    1758    285.61799    3.0460318    142.61659   -8.1059206   -2202.1422    10890.368 
    1759    311.34966    2.9016471     126.8539   -12.567237   -1970.6631    10890.368 
    1760    286.37705     2.702541    111.53348   -39.430303    -1726.659    10890.368 
    1761    311.13975    2.4943237    101.86049   -37.933384   -1362.6568    10890.368 
    1762    287.81945    2.2522409    97.701559   -52.554116    -1039.423    10890.368 
    1763    310.00731    2.0237439    100.05762    -39.92237   -659.91059    10890.368 
    1764    288.43829    1.7787152    108.45913    -40.94165   -353.46105    10890.368 
    1765    308.93517    1.5672028    119.57324    -20.15572   -24.956882    10890.368 
    1766    288.18738    1.3646583    132.43593   -16.255209     208.8598    10890.368 
    1767    309.57106    1.2205636    141.66484    3.0069067    451.97244    10890.368 
    1768    287.15628    1.1234382    146.50129   -2.0653491    580.32943    10890.368 
    1769    311.04137    1.0991276    145.20905    7.5065965    731.98251    10890.368 
    1770    285.95742    1.1305428    138.59551    -10.66813    748.96514    10890.368 
    1771    311.74057    1.2026423    130.01558   -7.9489994       815.93    10890.368 
    1772    285.89693     1.316937    120.17968   -30.085648    756.54895    10890.368 
    1773    311.77685    1.4381176    112.57897    -26.57468    787.44436    10890.368 
    1774    286.53351    1.5825535       106.77   -44.462619    724.64992    10890.368 
    1775    311.42211    1.7200163    104.09238   -36.313878    780.26834    10890.368 
    1776     287.0861    1.8683838    104.01248   -47.655635     784.0957    10890.368 
    1777    310.83952    1.9950905    106.39453   -34.427225    924.41423    10890.368 
    1778    287.38083    2.1148294    111.52469   -39.488171    1043.8912    10890.368 
    1779    310.13708     2.199581    118.29853   -21.735066    1292.6726    10890.368 
    1780    287.38017    2.2588112    127.65381   -21.776502    1531.0394    10890.368 
    1781    309.69663    2.2811276    137.12763   -1.3511502    1869.0998    10890.368 
    1782    286.96794    2.2723428    147.49888  -0.53106976    2175.9475    10890.368 
    1783    310.23498    2.2401389    155.16492    18.012395    2526.3352    10890.368 
    1784    285.92891    2.1794338    160.07734    11.766259    2772.3444    10890.368 
    1785    311.70069    2.1060937    159.86377     22.58931     2999.666    10890.368 
    1786    284.38549     2.008616    153.94012    3.0781574    3016.4645    10890.368 
    1787    312.86987    1.9134118    144.23923    4.9154301    2988.7729    10890.368 
    1788    283.68149    1.8058757    130.51716   -23.639042     2666.057    10890.368 
    1789     313.2574    1.7135958    117.88731   -24.198927      2318.24    10890.368 
    1790    284.58107    1.6229508    106.27209    -49.96951    1650.0049    10890.368 
    1791    312.87198    1.5527971    99.636486   -44.463038    1011.7066    10890.368 
    1792    285.86388    1.5061175    97.770324    -58.80967    81.120869    10890.368 
    1793    311.66893    1.4999718    101.09117   -43.534938   -759.49546    10890.368 
    1794    286.40049    1.5323403    109.39672   -45.874191   -1835.2507    10890.368 
    1795    310.57305    1.5898615    119.61323   -23.560598   -2718.6634    10890.368 
    1796    286.13541    1.6695803    131.66057   -20.964433   -3718.3381    10890.368 
    1797    310.82508    1.7370708    141.01164    1.2198763   -4392.0254    10890.368 
    1798    285.20944    1.7878484    147.85539   -1.6556204   -5019.9271    10890.368 
    1799     312.1601     1.797661    149.66552    13.949644   -5236.4653    10890.368 
    1800    283.88914    1.7670198    146.66487  -0.31083532   -5287.7853    10890.368 
    1801    313.38918    1.7109166    140.05451    7.5570787   -4969.3237    10890.368 
    1802    282.99593    1.6292496    129.45984   -15.890114   -4485.5298    10890.368 
    1803    314.01296    1.5592491    118.64198    -12.11895   -3780.0326    10890.368 
    1804    283.14746    1.4618638    106.95492   -37.537632   -3003.6431    10890.368 
    1805    313.99418    1.3580844    98.467713   -32.121128   -2158.4187    10890.368 
    1806    284.09527    1.2441874    92.912369   -51.607201   -1366.0613    10890.368 
    1807    313.21264    1.1571801    92.351116   -39.562702   -602.93572    10890.368 
    1808    284.93932     1.093012    97.041768   -48.541888    27.215571    10890.368 
    1809    311.90298    1.0550799    105.66247   -28.628183    594.81988    10890.368 
    1810    285.06933     1.013352    118.86456   -28.704515    982.68948    10890.368 
    1811    311.18701   0.97899161    132.07378   -4.6577171    1303.7434    10890.368 
    1812    284.40045   0.94772778    145.95422   -3.8970304    1428.5383    10890.368 
    1813    312.13316   0.93117693    155.01651    17.056988    1542.0877    10890.368 
    1814    282.87998   0.93280729    159.57144    7.8712545    1476.2624    10890.368 
    1815    313.99574   0.96007343    157.71795    19.906972    1488.9319    10890.368 
    1816    281.23778    1.0277734    149.61285   -3.1101509    1361.4385    10890.368 
    1817    315.17975    1.1221355     138.9849    1.6344381    1380.4723    10890.368 
    1818    281.03133    1.2638772    125.76435    -27.09474    1289.8827    10890.368 
    1819    315.36243     1.412582    115.31622   -22.086827    1359.7132    10890.368 
    1820    282.09268    1.5899542     107.0077   -45.660742    1328.2534    10890.368 
    1821    314.72319    1.7436028    103.50631   -34.590782    1435.9451    10890.368 
    1822    283.01052    1.8961252    103.91656   -48.776347    1438.7284    10890.368 
    1823    313.88403    2.0048651    107.24966   -31.595913    1548.9598    10890.368 
    1824    283.10631    2.0756959    112.66684   -40.176143    1527.0289    10890.368 
    1825    313.81674    2.0807516    117.34565   -21.536787    1585.0998    10890.368 
    1826    282.54182    2.0166969    121.05858   -31.872676    1469.8428    10890.368 
    1827    314.36045    1.9035866    122.53291   -15.864173    1415.6168    10890.368 
    1828    282.02743    1.7299841    122.75531   -30.198118    1138.9537    10890.368 
    1829    314.48581    1.5557599    122.83876   -15.367974     929.2434    10890.368 
    1830    282.12571    1.3604323    124.26961     -28.5613     469.6285    10890.368 
    1831    313.85124    1.2091838    127.53139   -10.825132    108.74823    10890.368 
    1832    282.25409    1.0771157    133.54514   -18.845652   -487.35941    10890.368 
    1833     313.3294    1.0031686    139.83259    1.9733964   -916.90046    10890.368 
    1834    281.54568   0.96223994    146.12927   -5.3793554   -1517.2751    10890.368 
    1835    314.36916   0.95925736    148.60775    12.753992   -1862.7387    10890.368 
    1836    279.80644   0.98029848    146.13091    -4.500003   -2276.8895    10890.368 
    1837    316.24279     1.007493    139.03786    5.4943997   -2372.2696    10890.368 
    1838    278.48004    1.0459983    126.74909   -23.602892   -2456.1191    10890.368 
    1839    317.13611    1.0806857     114.8985    -18.03929    -2257.518    10890.368 
    1840     279.1532    1.1087937    103.19591   -47.445572   -2054.4049    10890.368 
    1841    316.69522    1.1264136    96.711843   -37.584869   -1648.4683    10890.368 
    1842    280.67951    1.1510405     95.17303   -56.296041   -1263.1948    10890.368 
    1843     315.0701    1.1929272    99.216208   -37.380413   -752.66081    10890.368 
    1844    281.36796    1.2803195    109.09285   -43.397819   -281.10404    10890.368 
    1845    313.58904    1.3906402    120.63223   -17.608803    255.76237    10890.368 
    1846    280.68033     1.557815     134.3568   -18.974726    713.64662    10890.368 
    1847    314.31642    1.7338027    143.80295    5.6602089    1175.3923    10890.368 
    1848    278.65844     1.960851    149.35723   -5.0188746    1477.8415    10890.368 
    1849    316.66701    2.1536213    148.50984    11.159941    1749.5608    10890.368 
    1850    276.69353    2.3474519    141.96447   -13.914644    1741.7282    10890.368 
    1851    318.08295    2.4676486    133.71466   -3.8585575     1728.609    10890.368 
    1852    276.74154    2.5435997    123.92228    -32.82338    1379.4838    10890.368 
    1853    317.96814    2.5589976    117.32211   -20.869041    1096.9284    10890.368 
    1854    277.88048    2.5179499    113.15096   -42.876703    482.35315    10890.368 
    1855    316.88156      2.43545     112.7621   -24.819224    19.203986    10890.368 
    1856    278.43277    2.2942318    115.45068   -38.085046   -714.96249    10890.368 
    1857    315.99502    2.1443109    119.36826   -15.497998   -1201.7792    10890.368 
    1858      277.864    1.9519439    124.28481   -25.712371   -1855.8997    10890.368 
    1859    316.39546    1.7865713    127.39886   -3.3846164    -2171.651    10890.368 
    1860    276.39248    1.6068952    128.63471   -18.622645   -2531.8632    10890.368 
    1861    317.85267    1.4781918    127.13059    -0.514763   -2521.2066    10890.368 
    1862     274.9315     1.365705    122.67014   -24.241233   -2470.2498    10890.368 
    1863    319.07307    1.3052641    117.51901   -9.8879565   -2104.8305    10890.368 
    1864    274.60007    1.2713793    111.33995   -37.401485   -1700.3023    10890.368 
    1865    319.24967    1.2697704    107.29774   -22.535168   -1101.9627    10890.368 
    1866    275.22742    1.2946056    105.09587   -46.358807   -512.24452    10890.368 
    1867    318.47935    1.3368074    105.82536   -27.391646    170.78896    10890.368 
    1868    275.67882    1.4092882    109.62835   -44.349393      784.181    10890.368 
    1869    317.51299    1.4845183    114.76125   -21.175833     1412.851    10890.368 
    1870    275.27616    1.5800233    122.22192   -33.646537      1901.05    10890.368 
    1871    317.12375    1.6549489    128.79532   -8.5986076     2361.352    10890.368 
    1872    274.06316    1.7268437    136.34911   -21.018996    2590.6075    10890.368 
    1873    317.49182    1.7637927    141.76272    3.7023281    2795.4289    10890.368 
    1874     272.2944     1.775149    146.82338   -12.210983    2685.6791    10890.368 
    1875     318.6822    1.7564578    149.13879    10.661142    2620.3013    10890.368 
    1876    270.16882     1.703717    149.13769   -11.916753    2197.3041    10890.368 
    1877    320.64874    1.6444082    146.37566    7.7417395    1939.1285    10890.368 
    1878    268.28932    1.5722331    139.56256   -23.197173    1342.5462    10890.368 
    1879    322.59184    1.5241149    131.62933    -6.648546    1024.1869    10890.368 
    1880    267.57047    1.4830011    120.05201   -42.965251     420.0737    10890.368 
    1881    323.56917     1.464974    110.22104   -26.940174     156.2493    10890.368 
    1882     268.2621    1.4557264    99.493617   -61.710307   -327.79714    10890.368 
    1883    323.01988    1.4595197    93.022707   -42.174444   -474.85674    10890.368 
    1884    269.60872    1.4768607    89.562918   -67.979443   -806.94994    10890.368 
    1885    320.66265    1.4994104    91.160749   -41.449409   -841.82013    10890.368 
    1886     270.1016    1.5334254    98.973793   -54.136602   -1030.9034    10890.368 
    1887    317.35339    1.5629983     109.4487    -20.28785   -962.49726    10890.368 
    1888    267.95211    1.5982688    125.93297   -23.967293   -1013.8694    10890.368 
    1889    316.65125     1.621537    138.83172    12.286349   -831.08527    10890.368 
    1890    261.82049    1.6426452    151.60577   0.98974746   -743.73614    10890.368 
    1891    321.82098    1.6503127    155.42778    31.704769   -438.98756    10890.368 
    1892    254.13561    1.6522188     151.5644   -4.3776425   -281.53216    10890.368 
    1893    328.27286    1.6510226    143.09076    18.880603    66.438537    10890.368 
    1894    251.27377    1.6510396    128.05365   -34.044902     149.5411    10890.368 
    1895    330.62779    1.6509636    116.97145   -11.497887    415.69999    10890.368 
    1896    253.04458    1.6513487    105.88276   -60.524415    323.44484    10890.368 
    1897    328.81316     1.653067    101.65051   -32.119868    432.16799    10890.368 
    1898    254.59375    1.6562732    102.41281   -66.494226    146.47307    10890.368 
    1899    324.54752    1.6567686     107.3653   -30.390709    110.34036    10890.368 
    1900    252.20876    1.6498629    118.74191   -51.747183   -314.93809    10890.368 
    1901    321.20934    1.6342944    128.32576   -10.409256    -405.6495    10890.368 
    1902    243.31784    1.5942653    140.72141   -32.162643   -843.48268    10890.368 
    1903    323.67994     1.551774    145.47002    9.8762161   -837.07805    10890.368 
    1904    228.88588    1.4685991      144.658   -32.676016   -1123.4182    10890.368 
    1905    331.04207    1.4064676    138.30328    7.8352934   -910.44792    10890.368 
    1906    217.04619    1.3094422    122.26557   -59.242437   -979.47459    10890.368 
    1907    333.59115    1.2557675    110.93157   -17.531786   -613.72987    10890.368 
    1908     210.4205    1.1897452    95.631587   -88.262723   -576.16356    10890.368 
    1909    325.30137    1.1659454    90.241438   -41.316032   -197.49514    10890.368 
    1910    196.96222    1.1454104    90.317675   -98.599686   -203.30739    10890.368 
    1911    301.60976    1.1427407    94.775177    -46.17783    89.955958    10890.368 
    1912    151.44204    1.1482987    113.33077   -94.142009   -88.706531    10890.368 
    1913    232.20348     1.151255    120.53312    -49.81913    80.709011    10890.368 
    1914    50.691715    1.1580515    142.78866   -108.30941   -312.60801    10890.368 
    1915    48.124045    1.1558549    137.98572   -114.64459   -304.21689    10890.368 
    1916    1198.5526    1.1511651    85.316692    349.59416    2024.5178    10890.368 
    1917   0.88709276    1.1536784    76.404844   -202.75859    -224.4496    10890.368 
    1918    22.832139    1.1548908     70.80005   -198.89467   -156.29958    10890.368 
    1919    3850.5377    1.1799635    34.356844    1495.6171    7286.5496    10890.368 
    1920 1.6793634e-08    1.1818271    32.774866   -250.74229   -26.859578    10890.368 
    1921 8.5096409e-07    1.1837105    31.291183   -252.38155   -17.802916    10890.368 
    1922 4.3245298e-05    1.1856124    29.896637   -253.92424   -9.2447336    10890.368 
    1923 0.0022006485    1.1875285    28.584992   -255.37613   -1.1486424    10890.368 
    1924   0.11252732    1.1894622    27.346074   -256.70025    6.7441421    10890.368 
    1925    6.9290663    1.1918091    25.946789   -255.16598     28.42036    10890.368 
    1926    6341.1948    1.2234146     14.34587    2601.7701    12145.531    10890.368 
    1927 1.296592e-15    1.2250112    13.905038   -271.82129    89.132497    10890.368 
    1928 6.7442701e-14    1.2265908    13.484338   -272.30214    92.342012    10890.368 
    1929 3.5103945e-12    1.2281533    13.082658   -272.76203    95.389827    10890.368 
    1930 1.828349e-10    1.2296982    12.698952    -273.2021    98.282639    10890.368 
    1931 9.5288023e-09    1.2312252    12.332245    -273.6234    101.02679    10890.368 
    1932 4.9692126e-07    1.2327341    11.981619   -274.02695    103.62828    10890.368 
    1933 2.5929986e-05    1.2342248    11.646217   -274.41366    106.09285    10890.368 
    1934  0.001354082    1.2356973    11.325181    -274.7839    108.42872    10890.368 
    1935  0.071370413    1.2371646    11.015072   -275.11107    110.78849    10890.368 
    1936    5.7494266     1.239331    10.575456   -273.04834    124.70386    10890.368 
    1937    13967.002      1.29968    4.5481956    6045.2574    26714.751    10890.368 
    1938 2.0671699e-38     1.299908    4.4891694   -283.02949    151.80081    10890.368 
    1939 1.0964062e-36    1.3001466    4.4321208   -283.10157    151.43817    10890.368 
    1940 5.8181563e-35    1.3003953     4.376958   -283.17165    151.01914    10890.368 
    1941 3.0889382e-33    1.3006536    4.3235945   -283.23982    150.54681    10890.368 
    1942 1.6407209e-31    1.3009212    4.2719495   -283.30617    150.02416    10890.368 
    1943 8.7187444e-30    1.3011974    4.2219471   -283.37077      149.454    10890.368 
    1944 4.6351023e-28    1.3014819    4.1735156   -283.43369    148.83902    10890.368 
    1945 2.4651515e-26    1.3017742    4.1265881     -283.495    148.18178    10890.368 
    1946 1.3115954e-24     1.302074    4.0811012   -283.55477    147.48472    10890.368 
    1947 6.9810638e-23    1.3023808    4.0369954   -283.61306    146.75016    10890.368 
    1948 3.7170849e-21    1.3026943    3.9942142   -283.66992    145.98031    10890.368 
    1949 1.9798695e-19    1.3030142    3.9527047   -283.72541    145.17729    10890.368 
    1950 1.0549168e-17      1.30334    3.9124167   -283.77959     144.3431    10890.368 
    1951 5.6226629e-16    1.3036716    3.8733026   -283.83248    143.47966    10890.368 
    1952 2.9978025e-14    1.3040084    3.8353176   -283.88416    142.58878    10890.368 
    1953 1.5988079e-12    1.3043503    3.7984189   -283.93465    141.67222    10890.368 
    1954 8.5293774e-11     1.304697    3.7625662   -283.98399    140.73163    10890.368 
    1955 4.5515764e-09    1.3050481    3.7277212   -284.03224    139.76858    10890.368 
    1956 2.4295499e-07    1.3054035    3.6938474   -284.07942     138.7846    10890.368 
    1957 1.2972112e-05    1.3057628    3.6609096   -284.12557    137.78111    10890.368 
    1958 0.00069326384     1.306126    3.6288535   -284.17045    136.76006    10890.368 
    1959  0.038426766    1.3065064    3.5965079   -284.19922      135.754    10890.368 
    1960    8.3450467    1.3076581    3.5030956   -280.56918    148.26517    10890.368 
    1961    407.54149    1.4229275    7.3569567   -97.370361     549.1236    10890.368 
    1962    47.212751    1.4754853    11.058583   -256.90178   -250.95926    10890.368 
    1963    1612.4723    1.6107746    19.489546    461.05675    2489.1716    10890.368 
    1964   0.01285121    1.6260746    19.927823   -269.08341   -598.48408    10890.368 
    1965   0.79251576    1.6241965    19.328146   -269.39027   -590.94742    10890.368 
    1966    244.53955     1.616131    17.116885   -161.38696   -103.31055    10890.368 
    1967 2.3435981e-23    1.6939502    111.57789   -172.55468   -993.42287    10890.368 
    1968 2.0260994e-24    1.6841843    104.26324   -180.25314   -915.71128    10890.368 
    1969 9.6964006e-23    1.6746847    97.518441   -187.35479    -843.0594    10890.368 
    1970 4.6614388e-21     1.665448    91.295589   -193.90965   -775.10657    10890.368 
    1971 2.2503693e-19    1.6564705    85.550975   -199.96337   -711.52027    10890.368 
    1972 1.0906595e-17    1.6477479    80.244685   -205.55765   -651.99382    10890.368 
    1973 5.305357e-16    1.6392756    75.340272   -210.73059   -596.24423    10890.368 
    1974 2.589577e-14    1.6310486    70.804449   -215.51697   -544.01023    10890.368 
    1975 1.2680604e-12    1.6230619    66.606803    -219.9486    -495.0505    10890.368 
    1976 6.2282279e-11      1.61531    62.719548   -224.05453   -449.14203    10890.368 
    1977 3.0677981e-09    1.6077875    59.117287   -227.86133   -406.07865    10890.368 
    1978 1.5151583e-07    1.6004888    55.776806   -231.39329   -365.66962    10890.368 
    1979 7.5023269e-06    1.5934083    52.676878   -234.67262   -327.70712    10890.368 
    1980 0.00037238003    1.5865388    49.798072    -237.7195    -292.0274    10890.368 
    1981  0.018531029    1.5798728    47.121846   -240.54547   -258.46772    10890.368 
    1982   0.93841853    1.5733012    44.592833   -242.80847   -224.70452    10890.368 
    1983    92.982281    1.5614104    40.270397   -205.68744    6.1679007    10890.368 
    1984 0.00070269278    1.2566176    29.283577   -259.67764    615.17499    10890.368 
    1985 6.3066519e-05    1.2609181    26.996121    -262.1086    606.54518    10890.368 
    1986 0.0030978234    1.2650601    24.907258   -264.32919    597.62682    10890.368 
    1987   0.15289673    1.2690622    22.993166   -266.29958    588.72475    10890.368 
    1988    8.9552415    1.2736463    20.923939   -264.51754    594.29082    10890.368 
    1989    5904.1061    1.3196893    6.8122405    2391.2925    11663.885    10890.368 
    1990 1.4253477e-14    1.3215517    6.4681123   -284.13797    427.58295    10890.368 
    1991 7.139087e-13    1.3233433    6.1524778    -284.4871    419.97251    10890.368 
    1992 3.5779083e-11     1.325067    5.8628927   -284.80828    412.53831    10890.368 
    1993 1.7942267e-09    1.3267252    5.5971277   -285.10388    405.27972    10890.368 
    1994 9.0030265e-08    1.3283205    5.3531467   -285.37605    398.19556    10890.368 
    1995 4.5202825e-06    1.3298553    5.1290902   -285.62676    391.28419    10890.368 
    1996 0.00022710683     1.331332    4.9232508   -285.85773    384.54366    10890.368 
    1997  0.011444498    1.3327564    4.7336297   -286.06621    377.97614    10890.368 
    1998   0.65399888    1.3343119    4.5364324     -285.998    371.91017    10890.368 
    1999    656.65511    1.3462826    3.3583102    9.8670074    1562.1132    10890.368 
    2000 2.5202054e-07    1.7289681    127.46047   -160.40366   -1903.8755    10890.368 
    2001 7.596625e-08    1.7146674    116.86875   -171.37701   -1794.8751    10890.368 
    2002 3.5239836e-06      1.70095    107.19533   -181.39694   -1693.3848    10890.368 
    2003 0.00016452021     1.687796    98.359299   -190.54743   -1598.8301    10890.368 
    2004 0.0077260112    1.6751848    90.286612   -198.90208   -1510.6663    10890.368 
    2005   0.36551181    1.6630687    82.893732   -206.39227    -1427.572    10890.368 
    2006    19.268685    1.6500665    75.346243   -205.63756    -1305.566    10890.368 
    2007    3625.6573    1.5701874    37.000568    1388.7473     6037.806    10890.368 
    2008 1.6960033e-07    1.5625118    34.183333     -256.882   -817.17236    10890.368 
    2009 8.2894948e-06    1.5551781    31.611567    -259.5327   -779.37766    10890.368 
    2010 0.00040713859    1.5481502    29.256177   -261.95893   -743.84527    10890.368 
    2011  0.020037634    1.5414122    27.097649   -264.17243   -710.37007    10890.368 
    2012    1.0088771    1.5348096    25.075973   -265.80467   -676.21587    10890.368 
    2013    122.59065    1.5209237    21.102305    -214.8022   -378.53146    10890.368 
    2014 5.9994361e-08    1.1865423    85.505147   -200.60568    299.22413    10890.368 
    2015 1.1322328e-08    1.1934288    78.247177   -208.26981    307.05288    10890.368 
    2016 5.3693172e-07    1.2000975    71.621442   -215.27045    312.66032    10890.368 
    2017 2.5574697e-05    1.2065492    65.572799   -221.66525    316.30898    10890.368 
    2018 0.0012230656    1.2127859    60.050871   -227.50638     318.2376    10890.368 
    2019  0.058734188    1.2188131    55.007187    -232.8196    318.76397    10890.368 
    2020    2.9018943    1.2247931    50.277913   -236.54135    323.22739    10890.368 
    2021    368.97245    1.2389019    40.160533   -81.411593     1012.177    10890.368 
    2022 0.00036612875    1.4660357    26.172529   -265.47654   -540.91481    10890.368 
    2023 3.0135179e-05    1.4614987     24.07353   -267.62077   -510.08311    10890.368 
    2024 0.0014777426    1.4571662    22.160419   -269.57302   -481.16376    10890.368 
    2025  0.072687662    1.4530212    20.413427   -271.32284   -453.84348    10890.368 
    2026     3.935048    1.4486554    18.661123   -271.35898   -418.36913    10890.368 
    2027    2000.2268    1.4228159    10.086777    624.41982    3534.8853    10890.368 
    2028  0.017164589    1.4161236    8.3800398   -283.56387    -231.4899    10890.368 
    2029   0.23625314    1.4137444    7.8304497   -284.01813   -218.11103    10890.368 
    2030    26.748588    1.4091087    6.8341025   -273.00711   -142.86885    10890.368 
    2031     8.296642    1.2400998    41.704455   -243.81168     354.8358    10890.368 
    2032    1.3679103    1.2432007    39.410882   -249.36094    340.17556    10890.368 
    2033    229.87827    1.2536484    32.470556   -153.12995    765.81542    10890.368 
    2034 3.7028345e-08    1.5216973    72.396809   -218.49031   -1018.6666    10890.368 
    2035 5.9041348e-09    1.5137991    66.111345   -224.92895   -953.09853    10890.368 
    2036 2.810873e-07     1.506268    60.393002   -230.78457   -892.09447    10890.368 
    2037 1.3433652e-05    1.4990877    55.190332   -236.11014   -835.30315    10890.368 
    2038 0.00064426886    1.4922426    50.456548   -240.95354   -782.40092    10890.368 
    2039  0.031006657    1.4857155    46.147764   -245.34674   -733.02072    10890.368 
    2040    1.5211144    1.4793836    42.158808    -248.7496   -683.37986    10890.368 
    2041    149.28162    1.4677451    35.311488   -188.79696   -318.94624    10890.368 
    2042 2.9914228e-05    1.2323634    45.906114    -243.8192    312.08975    10890.368 
    2043 4.0674024e-06    1.2379066    41.841151    -248.0507    312.13942    10890.368 
    2044 0.00019605185    1.2432063    38.154472   -251.89069     311.0949    10890.368 
    2045 0.0094758781     1.248272    34.810284   -255.37206    309.12239    10890.368 
    2046   0.46203138    1.2531453    31.756638   -258.35194    307.15931    10890.368 
    2047    30.802812    1.2595104    28.008945   -248.51702    359.86671    10890.368 
    2048    1152.2181    1.3616792    2.4439131    232.47411    2238.1516    10890.368 
    2049   0.19792654    1.3711322    3.0654016   -288.91992    6.6301698    10890.368 
    2050   0.17498273    1.3710968    3.0611835   -288.94235    4.5007944    10890.368 
    2051    430.29743    1.3645371    2.6242743   -94.555018    824.50123    10890.368 
    2052 4.2059663e-50   0.93289242    950.43586    673.18498   -4719.8168    10890.368 
    2053 1.3325023e-50   0.94537311    845.64753    566.75867   -4231.1667    10890.368 
    2054 3.2884643e-49   0.95788292    752.64053    472.28645   -3796.7867    10890.368 
    2055 8.7552222e-48   0.97033094    670.07295    388.40829   -3410.8347    10890.368 
    2056 2.4932294e-46     0.982617    596.75616    313.91924   -3067.7762    10890.368 
    2057 7.5366082e-45    0.9946657    531.63777    247.75228   -2762.7142    10890.368 
    2058 2.4020609e-43    1.0064213    473.78617    188.96271   -2491.3162    10890.368 
    2059 8.024117e-42    1.0178437    422.37678    136.71422   -2249.7498    10890.368 
    2060 2.7946225e-40     1.028905    376.67973    90.266423   -2034.6247    10890.368 
    2061 1.0100242e-38    1.0395871    336.04896    48.963896   -1842.9416    10890.368 
    2062 3.772469e-37    1.0498797    299.91255    12.226321   -1672.0467    10890.368 
    2063 1.4508175e-35    1.0597783    267.76415   -20.460161   -1519.5921    10890.368 
    2064 5.7264171e-34    1.0692831    239.15537   -49.550641   -1383.4996    10890.368 
    2065 2.3130598e-32     1.078398    213.68907    -75.44824     -1261.93    10890.368 
    2066 9.5371211e-31    1.0871295    191.01346   -98.510112   -1153.2546    10890.368 
    2067 4.0049119e-29    1.0954863     170.8168   -119.05276   -1056.0315    10890.368 
    2068 1.7094006e-27    1.1034784    152.82283   -137.35674   -968.98344    10890.368 
    2069 7.4028405e-26    1.1111172    136.78661   -153.67078   -890.97903    10890.368 
    2070 3.2476721e-24    1.1184145    122.49096   -168.21547   -821.01557    10890.368 
    2071 1.4413118e-22    1.1253828    109.74324    -181.1865   -758.20441    10890.368 
    2072 6.4627401e-21    1.1320345    98.372538   -192.75751   -701.75764    10890.368 
    2073 2.9246231e-19    1.1383826    88.227157    -203.0826   -650.97659    10890.368 
    2074 1.3344202e-17    1.1444394    79.172446    -212.2986   -605.24148    10890.368 
    2075 6.1334847e-16    1.1502176    71.088831   -220.52703   -564.00239    10890.368 
    2076 2.8377783e-14    1.1557294      63.8701   -227.87581   -526.77127    10890.368 
    2077 1.3207115e-12    1.1609865    57.421885   -234.44088   -493.11483    10890.368 
    2078 6.1791763e-11    1.1660006    51.660313   -240.30749   -462.64828    10890.368 
    2079 2.9047618e-09    1.1707829     46.51082   -245.55143   -435.02982    10890.368 
    2080 1.3713173e-07    1.1753442    41.907097   -250.24012   -409.95575    10890.368 
    2081 6.4986945e-06    1.1796948    37.790158   -254.43352   -387.15611    10890.368 
    2082 0.00030903688    1.1838447    34.107504    -258.1849   -366.39025    10890.368 
    2083  0.014744324    1.1878044    30.811762   -261.53616   -347.41462    10890.368 
    2084   0.71274593    1.1916243    27.829992   -264.25821    -328.5826    10890.368 
    2085    55.765174    1.1974354    23.648771   -243.57561   -198.78509    10890.368 
    2086    6.6924786     1.330161    22.278653   -266.99537   -198.03227    10890.368 
    2087   0.70749832    1.3285589    20.851285   -271.17745   -197.39107    10890.368 
    2088     108.2931    1.3228253    16.924179   -226.47475    35.583941    10890.368 
    2089 9.0018827e-07    1.1645672    132.18687   -159.98667   -460.82979    10890.368 
    2090 3.5315191e-07    1.1708714    117.12264   -175.19258   -401.27034    10890.368 
    2091 1.5460575e-05    1.1769212    103.82839   -188.60928   -349.21076    10890.368 
    2092 0.00068464112    1.1827169    92.093521   -200.44949   -303.71982    10890.368 
    2093  0.030630112    1.1882618     81.73134   -210.88908   -263.92195    10890.368 
    2094    1.3916036    1.1935988    72.513923    -219.5686    -226.3831    10890.368 
    2095    85.779736    1.2006331     61.40954   -192.52919    -24.47042    10890.368 
    2096    24.348598    1.2930309    3.8486286   -277.89115     -13.6601    10890.368 
    2097    1.1155089    1.2972633    4.4547562   -287.78178   -64.224141    10890.368 
    2098    209.55945    1.3056976    5.2732945   -192.52342    330.45901    10890.368 
    2099 1.4617589e-38    2.0114814    761.12374    483.51603    -3724.969    10890.368 
    2100 5.1789983e-39    1.9698091    686.41516     407.2347   -3351.4256    10890.368 
    2101 1.5565538e-37    1.9308841    619.08806    338.49092   -3014.5676    10890.368 
    2102 4.9117742e-36     1.894514    558.41251    276.53921   -2710.7914    10890.368 
    2103 1.6194915e-34    1.8605197     503.7304    220.70747   -2436.8462    10890.368 
    2104 5.5552176e-33    1.8287343    454.44848    170.38987   -2189.7995    10890.368 
    2105 1.9747302e-31     1.799003    410.03206    125.04041   -1967.0066    10890.368 
    2106 7.2488445e-30    1.7711814    369.99933      84.1671   -1766.0827    10890.368 
    2107 2.7390853e-28     1.745136    333.91617    47.326666   -1584.8777    10890.368 
    2108 1.0623707e-26    1.7207425    301.39146    14.119746   -1421.4529    10890.368 
    2109 4.218533e-25    1.6978856    272.07287   -15.813422   -1274.0606    10890.368 
    2110 1.7110144e-23    1.6764588    245.64299   -42.796916   -1141.1253    10890.368 
    2111 7.0736683e-22    1.6563628    221.81593   -67.122656   -1021.2267    10890.368 
    2112 2.9752014e-20    1.6375089    200.33415   -89.053588   -912.97169    10890.368 
    2113 1.2709588e-18    1.6198375     180.9657   -108.82653   -815.15822    10890.368 
    2114 5.5058777e-17    1.6032732    163.50165   -126.65479   -726.91064    10890.368 
    2115 2.4154838e-15    1.5877398    147.75379   -142.73057   -647.29117    10890.368 
    2116 1.0718292e-13     1.573167    133.55258   -157.22697   -575.45439    10890.368 
    2117 4.8051359e-12    1.5594893     120.7453   -170.29993   -510.63815    10890.368 
    2118 2.1742389e-10     1.546646    109.19439   -182.08993   -452.15533    10890.368 
    2119 9.9205679e-09    1.5345808    98.775915   -192.72351   -399.38641    10890.368 
    2120 4.5607825e-07    1.5232344    89.378231   -202.31471   -351.59661    10890.368 
    2121 2.1110388e-05    1.5125483    80.900735   -210.96624   -308.44316    10890.368 
    2122 0.00098315182    1.5024798    73.252761   -218.77027    -269.4963    10890.368 
    2123  0.046054651    1.4929863    66.350561   -225.79278   -234.25314    10890.368 
    2124    2.2004064    1.4838869    60.022301   -231.27345   -197.91665    10890.368 
    2125     195.8723     1.468085    49.690963   -154.06357    222.97743    10890.368 
    2126 0.00046265203     1.251164    28.628344   -263.93777   -66.329529    10890.368 
    2127 4.6774188e-05    1.2543527    25.975723   -266.65259   -53.229336    10890.368 
    2128 0.0022581473    1.2573871    23.589558   -269.09432   -41.406107    10890.368 
    2129   0.10945405     1.260281    21.438204   -271.24886   -30.513204    10890.368 
    2130    5.9585087    1.2633818    19.266104   -270.82392   -8.5665311    10890.368 
    2131    3276.9629    1.2849402    7.8347841     1199.484     6268.672    10890.368 
    2132 9.6494035e-07     1.286523    7.2516322   -285.85406    39.688269    10890.368 
    2133 4.5705475e-05    1.2879789    6.7441305   -286.37794    42.500298    10890.368 
    2134 0.0022411908    1.2893625     6.287158   -286.84905    45.057676    10890.368 
    2135   0.11120842    1.2906926    5.8709322   -287.23005    47.610402    10890.368 
    2136     9.473715    1.2927822    5.2626509    -283.6177    68.875536    10890.368 
    2137    8302.5048      1.35205    9.6280082    3478.0308    15828.472    10890.368 
    2138 1.5909214e-21    1.3500909    8.8863552   -284.44562    42.176676    10890.368 
    2139 7.7726665e-20    1.3482304    8.2192082   -285.12145    45.311629    10890.368 
    2140 3.7996224e-18    1.3464631    7.6190136   -285.72918    48.092263    10890.368 
    2141 1.858396e-16    1.3447837    7.0789897   -286.27572    50.554425    10890.368 
    2142 9.0937729e-15    1.3431875    6.5930476   -286.76728    52.730367    10890.368 
    2143  4.45185e-13    1.3416698    6.1557193   -287.20942    54.649105    10890.368 
    2144 2.1802783e-11    1.3402264    5.7620943   -287.60714    56.336752    10890.368 
    2145 1.0681798e-09    1.3388533     5.407762   -287.96494    57.816807    10890.368 
    2146 5.2351045e-08    1.3375467    5.0887608   -288.28685    59.110418    10890.368 
    2147 2.5665157e-06     1.336303    4.8015315   -288.57649    60.236626    10890.368 
    2148 0.00012586336    1.3351187    4.5428709   -288.83708    61.212811    10890.368 
    2149  0.006181329    1.3339895    4.3096335   -289.06918    62.066428    10890.368 
    2150   0.32333473     1.332842    4.0858796   -289.15059    63.437389    10890.368 
    2151    120.16924    1.3279165    3.2654521   -235.67375    293.86471    10890.368 
    2152 4.7628539e-33    1.0224818    596.76444    316.21624   -3165.4356    10890.368 
    2153 1.6882566e-33    1.0332403    537.76078    256.03004   -2867.3386    10890.368 
    2154 5.6302576e-32    1.0436682    484.59038    201.78849   -2598.3594    10890.368 
    2155 1.9510837e-30    1.0537587    436.68203    152.90981   -2355.6294    10890.368 
    2156 6.9992056e-29    1.0635084     393.5192    108.86787   -2136.5596    10890.368 
    2157 2.5904268e-27    1.0729167    354.63509    69.187197   -1938.8141    10890.368 
    2158 9.8607704e-26    1.0819854    319.60804    33.438276   -1760.2741    10890.368 
    2159 3.8500286e-24    1.0907174    288.05736    1.2333004   -1599.0121    10890.368 
    2160 1.5379583e-22    1.0991177    259.63947   -27.777754   -1453.3603    10890.368 
    2161 6.2715182e-21    1.1071929    234.04436     -53.9107    -1321.776    10890.368 
    2162 2.6053403e-19    1.1149505    210.99244   -77.450407   -1202.8693    10890.368 
    2163 1.100583e-17    1.1223987    190.23157   -98.653763   -1095.3877    10890.368 
    2164 4.7198601e-16    1.1295462    171.53447   -117.75237   -998.20347    10890.368 
    2165 2.0518031e-14     1.136402    154.69624   -134.95501   -910.30048    10890.368 
    2166 9.0293957e-13    1.1429756    139.53226   -150.44983   -830.76375    10890.368 
    2167 4.0176501e-11    1.1492761    125.87615    -164.4064   -758.76926    10890.368 
    2168 1.8055187e-09    1.1553133    113.57802   -176.97747   -693.57494    10890.368 
    2169 8.1869348e-08    1.1610965    102.50283    -188.3007   -634.51254    10890.368 
    2170 3.7423595e-06     1.166635    92.528943   -198.50007   -580.98032    10890.368 
    2171 0.00017231711    1.1719381    83.546798   -207.68719   -532.43602    10890.368 
    2172 0.0079868525    1.1770152    75.457354   -215.95965   -488.37546    10890.368 
    2173    0.3731865    1.1818868     68.15478   -223.26696   -447.60103    10890.368 
    2174    19.540243    1.1871404    60.770896   -222.14062   -370.28046    10890.368 
    2175    3709.1537    1.2216814    23.785021    1411.6635    6855.5015    10890.368 
    2176 7.4175792e-08    1.2245899    21.631804   -271.10435   -184.68758    10890.368 
    2177 3.5887544e-06    1.2273659    19.697259   -273.09343   -171.93052    10890.368 
    2178 0.00017435565    1.2300222    17.954411   -274.88622   -160.20952    10890.368 
    2179 0.0084839138    1.2325646    16.383876   -276.49889   -149.41112    10890.368 
    2180   0.41850927    1.2350299    14.950576   -277.78912   -138.57399    10890.368 
    2181    36.764007     1.239077    12.779215    -263.5593   -53.808385    10890.368 
    2182    22.740612    1.3579668    28.259802   -254.65794   -41.067615    10890.368 
    2183   0.69819039    1.3596555    28.845754   -264.05328   -82.534342    10890.368 
    2184    646.91548    1.3525903     22.42371    22.208757    1182.9481    10890.368 
    2185  0.012109509    1.2431411    40.777913   -251.94605   -119.76601    10890.368 
    2186 0.0024400626    1.2460474    36.787734   -256.01004    -102.6166    10890.368 
    2187   0.11657409    1.2488126    33.204435   -259.60454   -87.057132    10890.368 
    2188    6.0075597    1.2516511    29.739217   -260.46207   -61.102197    10890.368 
    2189    1917.0511    1.2653611    15.936486    591.34877    3629.8099    10890.368 
    2190   0.03501268    1.2692501    12.907092   -280.30598   -4.0364909    10890.368 
    2191   0.61180789    1.2708823    11.755301   -281.22023    1.7835557    10890.368 
    2192    77.847966    1.2744083     9.491862   -248.53718    157.79609    10890.368 
    2193 8.1996238e-07     1.420787    141.67106   -149.59122   -756.00079    10890.368 
    2194 3.1133627e-07    1.4134557      127.191   -164.32772   -677.84051    10890.368 
    2195 1.3907211e-05    1.4066196    114.22695   -177.52096   -607.58176    10890.368 
    2196 0.00062680157    1.4002413    102.61882   -189.33363   -544.40896    10890.368 
    2197  0.028467681    1.3942859    92.222249   -199.90062   -487.53501    10890.368 
    2198    1.3093731    1.3886847    82.848916   -208.85821   -433.64293    10890.368 
    2199     79.65271    1.3816394    71.652137   -184.75509   -222.86568    10890.368 
    2200    50.879942    1.3048683    3.2371599   -267.40449    124.47469    10890.368 
    2201    17.426673    1.2981456    2.7988406   -282.99959     67.57717    10890.368 
    2202    3716.4457    1.2742942    10.748754    1401.1257     7076.902    10890.368 
    2203 5.1992362e-08    1.2757357    9.8323851   -283.65786    11.803737    10890.368 
    2204 3.4865195e-06    1.2771111    9.0109188   -284.48681    14.360936    10890.368 
    2205 0.00020808629    1.2784173    8.2779174   -285.22634    16.608503    10890.368 
    2206  0.011090453    1.2796585    7.6232888   -285.88191    18.605862    10890.368 
    2207   0.57117883    1.2808879    7.0144654   -286.24238    21.479627    10890.368 
    2208    125.03292    1.2847702    5.3372279   -231.54179    262.77121    10890.368 
    2209 2.9976701e-16    1.5512108    379.50021    92.962583   -2046.4285    10890.368 
    2210 0.00049624801    1.5341463    338.46167    51.168931   -1829.1074    10890.368 
    2211   0.15561141    1.5184277     301.9222    14.025489   -1634.4332    10890.368 
    2212    9.0341778    1.5037557    268.98845   -15.494935   -1441.6034    10890.368 
    2213    493.46417    1.4812881    221.02106    155.13281   -262.62136    10890.368 
    2214     54.10591    1.3980116     75.84384   -191.88557   -300.53593    10890.368 
    2215    115.84604    1.3814045    54.156027   -186.03138   -58.879321    10890.368 
    2216     233.9678    1.3147602    4.4237515   -183.36355    482.90156    10890.368 
    2217    173.59737    1.2933297    5.8525991   -209.35678    383.64592    10890.368 
    2218    263.65189    1.2461449    53.048065   -120.74669    367.25553    10890.368 
    2219    153.30308    1.2269567    91.527969   -131.65776   -23.070669    10890.368 
    2220     269.1008    1.1835679    219.37484    50.884177   -450.73074    10890.368 
    2221    108.83348    1.1658424    284.07723    44.210877   -1106.9448    10890.368 
    2222    459.31526    1.1315433    412.31545     334.2271   -1239.4968    10890.368 
    2223    134.57598    1.1183387    468.83896     245.3282   -2291.1138    10890.368 
    2224    495.63618    1.1296471    472.22244    413.61363   -1892.6363    10890.368 
    2225    191.36325    1.1617948     421.5565    224.77159   -2363.7392    10890.368 
    2226    397.27402    1.2155186    320.17418     215.0835   -1551.4022    10890.368 
    2227    232.71197    1.2629239    226.43652    44.972591   -1404.8768    10890.368 
    2228     346.3633    1.3037736    142.34562    10.542506   -726.54535    10890.368 
    2229    260.51456    1.3379713     75.69087   -96.636796   -476.73295    10890.368 
    2230    332.72479    1.3653343    33.251469   -107.59697   -18.015926    10890.368 
    2231    271.05092    1.3895495    14.203846   -155.45609    100.24653    10890.368 
    2232    330.57608    1.4117316    20.117593   -123.02766    353.99529    10890.368 
    2233    266.40919    1.4342807    51.661788   -120.59687    282.80242    10890.368 
    2234    272.39809    1.4575353    103.31693   -65.897422    272.37193    10890.368 
    2235    300.90872    1.4919071    188.90852     33.44303    238.07711    10890.368 
    2236    252.53331    1.5352583    283.99334    107.74978    48.073904    10890.368 
    2237    290.84969     1.606281    405.50494    248.42647    77.421779    10890.368 
    2238    277.46675    1.6720958    484.20004    322.75052    202.24484    10890.368 
    2239    269.84512    1.7481309    497.44889     334.2325    733.94609    10890.368 
    2240     314.1459     1.794903     432.5111    289.63572    1391.7558    10890.368 
    2241    239.95547    1.8504506    316.47073    139.06958     1830.776    10890.368 
    2242    328.67953    1.8715281    216.21584    77.640804    2322.6898    10890.368 
    2243    259.40868     1.855771    130.52038   -41.027948    2313.1402    10890.368 
    2244    329.85649    1.8092419    72.597263   -68.399357    2363.3195    10890.368 
    2245     273.0641    1.7362457     38.62912   -129.14959    1978.4522    10890.368 
    2246    327.61621    1.6547734    28.621665   -114.98624    1633.3075    10890.368 
    2247    271.30113    1.5722367    39.962421   -129.07597    883.52853    10890.368 
    2248    321.92287    1.4974845    69.137952   -76.080286    171.32727    10890.368 
    2249    268.61135    1.4353067    108.69468     -58.9091   -860.43798    10890.368 
    2250    313.41606    1.3862316    150.07871     5.503584   -1787.1021    10890.368 
    2251    278.90641    1.3465135     185.7858    29.349379   -2901.4722    10890.368 
    2252    321.10484    1.3085218    206.36693     73.16997   -3708.6442    10890.368 
    2253    274.17845    1.2562094    211.24717    60.475731   -4424.3672    10890.368 
    2254    352.85871    1.1930324    204.46337    91.488876    -4538.575    10890.368 
    2255    177.89089    1.1281368    191.02784  -0.96031979   -4785.7178    10890.368 
    2256     488.7577    1.0878448    174.15526    121.46776    -3805.459    10890.368 
    2257    181.16955    1.0920476    152.65397   -42.402761   -3725.5829    10890.368 
    2258    485.22181    1.1558834    129.15539    68.283144   -2327.6695    10890.368 
    2259     179.3734    1.2769356    104.66577   -98.257431   -2025.8096    10890.368 
    2260    493.13574    1.4482461    80.964326    17.171276   -518.56191    10890.368 
    2261    173.19456    1.6317101    62.896384   -147.93369   -331.93783    10890.368 
    2262     515.8523    1.8355331    51.101469    -5.791108    1076.0328    10890.368 
    2263    158.96817    2.0046092    48.817916   -170.15396    957.48129    10890.368 
    2264    564.08188    2.1719787    56.584896     21.56979     2238.414    10890.368 
    2265    128.80889    2.2751159    69.653114   -161.70545    1715.7827    10890.368 
    2266    690.54935    2.3544959    91.979631     116.7451    3031.0994    10890.368 
    2267    68.888738    2.3629695    105.67304   -150.11318    1928.5461    10890.368 
    2268    1121.9099    2.3098124    115.46442    337.82389    3933.0762    10890.368 
    2269    5.9701673    2.2533354    109.83904   -173.61722     1776.769    10890.368 
    2270    242.87288     2.194725     96.71065   -80.199843    2192.6498    10890.368 
    2271   0.01414286    1.6137129    34.761434   -258.32236    706.26346    10890.368 
    2272 0.0019153888    1.6132547    31.830395   -261.31012    697.37429    10890.368 
    2273  0.092523675    1.6126767    29.187093   -263.95844    687.93454    10890.368 
    2274    4.8518882      1.61193    26.603541   -264.43044    685.83956    10890.368 
    2275    1843.0875    1.6075911    15.598505    557.26706    4110.6352    10890.368 
    2276  0.070775025    1.6051143    12.691739   -280.71959     573.4633    10890.368 
    2277   0.86328483    1.6035276    11.822214    -281.2449    561.63014    10890.368 
    2278    194.73919    1.5982292    9.3656728   -195.89724    885.80128    10890.368 
    2279 3.2602383e-20    1.5387125    280.36644   0.60246766   -3490.4375    10890.368 
    2280 1.0338305e-20       1.5262     252.5642   -28.174245   -3278.4768    10890.368 
    2281 4.2089131e-19    1.5147229    227.64778   -53.987718   -3083.5247    10890.368 
    2282 1.7469762e-17    1.5041996    205.31048   -77.151534   -2903.9582    10890.368 
    2283 7.3780067e-16    1.4945549    185.27856   -97.945665   -2738.3206    10890.368 
    2284 3.1648837e-14    1.4857193    167.30764   -116.62007   -2585.3045    10890.368 
    2285 1.3767583e-12    1.4776289    151.17966   -133.39791   -2443.7355    10890.368 
    2286 6.0649545e-11    1.4702246    136.69994   -148.47843   -2312.5589    10890.368 
    2287 2.702228e-09    1.4634521    123.69475   -162.03955   -2190.8265    10890.368 
    2288 1.2163391e-07    1.4572614    112.00898   -174.24013   -2077.6861    10890.368 
    2289 5.5257569e-06    1.4516061    101.50418   -185.22206   -1972.3708    10890.368 
    2290 0.00025313187    1.4464438    92.056713   -195.11197   -1874.1898    10890.368 
    2291  0.011684191     1.441735    83.555654   -204.01868   -1782.4952    10890.368 
    2292   0.54460261    1.4374297    75.878214   -211.83756   -1695.4823    10890.368 
    2293    29.494977    1.4328474    67.818685   -207.19563   -1546.3939    10890.368 
    2294    2928.9911    1.4026163    21.584703    1057.4974    4623.2602    10890.368 
    2295 5.1011005e-06    1.4019601    19.949804   -271.35706   -909.00382    10890.368 
    2296 0.00024568173    1.4014289    18.495195   -272.94328   -873.27153    10890.368 
    2297  0.012147107    1.4009821    17.167755   -274.38926   -839.01937    10890.368 
    2298   0.61359999    1.4006063    15.931107   -275.47246   -804.41008    10890.368 
    2299    72.280105    1.3999933    13.593571   -245.57404   -600.49577    10890.368 
    2300 4.9632415e-05    1.4700104    75.878637   -217.07204    746.24714    10890.368 
    2301 1.1244081e-05    1.4699403    68.821865   -224.25891    753.38385    10890.368 
    2302 0.00052651963    1.4696908    62.483997   -230.71335    757.70419    10890.368 
    2303  0.024790383     1.469279    56.787109   -236.50409    759.60807    10890.368 
    2304    1.1843673    1.4687159        51.61   -241.25087    761.51566    10890.368 
    2305    88.786952    1.4676754    44.427433   -208.87246    924.24884    10890.368 
    2306   0.64808167    1.4640325    16.518793   -276.48698    160.68783    10890.368 
    2307  0.061623024    1.4595144    14.918543   -278.40253    163.01963    10890.368 
    2308     3.341739    1.4548174    13.314692   -278.57223    173.10004    10890.368 
    2309     1559.771    1.4293153    6.4094384    419.45557    3144.1935    10890.368 
    2310    1.2882339    1.4100535    3.3697676   -289.87122    175.88006    10890.368 
    2311    5.1990496    1.4050843    2.9261807   -288.57748    178.93517    10890.368 
    2312       9073.5    1.3515894    5.1362685    3822.0729    17329.891    10890.368 
    2313 1.6412462e-23    1.3525558    4.7915218    -289.3142    74.776194    10890.368 
    2314 7.8915152e-22    1.3534562      4.48673   -289.61184    75.661352    10890.368 
    2315 3.7960142e-20     1.354294    4.2172019   -289.87454    76.447545    10890.368 
    2316 1.8267058e-18    1.3550721    3.9788018   -290.10641    77.148488    10890.368 
    2317 8.7938052e-17    1.3557936    3.7678831   -290.31112    77.776036    10890.368 
    2318 4.2349414e-15    1.3564612    3.5812308   -290.49188    78.340423    10890.368 
    2319 2.0402121e-13    1.3570778    3.4160095   -290.65151    78.850473    10890.368 
    2320 9.8322937e-12    1.3576459    3.2697183   -290.79251    79.313786    10890.368 
    2321 4.740007e-10    1.3581681    3.1401515   -290.91709    79.736895    10890.368 
    2322 2.2858064e-08    1.3586467    3.0253632   -291.02718    80.125415    10890.368 
    2323 1.1026261e-06    1.3590842    2.9236363   -291.12449     80.48416    10890.368 
    2324 5.3205012e-05    1.3594826    2.8334534   -291.21051    80.817355    10890.368 
    2325 0.0025719311    1.3598446    2.7533569   -291.28558    81.133563    10890.368 
    2326   0.13480738    1.3602007    2.6763473   -291.29872    81.700786    10890.368 
    2327    69.900537    1.3620208    2.3534384   -259.99061    215.71671    10890.368 
    2328 1.1635714e-34    1.7782491    766.90194    486.69493   -3691.5826    10890.368 
    2329 8.6669023e-35    1.7395368    678.44073    396.73909   -3256.0012    10890.368 
    2330 6.411006e-33    1.7039174    600.14304    317.11405   -2869.9159    10890.368 
    2331 7.4451075e-31    1.6711524    530.86116    246.65255   -2527.7873    10890.368 
    2332 1.4772165e-28    1.6410182    469.57196    184.31427   -2224.6767    10890.368 
    2333 5.3223548e-26    1.6133063    415.36461    129.17323   -1956.1859    10890.368 
    2334 3.4793739e-23    1.5878129    367.42922      80.4062   -1718.1991    10890.368 
    2335 3.7263057e-20    1.5643418    325.04627    37.281913   -1507.4086    10890.368 
    2336 5.2466928e-17    1.5427287    287.57717  -0.84857193   -1320.7676    10890.368 
    2337 7.1449074e-14    1.5228224     254.4555   -34.560781   -1155.5317    10890.368 
    2338 6.8480426e-11    1.5044834    225.17917   -64.364827   -1009.2651    10890.368 
    2339 3.618011e-08    1.4875831    199.30336   -90.712613   -879.80689    10890.368 
    2340 9.3448248e-06    1.4720032    176.43416   -114.00429   -765.24071    10890.368 
    2341 0.0011923507    1.4576351    156.22285   -134.59357   -663.86508    10890.368 
    2342  0.084951912    1.4443768    138.35785   -152.76008   -574.00391    10890.368 
    2343    4.2253638    1.4319862    122.37632   -167.17408   -485.80882    10890.368 
    2344    286.27031    1.4131898    99.513822   -62.697839    165.67087    10890.368 
    2345   0.62412007    1.2708747    3.2946086   -290.86638    123.04115    10890.368 
    2346 0.0098358235    1.2708673    3.1906046   -291.24801    119.17249    10890.368 
    2347   0.69331681    1.2710081    3.0674045   -291.05915    117.23856    10890.368 
    2348    1340.5395     1.273365    2.1680148    315.15568    2619.9188    10890.368 
    2349    27.572834    1.2831403    5.9689886   -275.60661   -25.769295    10890.368 
    2350    359.16407    1.2917331    13.580635   -117.38817    481.20031    10890.368 
    2351    1.7004114    1.3759715    160.00081   -127.39136   -1494.2609    10890.368 
    2352    44.016937    1.3688989    146.00765   -122.67446   -1303.0349    10890.368 
    2353     1283.145    1.3233483    59.772525    349.45074    1798.2164    10890.368 
    2354    17.709629    1.3138332    43.535684   -240.78434   -443.60407    10890.368 
    2355    640.12036    1.3013163    23.923374    20.744375    966.59173    10890.368 
    2356    149.95723    1.2837577    4.4235945    -222.0889    408.33075    10890.368 
    2357    432.98501    1.2814812    10.097477   -88.509599    1110.0379    10890.368 
    2358    200.44789    1.2991987    48.089798   -155.46031    746.46865    10890.368 
    2359    316.73698    1.3216295    92.535353   -57.403779    907.39015    10890.368 
    2360    240.10967    1.3662862      182.256 -0.036492274    496.62266    10890.368 
    2361    267.05533    1.4070424    258.73607    91.069469    231.49335    10890.368 
    2362    259.31447    1.4768612    366.39083    199.42947   -380.42465    10890.368 
    2363    303.25445    1.5325404    434.44936    290.89679   -843.30453    10890.368 
    2364    261.36502    1.5727753    463.86962    304.39872    -1536.261    10890.368 
    2365    337.03216    1.5945957    434.55192    309.73528    -1687.745    10890.368 
    2366    243.40137    1.6153055    358.32954    189.24248   -1925.9343    10890.368 
    2367    331.53188    1.6295127    277.76946    145.96013   -1641.2931    10890.368 
    2368    260.76658    1.6293151    197.56281    30.739817   -1557.6109    10890.368 
    2369    324.65666    1.6140974    133.92585   -6.4438261   -1198.2584    10890.368 
    2370    276.26692    1.5853438    85.456209    -78.86344   -1050.7953    10890.368 
    2371    321.28179    1.5484567     55.95987   -89.355172   -754.09099    10890.368 
    2372    275.23373    1.5072475    44.369909   -122.61484   -657.35867    10890.368 
    2373     336.2859    1.4685306    50.709536   -88.826115     -382.966    10890.368 
    2374    265.14469    1.4319615    73.199353   -98.214311   -373.07516    10890.368 
    2375     331.8364    1.4068021    107.54337   -32.785025    -93.65126    10890.368 
    2376     264.1834    1.4152056    150.27904    -19.26655   -20.883237    10890.368 
    2377    333.66384    1.4833392    185.04828    48.658061    374.67417    10890.368 
    2378    264.72795    1.6355864    202.68899    36.882165    637.21731    10890.368 
    2379    339.10599    1.7878218    194.03469    63.127564    1206.3432    10890.368 
    2380    260.69894    1.9272645    165.20279  -0.73109567    1497.2679    10890.368 
    2381    338.46757    2.0170008    134.56267    3.6370046    1952.3301    10890.368 
    2382    263.44626    2.0648402    109.80667    -55.87371    1986.6265    10890.368 
    2383    337.85466    2.0620379    100.44149   -32.516501    2132.3768    10890.368 
    2384     266.1209    2.0069895    106.95999   -59.651467    1823.8199    10890.368 
    2385    333.72847    1.9051471    126.59536   -10.382613     1629.302    10890.368 
    2386    266.13828    1.7447308    156.24834   -12.086941    1000.2121    10890.368 
    2387    333.18748    1.5592691    182.59556    44.533387     562.5468    10890.368 
    2388    266.02343    1.3441766    198.83227    31.103408   -208.25444    10890.368 
    2389    336.97837    1.1655123     195.8716    61.729695   -598.79962    10890.368 
    2390    263.25087    1.0164913    175.35478    9.7410927   -1176.6903    10890.368 
    2391    336.54216     0.926705    148.79756    17.977556    -1296.705    10890.368 
    2392       264.21   0.86842243    120.85362   -41.654971   -1577.7693    10890.368 
    2393    335.65207    0.8360243    101.24457   -28.641045   -1474.4147    10890.368 
    2394    267.21494   0.81384785    89.857959   -71.601216   -1552.1823    10890.368 
    2395    333.81139   0.80114708    88.163013   -44.348778   -1306.4725    10890.368 
    2396    269.56549   0.80075657    93.918724   -69.499886   -1234.7663    10890.368 
    2397    330.90158   0.82440178    103.39434   -34.071998   -870.87912    10890.368 
    2398    271.16118   0.89606391    113.23609   -52.861772   -663.47842    10890.368 
    2399    306.06032    1.0353688    120.07289   -30.885887   -245.30378    10890.368 
    2400    293.97951    1.2420166    122.42363   -33.517153    90.397256    10890.368 
    2401    306.03416    1.5045522    121.82573   -26.910786    450.73929    10890.368 
    2402    293.92479    1.7841076    121.14286   -30.387684    699.07592    10890.368 
    2403    306.05059    2.0586513    123.23675   -19.502967    912.61095    10890.368 
    2404    293.49056    2.2938907    129.67005   -15.508074    978.53207    10890.368 
    2405    305.85974    2.5011913    140.64095    3.8406763     1005.018    10890.368 
    2406    293.27249    2.6687005    153.96159    13.114701    893.03116    10890.368 
    2407    305.96576    2.7594208    167.11032     32.16562    752.12594    10890.368 
    2408     293.9181    2.7706299    176.04283    34.156356     520.3011    10890.368 
    2409    305.76184    2.7493879    178.19895    38.811475    316.48327    10890.368 
    2410    293.97648    2.7220753    172.09104    23.867125    106.35097    10890.368 
    2411    304.60687    2.6620118    157.92887     10.95864   -22.736433    10890.368 
    2412    293.47125    2.5890861    138.45623   -16.428366   -147.63544    10890.368 
    2413     304.3229    2.5221941    116.28153   -35.624228   -193.75615    10890.368 
    2414    293.82595    2.4798393    96.018809   -61.503616    -252.6098    10890.368 
    2415    305.39961    2.4684798    80.770191   -71.433197   -256.92091    10890.368 
    2416    294.23678    2.4874184    74.143521   -82.303297   -303.76085    10890.368 
    2417    305.73943     2.527814    78.157886   -71.727339   -316.25814    10890.368 
    2418    292.83508    2.5718754    93.566379   -60.543124   -384.86978    10890.368 
    2419    304.25137    2.5974649    119.84806   -27.378794   -410.94575    10890.368 
    2420    291.20762    2.5769588    152.34903   0.70333805   -466.45892    10890.368 
    2421    304.55709    2.4955705    184.52245    39.973235   -416.06062    10890.368 
    2422    293.97441    2.3815412    204.25228    55.243664   -325.18724    10890.368 
    2423    304.86286    2.2613868    203.01893    58.477523    -94.94117    10890.368 
    2424    293.15824    2.1819303    180.84983    29.913413    147.68464    10890.368 
    2425    301.94076    2.1670332    146.58026   -1.8142362    430.73001    10890.368 
    2426    293.24795    2.2216907    113.39428   -40.369129    615.13356    10890.368 
    2427    304.31157     2.330635    89.105381   -60.919433    753.92266    10890.368 
    2428    294.75262    2.4528601    79.239903   -76.092583    746.37325    10890.368 
    2429    305.14453    2.6060426    85.105706   -66.092414    666.71197    10890.368 
    2430    292.89876     2.774189    105.42311   -51.365309    452.42321    10890.368 
    2431    303.30226    2.9578956     136.7487   -14.678134    199.86307    10890.368 
    2432    291.87787    3.1535242     170.7614    15.650295   -123.24649    10890.368 
    2433    304.47836    3.3589425    198.09073    51.148648   -370.34467    10890.368 
    2434    294.85876    3.5379077    208.09495    59.876864   -539.38825    10890.368 
    2435    304.24134     3.664868    198.30515    57.488956   -513.06687    10890.368 
    2436    294.02587    3.7146787    175.09581    31.968433    -371.1032    10890.368 
    2437    303.05683    3.6848068    147.25518     9.272553   -78.169232    10890.368 
    2438    294.30618     3.587521     123.0425   -19.270202     240.4985    10890.368 
    2439    304.00503    3.4496873     105.1644   -34.353716    622.74297    10890.368 
    2440    294.35716    3.3026929    94.387435    -51.91166    956.38494    10890.368 
    2441    305.67313    3.1663153    88.920134     -55.0085     1297.319    10890.368 
    2442    291.24519    3.0574139    86.976488   -65.942899    1520.4733    10890.368 
    2443    318.29877    2.9759578    87.423654   -54.923134    1734.6304    10890.368 
    2444    262.91322    2.9609681    90.049996   -77.840449    1680.9015    10890.368 
    2445    321.68459    3.0101352    97.150459   -43.148994    1690.6406    10890.368 
    2446    277.01729    3.0657123    108.88061   -49.601523    1347.9586    10890.368 
    2447    320.16785    3.0818309    127.27168   -8.6205674    970.53309    10890.368 
    2448    275.68832    3.0167012    148.89762   -4.0174921    287.60857    10890.368 
    2449    312.51928    2.8427716    171.15875    37.728904   -396.10583    10890.368 
    2450      282.122    2.5731366    188.61617    43.221754   -1291.7133    10890.368 
    2451    335.07859    2.2619136    195.25483    74.237327    -2001.604    10890.368 
    2452    279.45557    1.9910346    187.59868    40.350162   -2743.5699    10890.368 
    2453    312.86929    1.7954239     167.7087     33.58517   -3115.4845    10890.368 
    2454    282.47306    1.6886816    142.97454   -7.1578671   -3358.8573    10890.368 
    2455    307.45568    1.6136111    119.11022   -21.700379   -3275.2343    10890.368 
    2456    290.75661    1.5606403    100.44671   -49.347785   -3087.2978    10890.368 
    2457    308.84794    1.5207836    88.257804   -54.108701   -2673.2296    10890.368 
    2458    290.92178    1.4923254    83.746217   -66.831272   -2212.0555    10890.368 
    2459     309.3161    1.4730998    86.331116   -55.439111   -1569.1625    10890.368 
    2460    290.29293    1.4658122    94.960598   -54.598188   -936.36201    10890.368 
    2461    309.12513    1.4750842    108.75492   -31.275755   -169.75507    10890.368 
    2462    289.69921    1.5074975    125.50861   -22.436643    517.40136    10890.368 
    2463    309.08113    1.5708333    143.96218    5.4215649    1269.6518    10890.368 
    2464    290.02771    1.6570589    160.25048     13.26822    1858.1019    10890.368 
    2465    309.42413     1.762039    171.40642    32.924294    2415.5164    10890.368 
    2466    290.57288    1.8629645    172.94657    25.194725    2725.5967    10890.368 
    2467    308.62874    1.9434856     162.9382    22.235277    2927.9121    10890.368 
    2468    289.02394    1.9978286    143.61317    -7.304113    2868.7289    10890.368 
    2469    307.99834    2.0539738    119.04193   -24.716378    2697.0878    10890.368 
    2470    289.43533    2.0957947    96.807579   -56.711061    2295.0331    10890.368 
    2471    311.05085     2.117061    81.573629   -63.334819    1826.4974    10890.368 
    2472    262.26374    2.1167178    76.869333   -91.007366    1120.2922    10890.368 
    2473    381.18059    2.0995975    84.591638   -29.818172    592.73043    10890.368 
    2474    233.80224    2.0723024    100.55876   -80.417808   -404.13396    10890.368 
    2475      348.385    2.0085561    124.01611   -4.0131307   -974.34377    10890.368 
    2476    254.53122    1.9163206    146.08003   -22.609751   -1821.0998    10890.368 
    2477    330.40083    1.8058868    162.68533    31.227245   -2221.1522    10890.368 
    2478    269.17332     1.708515    169.52289    13.689435   -2649.9039    10890.368 
    2479     322.7051    1.6343018    168.25066    40.120169   -2614.6379    10890.368 
    2480    278.65775     1.589595    162.91747    17.321502   -2527.2719    10890.368 
    2481    322.59853    1.5591239    156.86485    32.316006   -2063.1817    10890.368 
    2482    278.59808    1.5331723    152.07551    7.0499445   -1630.2881    10890.368 
    2483    322.50095    1.5041623    147.09708    19.824465   -915.38375    10890.368 
    2484    278.49127     1.476701    139.63723   -10.706262   -346.96408    10890.368 
    2485    321.76269    1.4586996    127.26908   -7.0074137    383.58874    10890.368 
    2486    278.19756    1.4607821    111.18381   -45.817809    849.56112    10890.368 
    2487    321.85597    1.4892434    93.652038   -45.600422     1361.461    10890.368 
    2488    278.46206    1.5433983    79.762746   -79.890197    1538.5129    10890.368 
    2489    323.04448    1.6221971    72.840635   -66.105673    1713.2031    10890.368 
    2490    277.94665    1.7169621    75.743544   -82.059874    1543.5715    10890.368 
    2491    322.74105    1.8250006    89.381288   -45.663678    1376.4029    10890.368 
    2492    276.01512    1.9332894     111.7615   -41.538419    894.94186    10890.368 
    2493    321.89185    2.0361057    140.03534    10.592233    464.39265    10890.368 
    2494      276.417    2.1151866    166.51805    19.011842   -185.02132    10890.368 
    2495    323.09753    2.1589403    185.12608    60.350442   -654.09459    10890.368 
    2496    278.24031    2.1530536    189.77822    44.870349   -1175.0297    10890.368 
    2497     322.7027    2.0948956    180.89276    55.015006   -1369.0608    10890.368 
    2498    277.06271    1.9957041    163.64482    15.151856    -1550.094    10890.368 
    2499    323.05253    1.8636893    143.03965    13.057957   -1404.8737    10890.368 
    2500    276.67189    1.7193272    124.60142   -28.548477   -1327.1932    10890.368 
    2501    326.17157    1.5696578    109.95581   -22.533963   -993.56923    10890.368 
    2502    271.50944     1.431987    100.44954   -57.944186   -830.10676    10890.368 
    2503    328.31891     1.307809    95.768516   -37.354157   -443.34023    10890.368 
    2504    274.92493     1.214627    95.760061   -61.323864   -304.74219    10890.368 
    2505    330.67956    1.1483763    99.803328   -31.150841   0.68005253    10890.368 
    2506    266.16013    1.1143813    106.77117   -52.141379    3.2144044    10890.368 
    2507    311.44436    1.1038901    116.48864   -20.303133    145.78826    10890.368 
    2508    289.78712    1.1113955    128.00756   -16.919506    86.395182    10890.368 
    2509    297.62958    1.1320497    139.73011   -0.1007093    22.653426    10890.368 
    2510    296.39792    1.1689289    149.47974    10.270531   -95.314713    10890.368 
    2511    299.37652    1.2375329    155.00872    17.762226    -211.3167    10890.368 
    2512    300.39561    1.3638696    154.79919    17.916192   -304.12095    10890.368 
    2513    288.10258    1.5765851    148.98896    5.6988958   -371.22257    10890.368 
    2514    311.90075    1.8686617    138.81669    4.8701994   -299.75241    10890.368 
    2515    272.42158    2.3107534      126.064   -27.844555   -282.57008    10890.368 
    2516    323.56153    2.7802501    116.19005   -16.468502   -63.778711    10890.368 
    2517     270.6946    3.3642627    107.53364   -51.014346    2.5248415    10890.368 
    2518    316.11772    3.9154586    101.85936   -37.395986    252.55719    10890.368 
    2519      242.161    4.4885908    97.000333   -76.433156    287.31831    10890.368 
    2520    310.34055    4.8611336    91.737701   -50.796895    547.90282    10890.368 
    2521    232.69296    5.3001004    86.308939   -90.373108    547.48055    10890.368 
    2522     309.7981    5.4539734     86.15114   -54.447252    727.96205    10890.368 
    2523    217.93566    5.4846275    95.001074   -84.761105    487.14276    10890.368 
    2524    294.16563    5.3603966    105.62575   -38.142707    516.10369    10890.368 
    2525    175.54876    4.8574914    137.89041   -57.062729   -96.503906    10890.368 
    2526    248.46705    4.5161671    152.74183   -8.5111041   -180.46081    10890.368 
    2527    70.222687    3.3599698    187.68664   -53.881006    -1243.224    10890.368 
    2528    97.266179    3.1312099    181.69434   -48.330629    -1258.597    10890.368 
    2529    119.03285     2.099008    107.28976   -118.62566   -1251.2176    10890.368 
    2530    154.01294    1.9149859    90.776043   -120.53238   -1149.6837    10890.368 
    2531    151.58266    1.4424069    52.199415   -163.51618   -959.96711    10890.368 
    2532    177.56897    1.3364413     48.26971   -156.25862   -832.68902    10890.368 
    2533    108.16583    1.0860341    60.977883   -175.32247   -653.98177    10890.368 
    2534    99.136309    1.0463777    66.509872   -173.66867   -558.68205    10890.368 
    2535    122.20832   0.92387762    92.027394   -135.66649    256.45589    10890.368 
    2536    104.37977   0.90855823    95.401761   -139.84082    424.00651    10890.368 
    2537    147.81275   0.88314325    96.967364   -117.11989    1448.3092    10890.368 
    2538    143.63203    0.8861723    97.562904   -118.28916     1646.962    10890.368 
    2539    115.07333   0.94950029    106.37625   -123.06015    2093.2743    10890.368 
    2540    115.44613   0.98189314    108.90782   -120.76881    2124.8933    10890.368 
    2541    104.00945    1.2550113    115.79521   -121.03689    1839.8913    10890.368 
    2542     106.1547    1.3425221     113.7612   -122.40218    1709.3798    10890.368 
    2543    145.64699      1.85938    88.501955   -129.96551    886.32816    10890.368 
    2544     158.7764    2.0202768    81.999709    -130.1323    611.53943    10890.368 
    2545    120.64108    2.5670971    69.364007   -157.55582   -637.02562    10890.368 
    2546    131.54543    2.6866126    69.150344   -152.03896   -921.57724    10890.368 
    2547    91.914667    3.0356326    82.786419    -152.9454   -2236.3014    10890.368 
    2548    70.383938    3.0546932    85.390665   -159.67054   -2441.0622    10890.368 
    2549    381.71385     2.907051    89.076917   -14.707983   -2169.6947    10890.368 
    2550    108.73255    2.7999889    93.413802   -134.23201   -2708.2177    10890.368 
    2551    748.69911    2.5004594    100.86504    161.96632   -1252.5996    10890.368 
    2552    31.186238    2.3452167    101.24916   -163.69485   -2385.7169    10890.368 
    2553    1081.3275    2.1406337    92.361683    301.40768    60.666628    10890.368 
    2554    23.552613    1.9616042    78.881815   -193.23247   -1469.1146    10890.368 
    2555    570.41977    1.8314039     65.15403    39.239399   -31.864906    10890.368 
    2556    39.168298    1.4319296    32.000201   -238.87171    297.29034    10890.368 
    2557    28.615562    1.3923967    29.710917   -246.27376    393.45597    10890.368 
    2558     3127.823    1.2221437    23.087389    1150.3776    6643.7475    10890.368 
    2559 1.324502e-06    1.2216241    22.064595    -267.8306    664.38262    10890.368 
    2560 0.00011871537    1.2212868    21.112238   -268.80255    634.52967    10890.368 
    2561 0.0078189315    1.2210079    20.225378   -269.70397    605.83179    10890.368 
    2562   0.42924775    1.2207798    19.380878   -270.37447    578.41634    10890.368 
    2563    55.649117    1.2204735    17.661055   -247.10827    622.46702    10890.368 
    2564 0.00037330594     1.423651    55.652466   -231.73494   -2483.4586    10890.368 
    2565 0.0093629643    1.4190626    50.924094   -236.61842   -2365.3088    10890.368 
    2566    1.1075993    1.4145639    46.601329   -240.59321   -2250.6609    10890.368 
    2567    91.502414    1.4074354    40.272944   -206.19114   -1904.9029    10890.368 
    2568   0.35132444    1.2805185    16.814666   -272.89942    674.10781    10890.368 
    2569   0.71649777    1.2801906    15.483633   -274.11373    649.71576    10890.368 
    2570    95.511264    1.2796718    12.626218   -234.12658    767.13438    10890.368 
    2571   0.21899491    1.2521301    71.831523   -218.55696   -1755.3783    10890.368 
    2572    18.158832    1.2538593    64.875677   -217.43299   -1623.9813    10890.368 
    2573     2113.162    1.2646308    26.619339    693.32648    2996.9041    10890.368 
    2574    2.8063939    1.2662116    21.543492    -267.9294   -903.64439    10890.368 
    2575    207.81387    1.2681757    15.353903   -181.24387   -352.73039    10890.368 
    2576    18.666272    1.2791515    25.063741   -256.26436    589.52788    10890.368 
    2577    2.7074754    1.2790702    28.486351   -260.00012    614.63031    10890.368 
    2578    163.46674    1.2770497     29.27586   -186.52721    1080.5109    10890.368 
    2579    143.68679    1.2658896    57.436088   -168.02263     1585.541    10890.368 
    2580    161.69863    1.2659521    77.985978    -139.3534    1664.5405    10890.368 
    2581    298.63642    1.2829508    144.59891   -10.615219    1705.3207    10890.368 
    2582    218.97731    1.3058591    186.31254   -4.7996791    1260.5526    10890.368 
    2583    299.85155    1.3763743    225.69879    71.549896    759.91451    10890.368 
    2584    287.00647    1.4516594     221.0981    61.356007    258.69547    10890.368 
    2585    268.85297    1.5767961    173.54143    5.8683697   -293.75066    10890.368 
    2586     325.6642    1.6824412    124.65978   -16.930506   -488.50847    10890.368 
    2587    266.20118    1.7951647    75.593966   -92.400597   -841.79067    10890.368 
    2588     330.1024    1.8876327    46.911359   -91.420841   -893.56855    10890.368 
    2589    270.80533    1.9690473    37.947703   -126.24148   -1159.3623    10890.368 
    2590    327.69175    2.0275548    50.625307    -86.54103   -1174.1375    10890.368 
    2591    273.45859     2.061996    83.298068   -76.856906   -1360.2417    10890.368 
    2592    281.07564    2.0616431    125.73287   -29.277826   -1336.4638    10890.368 
    2593    301.57128    2.0167048    173.14744    29.355685   -1127.4883    10890.368 
    2594    292.33315    1.9253373    206.66531    60.462745   -775.88696    10890.368 
    2595     304.3758    1.7929699    212.82469    73.368044   -180.09058    10890.368 
    2596    285.76802     1.656776    190.44829    43.029402    425.43173    10890.368 
    2597    304.56612    1.5348866    151.60141    12.422157    1050.3811    10890.368 
    2598    296.67432    1.4260833    111.87933   -31.640819    1469.8955    10890.368 
    2599    303.77622    1.3329789    83.082605   -58.153496    1693.9836    10890.368 
    2600    297.44363    1.2511269    67.491577   -77.519292     1673.392    10890.368 
    2601    279.08495    1.1794897    64.538765   -89.514768    1427.5984    10890.368 
    2602    328.46954    1.1133002     73.71266   -58.412762    1101.6875    10890.368 
    2603    259.12076    1.0628442    90.136877   -73.455203    438.52524    10890.368 
    2604    327.68192    1.0222477    110.99543   -21.196639   -86.594044    10890.368 
    2605     272.1427   0.99517575    132.40013   -24.281114   -879.94104    10890.368 
    2606    324.91028   0.98326518    150.86982    18.965795   -1414.8651    10890.368 
    2607    284.27218   0.98963378    161.74683    12.223907   -1944.1703    10890.368 
    2608    353.53002    1.0223304    164.59674    47.083052   -2045.2091    10890.368 
    2609    254.91233    1.0934324    158.70784   -3.1388922   -2185.2896    10890.368 
    2610    349.69761    1.2188237    144.44862    25.748924   -1691.9327    10890.368 
    2611    261.21083    1.3855431    125.93091   -32.667742   -1372.9153    10890.368 
    2612    341.18339     1.602724    105.07174   -16.925494   -594.80793    10890.368 
    2613    270.73118    1.8368531    87.877853   -65.435728   -108.63533    10890.368 
    2614    333.54286     2.091604    76.444641   -47.495133    603.74777    10890.368 
    2615    281.50525    2.3309448    74.353997    -72.04328    964.35266    10890.368 
    2616    312.09269    2.5509687    82.113112   -49.145728    1331.7123    10890.368 
    2617    286.76858    2.7396294    100.39774   -40.973132    1404.3502    10890.368 
    2618    322.56381    2.8761103    125.18133     1.251536    1374.1393    10890.368 
    2619    281.69836    2.9544975    150.82617    9.3113677    971.99699    10890.368 
    2620    330.93011    2.9679132    167.91529    49.113486     551.3716    10890.368 
    2621    241.35807    2.9246961    171.42032    11.837448   -322.18293    10890.368 
    2622    345.47412    2.8591868    157.00914     43.82125   -690.17087    10890.368 
    2623    236.67858    2.7586262    124.52686   -39.556671   -1586.6668    10890.368 
    2624    348.23201    2.6909742    98.955088   -15.983132    -1805.883    10890.368 
    2625    244.85959    2.6239369    73.593403   -89.982306    -2437.168    10890.368 
    2626    342.24417    2.5931144    64.158089   -56.550962   -2494.9292    10890.368 
    2627    254.24625    2.5847253    67.069714   -94.754627   -2836.6426    10890.368 
    2628    329.38458    2.6065666    80.084691   -48.332179   -2706.3605    10890.368 
    2629    262.19945    2.6720412    105.09512    -54.03168    -2652.843    10890.368 
    2630    321.99364    2.7549193    126.87615   -4.9332647   -2210.2899    10890.368 
    2631    270.90644    2.8908034    146.04929   -8.2054937   -1669.5295    10890.368 
    2632    326.31975    3.0331151    152.34373    23.979075   -849.70788    10890.368 
    2633     270.9275    3.2062674    146.75879   -5.9587069   -44.725781    10890.368 
    2634    322.31958    3.3507121    134.71344    5.5602516    828.46834    10890.368 
    2635    241.99797    3.4786914    119.05676   -46.735538    1377.7363    10890.368 
    2636    345.79372    3.5478777     106.0214   -13.400734    1987.7646    10890.368 
    2637    246.67364    3.5839196     94.39721   -71.050068    2063.2947    10890.368 
    2638    341.14514     3.570165    89.850751   -33.646763    2233.8563    10890.368 
    2639    251.24924    3.5048983    88.677697   -76.319797    1791.1283    10890.368 
    2640    335.94925    3.4235315    90.025415   -36.801232    1563.2006    10890.368 
    2641    256.67625     3.295325    92.909987   -69.541328     749.9742    10890.368 
    2642    330.74033    3.1838989    95.898986   -32.413813    281.39662    10890.368 
    2643    265.04316    3.0486765    100.43289   -56.772862   -615.08346    10890.368 
    2644    325.17169    2.9498178    106.10101   -23.222635   -1100.1047    10890.368 
    2645    273.53419    2.8594998    114.63281   -37.702897   -1776.4935    10890.368 
    2646    324.51423    2.8116045    123.29469   -6.0098147   -2019.6993    10890.368 
    2647    285.67262    2.8182337    130.91408   -16.490518   -2220.3955    10890.368 
    2648    348.56706    2.8859629    133.51532    13.925529   -1963.1576    10890.368 
    2649    280.85837    3.0233235    129.33838   -21.655563    -1661.997    10890.368 
    2650    317.05839     3.185855    118.87176   -16.168025   -1009.7346    10890.368 
    2651      277.198    3.3922487    102.57454   -50.732681   -282.49964    10890.368 
    2652    321.97983    3.5784539    88.529509   -44.442645    566.43045    10890.368 
    2653    273.21962      3.76634    78.069055    -76.82228    1284.0889    10890.368 
    2654    322.70736    3.9116091    75.870258   -56.444005    2032.1223    10890.368 
    2655     272.5006    4.0350445    82.327215    -72.66882    2522.6456    10890.368 
    2656    285.84347    4.1026722    93.318346   -55.726355    2913.9045    10890.368 
    2657    296.19616    4.1425911    112.12084   -32.463547    3196.5892    10890.368 
    2658    286.88726    4.1466759    126.45777   -22.517768    3222.4157    10890.368 
    2659    289.00292    4.1318085    138.91606   -9.1459713    3079.2705    10890.368 
    2660    294.50017    4.1191479     140.8847   -4.4974566    2845.6644    10890.368 
    2661    281.21545    4.1130502    133.74478   -17.128558     2369.096    10890.368 
    2662    302.46884    4.1223275    123.73129   -16.984663    1995.7805    10890.368 
    2663    278.64249    4.1506983    109.91075   -40.936465    1370.3723    10890.368 
    2664    307.14017    4.1803897    101.69756   -35.814348    955.44057    10890.368 
    2665    278.25259    4.2304268    96.639262   -53.577129    328.88218    10890.368 
    2666    310.09055    4.2885808    96.956259   -38.588095   -38.647225    10890.368 
    2667    276.47414     4.365095    100.90495   -49.540957   -568.25903    10890.368 
    2668    315.07938    4.4133895    105.30315   -27.257539   -799.80665    10890.368 
    2669     274.9299    4.4321327    109.60502   -40.442768   -1127.2136    10890.368 
    2670    321.01668    4.3974623     112.2785   -16.070326    -1150.497    10890.368 
    2671    276.19353    4.2851283    114.49731   -33.070433   -1243.6144    10890.368 
    2672    322.53596    4.1195462    117.42655   -8.1827889   -1072.5063    10890.368 
    2673    286.63015    3.8867679    122.31899   -18.713549   -957.39035    10890.368 
    2674     315.6545    3.6617227    129.11906    1.7024667   -671.20815    10890.368 
    2675    279.67506    3.4602457    137.45245    -6.198494    -442.6875    10890.368 
    2676    340.85619    3.3556246    142.93568     26.68801    -16.93086    10890.368 
    2677    280.92719    3.3545126    143.40055  -0.61116936    232.64621    10890.368 
    2678    318.53331    3.4664496    136.74171    9.2125995    633.00859    10890.368 
    2679    277.08538    3.6931481    122.15381   -24.524152    884.81093    10890.368 
    2680    322.48569    3.9624569    105.55465   -20.521182    1218.8496    10890.368 
    2681    271.83317    4.2815207     88.96899   -59.591445    1310.7557    10890.368 
    2682    322.66432    4.5763735    79.463364   -45.265098    1496.4012    10890.368 
    2683    241.63419    4.8682499    78.862311    -81.40135    1341.4764    10890.368 
    2684    312.62915    5.0910967    86.798692    -40.06475    1399.3778    10890.368 
    2685    277.39341    5.3061617    106.22651    -34.93252    1155.2811    10890.368 
    2686    313.41564    5.4360136    127.72878    4.4012165      1020.97    10890.368 
    2687    279.15383    5.5144831    150.32832    13.185527    701.67134    10890.368 
    2688    324.54775    5.5201915    162.49183    47.312531    571.62515    10890.368 
    2689    274.03891    5.4615368    160.55627    23.600677    293.63348    10890.368 
    2690    315.75145    5.3647661    145.19087    27.565792    266.87831    10890.368 
    2691    293.68069    5.2364593    120.05743   -7.8513227    161.09416    10890.368 
    2692    304.60413    5.1075269    95.946559   -27.937464    133.67881    10890.368 
    2693    289.53335     4.988171    77.807978   -54.353496    52.674657    10890.368 
    2694    296.14343    4.8786597    68.710702   -62.234959  -0.31518155    10890.368 
    2695    301.25309     4.771003    70.938755   -59.782619    -99.42435    10890.368 
    2696    297.05893    4.6948282    82.653576    -51.72967     -227.956    10890.368 
    2697    295.61172    4.6421349    101.85161   -34.743551   -361.73432    10890.368 
    2698    329.39072     4.626079    123.88861    1.6838367   -409.11472    10890.368 
    2699    283.75889    4.6484963    142.88498  -0.10210385   -552.65006    10890.368 
    2700    318.41517    4.6981349    152.37218    25.738416   -452.67083    10890.368 
    2701    280.19999    4.7523736    150.43907    7.6406771   -386.98081    10890.368 
    2702    323.47034    4.7756288     139.3389    17.301413   -86.994027    10890.368 
    2703    269.22919    4.7406776    123.56458    -22.19103    77.862606    10890.368 
    2704    336.26082    4.6349297    108.86304   -6.1642381    465.34942    10890.368 
    2705    141.02172    4.4628564     97.24034   -106.40084    311.83877    10890.368 
    2706    585.21909    4.2459231    87.929979    84.983547    1313.9618    10890.368 
    2707    144.07017    3.9854215    79.546122   -124.12565    572.26786    10890.368 
    2708    606.14855    3.7013819    73.300303    78.076405    1466.3865    10890.368 
    2709    123.67925    3.4635674    68.900168   -145.68079    483.48583    10890.368 
    2710    711.96519     3.213097    65.835125    117.02815    1436.6488    10890.368 
    2711    71.613638     3.054351    63.808314   -175.69113    47.070923    10890.368 
    2712    1029.9291    2.8827672    60.957375    254.83126    1606.0543    10890.368 
    2713    11.865269    2.8105897    57.083541   -210.90367   -468.85064    10890.368 
    2714    338.81308    2.7764994    49.577101   -70.902397    81.693022    10890.368 
    2715 0.0095459577    2.5543883    64.519762   -212.94638   -1642.5897    10890.368 
    2716 0.0025690349     2.562482    58.619819   -218.82203   -1574.8993    10890.368 
    2717    0.1214248    2.5701533    53.311892   -224.04756     -1511.42    10890.368 
    2718    6.0708603    2.5778354    48.270145   -226.36265   -1437.6117    10890.368 
    2719    1320.4611     2.606429    31.943394    352.99239    1283.4828    10890.368 
    2720    8.1550354    2.6369072    18.754553   -254.55522   -993.98578    10890.368 
    2721    117.50483    2.6525427     13.62112   -210.01796   -676.57015    10890.368 
    2722  0.027558169    2.8770059     65.68322   -207.08779    26.391795    10890.368 
    2723 0.0089058939    2.8650425    59.043784   -214.06894    33.645642    10890.368 
    2724   0.41822273    2.8535919    53.083211   -220.15658    39.521357    10890.368 
    2725    22.799518    2.8408296    46.882359    -216.5579     85.66496    10890.368 
    2726    3829.9739    2.7378564    12.017053    1471.0249    7275.5273    10890.368 
    2727 1.2172927e-08    2.7321034    11.084767   -265.32107   -14.240385    10890.368 
    2728 5.9236521e-07    2.7265738    10.254139   -266.26265   -20.059594    10890.368 
    2729 2.8925642e-05    2.7212455    9.5123821   -267.10979    -25.81712    10890.368 
    2730 0.0014140971    2.7161073    8.8499902   -267.87177   -31.489022    10890.368 
    2731  0.069514313    2.7111265    8.2558654   -268.53086   -36.959027    10890.368 
    2732    4.2999109    2.7050987    7.5950082   -267.38937   -35.740846    10890.368 
    2733    6926.1558    2.6288212    3.5602546    2863.3913    13020.198    10890.368 
    2734 2.9733303e-18    2.6267459    3.5499135   -274.76957   -153.06579    10890.368 
    2735 1.5826468e-16    2.6246945    3.5401428   -274.80517   -154.00818    10890.368 
    2736 8.4344773e-15    2.6226658     3.530893   -274.83993   -154.89528    10890.368 
    2737 4.500299e-13    2.6206587    3.5221188   -274.87389   -155.72906    10890.368 
    2738 2.4038635e-11    2.6186721    3.5137795   -274.90712   -156.51143    10890.368 
    2739 1.2854051e-09    2.6167049     3.505838   -274.93966   -157.24423    10890.368 
    2740 6.8803273e-08    2.6147563    3.4982604   -274.97156   -157.92927    10890.368 
    2741 3.6863513e-06    2.6128252    3.4910163   -275.00287   -158.56827    10890.368 
    2742 0.00019774279    2.6109103    3.4840759   -275.03354   -159.16274    10890.368 
    2743  0.010779629    2.6089816    3.4773132   -275.05945    -159.7037    10890.368 
    2744     1.177129    2.6054469    3.4654528   -274.58666   -158.46383    10890.368 
    2745    22190.659    2.4828284     3.474032    9777.6176     42004.71    10890.368 
    2746 6.1802799e-62    2.4818976     3.452637   -276.62826   -195.27433    10890.368 
    2747 3.2445794e-60    2.4809364    3.4327283   -276.65947    -192.8185    10890.368 
    2748 1.7066931e-58    2.4799463     3.414186   -276.68953   -190.43802    10890.368 
    2749 8.9944887e-57    2.4789287    3.3969002   -276.71854   -188.12995    10890.368 
    2750 4.7489419e-55     2.477885    3.3807707   -276.74658   -185.89148    10890.368 
    2751 2.5118292e-53    2.4768165    3.3657057   -276.77375   -183.71994    10890.368 
    2752 1.3308478e-51    2.4757244    3.3516214    -276.8001   -181.61278    10890.368 
    2753 7.0628938e-50    2.4746099    3.3384409   -276.82571   -179.56758    10890.368 
    2754 3.7542501e-48    2.4734741    3.3260939   -276.85064   -177.58201    10890.368 
    2755 1.9985712e-46    2.4723181     3.314516   -276.87495   -175.65387    10890.368 
    2756 1.0654702e-44    2.4711429     3.303648   -276.89867   -173.78105    10890.368 
    2757 5.6879748e-43    2.4699495     3.293436   -276.92187   -171.96152    10890.368 
    2758 3.0404525e-41    2.4687388      3.28383   -276.94457   -170.19336    10890.368 
    2759 1.627245e-39    2.4675118    3.2747845   -276.96682   -168.47471    10890.368 
    2760 8.7191148e-38    2.4662693    3.2662576   -276.98866   -166.80383    10890.368 
    2761 4.6770045e-36    2.4650121    3.2582107   -277.01011     -165.179    10890.368 
    2762 2.5113731e-34    2.4637409    3.2506084   -277.03121   -163.59862    10890.368 
    2763 1.3498197e-32    2.4624566    3.2434182   -277.05197   -162.06113    10890.368 
    2764 7.2616516e-31    2.4611598    3.2366101   -277.07243   -160.56503    10890.368 
    2765 3.909897e-29    2.4598513    3.2301564   -277.09261   -159.10892    10890.368 
    2766 2.1068894e-27    2.4585316    3.2240317   -277.11252    -157.6914    10890.368 
    2767 1.1361667e-25    2.4572014    3.2182125   -277.13218   -156.31118    10890.368 
    2768  6.13119e-24    2.4558612    3.2126773   -277.15162   -154.96698    10890.368 
    2769 3.3107745e-22    2.4545117    3.2074061   -277.17084   -153.65759    10890.368 
    2770 1.788864e-20    2.4531534    3.2023804   -277.18987   -152.38186    10890.368 
    2771 9.6709666e-19    2.4517867    3.1975832    -277.2087   -151.13866    10890.368 
    2772 5.2310668e-17    2.4504123    3.1929989   -277.22737    -149.9269    10890.368 
    2773 2.830887e-15    2.4490305    3.1886128   -277.24586   -148.74557    10890.368 
    2774 1.5326808e-13    2.4476417    3.1844115   -277.26421   -147.59366    10890.368 
    2775 8.301639e-12    2.4462465    3.1803827    -277.2824   -146.47021    10890.368 
    2776 4.4982736e-10    2.4448452    3.1765146   -277.30046   -145.37431    10890.368 
    2777 2.4382915e-08    2.4434382    3.1727967    -277.3184   -144.30505    10890.368 
    2778 1.3221269e-06    2.4420259    3.1692191   -277.33621   -143.26159    10890.368 
    2779 7.1725413e-05    2.4406083     3.165772   -277.35387   -142.24278    10890.368 
    2780 0.0039298158    2.4391722    3.1624147   -277.36988    -141.2311    10890.368 
    2781   0.34282346     2.436966    3.1574388   -277.24339   -139.07767    10890.368 
    2782    4135.0651     2.382757    3.0594281    1595.4898    7760.8889    10890.368 
    2783 5.5030866e-10    2.3811306    3.0586899   -278.05425   -103.12232    10890.368 
    2784 2.9027985e-08     2.379553    3.0579861   -278.06955   -103.02972    10890.368 
    2785 1.5786986e-06    2.3779827    3.0572593   -278.08478   -102.93276    10890.368 
    2786 8.5891018e-05     2.376419    3.0565099   -278.09993   -102.83148    10890.368 
    2787 0.0047365909    2.3748408    3.0557283   -278.11316   -102.71618    10890.368 
    2788    0.4862345    2.3721022    3.0543473   -277.92162   -101.61059    10890.368 
    2789    10065.076    2.2847883    3.0240388    4281.3394    19044.365    10890.368 
    2790 4.0425504e-27    2.2836027    3.0208586   -278.99021    -97.19812    10890.368 
    2791 2.194384e-25    2.2824124    3.0178107   -279.00364   -96.860775    10890.368 
    2792 1.1915739e-23    2.2812178     3.014886     -279.017   -96.530781    10890.368 
    2793 6.4724217e-22    2.2800191     3.012076   -279.03029   -96.207823    10890.368 
    2794 3.516718e-20    2.2788166    3.0093729   -279.04351   -95.891601    10890.368 
    2795 1.9112689e-18    2.2776106    3.0067696   -279.05667   -95.581831    10890.368 
    2796 1.0389847e-16    2.2764013    3.0042593   -279.06978   -95.278244    10890.368 
    2797 5.6492413e-15     2.275189    3.0018361   -279.08283   -94.980587    10890.368 
    2798 3.0722472e-13    2.2739739    2.9994941   -279.09583   -94.688616    10890.368 
    2799 1.6710884e-11    2.2727562    2.9972281   -279.10879   -94.402102    10890.368 
    2800 9.0910241e-10    2.2715362    2.9950333    -279.1217   -94.120829    10890.368 
    2801 4.9464083e-08     2.270314    2.9929052   -279.13456   -93.844588    10890.368 
    2802 2.6917141e-06    2.2690898    2.9908395   -279.14738   -93.573176    10890.368 
    2803 0.00014656726    2.2678631    2.9888315   -279.16011   -93.306009    10890.368 
    2804 0.0082003351    2.2666009    2.9868238   -279.16956   -93.020957    10890.368 
    2805    1.3778123     2.263454    2.9819355   -278.58157   -89.753459    10890.368 
    2806    46703.494    2.0916035    2.7873885    20879.659    88761.798    10890.368 
    2807 2.9747573e-133    2.0901682    2.7862676   -280.92042   -59.778177    10890.368 
    2808 1.5696043e-131    2.0887524    2.7853762   -280.93411   -59.957939    10890.368 
    2809 8.3007321e-130    2.0873552    2.7846805   -280.94736   -60.125998    10890.368 
    2810 4.3993333e-128    2.0859759    2.7841512   -280.96022   -60.282839    10890.368 
    2811 2.3364496e-126    2.0846137    2.7837621   -280.97272   -60.428931    10890.368 
    2812 1.2433078e-124    2.0832679    2.7834904    -280.9849   -60.564724    10890.368 
    2813 6.6283681e-123    2.0819376     2.783316   -280.99679   -60.690655    10890.368 
    2814 3.5399182e-121    2.0806224    2.7832213   -281.00842   -60.807143    10890.368 
    2815 1.8936155e-119    2.0793215    2.7831909    -281.0198    -60.91459    10890.368 
    2816 1.0145103e-117    2.0780343    2.7832114   -281.03097   -61.013385    10890.368 
    2817 5.4430532e-116    2.0767603    2.7832711   -281.04195   -61.103899    10890.368 
    2818 2.9241985e-114    2.0754989    2.7833597   -281.05274   -61.186489    10890.368 
    2819 1.5729241e-112    2.0742495    2.7834686   -281.06338   -61.261499    10890.368 
    2820 8.4704322e-111    2.0730117    2.7835901   -281.07386   -61.329258    10890.368 
    2821 4.5662803e-109    2.0717851    2.7837176   -281.08422   -61.390079    10890.368 
    2822 2.4640135e-107    2.0705691    2.7838457   -281.09444   -61.444265    10890.368 
    2823 1.3308022e-105    2.0693633    2.7839695   -281.10456   -61.492105    10890.368 
    2824 7.1935345e-104    2.0681673    2.7840851   -281.11458   -61.533875    10890.368 
    2825 3.8913487e-102    2.0669807     2.784189    -281.1245   -61.569841    10890.368 
    2826 2.1064906e-100    2.0658031    2.7842785   -281.13434   -61.600254    10890.368 
    2827 1.1410246e-98    2.0646343    2.7843512    -281.1441   -61.625359    10890.368 
    2828 6.1841933e-97    2.0634737    2.7844052   -281.15378   -61.645385    10890.368 
    2829 3.3535273e-95    2.0623212    2.7844392    -281.1634   -61.660557    10890.368 
    2830 1.819413e-93    2.0611764    2.7844518   -281.17296   -61.671084    10890.368 
    2831 9.8753604e-92     2.060039    2.7844422   -281.18246    -61.67717    10890.368 
    2832 5.3622841e-90    2.0589087    2.7844098   -281.19191   -61.679008    10890.368 
    2833 2.912771e-88    2.0577853    2.7843542   -281.20132   -61.676785    10890.368 
    2834 1.5827351e-86    2.0566684    2.7842752   -281.21067   -61.670676    10890.368 
    2835 8.602853e-85     2.055558    2.7841727   -281.21999   -61.660852    10890.368 
    2836 4.6773212e-83    2.0544536    2.7840467   -281.22926   -61.647473    10890.368 
    2837 2.5436739e-81    2.0533552    2.7838974    -281.2385   -61.630696    10890.368 
    2838 1.383647e-79    2.0522625    2.7837253   -281.24771   -61.610667    10890.368 
    2839 7.5280033e-78    2.0511752    2.7835305   -281.25688   -61.587528    10890.368 
    2840 4.0965348e-76    2.0500932    2.7833135   -281.26602   -61.561415    10890.368 
    2841 2.2296072e-74    2.0490164    2.7830749   -281.27514   -61.532456    10890.368 
    2842 1.213691e-72    2.0479445    2.7828152   -281.28423   -61.500776    10890.368 
    2843 6.6076919e-71    2.0468773    2.7825349   -281.29329   -61.466493    10890.368 
    2844 3.5978882e-69    2.0458148    2.7822347   -281.30233   -61.429719    10890.368 
    2845 1.9592807e-67    2.0447567    2.7819151   -281.31134   -61.390563    10890.368 
    2846 1.0670681e-65    2.0437029    2.7815768   -281.32033   -61.349129    10890.368 
    2847 5.8120571e-64    2.0426533    2.7812205   -281.32931   -61.305516    10890.368 
    2848 3.1659645e-62    2.0416077    2.7808467   -281.33826   -61.259819    10890.368 
    2849 1.7247142e-60    2.0405661    2.7804562   -281.34719   -61.212128    10890.368 
    2850 9.3963689e-59    2.0395282    2.7800496    -281.3561    -61.16253    10890.368 
    2851 5.1195513e-57     2.038494    2.7796274     -281.365   -61.111109    10890.368 
    2852 2.7895239e-55    2.0374634    2.7791904   -281.37388   -61.057944    10890.368 
    2853 1.5200303e-53    2.0364362    2.7787391   -281.38274   -61.003111    10890.368 
    2854 8.2831639e-52    2.0354123    2.7782742   -281.39158   -60.946684    10890.368 
    2855 4.5139855e-50    2.0343918    2.7777963   -281.40041   -60.888733    10890.368 
    2856 2.4600403e-48    2.0333744    2.7773059   -281.40922   -60.829325    10890.368 
    2857 1.3407284e-46    2.0323601    2.7768035   -281.41802   -60.768523    10890.368 
    2858 7.3072589e-45    2.0313487    2.7762898    -281.4268   -60.706391    10890.368 
    2859 3.9827401e-43    2.0303403    2.7757653   -281.43557   -60.642987    10890.368 
    2860 2.170811e-41    2.0293347    2.7752305   -281.44432   -60.578367    10890.368 
    2861 1.183242e-39    2.0283319    2.7746858   -281.45306   -60.512586    10890.368 
    2862 6.4496423e-38    2.0273318    2.7741318   -281.46178   -60.445697    10890.368 
    2863 3.5156637e-36    2.0263343    2.7735689   -281.47049   -60.377748    10890.368 
    2864 1.9164073e-34    2.0253394    2.7729975   -281.47919   -60.308789    10890.368 
    2865 1.0446634e-32     2.024347    2.7724181   -281.48787   -60.238866    10890.368 
    2866 5.6947199e-31     2.023357    2.7718312   -281.49655   -60.168022    10890.368 
    2867 3.1043819e-29    2.0223695     2.771237    -281.5052     -60.0963    10890.368 
    2868 1.6923265e-27    2.0213842     2.770636   -281.51385   -60.023741    10890.368 
    2869 9.2256912e-26    2.0204012    2.7700286   -281.52248   -59.950384    10890.368 
    2870 5.0294321e-24    2.0194205     2.769415    -281.5311   -59.876266    10890.368 
    2871 2.7418511e-22     2.018442    2.7687957   -281.53971   -59.801425    10890.368 
    2872 1.4947662e-20    2.0174656    2.7681709   -281.54831   -59.725894    10890.368 
    2873 8.1490467e-19    2.0164913     2.767541   -281.55689   -59.649707    10890.368 
    2874 4.4426714e-17     2.015519    2.7669062   -281.56546   -59.572896    10890.368 
    2875 2.4220612e-15    2.0145488    2.7662669   -281.57402   -59.495492    10890.368 
    2876 1.3204724e-13    2.0135806    2.7656232   -281.58257   -59.417524    10890.368 
    2877 7.1990738e-12    2.0126143    2.7649755    -281.5911   -59.339021    10890.368 
    2878 3.9248833e-10      2.01165     2.764324   -281.59963   -59.260011    10890.368 
    2879 2.1398314e-08    2.0106875    2.7636689   -281.60814    -59.18052    10890.368 
    2880 1.1666415e-06    2.0097268    2.7630105   -281.61664    -59.10057    10890.368 
    2881 6.3626661e-05    2.0087677    2.7623488    -281.6251   -59.020045    10890.368 
    2882 0.0035321099     2.007793    2.7616721   -281.63216   -58.931181    10890.368 
    2883   0.43026006     2.005866    2.7603281   -281.45589   -57.956735    10890.368 
    2884    14876.034    1.9279612    2.7057477      6457.74    28237.952    10890.368 
    2885 3.4319596e-41    1.9271521    2.7048779   -282.34743   -53.362327    10890.368 
    2886 1.8709482e-39    1.9263426    2.7040216   -282.35499   -53.221817    10890.368 
    2887 1.0199798e-37    1.9255328    2.7031781   -282.36254   -53.083432    10890.368 
    2888 5.5607163e-36    1.9247227    2.7023466   -282.37008   -52.947105    10890.368 
    2889 3.0316456e-34    1.9239125    2.7015266    -282.3776   -52.812771    10890.368 
    2890 1.6528519e-32    1.9231022    2.7007173   -282.38512    -52.68037    10890.368 
    2891 9.0114908e-31    1.9222918    2.6999184   -282.39263   -52.549841    10890.368 
    2892 4.9132165e-29    1.9214814    2.6991291   -282.40013   -52.421127    10890.368 
    2893 2.6788056e-27    1.9206711    2.6983491   -282.40762   -52.294174    10890.368 
    2894 1.4605689e-25    1.9198608    2.6975778   -282.41509   -52.168928    10890.368 
    2895 7.9635731e-24    1.9190506    2.6968148   -282.42256   -52.045338    10890.368 
    2896 4.3420876e-22    1.9182405    2.6960597   -282.43002   -51.923355    10890.368 
    2897 2.3675192e-20    1.9174307    2.6953121   -282.43747   -51.802932    10890.368 
    2898 1.2908994e-18    1.9166211    2.6945716   -282.44491   -51.684022    10890.368 
    2899 7.0387409e-17    1.9158117    2.6938379   -282.45234   -51.566583    10890.368 
    2900 3.8379643e-15    1.9150026    2.6931105   -282.45976    -51.45057    10890.368 
    2901 2.0927147e-13    1.9141939    2.6923894   -282.46717   -51.335945    10890.368 
    2902 1.1410955e-11    1.9133855     2.691674   -282.47457   -51.222666    10890.368 
    2903 6.2220957e-10    1.9125775    2.6909642   -282.48196   -51.110696    10890.368 
    2904 3.3927663e-08    1.9117699    2.6902597   -282.48934   -50.999999    10890.368 
    2905 1.8500278e-06    1.9109627    2.6895603   -282.49672   -50.890533    10890.368 
    2906 0.00010094002    1.9101555    2.6888652   -282.50404   -50.782019    10890.368 
    2907 0.0056879558    1.9093221    2.6881518   -282.50911   -50.660684    10890.368 
    2908    1.1248539    1.9070081     2.686179   -282.02314   -48.228145    10890.368 
    2909    55828.844    1.7593594     2.560324    25011.229    106138.99    10890.368 
    2910 5.8894483e-160    1.7586724    2.5603869   -283.88365    -37.06944    10890.368 
    2911 3.2042003e-158    1.7579892    2.5604311    -283.8896   -37.022351    10890.368 
    2912 1.7436602e-156    1.7573097     2.560457   -283.89552    -36.97496    10890.368 
    2913 9.4905751e-155    1.7566338    2.5604649   -283.90143   -36.927285    10890.368 
    2914 5.166588e-153    1.7559613    2.5604552   -283.90732   -36.879341    10890.368 
    2915 2.813122e-151    1.7552921    2.5604284   -283.91319   -36.831147    10890.368 
    2916 1.5319344e-149    1.7546261     2.560385   -283.91905   -36.782719    10890.368 
    2917 8.3435844e-148    1.7539631    2.5603255   -283.92489   -36.734071    10890.368 
    2918 4.5448612e-146    1.7533032    2.5602502   -283.93072    -36.68522    10890.368 
    2919 2.4759341e-144    1.7526461    2.5601598   -283.93654   -36.636179    10890.368 
    2920 1.3489739e-142    1.7519917    2.5600547   -283.94234   -36.586963    10890.368 
    2921 7.350382e-141    1.7513401    2.5599354   -283.94813   -36.537585    10890.368 
    2922 4.0054787e-139     1.750691    2.5598024   -283.95392   -36.488058    10890.368 
    2923 2.1828994e-137    1.7500444    2.5596563   -283.95969   -36.438395    10890.368 
    2924 1.1897197e-135    1.7494003    2.5594974   -283.96545   -36.388609    10890.368 
    2925 6.4846194e-134    1.7487585    2.5593264    -283.9712    -36.33871    10890.368 
    2926 3.5346842e-132     1.748119    2.5591436   -283.97694    -36.28871    10890.368 
    2927 1.9268181e-130    1.7474816    2.5589495   -283.98268   -36.238621    10890.368 
    2928 1.0503951e-128    1.7468465    2.5587445    -283.9884   -36.188452    10890.368 
    2929 5.7264386e-127    1.7462133    2.5585292   -283.99412   -36.138214    10890.368 
    2930 3.122013e-125    1.7455822    2.5583039   -283.99983   -36.087917    10890.368 
    2931 1.702164e-123    1.7449531     2.558069   -284.00553    -36.03757    10890.368 
    2932 9.2807542e-122    1.7443258     2.557825   -284.01122   -35.987183    10890.368 
    2933 5.0603314e-120    1.7437004    2.5575722   -284.01691   -35.936764    10890.368 
    2934 2.7592261e-118    1.7430768    2.5573111   -284.02259   -35.886322    10890.368 
    2935 1.5045518e-116    1.7424549    2.5570419   -284.02826   -35.835866    10890.368 
    2936 8.2042252e-115    1.7418347     2.556765   -284.03392   -35.785403    10890.368 
    2937 4.4738111e-113    1.7412162    2.5564808   -284.03958   -35.734941    10890.368 
    2938 2.4396444e-111    1.7405993    2.5561896   -284.04523   -35.684488    10890.368 
    2939 1.3304039e-109     1.739984    2.5558917   -284.05088   -35.634051    10890.368 
    2940 7.2551746e-108    1.7393701    2.5555874   -284.05651   -35.583637    10890.368 
    2941 3.9565714e-106    1.7387578     2.555277   -284.06215   -35.533252    10890.368 
    2942 2.1577263e-104    1.7381469    2.5549608   -284.06777   -35.482903    10890.368 
    2943 1.1767369e-102    1.7375375    2.5546391   -284.07339   -35.432597    10890.368 
    2944 6.417526e-101    1.7369294     2.554312     -284.079   -35.382339    10890.368 
    2945 3.4999407e-99    1.7363227    2.5539799   -284.08461   -35.332136    10890.368 
    2946 1.9087899e-97    1.7357174     2.553643   -284.09021   -35.281993    10890.368 
    2947 1.0410214e-95    1.7351133    2.5533016   -284.09581   -35.231915    10890.368 
    2948 5.6776008e-94    1.7345105    2.5529557    -284.1014   -35.181908    10890.368 
    2949 3.0965172e-92     1.733909    2.5526058   -284.10698   -35.131977    10890.368 
    2950 1.6888275e-90    1.7333087    2.5522518   -284.11256   -35.082127    10890.368 
    2951 9.2108564e-89    1.7327096    2.5518941   -284.11813   -35.032363    10890.368 
    2952 5.0236272e-87    1.7321116    2.5515329    -284.1237   -34.982688    10890.368 
    2953 2.7399162e-85    1.7315148    2.5511682   -284.12926   -34.933108    10890.368 
    2954 1.4943745e-83    1.7309192    2.5508003   -284.13481   -34.883627    10890.368 
    2955  8.15049e-82    1.7303247    2.5504293   -284.14036   -34.834248    10890.368 
    2956 4.445391e-80    1.7297312    2.5500554   -284.14591   -34.784976    10890.368 
    2957 2.4245884e-78    1.7291389    2.5496787   -284.15144   -34.735815    10890.368 
    2958 1.322415e-76    1.7285476    2.5492994   -284.15698   -34.686768    10890.368 
    2959 7.2127204e-75    1.7279573    2.5489177    -284.1625   -34.637839    10890.368 
    2960 3.9339776e-73    1.7273681    2.5485335   -284.16803    -34.58903    10890.368 
    2961 2.1456853e-71    1.7267799    2.5481471   -284.17354   -34.540346    10890.368 
    2962 1.1703114e-69    1.7261927    2.5477586   -284.17905   -34.491789    10890.368 
    2963 6.3831935e-68    1.7256065     2.547368   -284.18456   -34.443362    10890.368 
    2964 3.4815746e-66    1.7250212    2.5469755   -284.19006   -34.395068    10890.368 
    2965 1.898954e-64    1.7244369    2.5465813   -284.19556    -34.34691    10890.368 
    2966 1.0357481e-62    1.7238536    2.5461853   -284.20105   -34.298891    10890.368 
    2967 5.6493017e-61    1.7232712    2.5457877   -284.20653   -34.251012    10890.368 
    2968 3.0813161e-59    1.7226897    2.5453886   -284.21201   -34.203276    10890.368 
    2969 1.6806549e-57    1.7221091     2.544988   -284.21748   -34.155687    10890.368 
    2970 9.1668811e-56    1.7215294    2.5445861   -284.22295   -34.108244    10890.368 
    2971 4.9999467e-54    1.7209506    2.5441829   -284.22841   -34.060952    10890.368 
    2972 2.7271551e-52    1.7203727    2.5437784   -284.23387   -34.013811    10890.368 
    2973 1.4874931e-50    1.7197957    2.5433729   -284.23933   -33.966824    10890.368 
    2974 8.1133587e-49    1.7192195    2.5429662   -284.24477   -33.919992    10890.368 
    2975 4.4253436e-47    1.7186442    2.5425586   -284.25022   -33.873317    10890.368 
    2976 2.4137588e-45    1.7180697      2.54215   -284.25565   -33.826801    10890.368 
    2977 1.3165619e-43    1.7174961    2.5417405   -284.26109   -33.780444    10890.368 
    2978 7.1810709e-42    1.7169233    2.5413302   -284.26651    -33.73425    10890.368 
    2979 3.9168562e-40    1.7163514    2.5409191   -284.27193   -33.688218    10890.368 
    2980 2.1364194e-38    1.7157802    2.5405073   -284.27735    -33.64235    10890.368 
    2981 1.165295e-36    1.7152099    2.5400948   -284.28276   -33.596648    10890.368 
    2982 6.3560258e-35    1.7146404    2.5396817   -284.28817   -33.551112    10890.368 
    2983 3.4668564e-33    1.7140716     2.539268   -284.29357   -33.505743    10890.368 
    2984 1.890978e-31    1.7135037    2.5388537   -284.29897   -33.460543    10890.368 
    2985 1.0314246e-29    1.7129366     2.538439   -284.30436   -33.415512    10890.368 
    2986 5.6258594e-28    1.7123702    2.5380238   -284.30974   -33.370651    10890.368 
    2987 3.0686025e-26    1.7118046    2.5376081   -284.31513   -33.325961    10890.368 
    2988 1.6737584e-24    1.7112398    2.5371921    -284.3205   -33.281443    10890.368 
    2989 9.1294635e-23    1.7106758    2.5367757   -284.32587   -33.237097    10890.368 
    2990 4.9796416e-21    1.7101125     2.536359   -284.33124   -33.192923    10890.368 
    2991 2.7161344e-19      1.70955     2.535942    -284.3366   -33.148923    10890.368 
    2992 1.4815105e-17    1.7089882    2.5355247   -284.34196   -33.105097    10890.368 
    2993 8.0808782e-16    1.7084272    2.5351072   -284.34731   -33.061445    10890.368 
    2994 4.4077068e-14     1.707867    2.5346894   -284.35265   -33.017967    10890.368 
    2995 2.4041809e-12    1.7073075    2.5342715   -284.35799   -32.974664    10890.368 
    2996 1.3113599e-10    1.7067487    2.5338535   -284.36333   -32.931537    10890.368 
    2997 7.1528146e-09    1.7061907    2.5334353   -284.36866   -32.888584    10890.368 
    2998 3.901519e-07    1.7056334    2.5330169   -284.37399   -32.845807    10890.368 
    2999 2.128464e-05    1.7050767    2.5325985    -284.3793   -32.803158    10890.368 
    3000 0.0011722302    1.7045154    2.5321759   -284.38414   -32.758127    10890.368 
    3001   0.10216566    1.7036602    2.5315311   -284.34657   -32.501116    10890.368 
    3002    1294.7044    1.6826563    2.5155145    302.01443    2430.9935    10890.368 
    3003    52.113321    1.4890049    2.3505602   -262.90239    56.917643    10890.368 
    3004    99.429619    1.4509914    2.3155074    -241.8642     137.8973    10890.368 
    3005     24.89212    1.2994242    2.2344022   -277.49308   -124.66926    10890.368 
    3006    2.8110181    1.2959329    2.2382954   -287.55845   -170.49179    10890.368 
    3007    772.24884    1.2888137    2.2397171    60.898887    1297.3995    10890.368 
    3008    1.7250196    1.2530774     2.453853   -288.83377   -158.78337    10890.368 
    3009 0.0027308954    1.2531788    2.4469722   -289.62564   -159.07783    10890.368 
    3010   0.13176326    1.2534243    2.4363173   -289.58306   -154.63774    10890.368 
    3011    784.24757    1.2579969    2.3013795    65.461377    1410.5714    10890.368 
    3012 1.8277935e-12    1.5800089    69.605179   -223.87704    2128.7193    10890.368 
    3013 1.2886521e-13     1.580971    66.031601   -227.48711    2115.0821    10890.368 
    3014 6.3540591e-12    1.5816169    62.725196   -230.82584    2100.1943    10890.368 
    3015 3.1426964e-10    1.5819685    59.661977   -233.91762    2084.2016    10890.368 
    3016 1.5589419e-08    1.5820464    56.820275    -236.7845    2067.2361    10890.368 
    3017 7.7549588e-07    1.5818702     54.18051   -239.44639    2049.4173    10890.368 
    3018 3.8681341e-05    1.5814583    51.724982   -241.92126    2030.8537    10890.368 
    3019 0.0019344857    1.5808281    49.437606   -244.22467    2011.6461    10890.368 
    3020  0.097178831    1.5799944    47.299604    -246.3342    1992.0167    10890.368 
    3021    5.4269292     1.578873    45.081905   -246.15109     1979.589    10890.368 
    3022    2821.9908    1.5712742    32.809633    1017.6639    7176.1457    10890.368 
    3023 3.8615694e-05    1.5687662    31.610378   -262.13265    1785.2819    10890.368 
    3024 0.0018024022    1.5662339    30.575039   -263.16738    1763.0999    10890.368 
    3025  0.093191954    1.5636006    29.587312   -264.11342    1741.0613    10890.368 
    3026    5.9635988    1.5602677    28.432286   -262.60772    1724.9489    10890.368 
    3027    7214.4963    1.5193051    17.377102    2992.4699    15087.561    10890.368 
    3028 3.6119639e-18    1.5155342    16.974435   -276.69638    1348.0352    10890.368 
    3029 1.9053564e-16    1.5117864    16.584308   -277.08372    1329.4094    10890.368 
    3030 1.0054142e-14    1.5080631    16.206248   -277.45908    1311.0468    10890.368 
    3031 5.3069588e-13    1.5043653    15.839802   -277.82292    1292.9448    10890.368 
    3032 2.8020408e-11     1.500694     15.48454   -278.17565     1275.101    10890.368 
    3033 1.4798836e-09    1.4970502     15.14005    -278.5177    1257.5126    10890.368 
    3034 7.8181053e-08    1.4934347    14.805939   -278.84946    1240.1768    10890.368 
    3035 4.1313616e-06    1.4898483    14.481833   -279.17128    1223.0909    10890.368 
    3036 0.0002183798    1.4862916    14.167361   -279.48346    1206.2519    10890.368 
    3037  0.011565548    1.4827594    13.861672   -279.78189    1189.6496    10890.368 
    3038   0.66948484    1.4789332    13.537481   -279.80574    1172.9848    10890.368 
    3039    419.42963     1.456952    11.765831   -91.829029    1865.1589    10890.368 
    3040 3.0996494e-21   0.93289245    93.362002   -196.07365   -4058.2838    10890.368 
    3041 1.9027843e-22   0.93132643    88.618974   -200.95652   -3945.2532    10890.368 
    3042 9.4489488e-21   0.93081088    84.161684   -205.54721   -3836.6613    10890.368 
    3043 4.7041111e-19   0.93127384    79.970533   -209.86563   -3732.2879    10890.368 
    3044  2.34752e-17   0.93264753    76.027433   -213.93021   -3631.9263    10890.368 
    3045 1.1741421e-15   0.93486809    72.315673   -217.75794    -3535.382    10890.368 
    3046 5.8861396e-14   0.93763668    68.819804   -221.36481    -3441.456    10890.368 
    3047 2.9574236e-12   0.94038764    65.524966   -224.76645   -3350.7002    10890.368 
    3048 1.4888419e-10   0.94310125     62.41783   -227.97642   -3263.2479    10890.368 
    3049 7.508789e-09   0.94577871    59.486216   -231.00708   -3178.9442    10890.368 
    3050 3.7934753e-07   0.94842123    56.718835    -233.8699   -3097.6398    10890.368 
    3051 1.9196111e-05   0.95102994     54.10521   -236.57549   -3019.2079    10890.368 
    3052 0.00097290377   0.95360597    51.635575   -239.13337   -2943.5172    10890.368 
    3053  0.049425844   0.95615273    49.298772   -241.53383   -2870.2905    10890.368 
    3054    2.6360765    0.9587967    46.978479   -242.76888   -2791.1795    10890.368 
    3055    642.78953   0.96841244    39.331035    39.328496   -1315.5837    10890.368 
    3056   0.68444187    1.0860114    6.6618855   -286.42259   -330.51937    10890.368 
    3057  0.010243298    1.0873168    6.4657022   -286.93492   -332.99724    10890.368 
    3058   0.59318119    1.0886119     6.255175   -286.89085   -335.42254    10890.368 
    3059    534.53748    1.0981844    4.9621779    -46.32009    653.81257    10890.368 
    3060 3.1728033e-15    1.6937165    145.99003    -140.6673   -2406.3548    10890.368 
    3061 5.8766397e-16    1.6866867    134.65216   -152.40801   -2268.4161    10890.368 
    3062 2.7123229e-14    1.6798343    124.30884   -163.12718    -2138.182    10890.368 
    3063 1.2609486e-12     1.673134     114.8676   -172.91935   -2015.4661    10890.368 
    3064 5.9009812e-11    1.6665832    106.24515   -181.86967   -1899.7336    10890.368 
    3065 2.7783643e-09    1.6601787    98.366118   -190.05524   -1790.4949    10890.368 
    3066 1.3154735e-07    1.6539174    91.162304   -197.54582   -1687.3012    10890.368 
    3067 6.2605613e-06    1.6477961    84.571981    -204.4046   -1589.7409    10890.368 
    3068 0.00029937271    1.6418114    78.539258    -210.6887   -1497.4354    10890.368 
    3069  0.014380381    1.6359591    73.012908   -216.44448   -1409.9993    10890.368 
    3070   0.69754758    1.6302018     67.91668   -221.45376   -1325.3477    10890.368 
    3071    44.711368    1.6227787    61.752769   -207.95163   -1136.9703    10890.368 
    3072    457.19832    1.5343835    13.811879   -71.616222    846.99786    10890.368 
    3073    67.889767     1.504407    11.308958   -250.96072    427.64355    10890.368 
    3074    1248.7305    1.4512925    19.240082     291.6384    3143.9484    10890.368 
    3075   0.54058413    1.4363788    21.406528   -271.77955    861.66629    10890.368 
    3076    13.691625    1.4303312    19.868231   -267.41985    894.31849    10890.368 
    3077    6349.2178    1.3456153    4.7959886    2587.2845     12837.52    10890.368 
    3078 1.0724718e-16    1.3439312    4.6618524   -289.56797    746.03525    10890.368 
    3079 5.4596535e-15     1.342299    4.5363486   -289.68836    730.02306    10890.368 
    3080 2.7816353e-13    1.3407165    4.4188259   -289.80078      714.437    10890.368 
    3081 1.4183724e-11    1.3391819    4.3086874   -289.90582    699.26588    10890.368 
    3082 7.2382659e-10    1.3376934    4.2053853   -290.00406    684.49868    10890.368 
    3083 3.6968527e-08    1.3362491    4.1084165     -290.096    670.12458    10890.368 
    3084 1.889656e-06    1.3348474    4.0173193   -290.18211    656.13292    10890.368 
    3085 9.6673656e-05    1.3334867    3.9316643   -290.26279     642.5127    10890.368 
    3086 0.0049640433    1.3321614    3.8508289   -290.33653    629.22379    10890.368 
    3087   0.29674268    1.3306651    3.7625268   -290.28701    614.72832    10890.368 
    3088    427.01908    1.3172878    3.1005115   -97.552905    1290.1708    10890.368 
    3089 8.1874024e-39    1.0124357    416.56164    142.26055   -10570.356    10890.368 
    3090 1.6934302e-39   0.98376651    384.46433    108.90172   -10124.678    10890.368 
    3091 6.7994443e-38   0.95962294    355.06427    78.332828     -9704.65    10890.368 
    3092 2.7818703e-36   0.93957934    328.12142     50.30657   -9308.4478    10890.368 
    3093 1.1578679e-34   0.92324705    303.41807    24.598562   -8934.3979    10890.368 
    3094 4.8955984e-33   0.91027125    280.75666    1.0051435   -8580.9616    10890.368 
    3095 2.0999133e-31   0.90032809    259.95788   -20.658612   -8246.7237    10890.368 
    3096 9.1268897e-30   0.89312204    240.85891   -40.560679   -7930.3819    10890.368 
    3097 4.0150859e-28   0.88838349    223.31186   -58.853695   -7630.7363    10890.368 
    3098 1.7860167e-26   0.88586649    207.18231   -75.676414   -7346.6812    10890.368 
    3099 8.0260519e-25   0.88534675    192.34809    -91.15502   -7077.1966    10890.368 
    3100 3.6407162e-23   0.88661978    178.69809   -105.40431   -6821.3411    10890.368 
    3101 1.6657694e-21   0.88949916    166.13122   -118.52877   -6578.2448    10890.368 
    3102 7.6822772e-20   0.89381502    154.55547   -130.62353   -6347.1037    10890.368 
    3103 3.5689663e-18   0.89941256    143.88707   -141.77524   -6127.1737    10890.368 
    3104 1.6692698e-16   0.90615082    134.04971   -152.06287   -5917.7661    10890.368 
    3105 7.8565699e-15   0.91384666    124.97384   -161.55845   -5717.7561    10890.368 
    3106 3.7195456e-13   0.92165453    116.59577    -170.3287   -5526.0347    10890.368 
    3107 1.7705001e-11    0.9293171    108.85709   -178.43425    -5343.073    10890.368 
    3108 8.4692916e-10   0.93682957     101.7052   -185.92955   -5168.3612    10890.368 
    3109 4.0699469e-08   0.94418828    95.092042   -192.86431   -5001.4253    10890.368 
    3110 1.9641733e-06   0.95139063    88.973761   -199.28398   -4841.8245    10890.368 
    3111 9.5168149e-05    0.9584349    83.310263   -205.23002   -4689.1475    10890.368 
    3112 0.0046283034   0.96532042    78.064708   -210.73864   -4542.9979    10890.368 
    3113   0.22629749   0.97206088    73.193776   -215.75853   -4402.3269    10890.368 
    3114    12.246159   0.97937356    68.189073   -215.57697   -4230.3047    10890.368 
    3115    3618.9688    1.0256361    42.343251    1391.3132    3507.6187    10890.368 
    3116 2.3207339e-07    1.0308441    40.022348   -250.83788   -3281.6364    10890.368 
    3117 1.1587785e-05    1.0358949    37.866391   -253.12235   -3192.1084    10890.368 
    3118 0.00058198049    1.0408126    35.854157   -255.25593   -3105.8746    10890.368 
    3119  0.029294147    1.0456036    33.973789   -257.23849   -3022.6784    10890.368 
    3120    1.5283687    1.0504392    32.153625   -258.49254   -2936.7631    10890.368 
    3121    279.99713    1.0643083    27.346293   -137.43724    -2173.845    10890.368 
    3122 9.9475949e-12    1.5041715     73.97588   -218.53914     2228.876    10890.368 
    3123 1.0487061e-12    1.4946961     68.77079   -223.93067    2174.0448    10890.368 
    3124 5.1003237e-11    1.4856197    63.963245   -228.90836    2119.3703    10890.368 
    3125 2.488318e-09    1.4769256    59.520943   -233.50584    2064.9823    10890.368 
    3126 1.2175182e-07    1.4685975    55.414405   -237.75382    2010.9951    10890.368 
    3127 5.9732734e-06    1.4606199    51.616712   -241.68034    1957.5086    10890.368 
    3128 0.00029378654    1.4529777    48.103243    -245.3109    1904.6103    10890.368 
    3129  0.014485557    1.4456549    44.850859   -248.66346    1852.3913    10890.368 
    3130   0.72298861    1.4385632    41.807711   -251.48343    1801.6628    10890.368 
    3131     57.66731    1.4278698    37.424462   -230.20347    1829.1058    10890.368 
    3132    5.8838927    1.2150605    7.3278337   -283.82024   -298.97307    10890.368 
    3133   0.13447374    1.2155287    7.0484347   -286.69889   -321.51976    10890.368 
    3134     20.51069    1.2192617    6.1944995   -278.34345   -272.54739    10890.368 
    3135    117.22223    1.3775225    36.965355    -203.4661    102.94861    10890.368 
    3136    19.198827      1.39906    49.691438   -234.92882   -90.954828    10890.368 
    3137    3776.1135    1.4667649    96.946379     1515.558    7086.9358    10890.368 
    3138 3.2873169e-07    1.4570242    87.027671   -205.43099    -55.06689    10890.368 
    3139 1.5048616e-05    1.4476196    78.158586   -214.46003   -20.767639    10890.368 
    3140 0.00069304408    1.4385657    70.234872   -222.52785     8.955879    10890.368 
    3141  0.032128902    1.4298589    63.152262   -229.72669    34.685116    10890.368 
    3142    1.5132189    1.4214026      56.7512   -235.57589    59.873131    10890.368 
    3143     112.4728    1.4086253    47.831058   -194.38992    301.21828    10890.368 
    3144   0.16371009     1.209112    16.440095   -277.32994   -22.926669    10890.368 
    3145  0.013320086    1.2111772    14.924881   -278.94566   -18.946331    10890.368 
    3146   0.66420854    1.2132582    13.527341   -280.07869   -13.819687    10890.368 
    3147     78.02984    1.2176404    10.910862   -247.70101    140.07752    10890.368 
    3148 1.3136691e-05    1.4022748    126.68844   -166.59367   -821.17444    10890.368 
    3149 5.1822906e-06    1.3977492      113.148   -180.26136   -741.09453    10890.368 
    3150 0.00023096186    1.3932964    101.08916   -192.43194   -669.07884    10890.368 
    3151  0.010393543    1.3889322    90.347896   -203.26678   -604.26089    10890.368 
    3152   0.47274497     1.384659    80.756744   -212.73477   -544.90985    10890.368 
    3153    24.042494    1.3799751    71.184102   -211.71297   -441.05135    10890.368 
    3154    3297.4333    1.3489179    26.048254    1225.9103    6078.5729    10890.368 
    3155 1.0318891e-06    1.3461631    23.450883   -270.71569    -173.7161    10890.368 
    3156 4.9011883e-05    1.3435695    21.152979   -273.02818   -156.77513    10890.368 
    3157 0.0023515665    1.3411089    19.103041   -275.08948   -141.38899    10890.368 
    3158   0.11332272    1.3387673     17.26908   -276.88366   -127.16398    10890.368 
    3159    6.2995355    1.3361986    15.385056   -275.97491   -100.70673    10890.368 
    3160    4340.3169    1.3154574    4.6224569    1676.9069    8238.2681    10890.368 
    3161 4.0837355e-10    1.3144123    4.3493507   -289.88999   -13.163989    10890.368 
    3162 1.9836449e-08    1.3134161    4.1058001   -290.13291   -10.376604    10890.368 
    3163 9.6548346e-07    1.3124648    3.8882039    -290.3498   -7.8201606    10890.368 
    3164 4.7003126e-05    1.3115562    3.6937791   -290.54344   -5.4746966    10890.368 
    3165 0.0022900977    1.3106874    3.5199419   -290.71545   -3.3168046    10890.368 
    3166    0.1152192     1.309829    3.3594961   -290.82386   -1.0589635    10890.368 
    3167    20.072493    1.3075335     2.977912   -282.16036    42.071477    10890.368 
    3168   0.52136881    1.1943367    98.800914   -193.51519   -299.92299    10890.368 
    3169   0.26954874     1.197212    88.666813   -203.92238   -260.56425    10890.368 
    3170    13.232684    1.2003332    78.874958   -207.99576   -197.97999    10890.368 
    3171    2136.0427    1.2139018    46.199558    720.60592    3958.7384    10890.368 
    3172 0.0074493016     1.217211    40.357663   -253.13596   -83.506701    10890.368 
    3173   0.27265094    1.2197923    36.268679   -257.17451   -69.218678    10890.368 
    3174    15.044469    1.2227234     32.02614   -254.79754   -27.223082    10890.368 
    3175    4874.2067    1.2495553    7.6627003    1921.9737    9273.7208    10890.368 
    3176 1.2426627e-11    1.2510234    7.0664256   -287.05665    4.8885728    10890.368 
    3177 6.040881e-10    1.2524337    6.5336899    -287.6015    5.7196192    10890.368 
    3178 2.9382964e-08    1.2537884     6.057657   -288.08859    6.4016685    10890.368 
    3179 1.429743e-06    1.2550892    5.6322946   -288.52405    6.9565797    10890.368 
    3180 6.9594527e-05    1.2563381    5.2522076   -288.91333    7.4035993    10890.368 
    3181 0.0033901422    1.2575373      4.91243   -289.26003    7.7656094    10890.368 
    3182   0.16911572    1.2587167    4.6015008   -289.50377     8.365013    10890.368 
    3183    22.503307    1.2613615    3.9784508   -280.02413    51.193604    10890.368 
    3184    5.2039381    1.4059827    72.627476   -218.72674   -460.54549    10890.368 
    3185    2.0825663    1.4020019    66.189821    -226.6389   -426.25321    10890.368 
    3186    201.56683    1.3933655    54.331957   -148.22423    27.623132    10890.368 
    3187  0.001828129    1.2589539    26.409316   -267.28235     12.96993    10890.368 
    3188 0.0001955255    1.2607995    23.794653   -269.94805     19.46839    10890.368 
    3189 0.0093787103    1.2625612    21.458842   -272.32543    24.941809    10890.368 
    3190   0.45485693    1.2642579    19.352486   -274.27195    30.371084    10890.368 
    3191    34.432952    1.2667478      16.5073   -261.78043    100.55137    10890.368 
    3192     203.1667    1.3236568    15.470213    -186.8374     238.4275    10890.368 
    3193    74.416983    1.3380513    30.977138   -229.57467   -129.35618    10890.368 
    3194    803.26259    1.3814681    114.80361    185.20428    698.95479    10890.368 
    3195    1.1321569    1.3901031    137.47352   -155.33639   -969.22857    10890.368 
    3196    322.31731    1.3918035    131.62945   -15.701067   -328.06576    10890.368 
    3197 2.0357473e-11     1.316875    37.989759   -255.25651   -162.74515    10890.368 
    3198 1.5631058e-12    1.3192764    34.149072    -259.1802   -144.73154    10890.368 
    3199 7.4414169e-11    1.3215203    30.716424   -262.68847   -128.69982    10890.368 
    3200 3.551872e-09    1.3236159    27.648695   -265.82515   -114.43417    10890.368 
    3201 1.6993106e-07    1.3255718    24.907293   -268.62948   -101.74186    10890.368 
    3202 8.1469354e-06    1.3273962    22.457682   -271.13655   -90.450817    10890.368 
    3203 0.00039131707     1.329097    20.268943   -273.37765   -80.406678    10890.368 
    3204  0.018835086     1.330682    18.312602   -275.37372   -71.434997    10890.368 
    3205   0.92841163    1.3321929    16.524192   -276.79508   -61.573427    10890.368 
    3206    114.78472    1.3353883    13.031746   -228.79293    170.66785    10890.368 
    3207 3.2053976e-08    1.4134983    155.12082   -137.93329   -842.64742    10890.368 
    3208 1.2237076e-08    1.4105384    138.54872   -154.68839   -754.35093    10890.368 
    3209 5.3491421e-07    1.4076201     123.7849   -169.61328   -675.37536    10890.368 
    3210 2.3659114e-05    1.4047547    110.63031   -182.90943   -604.71681    10890.368 
    3211 0.0010574628    1.4019507    98.908012   -194.75557   -541.47889    10890.368 
    3212  0.047716712    1.3992146    88.458464   -205.29298   -484.76778    10890.368 
    3213    2.1927024    1.3965211    79.040145   -213.83591   -429.41514    10890.368 
    3214     155.8606    1.3923691    65.999543   -157.38224   -65.755199    10890.368 
    3215   0.10976383    1.3238517    9.3018836   -284.71899   -5.9656375    10890.368 
    3216 0.0045328387    1.3248329     8.525902   -285.56153   -2.9907097    10890.368 
    3217   0.22535938    1.3257723    7.8160766   -286.18906   0.30009361    10890.368 
    3218     20.81544    1.3273391    6.7117259    -277.9931    43.838108    10890.368 
    3219    411.99608    1.3718529    28.488773   -79.114429    637.92199    10890.368 
    3220     35.41937    1.3807952    49.131024   -228.92259   -192.47897    10890.368 
    3221    1568.9298    1.3915809    95.349878    512.54041    2475.7123    10890.368 
    3222   0.15080488    1.3895811    94.671983    -198.9332   -504.00529    10890.368 
    3223     26.92068    1.3857981    83.989712   -197.59309   -396.21946    10890.368 
    3224    3072.6751    1.3608158    31.699771    1129.6171    5681.1848    10890.368 
    3225 4.744528e-06    1.3585366    28.469704   -265.81571   -144.22346    10890.368 
    3226 0.00022321234     1.356388    25.627937   -268.67902   -128.06221    10890.368 
    3227  0.010672128    1.3543367    23.092802   -271.22795   -113.52981    10890.368 
    3228   0.51638131     1.352358    20.808039   -273.29955   -99.397911    10890.368 
    3229    39.897531    1.3493957    17.663153   -258.62204   -6.2073818    10890.368 
    3230    68.866807    1.2838411    19.119968   -243.56672    87.967453    10890.368 
    3231     6.882113    1.2776864    25.434711   -265.21238   -58.608846    10890.368 
    3232    2490.0937    1.2594799    45.864067    880.68658    4566.0746    10890.368 
    3233 0.0017245692    1.2615977    41.901887   -251.56671   -151.44293    10890.368 
    3234  0.097624567     1.264234    37.630724   -255.87293    -131.5547    10890.368 
    3235     4.883617    1.2668757    33.602378   -257.80796   -103.97551    10890.368 
    3236     1108.898    1.2766559    20.826578    229.37786    2053.1255    10890.368 
    3237     48.85873    1.2968987      4.88296   -267.22327    102.31188    10890.368 
    3238    630.51126    1.3130266    2.2529299   -6.4770173     1209.004    10890.368 
    3239    114.41885     1.349716    30.772646   -211.70324    52.144185    10890.368 
    3240    201.79743    1.3642178    55.980085   -146.69086    77.892469    10890.368 
    3241    7.8330926    1.4167302     251.1981   -37.301915   -1329.0492    10890.368 
    3242    15.086325     1.414442     228.1645   -57.297568   -1195.9128    10890.368 
    3243    1241.8299    1.4064199    170.11139    439.84559    1439.4542    10890.368 
    3244    7.7727759    1.3984617    129.20984   -160.61475   -692.91116    10890.368 
    3245    167.13136    1.3927048    106.15555   -111.70283   -267.80919    10890.368 
    3246    9.1000995    1.3389899    5.0654077   -285.23718   -9.2331134    10890.368 
    3247   0.63073943    1.3373223    4.3096694   -289.82737   -19.797378    10890.368 
    3248    57.893884    1.3346954    3.3787001   -264.80647    96.917213    10890.368 
    3249  8.52956e-08    1.2136258    208.91803   -81.782035   -929.00218    10890.368 
    3250 4.2812152e-08    1.2184224    186.95414   -104.09966   -821.78932    10890.368 
    3251 1.8123979e-06    1.2230185    167.30984   -124.06215   -726.22073    10890.368 
    3252 7.7886991e-05    1.2274134    149.74143   -141.91689   -641.05395    10890.368 
    3253 0.0033924644    1.2316081    134.03054   -157.88411   -565.17107    10890.368 
    3254   0.14961471    1.2356074    119.97463   -172.10613   -497.27822    10890.368 
    3255    6.8168213    1.2395147    107.08185   -182.19295   -422.84265    10890.368 
    3256    649.60354    1.2479906    81.835642    83.369588    919.61133    10890.368 
    3257    53.333567    1.2867771    10.784723   -259.17324    105.92729    10890.368 
    3258    69.638965    1.2941411    5.3749962   -257.33668     156.1579    10890.368 
    3259     471.1322    1.3327447     20.30129   -60.665112    797.10649    10890.368 
    3260     53.16604    1.3451252    41.585964   -228.59016   -122.64735    10890.368 
    3261    1378.7727    1.3651059    93.001072    423.92797     2107.603    10890.368 
    3262   0.14231911    1.3669201    96.089304   -197.58276   -533.70056    10890.368 
    3263    59.665818    1.3643588    85.014406   -181.79762   -361.51802    10890.368 
    3264    351.78584    1.3324694    8.6567038   -126.42177    618.31637    10890.368 
    3265    113.45753    1.3202811     2.142369   -240.87219    211.17711    10890.368 
    3266    742.75222    1.2964155    19.919841    62.518241     1342.474    10890.368 
    3267    21.615164     1.287263    37.654658    -246.1443   -109.47194    10890.368 
    3268    487.35499    1.2799013    58.753083     -13.6512    678.43048    10890.368 
    3269  0.029268421    1.2357866    330.74197    41.915949   -1573.2728    10890.368 
    3270  0.049116359    1.2416334    296.05986    6.7008454   -1400.3087    10890.368 
    3271    1.9204146    1.2472748    264.89868   -24.101078    -1241.705    10890.368 
    3272    84.504082    1.2535097    232.89413   -19.192244   -925.78765    10890.368 
    3273     585.2706    1.2872201    98.274705    70.911306     687.6293    10890.368 
    3274    66.486337    1.3023522    57.057825   -206.05566   -101.23863    10890.368 
    3275    973.25128    1.3207107    22.218421    169.30986     1785.031    10890.368 
    3276    20.242539    1.3320104    9.1300812   -275.84717    29.126528    10890.368 
    3277    418.39405    1.3405636    3.6273656   -101.10412    806.53503    10890.368 
    3278   0.63597773    1.3914473    68.712951   -224.91608   -374.01929    10890.368 
    3279   0.30808689    1.3892966    61.697779   -232.14891   -336.54954    10890.368 
    3280    16.177221    1.3869447    54.598759   -232.12664   -267.62521    10890.368 
    3281    3509.7273    1.3726763    22.217082    1318.0747     6556.439    10890.368 
    3282 3.3290993e-07    1.3712725    20.053893   -274.30276   -105.84129    10890.368 
    3283 1.5907102e-05    1.3699336    18.133787   -276.23654   -94.586372    10890.368 
    3284 0.00076564129    1.3686497    16.419492   -277.96213   -84.444978    10890.368 
    3285   0.03694174    1.3674169    14.887194   -279.48789   -75.225443    10890.368 
    3286     1.888544    1.3661622    13.437875   -280.10702     -62.9589    10890.368 
    3287    559.39079    1.3611154     8.555132   -32.418261    1027.5843    10890.368 
    3288 0.0005884262    1.2806642    94.351379   -198.28499   -400.43386    10890.368 
    3289 0.00023230428    1.2836087    84.530298   -208.26765   -352.90003    10890.368 
    3290  0.010640658    1.2863862    75.748443    -217.1904   -310.51923    10890.368 
    3291   0.49196689    1.2890111    67.873807   -224.97876   -271.75398    10890.368 
    3292      26.1087    1.2918689     59.77112   -221.61204   -184.25008    10890.368 
    3293     3343.223    1.3128572    16.252393    1237.0079    6326.5756    10890.368 
    3294 3.8191466e-07    1.3138925     14.71498   -279.31931   -24.767044    10890.368 
    3295 1.8295126e-05    1.3148468    13.353137   -280.70995   -18.748789    10890.368 
    3296 0.0008846635    1.3157332    12.136786    -281.9522   -13.416988    10890.368 
    3297  0.042890781     1.316557    11.048565   -283.04545   -8.6109397    10890.368 
    3298      2.27864     1.317396    9.9842111   -283.12095   0.21691989    10890.368 
    3299    1211.0719    1.3220944    5.1803064    259.63815    2318.7093    10890.368 
    3300    43.055266    1.3330662    2.7071995   -272.21769    97.563621    10890.368 
    3301    527.55978    1.3402418    9.5122904   -45.907129    975.00061    10890.368 
    3302    30.940704    1.3599788    92.294959   -187.42961   -424.82819    10890.368 
    3303    7.0144887    1.3589342    93.750571   -196.80219   -478.61921    10890.368 
    3304    6490.9309    1.3406327    51.269024    2698.0373     12076.46    10890.368 
    3305 3.5874263e-15    1.3388245    45.982013   -248.23011   -239.34704    10890.368 
    3306 1.6884402e-13    1.3370988    41.265725   -252.98925   -213.58871    10890.368 
    3307 7.9765491e-12    1.3354526    37.058204   -257.23408   -190.49544    10890.368 
    3308 3.7809085e-10    1.3338831    33.304271   -261.02041   -169.78474    10890.368 
    3309 1.797518e-08    1.3323873    29.954768   -264.39797   -151.20449    10890.368 
    3310 8.5685518e-07    1.3309623    26.965902   -267.41108   -134.52963    10890.368 
    3311 4.0942574e-05     1.329605    24.298646   -270.09918   -119.55918    10890.368 
    3312 0.0019605657    1.3283125    21.918139   -272.49672   -106.10975    10890.368 
    3313  0.094244666    1.3270794    19.789176   -274.59919   -93.828857    10890.368 
    3314    5.0249041    1.3257737     17.68269   -274.48607   -72.386323    10890.368 
    3315     2549.767    1.3174385    7.5233273    868.28421    4827.3204    10890.368 
    3316 0.00015506959    1.3165357    6.7663999   -287.73032   -17.079988    10890.368 
    3317 0.0054708964    1.3158863    6.2653671   -288.22939   -13.840812    10890.368 
    3318   0.27298432    1.3152495    5.8057123   -288.56791    -10.32869    10890.368 
    3319    39.598594    1.3137347    4.8269109   -271.72771    71.013425    10890.368 
    3320 0.0009362282    1.2355394    128.21877   -163.85933   -565.90417    10890.368 
    3321 0.00044074544    1.2390565    114.79255   -177.50745    -500.2598    10890.368 
    3322  0.019719892    1.2423875    102.78704   -189.70402   -441.70518    10890.368 
    3323   0.89353658    1.2455515    92.010787   -200.26521   -387.68837    10890.368 
    3324    48.210043    1.2491606    80.454507   -190.57909    -241.7725    10890.368 
    3325    1126.0713    1.2796987    14.136054    230.24196    2119.0176    10890.368 
    3326   0.93454449    1.2842421    9.0851359   -284.70605   0.58813128    10890.368 
    3327    8.8232322    1.2857051    7.6987627   -282.55311     21.19934    10890.368 
    3328     7630.411    1.3007276    2.3497852     3165.067    14527.395    10890.368 
    3329 1.3173449e-20    1.3004536    2.3174743   -292.17486    16.031445    10890.368 
    3330 6.4264235e-19     1.300189    2.2885423   -292.20291    16.269829    10890.368 
    3331 3.1354708e-17    1.2999331    2.2626313   -292.22797    16.485904    10890.368 
    3332 1.5300465e-15    1.2996856    2.2394213   -292.25038    16.681748    10890.368 
    3333 7.4675905e-14     1.299446    2.2186266   -292.27041    16.859237    10890.368 
    3334 3.6453296e-12    1.2992139    2.1999921   -292.28832    17.020069    10890.368 
    3335 1.7798396e-10    1.2989888    2.1832894   -292.30434    17.165776    10890.368 
    3336 8.6920247e-09    1.2987704     2.168315   -292.31867    17.297746    10890.368 
    3337 4.2458732e-07    1.2985584    2.1548866   -292.33149    17.417237    10890.368 
    3338 2.0747412e-05    1.2983523    2.1428405   -292.34295     17.52543    10890.368 
    3339 0.0010185856     1.298151    2.1319839   -292.35282    17.625615    10890.368 
    3340  0.062734879    1.2979066    2.1198716   -292.33633    17.853948    10890.368 
    3341    180.14395    1.2947692    2.0349465   -210.82067    361.40417    10890.368 
    3342 4.8672773e-142    1.3136871    2590.1034    2337.8188   -13171.828    10890.368 
    3343 4.4387098e-143    1.2783069    2316.0349    2059.2851   -11789.096    10890.368 
    3344 3.6424927e-142    1.2455366    2070.7781    1810.0497   -10551.787    10890.368 
    3345 3.6074752e-141    1.2152419    1851.3993    1587.1256   -9445.0101    10890.368 
    3346 4.2289942e-140    1.1872843    1655.2208    1387.7867   -8455.2263    10890.368 
    3347 5.7657344e-139    1.1615233    1479.8162    1209.5634   -7570.1989    10890.368 
    3348 8.9982942e-138    1.1379334    1322.9978    1050.2299   -6778.0082    10890.368 
    3349 1.5847341e-136    1.1180765    1182.8007    907.78874   -6067.6508    10890.368 
    3350 3.1094854e-135    1.1020428    1057.4642    780.44934   -5432.4458    10890.368 
    3351 6.7201812e-134    1.0893092    945.41053    666.60699   -4864.4349    10890.368 
    3352 1.5833548e-132    1.0794157    845.22942    564.82726   -4356.4977    10890.368 
    3353 4.029929e-131    1.0719587    755.66055    473.82866   -3902.2665    10890.368 
    3354 1.0989535e-129     1.066585    675.57813    392.46672   -3496.0484    10890.368 
    3355 3.187455e-128    1.0629855    603.97667    319.71936   -3132.7544    10890.368 
    3356 9.7690065e-127    1.0608906      539.958     254.6738   -2807.8356    10890.368 
    3357 3.1452825e-125    1.0600655    482.71976    196.51474   -2517.2259    10890.368 
    3358 1.0582863e-123    1.0603061    431.54504    144.51377   -2257.2904    10890.368 
    3359 3.7038485e-122    1.0614352    385.79309    98.019994   -2024.7794    10890.368 
    3360 1.3427562e-120    1.0632995    344.89113    56.451602   -1816.7876    10890.368 
    3361 5.0235933e-119    1.0657666    308.32704    19.288452   -1630.7168    10890.368 
    3362 1.9331074e-117    1.0687222    275.64283   -13.934581   -1464.2442    10890.368 
    3363 7.6282658e-116    1.0720681    246.42882   -43.633498   -1315.2922    10890.368 
    3364 3.078683e-114    1.0757202    220.31856   -70.180415   -1182.0033    10890.368 
    3365 1.2677593e-112    1.0796062    196.98417   -93.908239   -1062.7161    10890.368 
    3366 5.3151331e-111    1.0836648    176.13227   -115.11482   -955.94503    10890.368 
    3367 2.2644757e-109    1.0878438    157.50039   -134.06666   -860.36159    10890.368 
    3368 9.7871357e-108    1.0920988    140.85361   -151.00222    -774.7779    10890.368 
    3369 4.2846423e-106    1.0963925    125.98178   -166.13487   -698.13185    10890.368 
    3370 1.8973666e-104    1.1006937    112.69682   -179.65553   -629.47384    10890.368 
    3371 8.4885806e-103    1.1049762    100.83047   -191.73502   -567.95495    10890.368 
    3372 3.832584e-101    1.1092184    90.232168   -202.52618   -512.81634    10890.368 
    3373 1.7446042e-99    1.1134026    80.767243   -212.16572   -463.37973    10890.368 
    3374 7.9996626e-98    1.1175143    72.315211   -220.77596   -419.03892    10890.368 
    3375 3.6921306e-96    1.1215418    64.768307   -228.46629   -379.25223    10890.368 
    3376 1.7139978e-94    1.1254761     58.03015   -235.33458   -343.53561    10890.368 
    3377 7.9983556e-93      1.12931    52.014549   -241.46833   -311.45662    10890.368 
    3378 3.7497879e-91    1.1330383    46.644434   -246.94579   -282.62891    10890.368 
    3379 1.765275e-89    1.1366573      41.8509   -251.83692    -256.7074    10890.368 
    3380 8.3411318e-88    1.1401643    37.572348   -256.20428   -233.38385    10890.368 
    3381 3.9543258e-86    1.1435581    33.753716   -260.10378     -212.383    10890.368 
    3382 1.8801877e-84    1.1468382    30.345793    -263.5854   -193.45901    10890.368 
    3383 8.9634303e-83    1.1500047      27.3046    -266.6938   -176.39238    10890.368 
    3384 4.2832102e-81    1.1530587     24.59084   -269.46891   -160.98713    10890.368 
    3385 2.0510568e-79    1.1560015    22.169402   -271.94639   -147.06826    10890.368 
    3386 9.8401579e-78     1.158835    20.008918   -274.15811   -134.47955    10890.368 
    3387 4.7288557e-76    1.1615614    18.081369   -276.13254   -123.08155    10890.368 
    3388 2.2759499e-74    1.1641832     16.36173   -277.89512   -112.74975    10890.368 
    3389 1.0968659e-72     1.166703    14.827649   -279.46857   -103.37303    10890.368 
    3390 5.2925832e-71    1.1691237    13.459166   -280.87316    -94.85216    10890.368 
    3391 2.5565316e-69    1.1714483    12.238459   -282.12703   -87.098596    10890.368 
    3392 1.2361069e-67    1.1736797    11.149616   -283.24635   -80.033278    10890.368 
    3393 5.9819099e-66    1.1758212    10.178428   -284.24558   -73.585631    10890.368 
    3394 2.8971113e-64    1.1778757     9.312214   -285.13761   -67.692647    10890.368 
    3395 1.4041027e-62    1.1798465    8.5396532   -285.93396   -62.298074    10890.368 
    3396 6.8094478e-61    1.1817367    7.8506411   -286.64493   -57.351679    10890.368 
    3397 3.3042943e-59    1.1835492    7.2361595   -287.27968   -52.808608    10890.368 
    3398 1.6042687e-57    1.1852872    6.6881601   -287.84641   -48.628798    10890.368 
    3399 7.7926962e-56    1.1869536    6.1994608   -288.35245   -44.776461    10890.368 
    3400 3.7869886e-54    1.1885513    5.7636529   -288.80431   -41.219623    10890.368 
    3401 1.8411181e-52    1.1900831    5.3750181   -289.20782   -37.929711    10890.368 
    3402 8.9544465e-51    1.1915517    5.0284545   -289.56819   -34.881183    10890.368 
    3403 4.356677e-49      1.19296    4.7194103   -289.89006   -32.051201    10890.368 
    3404 2.1204278e-47    1.1943104    4.4438247   -290.17757    -29.41934    10890.368 
    3405 1.0323735e-45    1.1956054    4.1980754   -290.43441   -26.967323    10890.368 
    3406 5.0279495e-44    1.1968476    3.9789311   -290.66389   -24.678789    10890.368 
    3407 2.4495292e-42    1.1980392    3.7835096   -290.86895   -22.539087    10890.368 
    3408 1.193742e-40    1.1991824    3.6092399   -291.05222   -20.535091    10890.368 
    3409 5.8193494e-39    1.2002795    3.4538294   -291.21604   -18.655033    10890.368 
    3410 2.837761e-37    1.2013325     3.315233    -291.3625   -16.888354    10890.368 
    3411 1.3842589e-35    1.2023434     3.191627   -291.49346   -15.225579    10890.368 
    3412 6.7546534e-34    1.2033142    3.0813853   -291.61061   -13.658195    10890.368 
    3413 3.2971483e-32    1.2042467    2.9830573   -291.71541   -12.178549    10890.368 
    3414 1.6100167e-30    1.2051426      2.89535   -291.80919   -10.779752    10890.368 
    3415 7.8647872e-29    1.2060037    2.8171103   -291.89315   -9.4556023    10890.368 
    3416 3.8434206e-27    1.2068316    2.7473098   -291.96833   -8.2005062    10890.368 
    3417 1.8790325e-25    1.2076278    2.6850318   -292.03567   -7.0094153    10890.368 
    3418 9.1907026e-24    1.2083938    2.6294592   -292.09602   -5.8777671    10890.368 
    3419 4.4975431e-22     1.209131     2.579863   -292.15013   -4.8014331    10890.368 
    3420 2.202064e-20    1.2098408    2.5355937   -292.19866   -3.7766725    10890.368 
    3421 1.0787727e-18    1.2105244    2.4960722   -292.24221    -2.800091    10890.368 
    3422 5.2880383e-17    1.2111832    2.4607822   -292.28132   -1.8686037    10890.368 
    3423 2.5938496e-15    1.2118182    2.4292635   -292.31646  -0.97940272    10890.368 
    3424 1.2732198e-13    1.2124307    2.4011058   -292.34805  -0.12992772    10890.368 
    3425 6.2545353e-12    1.2130216    2.3759435   -292.37648   0.68215987    10890.368 
    3426 3.0750092e-10     1.213592    2.3534506   -292.40207        1.459    10890.368 
    3427 1.5131643e-08    1.2141429    2.3333368   -292.42514    2.2025547    10890.368 
    3428 7.453243e-07    1.2146752    2.3153431   -292.44595    2.9146288    10890.368 
    3429 3.6753062e-05    1.2151898    2.2992373   -292.46472    3.5970072    10890.368 
    3430 0.0018230047      1.21569    2.2847458   -292.48098    4.2576319    10890.368 
    3431   0.11546747    1.2163043    2.2683819   -292.44898    5.2725351    10890.368 
    3432    380.10177    1.2248321    2.1663162   -120.42586    738.17694    10890.368 
    3433 6.1726687e-83    3.0702217    1366.2241     1092.497   -6208.3774    10890.368 
    3434 1.2606704e-83    3.0917732    1217.9703     942.2201   -5481.4678    10890.368 
    3435 2.3556054e-82    3.1050483    1086.3074    808.75307   -4836.2225    10890.368 
    3436 4.8970301e-81    3.1112678    969.37487    690.21127    -4263.665    10890.368 
    3437 1.119196e-79    3.1115191    865.51025    584.91094   -3755.7521    10890.368 
    3438 2.7822833e-78    3.1067626    773.23285    491.35221   -3305.2965    10890.368 
    3439 7.4526225e-77    3.0978402    691.22666    408.20201   -2905.8897    10890.368 
    3440 2.1329546e-75     3.085485    618.32393    334.27748   -2551.8261    10890.368 
    3441 6.4741711e-74    3.0703326    553.48976    268.53025   -2238.0319    10890.368 
    3442 2.0703843e-72    3.0529307    495.80776    210.03194   -1959.9982    10890.368 
    3443 6.9349643e-71    3.0337492    444.46687    157.96091    -1713.721    10890.368 
    3444 2.4205694e-69      3.01319    398.74958     111.5902   -1495.6454    10890.368 
    3445 8.7636012e-68     2.991595    358.02115    70.276698   -1302.6159    10890.368 
    3446 3.2777695e-66    2.9692802    321.72013    33.451537    -1131.398    10890.368 
    3447 1.2619591e-64    2.9467596    289.34993   0.61178549    -979.2324    10890.368 
    3448 4.9854757e-63    2.9242527    260.47117   -28.687786   -844.69825    10890.368 
    3449 2.0153219e-61    2.9018687    234.69471   -54.841606   -725.82995    10890.368 
    3450 8.3152867e-60    2.8796973    211.67598   -78.198924   -620.88178    10890.368 
    3451 3.4941937e-58    2.8578111     191.1098   -99.069106   -528.30287    10890.368 
    3452 1.4924676e-56    2.8362683    172.72572    -117.7263    -446.7151    10890.368 
    3453 6.4684298e-55    2.8151149    156.28398   -134.41358   -374.89345    10890.368 
    3454 2.840287e-53    2.7943866    141.57193   -149.34651   -311.74877    10890.368 
    3455 1.2618395e-51    2.7741099    128.40088    -162.7164   -256.31234    10890.368 
    3456 5.6650095e-50    2.7543044    116.60331   -174.69312   -207.69949    10890.368 
    3457 2.5673624e-48    2.7349905    106.03045    -185.4275   -165.02988    10890.368 
    3458 1.1734166e-46    2.7161796    96.550071    -195.0536   -127.76307    10890.368 
    3459 5.4042033e-45    2.6978744    88.044651   -203.69062   -95.291313    10890.368 
    3460 2.5061243e-43     2.680074    80.409642   -211.44456   -67.073415    10890.368 
    3461 1.1694435e-41    2.6627744    73.552022   -218.40978   -42.627368    10890.368 
    3462 5.4879341e-40    2.6459693    67.388982   -224.67026   -21.523806    10890.368 
    3463 2.5886195e-38    2.6296507    61.846775   -230.30079   -3.3802117    10890.368 
    3464 1.2267618e-36    2.6138089      56.8597   -235.36802    12.144225    10890.368 
    3465 5.8386368e-35    2.5984331    52.369196   -239.93135    25.353168    10890.368 
    3466 2.7897757e-33    2.5835114    48.323051   -244.04373    36.517193    10890.368 
    3467 1.337827e-31    2.5690315    44.674692   -247.75242    45.877379    10890.368 
    3468 6.4370445e-30    2.5549806    41.382567   -251.09957     53.64852    10890.368 
    3469 3.1068985e-28    2.5413455    38.409583   -254.12282    60.021962    10890.368 
    3470 1.5039494e-26    2.5281128    35.722623   -256.85575    65.168142    10890.368 
    3471 7.300098e-25    2.5152691    33.292106   -259.32839    69.238836    10890.368 
    3472 3.5526144e-23    2.5028012    31.091604   -261.56756    72.369174    10890.368 
    3473 1.7331481e-21    2.4906959    29.097495   -263.59722    74.679423    10890.368 
    3474 8.4750942e-20      2.47894    27.288662   -265.43879    76.276582    10890.368 
    3475 4.1537029e-18    2.4675209    25.646218   -267.11146    77.255805    10890.368 
    3476 2.0402158e-16    2.4564259     24.15327   -268.63236    77.701666    10890.368 
    3477 1.0042468e-14    2.4456429    22.794698   -270.01684    77.689293    10890.368 
    3478 4.9534504e-13      2.43516    21.556973   -271.27862    77.285374    10890.368 
    3479 2.4482864e-11    2.4249656    20.427979   -272.43002    76.549061    10890.368 
    3480 1.2125283e-09    2.4150486    19.396863   -273.48203    75.532775    10890.368 
    3481 6.0171181e-08     2.405398    18.453907   -274.44454    74.282921    10890.368 
    3482 2.991899e-06    2.3960035    17.590398   -275.32638     72.84054    10890.368 
    3483 0.00014906224    2.3868547    16.798521   -276.13543    71.242124    10890.368 
    3484  0.007444548    2.3779381    16.070951   -276.87594    69.532129    10890.368 
    3485   0.38154097    2.3690313    15.385271   -277.40785    68.375526    10890.368 
    3486      52.5709    2.3487432    13.944464   -255.23643    162.81662    10890.368 
    3487 6.5115886e-05    1.5695865    87.592071   -204.11305    -912.7205    10890.368 
    3488 1.7988315e-05    1.5799728    78.896938   -212.96228   -845.77342    10890.368 
    3489 0.00083290541    1.5898928    71.093766   -220.90607   -784.15579    10890.368 
    3490  0.038799857    1.5993574    64.089486   -228.02233   -727.29029    10890.368 
    3491    1.8393822    1.6084993     57.71951   -233.69654   -670.75639    10890.368 
    3492    149.25266     1.623428    48.131287   -176.67983   -307.58084    10890.368 
    3493 0.0056873819     1.887578    27.901215   -265.69743     82.46335    10890.368 
    3494 0.00066390745     1.881469    25.176217   -268.46013     96.16371    10890.368 
    3495  0.031809989    1.8755476    22.742795   -270.91151    108.37584    10890.368 
    3496    1.5739668    1.8696248    20.502019   -272.48354    122.40689    10890.368 
    3497    245.45208    1.8540543    15.326279    -167.2323    611.59049    10890.368 
    3498 5.4626632e-11    1.4623918    181.55505   -109.85881   -760.74371    10890.368 
    3499 1.9723863e-11    1.4703875    162.65542   -129.03737    -668.9082    10890.368 
    3500 8.5261581e-10    1.4780284    145.73557   -146.20839   -586.86808    10890.368 
    3501 3.7330864e-08    1.4853144    130.58966   -161.58056   -513.58725    10890.368 
    3502 1.6533087e-06    1.4922484     117.0331   -175.34105   -448.13805    10890.368 
    3503 7.3975798e-05    1.4988354    104.90035   -187.65767   -389.68987    10890.368 
    3504 0.0033405145    1.5050821    94.042806   -198.67966   -337.49262    10890.368 
    3505   0.15219051     1.511001    84.320262   -208.48465   -290.57623    10890.368 
    3506    7.2233421     1.516817    75.290148    -214.4515   -233.91642    10890.368 
    3507    962.12203    1.5329099    53.065938    195.62009    1687.5893    10890.368 
    3508    79.555616     1.569602    17.377396   -240.55366    172.78866    10890.368 
    3509    633.72568    1.5978882    4.0882739   -3.0480596    1280.4082    10890.368 
    3510    141.96672    1.6394189    9.3772088   -220.69076    297.84146    10890.368 
    3511    470.18707    1.6675655    33.880551   -47.315447    783.76914    10890.368 
    3512      162.922    1.7043256    108.05763   -111.66889   -194.25775    10890.368 
    3513    251.20621    1.7157696    167.03546   -12.098114   -330.41383    10890.368 
    3514    31.532336    1.7033101    405.97731      129.853   -1964.5564    10890.368 
    3515     77.87247    1.6941476    385.58425    130.23024   -1773.6873    10890.368 
    3516    349.08714    1.6304457     181.8015    47.098465    -228.4814    10890.368 
    3517    154.86635    1.5960239    112.53093   -110.91718   -247.66886    10890.368 
    3518    543.56793     1.541267    42.037448   -6.0301128    850.44141    10890.368 
    3519    123.64709    1.5002787    13.191985   -225.40041    199.57295    10890.368 
    3520     708.6378    1.4484831    2.2948264    28.725673    1366.7403    10890.368 
    3521    63.740839    1.4121836    9.8910715   -255.70282    98.192093    10890.368 
    3522    981.38112    1.3673024    33.782059     184.3386    1712.4423    10890.368 
    3523    12.961109    1.3384286    54.827107   -233.08136   -247.55505    10890.368 
    3524    92.510842    1.3161191    68.827152   -182.84867   -182.98507    10890.368 
    3525 1.3813278e-11   0.97094085    592.03115    307.36162   -3721.6428    10890.368 
    3526 1.179969e-11   0.96854848    532.08474    246.41736   -3381.8098    10890.368 
    3527 3.9094534e-10   0.96788759    478.23897    191.67239   -3074.9671    10890.368 
    3528 1.3480281e-08   0.96868021    429.87119    142.49399   -2797.8257    10890.368 
    3529 4.8177959e-07   0.97068494    386.42314    98.314884   -2547.4301    10890.368 
    3530 1.7781812e-05   0.97369266    347.39405    58.626281   -2321.1234    10890.368 
    3531 0.00067554902    0.9775226    312.33455    22.971891   -2116.5153    10890.368 
    3532  0.026340554    0.9820191    280.83982   -9.0484978   -1931.4024    10890.368 
    3533    1.0527435   0.98705901    252.49199   -37.417419   -1761.6657    10890.368 
    3534    45.688684   0.99304765    224.75352    -45.41042    -1511.295    10890.368 
    3535    1710.7797    1.0249707    127.60872    610.16932    2247.7772    10890.368 
    3536  0.082974729     1.033089    111.43007   -181.38853   -902.91571    10890.368 
    3537    2.8360248    1.0394839    100.25107   -191.52366   -825.45665    10890.368 
    3538    203.29521    1.0498157    84.264342   -116.97932   -339.30375    10890.368 
    3539  0.078655007    1.2105802    6.5028455    -288.5262   -58.329566    10890.368 
    3540 0.0015708717    1.2110763    6.1104386    -288.9494   -55.021644    10890.368 
    3541  0.078618213    1.2115623    5.7494339   -289.27128   -51.678823    10890.368 
    3542    6.2490099    1.2123163    5.2487025   -286.96964   -35.407068    10890.368 
    3543    13885.923    1.2324986    5.1639634    6001.9004    26406.994    10890.368 
    3544 1.4779158e-37     1.232846    4.8171738   -289.93541   -1.3440106    10890.368 
    3545 7.1898626e-36    1.2331777    4.5078629   -290.25534   -1.3341853    10890.368 
    3546 3.4986862e-34    1.2334945    4.2320008   -290.54107     -1.41121    10890.368 
    3547 1.7029147e-32    1.2337973    3.9859897   -290.79625   -1.5609542    10890.368 
    3548 8.2904013e-31    1.2340869    3.7666175   -291.02416   -1.7710368    10890.368 
    3549 4.0368767e-29    1.2343641    3.5710168   -291.22771   -2.0306278    10890.368 
    3550 1.9660577e-27    1.2346296    3.3966278   -291.40952   -2.3302706    10890.368 
    3551 9.5768447e-26    1.2348842    3.2411653   -291.57192   -2.6617252    10890.368 
    3552 4.6657293e-24    1.2351284    3.1025896   -291.71697   -3.0178274    10890.368 
    3553 2.273442e-22    1.2353629    2.9790801   -291.84655    -3.392364    10890.368 
    3554 1.1079308e-20    1.2355883    2.8690116    -291.9623   -3.7799626    10890.368 
    3555 5.4001236e-19    1.2358053    2.7709337    -292.0657   -4.1759923    10890.368 
    3556 2.6324231e-17    1.2360142    2.6835519   -292.15809   -4.5764765    10890.368 
    3557 1.2834174e-15    1.2362156    2.6057108   -292.24063   -4.9780147    10890.368 
    3558 6.2580697e-14      1.23641    2.5363793   -292.31439   -5.3777141    10890.368 
    3559 3.0519241e-12    1.2365978    2.4746373    -292.3803   -5.7731275    10890.368 
    3560 1.4885699e-10    1.2367795    2.4196636    -292.4392   -6.1621994    10890.368 
    3561 7.2615426e-09    1.2369555    2.3707256   -292.49185   -6.5432175    10890.368 
    3562 3.5428719e-07    1.2371261    2.3271694   -292.53891   -6.9147695    10890.368 
    3563 1.7288608e-05    1.2372917     2.288411   -292.58098   -7.2756824    10890.368 
    3564 0.00084464251    1.2374528    2.2538956   -292.61826   -7.6238931    10890.368 
    3565  0.043555618    1.2376183    2.2214973   -292.63445   -7.8998971    10890.368 
    3566    13.464066    1.2382648    2.1169026   -286.67028    16.169142    10890.368 
    3567  0.066427815    1.3108976    131.48006   -162.61486   -856.05475    10890.368 
    3568  0.038803824    1.3096914    117.58038   -176.66526     -775.743    10890.368 
    3569    1.7400993    1.3084699    105.08134   -188.51642   -699.53622    10890.368 
    3570    102.35705    1.3068052    90.205163     -157.949   -420.34872    10890.368 
    3571    23.447711    1.2820484    3.7922139   -280.76232     4.309154    10890.368 
    3572    3.3664255    1.2816278    2.9506219   -290.68895   -20.669286    10890.368 
    3573    739.70535    1.2828467    2.3175177    42.356546    1409.2398    10890.368 
    3574    2.1002577    1.3094245    75.291635   -217.20582   -135.48439    10890.368 
    3575    1.3336854    1.3093207    67.999967   -224.97241   -108.28001    10890.368 
    3576    95.765724    1.3089973    57.889768   -192.47799    109.77973    10890.368 
    3577    4.1154972    1.3106602    4.9898854   -288.24393    15.881933    10890.368 
    3578  0.042527292    1.3097532    4.8729778   -290.20786    7.5092891    10890.368 
    3579     7.005194     1.308192    4.4310912   -287.49553    22.681955    10890.368 
    3580    12594.033    1.2631159    9.2733253    5420.5495    23931.195    10890.368 
    3581 1.1898681e-33    1.2643749    8.4916778   -286.39267   -16.649823    10890.368 
    3582 5.7713217e-32    1.2655701    7.7940513   -287.10548   -13.371485    10890.368 
    3583 2.8007879e-30    1.2667043    7.1714441   -287.74195    -10.44244    10890.368 
    3584 1.3598436e-28    1.2677804     6.615816   -288.31026   -7.8243154    10890.368 
    3585 6.6051021e-27    1.2688009    6.1199853   -288.81768   -5.4829391    10890.368 
    3586 3.2094633e-25    1.2697686    5.6775382   -289.27074   -3.3878855    10890.368 
    3587 1.5600201e-23    1.2706858    5.2827463   -289.67525   -1.5120688    10890.368 
    3588 7.5850329e-22     1.271555    4.9304943   -290.03642   0.16861988    10890.368 
    3589 3.6889307e-20    1.2723784    4.6162141   -290.35888    1.6756365    10890.368 
    3590 1.7945152e-18    1.2731583    4.3358266   -290.64677    3.0280726    10890.368 
    3591 8.7314553e-17    1.2738967    4.0856897   -290.90381    4.2429137    10890.368 
    3592 4.2492225e-15    1.2745957    3.8625515    -291.1333    5.3352686    10890.368 
    3593 2.0682702e-13    1.2752572    3.6635084   -291.33818    6.3185753    10890.368 
    3594 1.0068683e-11     1.275883    3.4859683   -291.52111    7.2047832    10890.368 
    3595 4.9022926e-10    1.2764748    3.3276172   -291.68442     8.004517    10890.368 
    3596 2.3871588e-08    1.2770345    3.1863892   -291.83023    8.7272217    10890.368 
    3597 1.1625568e-06    1.2775634    3.0604401   -291.96041    9.3812949    10890.368 
    3598 5.6624318e-05    1.2780633    2.9481215   -292.07661    9.9743113    10890.368 
    3599 0.0027615268    1.2785361    2.8478457   -292.17928    10.518467    10890.368 
    3600   0.14353579    1.2790129    2.7525604   -292.21436    11.308495    10890.368 
    3601    54.372463    1.2810801    2.4082806   -268.00306    116.37755    10890.368 
    3602 1.0539048e-21    1.4389318    488.48809    198.24831   -2427.8013    10890.368 
    3603 4.9441211e-22    1.4358004    434.97189    144.15858   -2159.4785    10890.368 
    3604 1.7018579e-20    1.4321132    387.39626    96.073887   -1920.6637    10890.368 
    3605 6.0864651e-19    1.4279968    345.09568    53.321622   -1708.0961    10890.368 
    3606 2.251986e-17    1.4235585    307.47955    15.304887   -1518.8763    10890.368 
    3607 8.5878305e-16    1.4188887     274.0239   -18.505935   -1350.4265    10890.368 
    3608 3.3640412e-14    1.4140631    244.26385   -48.580724   -1200.4552    10890.368 
    3609 1.3496018e-12     1.409145    217.78701   -75.336364   -1066.9256    10890.368 
    3610 5.5305472e-11    1.4041869    194.22747   -99.142737   -948.02672    10890.368 
    3611 2.3095589e-09    1.3992318    173.26058   -120.32806   -842.14902    10890.368 
    3612 9.8080579e-08     1.394315    154.59823    -139.1836   -747.86134    10890.368 
    3613 4.2279116e-06     1.389465    137.98468   -155.96791   -663.89116    10890.368 
    3614 0.00018469008    1.3847045    123.19292   -170.91043    -589.1065    10890.368 
    3615 0.0081641755    1.3800513    110.02099   -184.21191   -522.48441    10890.368 
    3616   0.36519488    1.3755121    98.272482    -195.9163   -462.39274    10890.368 
    3617    17.594872    1.3707546    87.013729    -199.4801   -372.69422    10890.368 
    3618    2563.1402    1.3487421    46.446313    912.91013    4673.3461    10890.368 
    3619 0.00032966688    1.3451256     41.35645   -253.54077   -175.66435    10890.368 
    3620  0.014548373    1.3418788    37.109558   -257.81849   -154.13995    10890.368 
    3621   0.69451582    1.3387779    33.291573   -261.36113   -133.33605    10890.368 
    3622    48.454485    1.3345085    28.396682   -244.65743   -17.511293    10890.368 
    3623    89.611452    1.2635799    9.1390555   -245.15566    158.14809    10890.368 
    3624    26.772412    1.2546823      15.6116   -267.02585    4.1769721    10890.368 
    3625    3258.4781    1.2221826    58.274625     1240.588    5918.7847    10890.368 
    3626 3.4722202e-06    1.2253459    52.287244   -241.85897    -248.6011    10890.368 
    3627 0.00016393549    1.2284074    46.903677   -247.33161   -221.93321    10890.368 
    3628 0.0077224494    1.2313468    42.094189   -252.21819   -198.08583    10890.368 
    3629   0.36645992     1.234177    37.781335   -256.44153   -176.01945    10890.368 
    3630     20.97437    1.2374662    33.139232   -251.82622   -113.80367    10890.368 
    3631    4244.0669     1.271818    4.5508516    1632.4343    8056.7452    10890.368 
    3632 2.1162312e-10    1.2727586    4.2780957   -290.76087    -12.82523    10890.368 
    3633 1.0286111e-08    1.2736499    4.0350186   -291.01061   -11.122838    10890.368 
    3634 5.0067438e-07    1.2744951    3.8181343   -291.23361     -9.55889    10890.368 
    3635 2.4374558e-05    1.2752965    3.6246274   -291.43273    -8.119506    10890.368 
    3636 0.0011871762    1.2760563    3.4519339   -291.61006   -6.7898161    10890.368 
    3637   0.05877245    1.2767886    3.2953206   -291.74542   -5.4337312    10890.368 
    3638    6.0200255    1.2781222    3.0343178   -289.31394    8.0739874    10890.368 
    3639    14004.523    1.3277578    14.109043    6064.2077    26604.848    10890.368 
    3640 1.624592e-37     1.325674    12.810686   -282.31199   -22.674074    10890.368 
    3641 7.8443052e-36    1.3236982    11.652482   -283.47729   -16.920835    10890.368 
    3642 3.7911831e-34    1.3218246    10.619239   -284.51651   -11.818882    10890.368 
    3643 1.8338417e-32    1.3200474    9.6974197   -285.44331   -7.2977581    10890.368 
    3644 8.877223e-31    1.3183613    8.8749602    -286.2699   -3.2945813    10890.368 
    3645 4.3001758e-29    1.3167613     8.141108   -287.00713   0.24677451    10890.368 
    3646 2.0842911e-27    1.3152427    7.4862794    -287.6647    3.3764093    10890.368 
    3647 1.0108024e-25    1.3138011    6.9019315   -288.25123    6.1390466    10890.368 
    3648 4.9043958e-24    1.3124322    6.3804487    -288.7744     8.574613    10890.368 
    3649 2.3806434e-22    1.3111321    5.9150416   -289.24109    10.718754    10890.368 
    3650 1.1560414e-20    1.3098971    5.4996567   -289.65741    12.603294    10890.368 
    3651 5.6157194e-19    1.3087236    5.1288966   -290.02879    14.256648    10890.368 
    3652 2.7288206e-17    1.3076084    4.7979484   -290.36011    15.704187    10890.368 
    3653 1.3263816e-15    1.3065482    4.5025201   -290.65568    16.968563    10890.368 
    3654 6.4487232e-14    1.3055402    4.2387842   -290.91939    18.070002    10890.368 
    3655 3.1360279e-12    1.3045815     4.003327   -291.15466    19.026562    10890.368 
    3656 1.5253779e-10    1.3036696    3.7931038   -291.36457    19.854369    10890.368 
    3657 7.4209216e-09    1.3028019    3.6053991   -291.55187    20.567817    10890.368 
    3658 3.6108848e-07    1.3019761    3.4377903   -291.71898    21.179759    10890.368 
    3659 1.7572779e-05      1.30119    3.2881159   -291.86809    21.701703    10890.368 
    3660 0.00085556824    1.3004413    3.1544099   -292.00081    22.145545    10890.368 
    3661   0.04231467    1.2997166    3.0330912   -292.10269    22.601866    10890.368 
    3662    4.2371302    1.2984153    2.8337618   -290.40005    31.149814    10890.368 
    3663    20876.031    1.2530175    9.9017628    9173.5591    39672.591    10890.368 
    3664 2.9863282e-57    1.2544888    9.0516086   -285.88681    -25.46232    10890.368 
    3665 1.4476728e-55    1.2558886    8.2929287   -286.66219   -21.616561    10890.368 
    3666 7.021858e-54      1.25722    7.6159143   -287.35445    -18.16384    10890.368 
    3667 3.4076538e-52    1.2584861    7.0118049   -287.97249    -15.06176    10890.368 
    3668 1.6544615e-50    1.2596898    6.4727765   -288.52426   -12.272529    10890.368 
    3669 8.0358951e-49    1.2608338    5.9918419   -289.01685   -9.7624697    10890.368 
    3670 3.9045338e-47     1.261921    5.5627616   -289.45661   -7.5015668    10890.368 
    3671 1.8977742e-45     1.262954    5.1799641    -289.8492   -5.4630753    10890.368 
    3672 9.2266754e-44    1.2639352    4.8384746   -290.19966   -3.6231644    10890.368 
    3673 4.4870193e-42    1.2648671    4.5338515   -290.51252   -1.9606013    10890.368 
    3674 2.182583e-40    1.2657521    4.2621292   -290.79181  -0.45646952    10890.368 
    3675 1.0618745e-38    1.2665924    4.0197672   -291.04113   0.90608346    10890.368 
    3676 5.1672082e-37      1.26739    3.8036049    -291.2637    2.1420705    10890.368 
    3677 2.5148426e-35    1.2681471    3.6108211   -291.46238    3.2648652    10890.368 
    3678 1.2241383e-33    1.2688656    3.4388972   -291.63973    4.2863809    10890.368 
    3679 5.9594841e-32    1.2695474    3.2855852   -291.79805    5.2172296    10890.368 
    3680 2.9016148e-30    1.2701942    3.1488785   -291.93938    6.0668648    10890.368 
    3681 1.4129243e-28    1.2708078    3.0269864   -292.06554    6.8437074    10890.368 
    3682 6.8808468e-27    1.2713897    2.9183105   -292.17815    7.5552595    10890.368 
    3683 3.3512368e-25    1.2719416    2.8214243   -292.27869    8.2082046    10890.368 
    3684 1.6323207e-23     1.272465    2.7350548   -292.36843    8.8084974    10890.368 
    3685 7.9513426e-22    1.2729611    2.6580661   -292.44855     9.361444    10890.368 
    3686 3.8735387e-20    1.2734314    2.5894444   -292.52007     9.871773    10890.368 
    3687 1.8871487e-18    1.2738771    2.5282853   -292.58391    10.343699    10890.368 
    3688 9.1946209e-17    1.2742995    2.4737815   -292.64091     10.78098    10890.368 
    3689 4.4801251e-15    1.2746996     2.425213    -292.6918    11.186966    10890.368 
    3690 2.1831046e-13    1.2750787    2.3819373   -292.73723    11.564645    10890.368 
    3691 1.0638658e-11    1.2754378    2.3433812   -292.77779    11.916683    10890.368 
    3692 5.1847428e-10    1.2757778    2.3090332     -292.814     12.24546    10890.368 
    3693 2.5269476e-08    1.2760997    2.2784372   -292.84634      12.5531    10890.368 
    3694 1.2316735e-06    1.2764044    2.2511861   -292.87521    12.841504    10890.368 
    3695 6.0044165e-05    1.2766928    2.2269145   -292.90097    13.112504    10890.368 
    3696 0.0029439973    1.2769673    2.2051767   -292.92282    13.374328    10890.368 
    3697   0.19235186    1.2773111    2.1798112   -292.86412    14.052192    10890.368 
    3698    841.02622    1.2826918    2.0476393    87.947396    1616.8334    10890.368 
    3699 2.5673228e-06    1.4281174    199.02682   -94.318902   -894.16883    10890.368 
    3700 1.6157007e-06    1.4215887    177.46415   -116.11131   -788.28211    10890.368 
    3701 6.8322394e-05    1.4151557    158.28094    -135.4977   -694.23624    10890.368 
    3702 0.0029340528    1.4088473    141.21178   -152.74521   -610.71159    10890.368 
    3703   0.12778583    1.4026834    126.01511    -168.0441   -536.28387    10890.368 
    3704    5.7315911    1.3965554    112.21079   -179.45253   -458.40849    10890.368 
    3705    480.95552    1.3844211    88.189816    11.596915     561.8397    10890.368 
    3706    5.7833679    1.2935091    3.4071404   -289.19453    54.923008    10890.368 
    3707   0.20536848    1.2915423    3.0644094   -292.06287    44.186327    10890.368 
    3708    13.100419    1.2890412    2.7237898   -286.55888     66.99042    10890.368 
    3709     588.9639    1.1925662    44.452916    16.935076    794.30781    10890.368 
    3710    6.6936202     1.177316    61.734337   -229.31183   -431.16529    10890.368 
    3711    30.874476    1.1673255    72.314086   -207.60341   -466.36358    10890.368 
    3712 3.1562035e-06   0.99711406    431.54027    147.49258   -3663.6295    10890.368 
    3713 3.0928402e-06   0.99731081    389.46177    104.43963    -3376.502    10890.368 
    3714 0.00011528621     1.000645     351.5168    65.606459   -3114.2568    10890.368 
    3715 0.0044162406     1.006303    317.30049    30.581856   -2873.3839    10890.368 
    3716   0.17342514    1.0132231    286.43746  -0.94467929   -2652.3787    10890.368 
    3717    7.0279118    1.0212689    258.23298   -26.728585   -2434.6189    10890.368 
    3718    396.28768    1.0359674    218.28575    108.70744   -1398.5354    10890.368 
    3719    17.878061    1.1598809    62.372326   -222.70971   -839.47357    10890.368 
    3720    14.974916    1.1761545    52.766223   -233.92444   -748.32342    10890.368 
    3721    2074.6541    1.2320317    28.375092    674.09673     3443.954    10890.368 
    3722 0.0071640195    1.2429629    24.961369   -269.42739   -456.56136    10890.368 
    3723    0.2296159    1.2504047    22.858686   -271.50774   -426.83764    10890.368 
    3724    14.200399    1.2594882    20.467104   -267.65953   -365.68161    10890.368 
    3725    6232.9287    1.3823589    3.4007819     2532.193     11824.25    10890.368 
    3726 2.1857454e-16    1.3841078    3.3088588   -291.93683   -24.964557    10890.368 
    3727 1.108173e-14    1.3857632     3.223531   -292.02481   -20.538141    10890.368 
    3728 5.6216599e-13    1.3873286    3.1443057   -292.10635   -16.333212    10890.368 
    3729 2.8530131e-11    1.3888074    3.0707284   -292.18194   -12.338692    10890.368 
    3730 1.4481739e-09    1.3902029    3.0023796   -292.25203   -8.5440971    10890.368 
    3731 7.349862e-08    1.3915181     2.938872   -292.31704      -4.9395    10890.368 
    3732 3.7285653e-06    1.3927563    2.8798476   -292.37733   -1.5154824    10890.368 
    3733  0.000189056    1.3939204    2.8249681    -292.4332    1.7376976    10890.368 
    3734 0.0096593305    1.3950226    2.7735121   -292.48127    4.8715309    10890.368 
    3735   0.73648945    1.3965389    2.7041775   -292.22231    10.579644    10890.368 
    3736    5612.4302     1.428964    2.0669421    2249.7633    10769.026    10890.368 
    3737 7.1609767e-15     1.427758    2.0643045   -293.13862    93.796662    10890.368 
    3738 5.1077147e-13    1.4265775    2.0619228   -293.14287    92.418877    10890.368 
    3739 3.602232e-11    1.4254217    2.0597736   -293.14683    91.089308    10890.368 
    3740 2.4316516e-09    1.4242897    2.0578353   -293.15054    89.806113    10890.368 
    3741 1.5241414e-07    1.4231807     2.056088   -293.15401    88.567518    10890.368 
    3742 8.7391212e-06    1.4220937    2.0545138   -293.15727    87.371694    10890.368 
    3743 0.00046792452     1.421021    2.0530871   -293.16015    86.210133    10890.368 
    3744  0.033935198    1.4195749    2.0513381   -293.14896    84.726687    10890.368 
    3745    212.60223    1.3933246    2.0460573   -196.88171    460.72255    10890.368 
    3746 1.8296763e-195    2.8978118    1747.3703    1634.2726   -18206.928    10890.368 
    3747 1.6050689e-196    2.6986448    1601.5082    1477.8931   -17082.368    10890.368 
    3748 2.8616871e-195    2.5171877    1467.9761    1334.5295   -16041.394    10890.368 
    3749 5.5606063e-194    2.3520349    1345.8116    1203.2079   -15077.996    10890.368 
    3750 1.1698409e-192    2.2018744     1234.103    1082.9926   -14186.421    10890.368 
    3751 2.6479498e-191    2.0654848    1131.9933    972.99467   -13361.215    10890.368 
    3752 6.4106492e-190    1.9417314    1038.6824    872.37781   -12597.251    10890.368 
    3753 1.6508218e-188    1.8295616    953.42652    780.36027   -11889.716    10890.368 
    3754 4.4985088e-187    1.7279916    875.53748    696.21549   -11234.008    10890.368 
    3755 1.2910309e-185    1.6361165    804.38043    619.27118   -10626.173    10890.368 
    3756 3.8850241e-184    1.5531077    739.37134    548.90739   -10062.394    10890.368 
    3757 1.2209051e-182    1.4782012      679.974    484.55397   -9539.1462    10890.368 
    3758 3.9919709e-181     1.410693    625.69699    425.68772   -9053.1892    10890.368 
    3759 1.3534162e-179    1.3499354    576.09055    371.82933   -8601.5418    10890.368 
    3760 4.7430857e-178    1.2953328    530.74354     322.5403   -8181.4664    10890.368 
    3761 1.713325e-176    1.2463382    489.28044    277.41991   -7790.4507    10890.368 
    3762 6.3626645e-175    1.2024493    451.35855    236.10225   -7426.1905    10890.368 
    3763 2.4234225e-173    1.1632055    416.66528    198.25348   -7086.5733    10890.368 
    3764 9.4465125e-172    1.1281845    384.91569     163.5691   -6769.6627    10890.368 
    3765 3.7610416e-170    1.0971114    355.85011    131.77168    -6472.989    10890.368 
    3766 1.5267224e-168    1.0698141     329.2322    102.60871   -6195.5161    10890.368 
    3767 6.3084399e-167    1.0459396    304.84652    75.849704   -5935.8872    10890.368 
    3768 2.6494092e-165    1.0251616    282.49685    51.284681    -5692.735    10890.368 
    3769 1.1294161e-163     1.007182    262.00452    28.722371   -5464.8058    10890.368 
    3770 4.8809296e-162   0.99172882    243.20689     7.988583   -5250.9504    10890.368 
    3771 2.1360371e-160   0.97855371    225.95589   -11.075323   -5050.1148    10890.368 
    3772 9.4565082e-159   0.96743027    210.11674   -28.613822    -4861.332    10890.368 
    3773 4.2312313e-157   0.95815208    195.56672   -44.758497   -4683.7147    10890.368 
    3774 1.9118389e-155   0.95053105    182.19413   -59.629197   -4516.4483    10890.368 
    3775 8.7167021e-154    0.9443959    169.89727   -73.335092   -4358.7845    10890.368 
    3776 4.0074443e-152   0.93959068     158.5835    -85.97564    -4210.036    10890.368 
    3777 1.8566181e-150   0.93597353     148.1685   -97.641461   -4069.5708    10890.368 
    3778 8.6629909e-149   0.93341543    138.57545   -108.41514   -3936.8078    10890.368 
    3779 4.0688941e-147   0.93179912    129.73436   -118.37194   -3811.2122    10890.368 
    3780 1.9229192e-145    0.9308693    121.58148   -127.58064   -3691.4898    10890.368 
    3781 9.1399216e-144   0.93011543    114.05825   -136.10462     -3577.65    10890.368 
    3782 4.367457e-142   0.92949212    107.11161   -144.00101   -3469.6422    10890.368 
    3783 2.0972724e-140   0.92898738    100.69336    -151.3217   -3367.0809    10890.368 
    3784 1.0117667e-138   0.92859017    94.759546   -158.11405     -3269.61    10890.368 
    3785 4.9020442e-137   0.92829034    89.270067    -164.4213   -3176.9008    10890.368 
    3786 2.384673e-135   0.92807858    84.188321   -170.28294   -3088.6494    10890.368 
    3787 1.1644724e-133    0.9279463    79.480895   -175.73503    -3004.575    10890.368 
    3788 5.7066569e-132   0.92788561    75.117277   -180.81055   -2924.4173    10890.368 
    3789 2.8060705e-130   0.92788926    71.069591   -185.53961   -2847.9357    10890.368 
    3790 1.3842022e-128   0.92795057    67.312365   -189.94976   -2774.9068    10890.368 
    3791 6.8487545e-127   0.92806341    63.822311   -194.06621   -2705.1238    10890.368 
    3792 3.3983499e-125   0.92822216    60.578134   -197.91202   -2638.3945    10890.368 
    3793 1.6908621e-123   0.92842162     57.56035   -201.50829   -2574.5404    10890.368 
    3794 8.4348296e-122   0.92865704    54.751129   -204.87437   -2513.3959    10890.368 
    3795 4.2181457e-120   0.92892406    52.134145   -208.02797   -2454.8066    10890.368 
    3796 2.11445e-118   0.92921865    49.694442   -210.98532   -2398.6289    10890.368 
    3797 1.0623341e-116   0.92953716    47.418318   -213.76131   -2344.7292    10890.368 
    3798 5.3490095e-115   0.92987618     45.29321    -216.3696   -2292.9828    10890.368 
    3799 2.6989702e-113   0.93023264    43.307597   -218.82272   -2243.2733    10890.368 
    3800 1.3645891e-111    0.9306037    41.450907   -221.13217   -2195.4921    10890.368 
    3801 6.9128002e-110   0.93098675    39.713435   -223.30852   -2149.5378    10890.368 
    3802 3.5085347e-108   0.93137943    38.086269   -225.36149   -2105.3155    10890.368 
    3803 1.7839827e-106   0.93177956    36.561222   -227.30001   -2062.7364    10890.368 
    3804 9.0870677e-105   0.93218515    35.130765   -229.13229   -2021.7173    10890.368 
    3805 4.6366246e-103    0.9325944    33.787977   -230.86589   -1982.1804    10890.368 
    3806 2.3697543e-101   0.93300565    32.526489   -232.50778   -1944.0525    10890.368 
    3807 1.2131299e-99    0.9334174    31.340438   -234.06435   -1907.2649    10890.368 
    3808 6.2200578e-98   0.93382828    30.224425   -235.54153   -1871.7534    10890.368 
    3809 3.1940823e-96   0.93423705    29.173475   -236.94475   -1837.4572    10890.368 
    3810 1.6426485e-94   0.93464259    28.183002   -238.27904   -1804.3195    10890.368 
    3811 8.4600528e-93   0.93504386    27.248776   -239.54905   -1772.2865    10890.368 
    3812 4.3633002e-91   0.93543996    26.366895   -240.75906   -1741.3054    10890.368 
    3813 2.2534863e-89   0.93583006    25.533756   -241.91301   -1711.3273    10890.368 
    3814 1.1654061e-87   0.93621346    24.746031   -243.01458   -1682.3111    10890.368 
    3815 6.0348628e-86   0.93658946    24.000644   -244.06714   -1654.2143    10890.368 
    3816 3.1290373e-84   0.93695747    23.294754   -245.07382   -1626.9967    10890.368 
    3817 1.6244009e-82   0.93731697    22.625731   -246.03753   -1600.6206    10890.368 
    3818 8.4430811e-81   0.93766746     21.99114   -246.96094     -1575.05    10890.368 
    3819 4.3935989e-79   0.93800855    21.388728   -247.84656    -1550.251    10890.368 
    3820  2.28896e-77   0.93833985    20.816409   -248.69667   -1526.1915    10890.368 
    3821 1.1938265e-75   0.93866105    20.272247   -249.51343    -1502.841    10890.368 
    3822 6.2332788e-74   0.93897188     19.75445   -250.29881   -1480.1707    10890.368 
    3823 3.2580025e-72   0.93927209    19.261352   -251.05468   -1458.1531    10890.368 
    3824 1.7046423e-70   0.93956149    18.791411   -251.78273   -1436.7622    10890.368 
    3825 8.9279083e-69   0.93983991     18.34319   -252.48458   -1415.9733    10890.368 
    3826 4.6804601e-67   0.94010722    17.915358   -253.16169   -1395.7628    10890.368 
    3827 2.4560529e-65    0.9403633    17.506677   -253.81545   -1376.1084    10890.368 
    3828 1.2899871e-63   0.94060808    17.115994   -254.44715   -1356.9889    10890.368 
    3829 6.7814063e-62    0.9408415    16.742238   -255.05798   -1338.3839    10890.368 
    3830 3.5680378e-60   0.94106353     16.38441   -255.64907   -1320.2742    10890.368 
    3831 1.8788975e-58   0.94127413    16.041582   -256.22146   -1302.6413    10890.368 
    3832 9.9021513e-57   0.94147333    15.712888   -256.77611   -1285.4678    10890.368 
    3833 5.2227343e-55   0.94166113    15.397521   -257.31395   -1268.7368    10890.368 
    3834 2.7567507e-53   0.94183757    15.094727   -257.83581   -1252.4324    10890.368 
    3835 1.456189e-51    0.9420027    14.803804    -258.3425   -1236.5393    10890.368 
    3836 7.6974767e-50   0.94215657    14.524096   -258.83475    -1221.043    10890.368 
    3837 4.0717337e-48   0.94229925     14.25499   -259.31327   -1205.9295    10890.368 
    3838 2.1552658e-46   0.94243082    13.995913    -259.7787   -1191.1854    10890.368 
    3839 1.1415718e-44   0.94255138     13.74633   -260.23166    -1176.798    10890.368 
    3840 6.0503035e-43   0.94266102    13.505739   -260.67272   -1162.7551    10890.368 
    3841 3.2085847e-41   0.94275983    13.273671   -261.10242    -1149.045    10890.368 
    3842 1.7025638e-39   0.94284794    13.049687   -261.52127   -1135.6564    10890.368 
    3843 9.039371e-38   0.94292546    12.833376   -261.92973   -1122.5787    10890.368 
    3844 4.8018606e-36   0.94299251    12.624351   -262.32827   -1109.8016    10890.368 
    3845 2.552168e-34   0.94304922    12.422251   -262.71729   -1097.3151    10890.368 
    3846 1.3571551e-32   0.94309571    12.226736    -263.0972   -1085.1098    10890.368 
    3847 7.2204213e-31   0.94313212    12.037486   -263.46836   -1073.1766    10890.368 
    3848 3.8432713e-29   0.94315858    11.854203   -263.83113   -1061.5068    10890.368 
    3849 2.0466228e-27   0.94317524    11.676605   -264.18585    -1050.092    10890.368 
    3850 1.0903501e-25   0.94318223    11.504426   -264.53282   -1038.9242    10890.368 
    3851 5.811373e-24    0.9431797    11.337418   -264.87234   -1027.9955    10890.368 
    3852 3.0986303e-22   0.94316778    11.175346   -265.20469   -1017.2986    10890.368 
    3853 1.6528475e-20   0.94314662    11.017989   -265.53014   -1006.8263    10890.368 
    3854 8.8198616e-19   0.94311637    10.865139   -265.84893   -996.57169    10890.368 
    3855 4.7081574e-17   0.94307717    10.716598   -266.16131    -986.5282    10890.368 
    3856 2.514171e-15   0.94302917    10.572183   -266.46749   -976.68942    10890.368 
    3857 1.3430369e-13   0.94297251    10.431718    -266.7677   -967.04921    10890.368 
    3858 7.1767065e-12   0.94290734    10.295038   -267.06214   -957.60168    10890.368 
    3859 3.8362033e-10   0.94283381    10.161986   -267.35099   -948.34111    10890.368 
    3860 2.051221e-08   0.94275205    10.032416   -267.63444   -939.26203    10890.368 
    3861 1.0971177e-06   0.94266221    9.9061863   -267.91267   -930.35915    10890.368 
    3862 5.8698029e-05   0.94256443     9.783165   -268.18582   -921.62717    10890.368 
    3863 0.0031429454   0.94245881    9.6631652   -268.45283   -913.05113    10890.368 
    3864   0.17304865   0.94234243     9.542809     -268.647   -904.07878    10890.368 
    3865     28.97894   0.94203585    9.2482327   -256.26567   -827.79823    10890.368 
    3866   0.01647039    1.0662163    7.0871995   -284.04589    57.725563    10890.368 
    3867 0.00017966328    1.0625645    6.8680926   -284.31169    51.025445    10890.368 
    3868 0.0092560024    1.0590332    6.6617345    -284.5518    44.544579    10890.368 
    3869   0.52139835    1.0553155    6.4498061   -284.57162    38.613488    10890.368 
    3870    322.52917    1.0345401    5.3747006    -139.9678    610.55715    10890.368 
    3871 2.9823626e-33    1.8129507    296.41601    21.306169   -4490.7312    10890.368 
    3872 5.2985453e-34     1.751553    274.43059   -2.1825783   -4238.8259    10890.368 
    3873 2.2810532e-32    1.6940277     254.1765   -23.830649   -4003.0904    10890.368 
    3874 9.9432387e-31     1.640116    235.51168   -43.787964   -3782.3731    10890.368 
    3875 4.3843465e-29    1.5895771    218.30612   -62.191819   -3575.6107    10890.368 
    3876 1.9537684e-27     1.542187     202.4409   -79.167968   -3381.8209    10890.368 
    3877 8.7916799e-26    1.4977372    187.80713   -94.831611    -3200.096    10890.368 
    3878 3.9918171e-24    1.4560334    174.30514   -109.28831   -3029.5975    10890.368 
    3879 1.8275371e-22    1.4168949    161.84365   -122.63482   -2869.5497    10890.368 
    3880 8.4310283e-21    1.3801534    150.33904   -134.95985   -2719.2356    10890.368 
    3881 3.9170454e-19    1.3456521    139.71467   -146.34475   -2577.9916    10890.368 
    3882 1.8317509e-17    1.3132449    129.90031   -156.86413   -2445.2036    10890.368 
    3883 8.6176588e-16    1.2827957    120.83154   -166.58649   -2320.3029    10890.368 
    3884 4.0769013e-14    1.2541776    112.44928   -175.57469   -2202.7628    10890.368 
    3885 1.9386896e-12    1.2272724    104.69932   -183.88644   -2092.0951    10890.368 
    3886 9.263125e-11      1.20197    97.531889   -191.57475   -1987.8473    10890.368 
    3887 4.4455504e-09    1.1781674    90.901291   -198.68834   -1889.5996    10890.368 
    3888 2.1422609e-07     1.155769    84.765554   -205.27198   -1796.9625    10890.368 
    3889 1.0362619e-05    1.1346852    79.086113   -211.36681   -1709.5742    10890.368 
    3890 0.00050303789    1.1148326      73.8275    -217.0105   -1627.0977    10890.368 
    3891  0.024504406    1.0961293    68.956084   -222.22853   -1549.1601    10890.368 
    3892    1.2101529      1.07834    64.391058   -226.59181    -1471.953    10890.368 
    3893      97.1135    1.0528575    57.650453   -190.37491   -1173.8551    10890.368 
    3894   0.12196203    1.1413776    8.1668552   -286.89234    304.57518    10890.368 
    3895 0.0020712044    1.1421239    7.8673569   -287.27761    295.17285    10890.368 
    3896   0.10814162     1.142834    7.5805219   -287.54674    286.17216    10890.368 
    3897    11.041202    1.1442006    7.0938581   -283.13167    290.44995    10890.368 
    3898    3790.0371    1.2045626    9.5190641    1431.4035    6788.8223    10890.368 
    3899 4.4771447e-09    1.2077407    8.9412501   -286.40507   -398.97682    10890.368 
    3900 2.2397231e-07      1.21084    8.4094334   -286.96317   -379.75429    10890.368 
    3901 1.1187467e-05    1.2138627    7.9208157   -287.47563    -361.4486    10890.368 
    3902 0.00055908532    1.2168081    7.4717918   -287.94602   -344.00879    10890.368 
    3903  0.028031272    1.2196841    7.0578985    -288.3671    -327.2901    10890.368 
    3904    1.6330906    1.2229399    6.6170799   -288.10125   -305.77706    10890.368 
    3905    1969.5334    1.2537297    3.6593502    600.44638    3593.9301    10890.368 
    3906  0.029098589    1.2656211    3.0059208   -292.57057    -98.11087    10890.368 
    3907  0.068079149    1.2672035     2.936252   -292.62395   -91.184885    10890.368 
    3908     14.83595    1.2718113    2.7531617   -286.11875   -43.450525    10890.368 
    3909   0.60465216    1.7115517    65.977466   -223.16569    986.61052    10890.368 
    3910   0.16702826    1.6911061     61.00401   -228.78033    966.33071    10890.368 
    3911    8.8662893    1.6698822    55.976595   -230.31589     960.5944    10890.368 
    3912    2264.6378    1.5757935    35.742969    769.66833    5131.2588    10890.368 
    3913 0.0028360522    1.5583435    32.414713   -260.03454    796.82012    10890.368 
    3914   0.10777259    1.5453067    30.021532   -262.60176    775.04585    10890.368 
    3915    5.8643589     1.531609    27.595904   -262.64493    761.87282    10890.368 
    3916    2608.8443    1.4527357      15.5032    903.47508    5554.3307    10890.368 
    3917 0.00016264729    1.4431926    14.276305   -279.89538    570.48843    10890.368 
    3918 0.0067992065    1.4354777    13.323926   -280.93871    551.88467    10890.368 
    3919   0.34530167    1.4279837    12.432346   -281.76547    534.04722    10890.368 
    3920    35.111278    1.4145658    10.918997   -267.67888     566.1444    10890.368 
    3921    4.7708429    1.0796731    26.997786   -265.14871   -961.54065    10890.368 
    3922   0.49106601    1.0825806    25.522911   -268.64798   -937.96211    10890.368 
    3923    57.476131    1.0899166    22.401078   -246.13425   -758.31709    10890.368 
    3924   0.30901888    1.4204197    21.927918   -271.61537    566.29446    10890.368 
    3925  0.029470702    1.4133896    20.276718   -273.52621    549.96711    10890.368 
    3926    1.5445665    1.4062412    18.673484   -274.57364    536.14334    10890.368 
    3927    313.66376    1.3846112    14.239156   -137.96244    1075.7176    10890.368 
    3928 9.9710189e-12     1.136793    134.53607   -154.96823   -2216.5879    10890.368 
    3929 2.2368335e-12    1.1278665    123.26676   -166.78906   -2088.6819    10890.368 
    3930 1.0329132e-10    1.1204125     112.9656     -177.595   -1969.2416    10890.368 
    3931 4.8019618e-09    1.1142782    103.54866    -187.4738   -1857.6387    10890.368 
    3932 2.246194e-07    1.1093245     94.93934   -196.50559   -1753.2953    10890.368 
    3933 1.056624e-05    1.1054253     87.06774    -204.7635   -1655.6796    10890.368 
    3934 0.00049960913    1.1024659     79.87006   -212.31409   -1564.3009    10890.368 
    3935  0.023738285    1.1003422    73.287037   -219.20933   -1478.6522    10890.368 
    3936    1.1415763    1.0989506    67.215692   -225.07152   -1395.6057    10890.368 
    3937    78.936975    1.0980389    59.255482   -198.17261   -1138.2007    10890.368 
    3938    8.7170214    1.2072851    2.5673877   -289.10026    14.394989    10890.368 
    3939  0.084985171    1.2114593    2.5730746    -292.9947     12.29481    10890.368 
    3940    4.6405905     1.216676    2.5107282   -290.98735    31.467872    10890.368 
    3941    14300.529    1.5472958    16.073673    6201.4832    27535.791    10890.368 
    3942 1.7589135e-38    1.5344659    14.907644   -279.12809    333.33884    10890.368 
    3943 8.7279643e-37    1.5222714    13.840319   -280.30395     327.5534    10890.368 
    3944 4.3349825e-35    1.5106755    12.863137   -281.38191    321.52876    10890.368 
    3945 2.1549638e-33    1.4996443    11.968301   -282.37033    315.30832    10890.368 
    3946 1.0721253e-31    1.4891459    11.148708   -283.27685    308.93107    10890.368 
    3947 5.3380271e-30    1.4791506    10.397881   -284.10846    302.43204    10890.368 
    3948 2.6596491e-28    1.4696303    9.7099207   -284.87149    295.84258    10890.368 
    3949 1.3260401e-26    1.4605591    9.0794439   -285.57177    289.19078    10890.368 
    3950 6.6154545e-25    1.4519125    8.5015421   -286.21458    282.50171    10890.368 
    3951 3.3023029e-23    1.4436676     7.971737   -286.80476    275.79773    10890.368 
    3952 1.6493509e-21    1.4358029    7.4859416   -287.34673    269.09872    10890.368 
    3953 8.2420284e-20    1.4282983    7.0404251   -287.84454    262.42234    10890.368 
    3954 4.1206631e-18    1.4211348    6.6317812   -288.30186    255.78418    10890.368 
    3955 2.0611051e-16    1.4142947    6.2568986   -288.72208    249.19801    10890.368 
    3956 1.0313883e-14    1.4077614    5.9129355   -289.10827    242.67591    10890.368 
    3957 5.1632491e-13    1.4015191    5.5972947   -289.46326    236.22846    10890.368 
    3958 2.5857909e-11    1.3955531    5.3076026   -289.78963    229.86483    10890.368 
    3959 1.2954613e-09    1.3898494    5.0416892   -290.08975    223.59299    10890.368 
    3960 6.4924438e-08    1.3843951    4.7975703   -290.36577    217.41974    10890.368 
    3961 3.2548982e-06    1.3791778    4.5734306   -290.61967    211.35091    10890.368 
    3962 0.00016323691    1.3741857    4.3676035    -290.8532    205.39146    10890.368 
    3963 0.0082028244    1.3693997    4.1782513   -291.06489    199.55008    10890.368 
    3964   0.45106873    1.3643816    3.9880778   -291.08096    194.10329    10890.368 
    3965    277.81251    1.3361699    3.0714922   -166.46693    684.09672    10890.368 
    3966 1.4860629e-39    1.3048345    515.33287    257.53579   -5408.1525    10890.368 
    3967 3.7551158e-40    1.2733449    473.24271    212.60585   -5073.2889    10890.368 
    3968 1.3968711e-38    1.2436243    434.70313    171.43258    -4762.535    10890.368 
    3969 5.3274281e-37    1.2155809    399.40615    133.69357   -4473.9798    10890.368 
    3970 2.0786902e-35    1.1891278    367.07108    99.094646   -4205.8661    10890.368 
    3971 8.2820029e-34    1.1641827     337.4421    67.367352   -3956.5826    10890.368 
    3972 3.3634875e-32    1.1406674    310.28603    38.266718   -3724.6698    10890.368 
    3973 1.3901286e-30    1.1185075     285.3903    11.569183    -3508.778    10890.368 
    3974 5.8383933e-29    1.0976321    262.56113   -12.929298   -3307.6698    10890.368 
    3975 2.4884142e-27    1.0779736     241.6218    -35.41498   -3120.2101    10890.368 
    3976 1.0750064e-25    1.0594677    222.41116   -56.057908   -2945.3573    10890.368 
    3977 4.701891e-24     1.042053    204.78221   -75.013356   -2782.1555    10890.368 
    3978 2.0798844e-22    1.0261126    188.60082   -92.422696   -2627.9536    10890.368 
    3979 9.2960837e-21    1.0123785    173.74552   -108.41367   -2483.3851    10890.368 
    3980 4.1947975e-19    1.0006829    160.10463   -123.10471   -2348.1173    10890.368 
    3981 1.9095815e-17    0.9908482    147.57597   -136.60432   -2221.4658    10890.368 
    3982 8.7633504e-16   0.98271033    136.06619   -149.01167   -2102.8013    10890.368 
    3983 4.0515567e-14   0.97611757    125.49007   -160.41744   -1991.5448    10890.368 
    3984 1.8859605e-12   0.97092974     115.7697   -170.90457   -1887.1636    10890.368 
    3985 8.8341214e-11   0.96701732    106.83389   -180.54891    -1789.167    10890.368 
    3986 4.1619371e-09    0.9642607     98.61756   -189.41989   -1697.1031    10890.368 
    3987 1.9711908e-07   0.96254946    91.061179   -197.58104   -1610.5556    10890.368 
    3988 9.3816502e-06   0.96178172    84.110305   -205.09052   -1529.1404    10890.368 
    3989 0.00044851825   0.96186353      77.7151   -212.00143   -1452.5023    10890.368 
    3990  0.021534727    0.9627085    71.829048   -218.35441   -1380.2647    10890.368 
    3991    1.0458734   0.96425292    66.366291   -223.79663   -1309.6965    10890.368 
    3992    72.844987   0.96758683    59.183673   -199.03284    -1080.282    10890.368 
    3993    13.503817    1.1938012    3.3236093   -286.19839   -94.151698    10890.368 
    3994   0.55017758    1.2059987    3.1274536   -292.26675   -93.361018    10890.368 
    3995    59.817844    1.2265368     2.788785   -265.75402    62.616155    10890.368 
    3996 1.3691401e-13    3.3331128    210.06863   -62.268409    1097.9806    10890.368 
    3997 3.9728805e-14    3.2298671    193.51711   -80.584525    1115.6298    10890.368 
    3998 1.762147e-12    3.1320175    178.35221   -97.373939    1127.6278    10890.368 
    3999 7.8991179e-11    3.0393011    164.44911    -112.7732    1134.6334    10890.368 
    4000 3.5753502e-09    2.9514622    151.69526   -126.90552    1137.2376    10890.368 
    4001 1.6326878e-07    2.8682532    139.98909   -139.88224    1135.9745    10890.368 
    4002 7.516347e-06    2.7894359    129.23878   -151.80405    1131.3507    10890.368 
    4003 0.00034860595    2.7147806    119.36124   -162.76199    1123.7571    10890.368 
    4004  0.016279759    2.6440622    110.28056   -172.83255    1113.6047    10890.368 
    4005   0.76771774    2.5768063    101.89609   -181.80053    1102.5525    10890.368 
    4006    43.160792    2.5000823    92.630824   -172.88308    1165.5499    10890.368 
    4007     1362.032    1.8853842    30.913449    355.97811    3387.1526    10890.368 
    4008    0.1897728    1.8208756    26.015051   -266.52512    745.66759    10890.368 
    4009    3.3982696    1.7933131    24.035244   -267.28525     726.9678    10890.368 
    4010    1130.0962    1.6777322    16.420346    234.67828    2754.6304    10890.368 
    4011    55.508786    1.4264892    4.6828738   -265.41899    382.54039    10890.368 
    4012    643.64035      1.26477    2.3578833   -1.7006407    1201.6496    10890.368 
    4013    125.68954     1.058911    16.669508   -220.93662   -507.61128    10890.368 
    4014    324.37579    1.0208265    33.943564   -112.04055   -562.56191    10890.368 
    4015    43.184288    1.1756936    121.76157   -143.22715   -2571.9963    10890.368 
    4016    3.4967763    1.1862891    126.44077   -156.06569   -2700.5354    10890.368 
    4017    7791.3176    1.0625512    94.894533    3338.0033     12717.59    10890.368 
    4018 1.3891433e-18    1.0456213    88.218289   -199.42936   -1992.2491    10890.368 
    4019 6.6999546e-17    1.0311765    82.024972    -206.2189    -1890.426    10890.368 
    4020 3.2429314e-15    1.0189812    76.279498   -212.51809   -1794.1954    10890.368 
    4021 1.574817e-13    1.0088437     70.94935   -218.36234   -1702.8398    10890.368 
    4022 7.6708841e-12    1.0005878    66.004418   -223.78449    -1616.449    10890.368 
    4023 3.7470641e-10   0.99402764    61.416754   -228.81505   -1534.7458    10890.368 
    4024 1.835179e-08     0.988993    57.160445   -233.48232    -1457.452    10890.368 
    4025 9.010002e-07    0.9853285    53.211466   -237.81256   -1384.3072    10890.368 
    4026 4.4335772e-05   0.98289219     49.54754   -241.83011   -1315.0674    10890.368 
    4027 0.0021862844   0.98155445    46.147922   -245.55673   -1249.4986    10890.368 
    4028   0.10816771   0.98119719    42.989009   -248.97217   -1187.1043    10890.368 
    4029    5.7576835   0.98178917    39.833448   -249.87196   -1112.8471    10890.368 
    4030     1850.551   0.99761744    26.577778    571.44643     2685.317    10890.368 
    4031  0.074176525    1.0080279    22.693765   -271.22655   -740.33698    10890.368 
    4032    1.3451794    1.0132906     21.13758   -272.35397   -699.58163    10890.368 
    4033    243.59726    1.0302361    17.137011   -166.96977   -134.83145    10890.368 
    4034 1.9528114e-13    2.7297249    110.92304   -172.01537     1124.523    10890.368 
    4035 3.0530596e-14    2.6585359    102.83875   -181.02994    1113.4954    10890.368 
    4036 1.4507811e-12     2.591189    95.367172   -189.36128    1100.6162    10890.368 
    4037 6.9269388e-11    2.5274643    88.460248   -197.06299    1086.1317    10890.368 
    4038 3.3219568e-09    2.4671542     82.07389   -204.18424    1070.2645    10890.368 
    4039 1.5996062e-07    2.4100631    76.167641   -210.77016    1053.2158    10890.368 
    4040 7.7314999e-06    2.3560065    70.704343    -216.8622    1035.1668    10890.368 
    4041 0.00037499306    2.3048106    65.649841   -222.49829    1016.2818    10890.368 
    4042  0.018249127    2.2563039    60.971997   -227.70652    996.73744    10890.368 
    4043    0.8978924    2.2099407    56.605523    -232.1772    978.09421    10890.368 
    4044    64.453871    2.1460576     50.76245   -209.89731    1068.3537    10890.368 
    4045    17.871347    1.3195317    2.6913607   -284.83071    161.22915    10890.368 
    4046   0.96816195    1.2997173    2.5996207   -292.60541     92.73859    10890.368 
    4047     130.5995    1.2686148    2.5549582   -233.93936    277.42035    10890.368 
    4048 2.6864894e-28    1.9266655    386.31864    120.94602   -5687.9898    10890.368 
    4049 6.8454444e-29    1.8557957    357.57566     90.08228   -5362.9489    10890.368 
    4050 2.8103773e-27    1.7896061    331.04975    61.577947    -5058.729    10890.368 
    4051 1.1722914e-25    1.7277761    306.56313    35.246175   -4773.8728    10890.368 
    4052 4.9622139e-24    1.6700086     283.9529    10.915539   -4507.0324    10890.368 
    4053 2.1290665e-22    1.6160274    263.06983    -11.57128   -4256.9608    10890.368 
    4054 9.2495792e-21    1.5655761    243.77709   -32.358711   -4022.5039    10890.368 
    4055 4.0649545e-19    1.5184164    225.94919    -51.57939   -3802.5932    10890.368 
    4056 1.8055355e-17    1.4743266      209.471   -69.355175    -3596.239    10890.368 
    4057 8.0987786e-16    1.4331006    194.23684   -85.798054   -3402.5245    10890.368 
    4058 3.6658188e-14    1.3945466    180.14967   -101.01099   -3220.5994    10890.368 
    4059 1.6732512e-12    1.3584861    167.12034   -115.08868   -3049.6757    10890.368 
    4060 7.6968754e-11    1.3247527    155.06692   -128.11826   -2889.0221    10890.368 
    4061 3.5659656e-09    1.2931917    143.91409    -140.1799   -2737.9599    10890.368 
    4062 1.6630889e-07    1.2636587    133.59256   -151.34745    -2595.859    10890.368 
    4063 7.8039408e-06    1.2360194     124.0386   -161.68889   -2462.1342    10890.368 
    4064 0.00036827713    1.2101483    115.19351   -171.26675   -2336.2407    10890.368 
    4065  0.017470667      1.18621    107.00252   -180.13186   -2216.2094    10890.368 
    4066    0.8363205    1.1649475    99.380763   -188.01888   -2100.2131    10890.368 
    4067    49.520735    1.1419182     90.58382   -175.49395   -1872.6893    10890.368 
    4068    679.36053    1.0711196    24.494183    38.228101    557.98153    10890.368 
    4069    25.111667    1.1060953    13.632089   -269.95916   -386.07782    10890.368 
    4070    746.36758    1.1673825     6.349854    48.981131    1258.6489    10890.368 
    4071    109.96611    1.4393591    5.1287423    -240.3766    613.48171    10890.368 
    4072    326.95212    1.6355728    13.395418   -132.81196    1244.4233    10890.368 
    4073    35.463423    2.4420138    76.050826   -195.30498    1098.4976    10890.368 
    4074    1.7624833    2.4759683    79.087015   -207.20616    1038.4673    10890.368 
    4075    4077.6098    2.3354055     63.79855    1622.4915    8719.7422    10890.368 
    4076 5.8842251e-08    2.2898416    59.546111   -229.72569     949.0012    10890.368 
    4077 2.8941871e-06    2.2465957    55.591215   -234.11571    932.55867    10890.368 
    4078 0.00014282155    2.2054965     51.90903   -238.20242    915.63442    10890.368 
    4079 0.0070630972    2.1664218     48.48039   -242.00419    898.33059    10890.368 
    4080   0.35148237    2.1290921    45.273493   -245.40657     881.2768    10890.368 
    4081    21.733375    2.0849183    41.569087   -239.82891    899.47404    10890.368 
    4082    3905.8743    1.6366568    11.019347     1486.096    7945.3883    10890.368 
    4083 3.7382921e-09    1.6241403    10.411374    -284.2639    503.19235    10890.368 
    4084 1.8904862e-07    1.6121691    9.8458215   -284.89117    489.59227    10890.368 
    4085 9.5824237e-06    1.6006942    9.3186888   -285.47596    476.31321    10890.368 
    4086 0.00048587734     1.589692    8.8273441   -286.02097    463.35429    10890.368 
    4087  0.024696218    1.5791176    8.3683708   -286.51945    450.73009    10890.368 
    4088    1.4056727    1.5677512    7.8898099   -286.42511    439.49897    10890.368 
    4089    1138.9432    1.4912443    5.0896135    225.85826    2502.7969    10890.368 
    4090    76.888012    1.2429479    3.2488928    -257.5419    33.234104    10890.368 
    4091    457.15101    1.1462229    9.6446684   -78.373132    431.95313    10890.368 
    4092    54.287714    1.1186327    60.291456    -206.0782   -1472.5816    10890.368 
    4093     5.260394    1.1398513    68.454456   -219.46806    -1699.716    10890.368 
    4094    4039.3957    1.2414324    91.133064    1632.6719    5673.7409    10890.368 
    4095 1.3456486e-07    1.2208698    84.776989   -204.38702   -1909.3293    10890.368 
    4096 6.5715335e-06    1.2027245    78.881561   -210.76644   -1815.6762    10890.368 
    4097 0.0003209784    1.1868085    73.417708   -216.67949   -1727.2071    10890.368 
    4098  0.015682635     1.172917    68.352218    -222.1552   -1643.5602    10890.368 
    4099   0.77147299    1.1607851    63.622779   -226.93216   -1562.5036    10890.368 
    4100    51.924202    1.1467565     57.63502   -210.23767   -1361.8727    10890.368 
    4101    151.51128    1.2018473    5.6731618    -221.2941    102.55591    10890.368 
    4102    116.00332    1.2838395    2.7620079   -240.44846    273.63437    10890.368 
    4103    283.69265    1.7631346    19.902741   -145.20883     1229.153    10890.368 
    4104    144.05147     2.013786    37.639159   -188.79248    1134.9926    10890.368 
    4105    341.54259    2.6997673    101.64408   -28.327051    1732.9743    10890.368 
    4106    127.41408    3.0483516    140.06761   -82.704205    1350.9559    10890.368 
    4107    449.03457    3.8210992    234.94546    168.43047    1880.4326    10890.368 
    4108     84.45085    4.2200781    281.74369    55.328128    1121.0613    10890.368 
    4109    953.38963    5.0284507    353.01479    528.44558    2654.2645    10890.368 
    4110    9.4243612    5.1232078    353.53045    101.14887    887.58635    10890.368 
    4111    792.95671    4.8740726    322.48434    421.09965    2504.6123    10890.368 
    4112    99.760342    4.0734028    234.05401    7.5677144    1482.0096    10890.368 
    4113    464.19843     3.638367    186.79995    119.82094    2287.0037    10890.368 
    4114    152.40881    3.0054862    114.08144   -102.23459    1777.7895    10890.368 
    4115    384.63287    2.6920171    81.052869   -33.417449     2197.132    10890.368 
    4116     176.8259    2.1892405    38.857154   -173.62795    1609.7764    10890.368 
    4117     342.0113    1.9474432    24.725202    -113.9551    1731.6635    10890.368 
    4118    174.60014    1.5809195    16.708758    -197.8381    889.98863    10890.368 
    4119    286.30633    1.4740303    21.485101   -141.64545    781.39297    10890.368 
    4120    134.16115    1.4475557     54.35256   -174.15615    -424.2211    10890.368 
    4121    175.18015    1.5135264    71.136582   -137.26454    -691.5305    10890.368 
    4122    217.66969    1.9078819    130.55874   -54.106594   -1659.1929    10890.368 
    4123    215.28799    2.1658107    161.60095   -22.221876   -2138.6951    10890.368 
    4124    267.64359    2.7150384    218.90384    61.349901   -2848.4961    10890.368 
    4125    270.64758    3.0412444    248.64688    93.175426   -3224.3355    10890.368 
    4126    263.91504    3.4060831    273.31322    114.27046   -3506.2554    10890.368 
    4127    317.18606    3.5307239     274.8222     138.7553   -3355.1887    10890.368 
    4128    253.91236    3.5397229    256.02897    89.211491   -3099.6931    10890.368 
    4129    337.34971    3.4849037    231.09339    100.54019   -2499.0251    10890.368 
    4130    258.15743    3.3845596    194.54069    26.547085   -2035.1751    10890.368 
    4131    333.39958    3.2923751    160.80494    25.837064   -1334.7865    10890.368 
    4132     268.1286    3.1958002    126.51323   -38.908764   -899.33642    10890.368 
    4133    325.48173    3.1058155    97.106212   -42.965669   -312.01735    10890.368 
    4134    271.99395    3.0246315    72.906199    -91.83755   -15.591314    10890.368 
    4135    329.58693    2.9566266    55.786253    -83.07805    395.55006    10890.368 
    4136     1.423802    2.9068895    46.163332    -241.4655   -31.916777    10890.368 
    4137    2.2534751    2.8900356    43.543715   -243.98182   -24.603153    10890.368 
    4138     384.2101    2.8490209    36.768024   -78.422775    709.33781    10890.368 
    4139 2.4259954e-06    2.4948653    24.038304   -266.46343   -571.54518    10890.368 
    4140 1.1760334e-07    2.4854861    22.587953   -268.05177   -541.81928    10890.368 
    4141 5.9165984e-06     2.476423     21.23904     -269.531   -513.62977    10890.368 
    4142 0.00029795034    2.4676604    19.984221   -270.90882   -486.88606    10890.368 
    4143  0.015025552    2.4591793    18.816107    -272.1867   -461.46378    10890.368 
    4144   0.77964202    2.4507344    17.697891   -273.07176   -435.19629    10890.368 
    4145    120.57926    2.4302045    15.116963   -221.64183   -147.51832    10890.368 
    4146 7.6253653e-12    2.2743632    98.731058   -189.56434    686.57007    10890.368 
    4147 9.7655544e-13    2.2624533    92.374129   -196.31027    684.63828    10890.368 
    4148 4.7517876e-11    2.2511925    86.444879   -202.60182    682.45414    10890.368 
    4149 2.3196433e-09    2.2404086    80.913402   -208.47081    679.12793    10890.368 
    4150 1.1357219e-07    2.2300792    75.752287   -213.94627    674.80965    10890.368 
    4151 5.5759882e-06    2.2201734    70.936112   -219.05515    669.76238    10890.368 
    4152 0.00027446647    2.2106653    66.441263    -223.8224    663.92518    10890.368 
    4153  0.013544192    2.2015352    62.245257   -228.26611    657.41997    10890.368 
    4154   0.67456873    2.1927012    58.299109   -232.15063    651.48653    10890.368 
    4155      47.0663    2.1809023     53.17631   -216.56127    728.63806    10890.368 
    4156    166.42784    2.0455474    5.7816236   -212.39258    560.04622    10890.368 
    4157    118.36999    2.0236331    3.7797912    -236.1415    311.28185    10890.368 
    4158    301.53491    1.9863358    24.402248    -130.6547   -14.177732    10890.368 
    4159    140.36428    1.9887148    44.328151   -182.23331   -653.03216    10890.368 
    4160    386.39382     2.039244    112.03945    1.9165888   -1027.7808    10890.368 
    4161    111.83718    2.0885799    153.54479   -77.960649   -1969.9483    10890.368 
    4162     620.5319    2.2428265    246.67607    252.54145   -1774.4626    10890.368 
    4163    35.713003    2.3271537    285.31112    29.190861   -3122.5997    10890.368 
    4164    1641.7675    2.4092331    312.39351    786.54033    20.495544    10890.368 
    4165   0.54578493    2.3596687    292.63493     21.89921   -2862.3535    10890.368 
    4166    25.394506    2.3029905    271.60422    10.652589   -2621.1399    10890.368 
    4167    1953.3151    2.1248779    206.46536    814.35093    1664.2988    10890.368 
    4168  0.033810919     2.080526    190.22105   -88.089278   -1895.3783    10890.368 
    4169    1.3052046    2.0457326    177.45668   -101.22838   -1770.8835    10890.368 
    4170    72.939864    2.0061255    162.84082   -84.486673   -1493.7378    10890.368 
    4171    284.55652    1.7519749    62.810318   -96.523741    -43.98239    10890.368 
    4172    168.22105    1.6958087    37.086907   -177.17526    48.348284    10890.368 
    4173     421.0319    1.6546129    8.1198806   -94.441758    979.95088    10890.368 
    4174    156.70202    1.6721252    3.7152288   -219.34404    644.58089    10890.368 
    4175    548.67038     1.757313     14.23031   -30.961402    1503.1215    10890.368 
    4176    103.39513    1.8465661    30.780754   -215.12038    642.43072    10890.368 
    4177    847.79834     2.023318    66.541486    160.56036    1930.3152    10890.368 
    4178    15.013186    2.1214856    86.107562   -195.60029    249.49743    10890.368 
    4179    251.28457    2.2055425    100.44896   -72.892828    605.51397    10890.368 
    4180 1.263403e-12    5.0294395    441.42231    191.44475   -2492.9706    10890.368 
    4181 6.1557665e-13    4.8356338    414.62199    161.99524   -2298.4661    10890.368 
    4182 2.5781918e-11    4.6525987    389.53321    134.41488   -2117.2806    10890.368 
    4183 1.093884e-09    4.4798373    366.03711    108.57555   -1948.5146    10890.368 
    4184 4.6975296e-08    4.3168705     344.0242    84.359082   -1791.3333    10890.368 
    4185  2.04013e-06    4.1632367    323.39352    61.656325   -1644.9613    10890.368 
    4186 8.9538616e-05    4.0184913    304.05186    40.366399   -1508.6777    10890.368 
    4187 0.0039685234    3.8821961    285.91289    20.397375   -1381.6097    10890.368 
    4188   0.17758118    3.7538569    268.88883    1.7289808   -1262.8876    10890.368 
    4189    8.1635277    3.6303628    252.54484   -12.653814   -1134.9709    10890.368 
    4190    675.30503    3.3937254    221.15488    255.04634    348.66786    10890.368 
    4191     82.37985    2.6946874    125.32584   -119.05052   -121.24257    10890.368 
    4192    262.47372    2.4988155    96.935077   -68.679587    408.39313    10890.368 
    4193    63.267462    1.9941727    28.758165   -233.88362    478.06559    10890.368 
    4194    75.381386    1.9198938    21.113309   -236.80779    538.57075    10890.368 
    4195    491.23514    1.6418079     4.427492   -66.747858    1323.2747    10890.368 
    4196    70.615997    1.5753543    6.9569703   -254.53753    446.84461    10890.368 
    4197    1206.1388    1.5112515    20.551096     274.9068    2392.0512    10890.368 
    4198   0.53830478     1.503066      24.5571    -266.9118    35.047599    10890.368 
    4199    10.183189    1.5007369    23.799868    -263.3551     47.35316    10890.368 
    4200     8507.405    1.5015966    6.0089677    3567.0301    16171.764    10890.368 
    4201 1.5891874e-22    1.5030378     5.779838   -287.78856  -0.88387032    10890.368 
    4202 8.1268115e-21    1.5044396    5.5651558    -288.0297    5.6142846    10890.368 
    4203 4.1574176e-19    1.5058019    5.3639687   -288.25599    11.771349    10890.368 
    4204 2.1275602e-17    1.5071243    5.1753903   -288.46841    17.605435    10890.368 
    4205 1.0891595e-15    1.5084068    4.9985954   -288.66785    23.133636    10890.368 
    4206 5.5776277e-14    1.5096493    4.8328159   -288.85516    28.372082    10890.368 
    4207 2.8572764e-12     1.510852    4.6773364   -289.03113    33.354438    10890.368 
    4208 1.4641838e-10    1.5120158    4.5314907   -289.19647    38.106065    10890.368 
    4209 7.5054824e-09    1.5131411    4.3946579   -289.35186    42.608668    10890.368 
    4210 3.8485886e-07     1.514228    4.2662588   -289.49795    46.875208    10890.368 
    4211 1.974083e-05    1.5152766    4.1457521   -289.63532    50.917995    10890.368 
    4212 0.0010132497    1.5162878    4.0325948   -289.76413     54.75177    10890.368 
    4213  0.053008847    1.5172807    3.9243175   -289.86452    58.552418    10890.368 
    4214     6.312218    1.5192686     3.719002   -287.26419    77.667771    10890.368 
    4215    11126.653    1.6493115     7.244205    4754.7998    21438.267    10890.368 
    4216 6.0824393e-30    1.6444294    6.9227141   -286.85657    270.70287    10890.368 
    4217 3.0972996e-28    1.6397065    6.6225187    -287.1908    264.20934    10890.368 
    4218 1.5778697e-26    1.6351362    6.3421415   -287.50334    257.94739    10890.368 
    4219 8.0414646e-25    1.6307122    6.0802135   -287.79568    251.90969    10890.368 
    4220 4.0998638e-23    1.6264285    5.8354654   -288.06919    246.08897    10890.368 
    4221 2.0910698e-21    1.6222793    5.6067202   -288.32516     240.4781    10890.368 
    4222 1.0669091e-19    1.6182591    5.3928856   -288.56475    235.07007    10890.368 
    4223 5.4455468e-18    1.6143628     5.192948   -288.78909      229.858    10890.368 
    4224 2.7803953e-16    1.6105854    5.0059662   -288.99919    224.83516    10890.368 
    4225 1.4200992e-14    1.6069222     4.831066     -289.196    219.99497    10890.368 
    4226 7.2556182e-13    1.6033687    4.6674349   -289.38041    215.33101    10890.368 
    4227 3.7082634e-11    1.5999206    4.5143182   -289.55323    210.83702    10890.368 
    4228 1.8958514e-09    1.5965738    4.3710137   -289.71525     206.5069    10890.368 
    4229 9.695564e-08    1.5933243    4.2368685   -289.86716    202.33475    10890.368 
    4230 4.9599278e-06    1.5901686     4.111275   -290.00964    198.31479    10890.368 
    4231 0.00025383114    1.5871026    3.9936579    -290.1432    194.44157    10890.368 
    4232  0.013053445    1.5841093    3.8829887   -290.26341    190.71558    10890.368 
    4233    0.8487366    1.5804544    3.7531726   -290.03289    187.74983    10890.368 
    4234    2413.7467    1.5337907    2.5528206    801.81572    4713.4654    10890.368 
    4235 0.00033591622    1.5271715    2.4596675   -291.92654    114.51629    10890.368 
    4236 0.0015935862    1.5257656    2.4449905   -291.94507    113.82156    10890.368 
    4237  0.099611542    1.5241152    2.4284843   -291.92231    113.19741    10890.368 
    4238    221.17357    1.5059798    2.2872202   -191.95198     524.3647    10890.368 
    4239 1.2530529e-111     1.061518    994.76936    764.89311   -8381.8198    10890.368 
    4240 1.6130353e-112    1.0341702    925.44613    691.13581     -7842.78    10890.368 
    4241 4.9854621e-111    1.0087807    861.12894    622.67433   -7340.2443    10890.368 
    4242 1.5963508e-109   0.98526193    801.47594    559.15089   -6871.8975    10890.368 
    4243 5.2831478e-108   0.96352532    746.15732    500.21978   -6435.4927    10890.368 
    4244 1.8030759e-106   0.94348214    694.85924     445.5516   -6028.8796    10890.368 
    4245 6.3321907e-105   0.92504437    647.28588    394.83555   -5650.0186    10890.368 
    4246 2.2836367e-103   0.90812524    603.16019    347.78024   -5296.9885    10890.368 
    4247 8.4411606e-102   0.89263972    562.22393    304.11381   -4967.9871    10890.368 
    4248 3.1922974e-100   0.87850496     524.2372    263.58342   -4661.3298    10890.368 
    4249 1.2331275e-98    0.8656405    488.97768    225.95455   -4375.4455    10890.368 
    4250 4.8578599e-97   0.85396859    456.23971    191.01006   -4108.8717    10890.368 
    4251 1.948911e-95   0.84341432     425.8333    158.54911   -3860.2489    10890.368 
    4252 7.9519331e-94   0.83390574    397.58307    128.38618   -3628.3141    10890.368 
    4253 3.2957467e-92   0.82537394    371.32727    100.34995   -3411.8949    10890.368 
    4254 1.3859328e-90   0.81775311    346.91672    74.282314   -3209.9039    10890.368 
    4255 5.9072171e-89   0.81097227     324.2139    50.037386   -3021.1431    10890.368 
    4256 2.5495209e-87   0.80476434    303.09199    27.480296   -2844.2437    10890.368 
    4257 1.1132129e-85   0.79899928     283.4339    6.4865805   -2678.9873    10890.368 
    4258 4.9133498e-84   0.79364526    265.13194   -13.058276   -2524.5689    10890.368 
    4259 2.1904056e-82   0.78867263    248.08678   -31.259949   -2380.2418    10890.368 
    4260 9.856246e-81   0.78405386    232.20681   -48.215976   -2245.3133    10890.368 
    4261 4.4735738e-79   0.77976334    217.40754   -64.016408   -2119.1407    10890.368 
    4262 2.0468736e-77    0.7757773    203.61093   -78.744407   -2001.1277    10890.368 
    4263 9.4357796e-76   0.77207366    190.74499   -92.476801   -1890.7206    10890.368 
    4264 4.3801603e-74   0.76863195    178.74319   -105.28458   -1787.4055    10890.368 
    4265 2.0465365e-72   0.76543319    167.54408   -117.23339   -1690.7048    10890.368 
    4266 9.6199657e-71   0.76245977    157.09085   -128.38391   -1600.1752    10890.368 
    4267 4.5475084e-69   0.75969537    147.33096   -138.79231   -1515.4044    10890.368 
    4268 2.1609961e-67   0.75712489    138.21583   -148.51054   -1436.0094    10890.368 
    4269 1.031838e-65   0.75526985    129.70048    -157.5862   -1359.6813    10890.368 
    4270 4.9488466e-64   0.75466477    121.74419   -166.06225   -1288.0247    10890.368 
    4271 2.3837201e-62   0.75516235    114.30825   -173.98028   -1220.8236    10890.368 
    4272 1.1527749e-60   0.75662907    107.35677   -181.37887   -1157.7866    10890.368 
    4273 5.5957343e-59   0.75894502    100.85647   -188.29376   -1098.6423    10890.368 
    4274 2.7257533e-57   0.76200247    94.776509   -194.75812   -1043.1381    10890.368 
    4275 1.3320914e-55   0.76570473    89.088271   -200.80269   -991.03878    10890.368 
    4276 6.5299168e-54     0.769965    83.765214   -206.45603   -942.12506    10890.368 
    4277 3.210126e-52   0.77470537    78.782699   -211.74461   -896.19257    10890.368 
    4278 1.5823332e-50     0.779856    74.117846   -216.69304   -853.05077    10890.368 
    4279 7.8191833e-49   0.78535428    69.749399   -221.32417   -812.52192    10890.368 
    4280 3.8729669e-47   0.79114411    65.657608   -225.65925   -774.44023    10890.368 
    4281 1.9225658e-45   0.79717528    61.824109   -229.71801   -738.65095    10890.368 
    4282 9.5634367e-44   0.80340332    58.231827   -233.51882   -704.96699    10890.368 
    4283 4.7663579e-42   0.80978949    54.864874   -237.07876   -673.27508    10890.368 
    4284 2.3798398e-40   0.81629794    51.708466   -240.41372    -643.4729    10890.368 
    4285 1.1902802e-38   0.82289659    48.748839    -243.5385   -615.44254    10890.368 
    4286 5.9627452e-37   0.82955693    45.973175   -246.46688   -589.07383    10890.368 
    4287 2.9915548e-35   0.83625364    43.369532   -249.21168   -564.25071    10890.368 
    4288 1.5030077e-33   0.84296883    40.926783   -251.78487    -540.7742    10890.368 
    4289 7.5614094e-32    0.8496855    38.634562   -254.19757   -518.67532    10890.368 
    4290 3.8088064e-30   0.85638539    36.483196   -256.46018   -497.86957    10890.368 
    4291 1.9208259e-28    0.8630524    34.463663   -258.58239   -478.27786    10890.368 
    4292 9.697741e-27   0.86967239    32.567548   -260.57322   -459.82616    10890.368 
    4293 4.9012747e-25   0.87623298    30.786995   -262.44113   -442.44516    10890.368 
    4294 2.4795776e-23   0.88272337    29.114672   -264.19396   -426.06994    10890.368 
    4295 1.2556036e-21   0.88913419    27.543733   -265.83908   -410.63969    10890.368 
    4296 6.3637218e-20   0.89545737    26.067783   -267.38333   -396.09743    10890.368 
    4297 3.2279938e-18   0.90168598    24.680851   -268.83312   -382.38977    10890.368 
    4298 1.6386928e-16   0.90781416    23.377353   -270.19444   -369.46666    10890.368 
    4299 8.3250626e-15   0.91383697    22.152073   -271.47287   -357.28118    10890.368 
    4300 4.2323892e-13   0.91975032    21.000133   -272.67364    -345.7893    10890.368 
    4301 2.1531581e-11   0.92555088    19.916974   -273.80163   -334.94976    10890.368 
    4302 1.0960836e-09   0.93123599    18.898329    -274.8614   -324.72384    10890.368 
    4303 5.5830952e-08   0.93680361    17.940208   -275.85723    -315.0752    10890.368 
    4304 2.8454908e-06   0.94225224    17.038877   -276.79311   -305.96974    10890.368 
    4305 0.00014510461   0.94758091    16.190835   -277.67271   -297.37511    10890.368 
    4306 0.0074063412   0.95279114    15.392495   -278.49669   -289.24475    10890.368 
    4307   0.38634448   0.95799492    14.624639   -279.11987    -280.6909    10890.368 
    4308    49.551485   0.96923562    13.067056   -258.45332   -171.11704    10890.368 
    4309  0.001295733    1.5932849      34.1603   -255.22823   -204.98272    10890.368 
    4310 0.00010872546    1.5769624    32.184037   -257.45572   -195.44007    10890.368 
    4311 0.0054966621     1.561252    30.327809   -259.54684   -186.63071    10890.368 
    4312   0.27984805    1.5460347    28.573475   -261.40303   -177.95362    10890.368 
    4313    19.354701    1.5262897     26.36148   -255.26051   -131.62855    10890.368 
    4314     3710.236    1.2463518    4.3184308    1391.6525     6955.887    10890.368 
    4315 2.8665931e-09    1.2428493    4.1739714   -289.56984   -100.45607    10890.368 
    4316 1.4646547e-07    1.2394911    4.0391753   -289.73572   -100.63437    10890.368 
    4317 7.5312248e-06    1.2362499    3.9126215   -289.89211   -100.82808    10890.368 
    4318 0.00038736332    1.2331213    3.7938002   -290.03942   -101.03452    10890.368 
    4319  0.020053025    1.2300816    3.6815435   -290.17048   -101.21742    10890.368 
    4320    1.4248528     1.226106    3.5396212   -289.71194   -98.865822    10890.368 
    4321     6216.418    1.1604169    2.1260933    2524.2513    11708.142    10890.368 
    4322 2.3006711e-16    1.1598756    2.1199002   -292.31574   -114.28905    10890.368 
    4323 1.2038338e-14    1.1593532    2.1141072   -292.32809   -114.24844    10890.368 
    4324 6.303139e-13    1.1588489    2.1086894   -292.33993   -114.21023    10890.368 
    4325 3.3023119e-11    1.1583622    2.1036237    -292.3513   -114.17418    10890.368 
    4326 1.7312309e-09    1.1578925    2.0988881   -292.36221   -114.14007    10890.368 
    4327 9.0818105e-08    1.1574393    2.0944622   -292.37269   -114.10771    10890.368 
    4328 4.7674225e-06     1.157002    2.0903267   -292.38277   -114.07691    10890.368 
    4329 0.0002507123    1.1565797    2.0864591   -292.39236   -114.04699    10890.368 
    4330  0.014021677    1.1561462    2.0826225   -292.39606   -113.99086    10890.368 
    4331    5.4562414    1.1543123     2.068268   -289.97062   -103.52778    10890.368 
    4332    306.81967    1.0015511    20.935906   -135.42972    304.23585    10890.368 
    4333    54.214668   0.98509763    29.171239   -241.33778   -248.46848    10890.368 
    4334    1645.2663   0.97407843    49.037269    500.60704    2593.7038    10890.368 
    4335  0.022436288   0.98038052    47.864564   -246.00114         -526    10890.368 
    4336    1.7885245   0.98674671    45.324154   -247.84755   -500.01591    10890.368 
    4337    282.31624    1.0037162    39.103781   -127.21935    89.547862    10890.368 
    4338 2.9217427e-09    1.6094311    27.714694   -263.65925   -85.679771    10890.368 
    4339 1.1906031e-10     1.596685    26.195836   -265.38477   -75.104911    10890.368 
    4340 6.0458163e-09     1.584405    24.767652   -267.00856   -65.300009    10890.368 
    4341 3.0724757e-07    1.5725749    23.424598   -268.53677   -56.216626    10890.368 
    4342 1.5625949e-05    1.5611789    22.161487   -269.97517   -47.809239    10890.368 
    4343 0.00079527957    1.5502013    20.973437   -271.32885   -40.033489    10890.368 
    4344  0.040558732     1.539612    19.854329   -272.58735   -32.766373    10890.368 
    4345     2.228683    1.5286093    18.719849   -272.89116   -21.451411    10890.368 
    4346    949.64494    1.4755069    13.678932    150.59226     1811.346    10890.368 
    4347     72.66353    1.2383234    2.6190073   -260.04244    195.57044    10890.368 
    4348    163.58644    1.1773338     4.191619   -217.45835    346.23754    10890.368 
    4349    7.6787682   0.96257499    55.758695   -233.43938   -384.20113    10890.368 
    4350    1.5237811   0.96663014    53.631645    -238.5007   -384.17304    10890.368 
    4351    291.97273   0.98130273    46.378404    -114.6562    213.19355    10890.368 
    4352 4.6636796e-08     1.786902    26.137243    -265.4399   -260.58455    10890.368 
    4353 2.6007344e-09    1.7712778    24.173199    -267.6154   -239.04841    10890.368 
    4354 1.2803525e-07    1.7562098    22.382951   -269.60489   -219.00271    10890.368 
    4355 6.3164316e-06    1.7416788    20.749765   -271.42586   -200.33447    10890.368 
    4356 0.00031222892    1.7276659    19.258621   -273.09394   -182.93989    10890.368 
    4357  0.015469447    1.7141466    17.895442   -274.61737   -166.68968    10890.368 
    4358   0.78639362    1.7007812    16.617803   -275.70735   -149.71476    10890.368 
    4359    106.24758    1.6706705    13.951945   -230.94324    84.459761    10890.368 
    4360 4.4176736e-09   0.96414467    107.94109   -185.01217   -54.959237    10890.368 
    4361 9.6661404e-10   0.97273848    98.332161   -194.88899    -26.83699    10890.368 
    4362 4.478134e-08   0.98133183    89.642622    -203.8241    -2.476585    10890.368 
    4363 2.088017e-06   0.98989912    81.781731   -211.91003    18.542699    10890.368 
    4364 9.7928969e-05   0.99841847    74.667835      -219.23    36.597527    10890.368 
    4365 0.0046175783    1.0068716     68.22726   -225.85726    52.033385    10890.368 
    4366   0.21913594    1.0152572    62.384084   -231.77626     65.56348    10890.368 
    4367    11.328422    1.0243212    56.615199   -232.68401    98.696742    10890.368 
    4368    2915.7769    1.0761472    31.692359    1057.6168    5657.6535    10890.368 
    4369 2.5583606e-05    1.0836279    29.172252    -266.0732    113.77829    10890.368 
    4370 0.0012047691    1.0907138    26.962518   -268.35328    114.50102    10890.368 
    4371  0.059129737    1.0976642    24.946249    -270.4078    114.80003    10890.368 
    4372    3.1066378    1.1049603    22.979115   -271.05671    120.28713    10890.368 
    4373    1059.4336     1.139498    15.341849    199.68201    2121.3076    10890.368 
    4374    79.120585    1.2653374    3.8619417   -256.09299     163.9817    10890.368 
    4375    541.96917    1.3710655    6.5483503   -43.250785    920.41976    10890.368 
    4376    117.77653    1.6549869    40.568462   -198.79279   -311.14027    10890.368 
    4377    189.77304    1.7895172    61.802534   -143.25811   -381.02095    10890.368 
    4378    8.8604422    2.5829928    192.54152   -81.939493   -1856.1855    10890.368 
    4379    11.540014    2.5561872    177.77051   -96.229136   -1739.0219    10890.368 
    4380    1273.9864    2.4523245    136.65777    432.22091    988.34574    10890.368 
    4381    7.4052464    2.3562446    105.96556   -174.38114   -1159.7486    10890.368 
    4382    154.12685    2.2925929    89.436502   -125.66794    -730.7931    10890.368 
    4383    3.3485406    1.7354289    12.231049   -279.52819     -37.6061    10890.368 
    4384   0.20916319     1.719233    11.498572   -281.82951   -31.790766    10890.368 
    4385    15.840578    1.6981425    10.490375   -275.93678    11.187349    10890.368 
    4386    2907.9138    1.2974103    4.1503884     1025.838    5696.0853    10890.368 
    4387 3.470389e-07      1.29877    3.9838458   -291.85563    160.60639    10890.368 
    4388 1.7991121e-05    1.3003374     3.824841    -292.0144    155.57476    10890.368 
    4389 0.00088755626    1.3018759    3.6806578   -292.15761      150.725    10890.368 
    4390  0.044473408    1.3034076    3.5478499   -292.26974    146.06025    10890.368 
    4391    4.4040065     1.306187    3.3296452   -290.51034    145.87965    10890.368 
    4392     20109.35    1.4430315    7.9111765    8823.8549     38023.96    10890.368 
    4393 3.5952828e-55    1.4391748    7.2701249   -288.01371    -207.0569    10890.368 
    4394 1.7439187e-53     1.435492    6.6990326    -288.6038   -194.65786    10890.368 
    4395 8.4650111e-52    1.4319726    6.1901929   -289.13037   -183.03433    10890.368 
    4396 4.1116731e-50    1.4286067    5.7367563   -289.60037   -172.12915    10890.368 
    4397 1.9984055e-48    1.4253851    5.3326347      -290.02   -161.89009    10890.368 
    4398 9.7187228e-47    1.4222994    4.9724157   -290.39475   -152.26942    10890.368 
    4399 4.7291595e-45    1.4193418    4.6512871   -290.72952   -143.22343    10890.368 
    4400 2.3024936e-43    1.4165051    4.3649693   -291.02867   -134.71208    10890.368 
    4401 1.1216175e-41    1.4137824    4.1096564   -291.29606   -126.69861    10890.368 
    4402 5.4665933e-40    1.4111677    3.8819628   -291.53514   -119.14927    10890.368 
    4403 2.6656887e-38     1.408655    3.6788765   -291.74899   -112.03303    10890.368 
    4404 1.3005263e-36    1.4062389    3.4977176   -291.94032   -105.32128    10890.368 
    4405 6.3480931e-35    1.4039144    3.3361011   -292.11157   -98.987706    10890.368 
    4406 3.1001333e-33    1.4016768    3.1919042    -292.2649   -93.007982    10890.368 
    4407 1.5147108e-31    1.3995217    3.0632374   -292.40224   -87.359653    10890.368 
    4408 7.4044297e-30     1.397445    2.9484183   -292.52529   -82.021949    10890.368 
    4409 3.6213206e-28    1.3954429    2.8459489    -292.6356   -76.975638    10890.368 
    4410 1.7719746e-26    1.3935117     2.754495   -292.73452   -72.202893    10890.368 
    4411 8.6749196e-25    1.3916481    2.6728682   -292.82327   -67.687175    10890.368 
    4412 4.2490686e-23    1.3898489    2.6000099   -292.90292    -63.41312    10890.368 
    4413 2.0823118e-21    1.3881111    2.5349766   -292.97444   -59.366443    10890.368 
    4414 1.0209991e-19     1.386432    2.4769277   -293.03869   -55.533846    10890.368 
    4415 5.0088368e-18    1.3848089    2.4251139   -293.09644   -51.902942    10890.368 
    4416 2.4585838e-16    1.3832393    2.3788672   -293.14838   -48.462178    10890.368 
    4417 1.2074659e-14     1.381721    2.3375921    -293.1951    -45.20077    10890.368 
    4418 5.9335116e-13    1.3802516    2.3007573   -293.23716   -42.108642    10890.368 
    4419 2.9174372e-11    1.3788291    2.2678891   -293.27504   -39.176372    10890.368 
    4420 1.4353242e-09    1.3774515    2.2385648   -293.30918   -36.395141    10890.368 
    4421 7.0658347e-08     1.376117    2.2124073   -293.33996   -33.756689    10890.368 
    4422 3.4805729e-06    1.3748238      2.18908   -293.36774   -31.253251    10890.368 
    4423 0.0001716122    1.3735698     2.168276   -293.39274   -28.876513    10890.368 
    4424 0.0086082735    1.3723329    2.1494214   -293.41196   -26.565902    10890.368 
    4425   0.90813941    1.3700195    2.1177564   -293.04381   -20.634419    10890.368 
    4426     20473.86    1.2894332    3.7460799    8984.3482    39059.358    10890.368 
    4427 3.5920214e-56    1.2903061    3.5769382   -292.18314    117.23027    10890.368 
    4428 1.7512527e-54    1.2911638    3.4255478   -292.33574    112.75545    10890.368 
    4429 8.5407288e-53    1.2920052    3.2899989   -292.47218    108.44531    10890.368 
    4430 4.1665499e-51    1.2928293    3.1685893   -292.59419    104.29647    10890.368 
    4431 2.0332642e-49    1.2936354     3.059801   -292.70333    100.30524    10890.368 
    4432 9.9253843e-48    1.2944229    2.9622812   -292.80096    96.467656    10890.368 
    4433 4.846615e-46    1.2951913    2.8748235   -292.88833    92.779566    10890.368 
    4434 2.3673874e-44    1.2959403    2.7963524   -292.96654    89.236671    10890.368 
    4435 1.1567573e-42    1.2966695    2.7259089   -293.03656    85.834572    10890.368 
    4436 5.6540592e-41    1.2973789    2.6626376   -293.09927     82.56881    10890.368 
    4437 2.7645669e-39    1.2980684    2.6057761   -293.15544    79.434898    10890.368 
    4438 1.3522173e-37    1.2987379    2.5546441   -293.20578    76.428347    10890.368 
    4439 6.6164176e-36    1.2993875    2.5086348   -293.25091    73.544696    10890.368 
    4440 3.238629e-34    1.3000173    2.4672071   -293.29138    70.779525    10890.368 
    4441 1.5858664e-32    1.3006275    2.4298782   -293.32767    68.128476    10890.368 
    4442 7.768635e-31    1.3012182    2.3962172   -293.36024    65.587267    10890.368 
    4443 3.8071636e-29    1.3017898    2.3658396   -293.38948      63.1517    10890.368 
    4444 1.8665662e-27    1.3023424    2.3384024   -293.41574    60.817675    10890.368 
    4445 9.1553937e-26    1.3028764    2.3135994   -293.43933     58.58119    10890.368 
    4446 4.4927209e-24     1.303392     2.291157   -293.46054    56.438355    10890.368 
    4447 2.205708e-22    1.3038896    2.2708311    -293.4796     54.38539    10890.368 
    4448 1.0834291e-20    1.3043695    2.2524037   -293.49676     52.41863    10890.368 
    4449 5.3244515e-19    1.3048321    2.2356801    -293.5122    50.534526    10890.368 
    4450 2.6180596e-17    1.3052777    2.2204861    -293.5261    48.729647    10890.368 
    4451 1.2880215e-15    1.3057068    2.2066664   -293.53863     47.00068    10890.368 
    4452 6.3403697e-14    1.3061196    2.1940818   -293.54993    45.344427    10890.368 
    4453 3.1229372e-12    1.3065166    2.1826082   -293.56012    43.757809    10890.368 
    4454 1.539142e-10    1.3068981    2.1721343   -293.56932    42.237858    10890.368 
    4455 7.5905074e-09    1.3072645    2.1625609   -293.57762    40.781721    10890.368 
    4456 3.7458529e-07    1.3076162    2.1537987   -293.58513    39.386652    10890.368 
    4457 1.8500376e-05    1.3079537    2.1457674   -293.59191    38.049881    10890.368 
    4458 0.00092042162    1.3082794    2.1383467   -293.59769    36.761858    10890.368 
    4459  0.063808911     1.308709    2.1290383   -293.57683     35.18134    10890.368 
    4460    382.46757    1.3166543    2.0474964   -120.36405    731.57356    10890.368 
    4461 5.2655443e-117     3.596314    1918.4099     1703.031   -14804.635    10890.368 
    4462 7.1372299e-118    3.5991135    1717.1618    1495.6904   -13581.708    10890.368 
    4463 9.2420666e-117    3.5907048    1537.2343    1310.1886   -12473.646    10890.368 
    4464 1.3771087e-115    3.5725367    1376.5685     1144.424   -11469.945    10890.368 
    4465 2.328501e-114    3.5460996    1233.2238    996.41533   -10560.722    10890.368 
    4466 4.4103855e-113     3.512846    1105.4004    864.32427   -9736.8052    10890.368 
    4467 9.2473505e-112    3.4732549     991.4486    746.46495     -8987.26    10890.368 
    4468 2.1232906e-110    3.4260378    889.86777    641.30108   -8305.8331    10890.368 
    4469 5.2870189e-109    3.3724953    799.30447    547.44948   -7686.7415    10890.368 
    4470 1.4151917e-107    3.3139661    718.54398    463.66864   -7123.7145    10890.368 
    4471 4.0403437e-106    3.2516275    646.49922    388.84718   -6611.1102    10890.368 
    4472 1.2217436e-104    3.1865033    582.20009    321.99297   -6143.8639    10890.368 
    4473 3.8885884e-103    3.1194756    524.78278    262.22226   -5717.4364    10890.368 
    4474 1.2955216e-101    3.0512968    473.47935    208.74915   -5327.7643    10890.368 
    4475 4.4957012e-100    2.9826034    427.60799    160.87555   -4971.2126    10890.368 
    4476 1.6178943e-98    2.9139288    386.56386    117.98194   -4644.5307    10890.368 
    4477 6.0147413e-97    2.8457153    349.81077    79.518852   -4344.8126    10890.368 
    4478 2.3019869e-95    2.7783261    316.87356    44.999148   -4069.4598    10890.368 
    4479 9.0423681e-94    2.7120555    287.33126     13.99102   -3816.1483    10890.368 
    4480 3.6356284e-92    2.6471385    260.81097   -13.888265   -3582.7989    10890.368 
    4481 1.4926305e-90    2.5837594    236.98229    -38.97797   -3367.5501    10890.368 
    4482 6.2441864e-89    2.5220589     215.5525   -61.578877   -3168.7345    10890.368 
    4483 2.6566202e-87     2.462141    196.26218   -81.957731   -2984.8574    10890.368 
    4484 1.1475806e-85    2.4041051     178.8813   -100.35114   -2814.1458    10890.368 
    4485 5.0256211e-84    2.3480308    163.20596   -116.96905   -2655.8017    10890.368 
    4486 2.2283079e-82    2.2939252    149.05512   -131.99797   -2508.8188    10890.368 
    4487 9.9914244e-81    2.2417804     136.2681   -145.60362   -2372.2184    10890.368 
    4488 4.5257443e-79    2.1915773    124.70216    -157.9333   -2245.1186    10890.368 
    4489 2.0689794e-77    2.1432873    114.23046   -169.11805   -2126.7244    10890.368 
    4490 9.5381186e-76    2.0968746     104.7402   -179.27446   -2016.3177    10890.368 
    4491 4.4308314e-74    2.0522974    96.130987   -188.50641   -1913.2494    10890.368 
    4492 2.0726853e-72    2.0095093    88.313445   -196.90649   -1816.9319    10890.368 
    4493 9.7576923e-71    1.9684605    81.207917   -204.55727   -1726.8327    10890.368 
    4494 4.6205442e-69    1.9290987    74.743367   -211.53247   -1642.4688    10890.368 
    4495 2.1996915e-67    1.8913699    68.856395   -217.89797   -1563.4009    10890.368 
    4496 1.0523602e-65    1.8552192    63.490373   -223.71267   -1489.2298    10890.368 
    4497 5.0574425e-64    1.8205911    58.594678   -229.02927   -1419.5917    10890.368 
    4498 2.4406634e-62    1.7874301     54.12402   -233.89499   -1354.1547    10890.368 
    4499 1.182378e-60     1.755681    50.037842   -238.35216   -1292.6157    10890.368 
    4500 5.7484464e-59    1.7252895    46.299798   -242.43878   -1234.6976    10890.368 
    4501 2.8039876e-57     1.696202    42.877284   -246.18895   -1180.1465    10890.368 
    4502 1.3719215e-55    1.6683661    39.741024   -249.63335   -1128.7298    10890.368 
    4503 6.7315552e-54    1.6417307    36.864714   -252.79959   -1080.2338    10890.368 
    4504 3.3116782e-52     1.616246    34.224691   -255.71253   -1034.4622    10890.368 
    4505 1.6332341e-50    1.5918638     31.79965   -258.39458   -991.23429    10890.368 
    4506 8.0731676e-49    1.5685373    29.570393   -260.86598   -950.38353    10890.368 
    4507 3.999156e-47    1.5462214    27.519602     -263.145   -911.75631    10890.368 
    4508 1.9850001e-45    1.5248725    25.631642   -265.24817   -875.21073    10890.368 
    4509 9.8710724e-44    1.5044486    23.892381   -267.19044    -840.6156    10890.368 
    4510 4.9173138e-42    1.4849095    22.289036   -268.98538   -807.84944    10890.368 
    4511 2.4535982e-40    1.4662161    20.810032   -270.64527   -776.79967    10890.368 
    4512 1.2261586e-38    1.4483315    19.444878   -272.18128   -747.36187    10890.368 
    4513  6.13644e-37    1.4312198    18.184055   -273.60353   -719.43901    10890.368 
    4514 3.0752117e-35    1.4148468    17.018921   -274.92127   -692.94092    10890.368 
    4515 1.5430745e-33    1.3991798    15.941618   -276.14288   -667.78368    10890.368 
    4516 7.7521001e-32    1.3841875       14.945   -277.27601    -643.8891    10890.368 
    4517 3.8988985e-30    1.3698397    14.022556   -278.32766   -621.18429    10890.368 
    4518 1.9630266e-28     1.356108    13.168352   -279.30418   -599.60122    10890.368 
    4519 9.8934032e-27    1.3429649    12.376977   -280.21142   -579.07636    10890.368 
    4520 4.9908651e-25    1.3303843    11.643486   -281.05469   -559.55031    10890.368 
    4521 2.5199596e-23    1.3183411    10.963362   -281.83888    -540.9675    10890.368 
    4522 1.2734372e-21    1.3068116    10.332471   -282.56845    -523.2759    10890.368 
    4523 6.4403232e-20    1.2957729    9.7470292   -283.24751   -506.42675    10890.368 
    4524 3.2596077e-18    1.2852034    9.2035691   -283.87982   -490.37434    10890.368 
    4525 1.6509469e-16    1.2750824    8.6989105   -284.46883   -475.07575    10890.368 
    4526 8.3674817e-15    1.2653901    8.2301346   -285.01773   -460.49072    10890.368 
    4527 4.2436069e-13    1.2561076    7.7945601   -285.52944   -446.58139    10890.368 
    4528 2.1534765e-11     1.247217    7.3897224   -286.00665   -433.31217    10890.368 
    4529 1.093444e-09    1.2387012    7.0133538   -286.45185   -420.64958    10890.368 
    4530 5.5551038e-08    1.2305438    6.6633668   -286.86732    -408.5621    10890.368 
    4531 2.8236817e-06    1.2227292     6.337838   -287.25517   -397.02006    10890.368 
    4532 0.00014360321    1.2152425     6.034989    -287.6173   -385.99502    10890.368 
    4533  0.007313639    1.2080625    5.7529157   -287.95272   -375.43728    10890.368 
    4534    0.3922253     1.200813     5.476515   -288.11152   -364.08462    10890.368 
    4535    116.94812    1.1743098    4.5405301   -236.44033   -103.15776    10890.368 
    4536 3.7007651e-26    1.7638779    271.87706   -1.5463702    292.10379    10890.368 
    4537 7.1703055e-27    1.7025733    252.76163   -22.176937    336.16616    10890.368 
    4538 3.1646503e-25     1.645299    235.02978   -41.328438    374.53824    10890.368 
    4539 1.4105587e-23    1.5917867    218.58265   -59.105324    407.71885    10890.368 
    4540 6.3451417e-22    1.5417853    203.32775   -75.605352    436.17092    10890.368 
    4541 2.8787405e-20    1.4950599    189.17877   -90.919866    460.32327    10890.368 
    4542 1.3164944e-18    1.4513911    176.05523    -105.1341     480.5724    10890.368 
    4543 6.0652986e-17    1.4105738    163.88222    -118.3275     497.2843    10890.368 
    4544 2.8137119e-15    1.3724165    152.59005   -130.57401    510.79632    10890.368 
    4545 1.3136939e-13    1.3367406    142.11397   -141.94242    521.41896    10890.368 
    4546 6.1702546e-12    1.3033791    132.39389   -152.49665    529.43763    10890.368 
    4547 2.9142517e-10    1.2721767    123.37405   -162.29607    535.11436    10890.368 
    4548 1.3835646e-08    1.2429881    115.00275   -171.39576    538.68939    10890.368 
    4549 6.6003267e-07    1.2156781     107.2321   -179.84683    540.38281    10890.368 
    4550 3.1628698e-05    1.1901205    100.01775   -187.69665    540.39602    10890.368 
    4551 0.0015220096    1.1661977    93.318546   -194.98855    538.91576    10890.368 
    4552   0.07356122    1.1437888    87.093377   -201.73531    536.23957    10890.368 
    4553    3.6558596     1.122242    81.156501   -206.58018    538.93509    10890.368 
    4554    444.45994    1.0751782    68.388769   -20.774303    1362.6684    10890.368 
    4555   0.05719318    1.1699301    4.9169333   -290.93383   -29.051909    10890.368 
    4556 0.00079954254    1.1717502    4.6497314   -291.22054   -23.462173    10890.368 
    4557   0.03934877    1.1734902    4.4080052   -291.43887   -17.971285    10890.368 
    4558    2.7958712    1.1758977    4.1025259   -290.48704   -5.5515523    10890.368 
    4559     11188.81    1.2246931    2.7818516    4776.6331    21383.247    10890.368 
    4560 4.8816698e-30    1.2250435    2.7053923    -292.9095    101.88334    10890.368 
    4561 2.3742452e-28    1.2253882    2.6374732   -292.98216    99.643912    10890.368 
    4562 1.1550403e-26    1.2257272    2.5771411   -293.04692    97.484809    10890.368 
    4563 5.620701e-25    1.2260605    2.5235488   -293.10467    95.403895    10890.368 
    4564 2.7359883e-23     1.226388     2.475943   -293.15617    93.398914    10890.368 
    4565 1.3322276e-21    1.2267098    2.4336544   -293.20211    91.467522    10890.368 
    4566 6.4892501e-20     1.227026    2.3960879    -293.2431    89.607315    10890.368 
    4567 3.1620996e-18    1.2273365    2.3627145   -293.27969    87.815857    10890.368 
    4568 1.5414737e-16    1.2276415    2.3330645   -293.31237    86.090694    10890.368 
    4569 7.5178317e-15     1.227941    2.3067201   -293.34156    84.429377    10890.368 
    4570 3.6682854e-13    1.2282352    2.2833103   -293.36765    82.829471    10890.368 
    4571 1.7908852e-11    1.2285241    2.2625052   -293.39098    81.288572    10890.368 
    4572 8.7483998e-10    1.2288078    2.2440121   -293.41185    79.804316    10890.368 
    4573 4.2763181e-08    1.2290865    2.2275705   -293.43054    78.374382    10890.368 
    4574 2.0918029e-06    1.2293602    2.2129493   -293.44728    76.996503    10890.368 
    4575 0.00010243286    1.2296292    2.1999393   -293.46225     75.66824    10890.368 
    4576 0.0051038957    1.2298981    2.1881676   -293.47369    74.374867    10890.368 
    4577   0.53463547     1.230407    2.1684519   -293.25701    72.947935    10890.368 
    4578    14223.705    1.2510068    3.2395148    6151.9857    27020.383    10890.368 
    4579 3.8425672e-38      1.25082    3.1131193   -292.65865    -27.34803    10890.368 
    4580 1.8651752e-36    1.2506488    3.0004435   -292.76851   -24.444979    10890.368 
    4581 9.0550006e-35     1.250492    2.8999813   -292.86627   -21.742303    10890.368 
    4582 4.3967016e-33    1.2503486    2.8103929   -292.95326   -19.225587    10890.368 
    4583 2.1351824e-31    1.2502177    2.7304863   -293.03068   -16.881582    10890.368 
    4584 1.037082e-29    1.2500982    2.6592012   -293.09958   -14.698093    10890.368 
    4585 5.0380547e-28    1.2499895    2.5955938   -293.16092   -12.663891    10890.368 
    4586 2.4478607e-26    1.2498908    2.5388246   -293.21552   -10.768624    10890.368 
    4587 1.1895641e-24    1.2498013    2.4881465   -293.26413   -9.0027402    10890.368 
    4588 5.7818984e-23    1.2497205    2.4428946   -293.30742    -7.357419    10890.368 
    4589 2.8108631e-21    1.2496477    2.4024771   -293.34597   -5.8245075    10890.368 
    4590 1.3667897e-19    1.2495825    2.3663673   -293.38031   -4.3964638    10890.368 
    4591 6.6475817e-18    1.2495243    2.3340964   -293.41091   -3.0663052    10890.368 
    4592 3.2339551e-16    1.2494727    2.3052471   -293.43818   -1.8275617    10890.368 
    4593 1.5737009e-14    1.2494273    2.2794478   -293.46249  -0.67423324    10890.368 
    4594 7.6601829e-13    1.2493877    2.2563678   -293.48416   0.39924861    10890.368 
    4595 3.7298996e-11    1.2493535    2.2357125   -293.50348    1.3980556    10890.368 
    4596 1.8168121e-09    1.2493243    2.2172198   -293.52073    2.3269949    10890.368 
    4597 8.8530572e-08       1.2493    2.2006559   -293.53612    3.1905379    10890.368 
    4598 4.3158874e-06    1.2492801    2.1858127   -293.54986    3.9928657    10890.368 
    4599 0.00021066171    1.2492644    2.1724948   -293.56205    4.7388188    10890.368 
    4600  0.010721824    1.2492522    2.1600393   -293.56873      5.48102    10890.368 
    4601    2.4450278    1.2492228    2.1250771   -292.49755    12.346547    10890.368 
    4602    33340.255    1.2617451    20.147139    14830.853    63484.359    10890.368 
    4603 6.1043416e-93     1.261491    18.131375   -277.11423    76.412469    10890.368 
    4604 2.9273835e-91    1.2613121    16.338448   -278.94784    74.944569    10890.368 
    4605 1.4058449e-89    1.2611982    14.743815   -280.57959       73.062    10890.368 
    4606 6.7599549e-88    1.2611404    13.325629   -282.03168    70.842631    10890.368 
    4607 3.2541534e-86     1.261131    12.064439   -283.32386    68.354019    10890.368 
    4608 1.5680721e-84    1.2611628    10.942934   -284.47372    65.654638    10890.368 
    4609 7.5627504e-83      1.26123    9.9457047   -285.49692    62.794962    10890.368 
    4610 3.650367e-81    1.2613272    9.0590351   -286.40739    59.818428    10890.368 
    4611 1.763187e-79    1.2614496    8.2707188   -287.21754    56.762289    10890.368 
    4612 8.5218056e-78    1.2615932    7.5698925   -287.93842     53.65837    10890.368 
    4613 4.1210354e-76    1.2617544    6.9468886   -288.57985    50.533734    10890.368 
    4614 1.993866e-74      1.26193    6.3931043   -289.15058    47.411275    10890.368 
    4615 9.6511034e-73    1.2621174    5.9008847   -289.65841     44.31024    10890.368 
    4616 4.6733513e-71     1.262314    5.4634183   -290.11026    41.246691    10890.368 
    4617 2.2637676e-69    1.2625179     5.074645   -290.51229    38.233912    10890.368 
    4618 1.0969096e-67    1.2627273    4.7291728   -290.87001    35.282772    10890.368 
    4619 5.3165622e-66    1.2629405    4.4222048   -291.18829    32.402038    10890.368 
    4620 2.5775034e-64    1.2631562    4.1494737   -291.47148    29.598659    10890.368 
    4621 1.2498693e-62    1.2633733    3.9071831   -291.72345     26.87801    10890.368 
    4622 6.0620147e-61    1.2635909    3.6919564   -291.94764    24.244113    10890.368 
    4623 2.9406795e-59    1.2638079    3.5007899   -292.14712     21.69982    10890.368 
    4624 1.426754e-57    1.2640238    3.3310119    -292.3246     19.24699    10890.368 
    4625 6.9233212e-56    1.2642378    3.1802462   -292.48252    16.886629    10890.368 
    4626 3.3599908e-54    1.2644496    3.0463797   -292.62304    14.619022    10890.368 
    4627 1.6308534e-52    1.2646586    2.9275329   -292.74807    12.443843    10890.368 
    4628 7.9166361e-51    1.2648646    2.8220344   -292.85932    10.360259    10890.368 
    4629 3.8433662e-49    1.2650672    2.7283981   -292.95831    8.3670091    10890.368 
    4630 1.8660581e-47    1.2652663    2.6453024   -293.04639    6.4624852    10890.368 
    4631 9.0610468e-46    1.2654615    2.5715724   -293.12477    4.6447936    10890.368 
    4632 4.4001701e-44    1.2656529    2.5061632   -293.19453    2.9118128    10890.368 
    4633 2.1369628e-42    1.2658403     2.448146    -293.2566    1.2612423    10890.368 
    4634 1.0379104e-40    1.2660237    2.3966951   -293.31183    -0.309355    10890.368 
    4635 5.0414738e-39    1.2662029    2.3510764   -293.36099   -1.8025167    10890.368 
    4636 2.4490057e-37    1.2663781    2.3106374   -293.40474   -3.2208497    10890.368 
    4637 1.1897534e-35    1.2665492    2.2747981   -293.44368   -4.5670032    10890.368 
    4638 5.7804223e-34    1.2667162     2.243043   -293.47834   -5.8436464    10890.368 
    4639 2.8086571e-32    1.2668792    2.2149139    -293.5092    -7.053449    10890.368 
    4640 1.3648215e-30    1.2670381    2.1900038   -293.53666   -8.1990652    10890.368 
    4641 6.6327378e-29    1.2671932    2.1679507   -293.56111     -9.28312    10890.368 
    4642 3.2236801e-27    1.2673444    2.1484331   -293.58288   -10.308198    10890.368 
    4643 1.5669528e-25    1.2674919    2.1311655   -293.60226   -11.276835    10890.368 
    4644 7.6174216e-24    1.2676356    2.1158941   -293.61951    -12.19151    10890.368 
    4645 3.7034962e-22    1.2677758    2.1023934   -293.63488   -13.054637    10890.368 
    4646 1.8008266e-20    1.2679124    2.0904632   -293.64857   -13.868566    10890.368 
    4647 8.7577561e-19    1.2680456    2.0799255   -293.66077   -14.635573    10890.368 
    4648 4.2597117e-17    1.2681754    2.0706225   -293.67163   -15.357863    10890.368 
    4649 2.0722405e-15     1.268302    2.0624139   -293.68131   -16.037566    10890.368 
    4650 1.0082764e-13    1.2684255     2.055175   -293.68994   -16.676734    10890.368 
    4651 4.9068886e-12    1.2685458    2.0487954   -293.69762   -17.276925    10890.368 
    4652 2.3885183e-10    1.2686632    2.0431768   -293.70448   -17.840254    10890.368 
    4653 1.1629373e-08    1.2687778    2.0382322   -293.71059   -18.368751    10890.368 
    4654 5.6637218e-07    1.2688895    2.0338842   -293.71604   -18.864169    10890.368 
    4655 2.7598471e-05    1.2689986    2.0300632    -293.7209   -19.328257    10890.368 
    4656 0.0013639127    1.2691065    2.0266626    -293.7247   -19.766396    10890.368 
    4657   0.12738958    1.2692935    2.0214986   -293.67445   -20.265441    10890.368 
    4658    2885.0712    1.2756621    2.2400963    1013.6141      5440.58    10890.368 
    4659 3.9377607e-07    1.2760742    2.2579992   -293.54683   -46.798807    10890.368 
    4660 0.00028249485    1.2760008     2.232159   -293.57105   -45.299073    10890.368 
    4661  0.014126669    1.2759304    2.2084016   -293.58707   -43.817561    10890.368 
    4662    2.1894688    1.2757611    2.1557979   -292.65042   -36.133318    10890.368 
    4663     39500.59    1.2727789    12.511429    17614.138    75219.574    10890.368 
    4664 1.0108094e-110    1.2727069    11.341981   -284.11094    93.679651    10890.368 
    4665 4.8735229e-109    1.2726753    10.302074   -285.17687     90.41996    10890.368 
    4666 2.3516539e-107    1.2726785    9.3774144   -286.12536    87.042281    10890.368 
    4667 1.1355881e-105    1.2727115    8.5552819   -286.96932    83.585444    10890.368 
    4668 5.4871916e-104    1.2727697    7.8243542   -287.72025    80.082614    10890.368 
    4669 2.6529553e-102    1.2728493    7.1745555   -288.38842    76.561992    10890.368 
    4670 1.2833127e-100    1.2729468    6.5969197   -288.98292    73.047427    10890.368 
    4671 6.2105935e-99    1.2730594     6.083468   -289.51188    69.558962    10890.368 
    4672 3.0068369e-97    1.2731842    5.6271011   -289.98251    66.113316    10890.368 
    4673 1.4562748e-95    1.2733191    5.2215022   -290.40124    62.724312    10890.368 
    4674 7.0553124e-94    1.2734621    4.8610511    -290.7738    59.403249    10890.368 
    4675 3.4191118e-92    1.2736114    4.5407477   -291.10527    56.159234    10890.368 
    4676 1.6573757e-90    1.2737655    4.2561437   -291.40017    52.999476    10890.368 
    4677 8.0357646e-89    1.2739231    4.0032818   -291.66255    49.929543    10890.368 
    4678 3.8969194e-87    1.2740831     3.778642   -291.89599    46.953584    10890.368 
    4679 1.8901411e-85    1.2742445     3.579093   -292.10368    44.074535    10890.368 
    4680 9.1693242e-84    1.2744065    3.4018497   -292.28845     41.29429    10890.368 
    4681 4.4488056e-82    1.2745683    3.2444348   -292.45285    38.613853    10890.368 
    4682 2.1587687e-80    1.2747294    3.1046452   -292.59911    36.033476    10890.368 
    4683 1.0476585e-78    1.2748892    2.9805215   -292.72923    33.552775    10890.368 
    4684 5.0848646e-77    1.2750473    2.8703211   -292.84501    31.170831    10890.368 
    4685 2.4682023e-75    1.2752034    2.7724944   -292.94801    28.886285    10890.368 
    4686 1.1981746e-73     1.275357    2.6856636   -293.03965     26.69741    10890.368 
    4687 5.8169354e-72    1.2755081    2.6086035   -293.12119    24.602184    10890.368 
    4688 2.8242323e-70    1.2756564    2.5402246   -293.19373    22.598346    10890.368 
    4689 1.3713121e-68    1.2758018    2.4795584   -293.25827    20.683447    10890.368 
    4690 6.6588618e-67     1.275944    2.4257438    -293.3157    18.854899    10890.368 
    4691 3.2336269e-65    1.2760831    2.3780152   -293.36679    17.110005    10890.368 
    4692 1.5703801e-63     1.276219    2.3356923   -293.41226    15.445999    10890.368 
    4693 7.6268239e-62    1.2763517      2.29817   -293.45271     13.86007    10890.368 
    4694 3.7042992e-60     1.276481    2.2649108    -293.4887    12.349385    10890.368 
    4695 1.7992497e-58    1.2766071    2.2354367   -293.52073    10.911113    10890.368 
    4696 8.7397655e-57      1.27673    2.2093231   -293.54923    9.5424372    10890.368 
    4697 4.2455235e-55    1.2768496    2.1861926    -293.5746    8.2405739    10890.368 
    4698 2.0624636e-53     1.276966    2.1657098   -293.59717    7.0027801    10890.368 
    4699 1.0019951e-51    1.2770793    2.1475767   -293.61725    5.8263656    10890.368 
    4700 4.8682186e-50    1.2771894    2.1315285   -293.63513    4.7086998    10890.368 
    4701 2.3653805e-48    1.2772966    2.1173301   -293.65104    3.6472179    10890.368 
    4702  1.14937e-46    1.2774007    2.1047724    -293.6652    2.6394263    10890.368 
    4703 5.5853253e-45     1.277502    2.0936699    -293.6778    1.6829057    10890.368 
    4704 2.7143692e-43    1.2776004    2.0838577   -293.68902   0.77531363    10890.368 
    4705 1.3192395e-41     1.277696    2.0751895   -293.69901 -0.085613225    10890.368 
    4706 6.4123237e-40     1.277789    2.0675352    -293.7079  -0.90205857    10890.368 
    4707 3.1170768e-38    1.2778793    2.0607794   -293.71582   -1.6761259    10890.368 
    4708 1.5153865e-36    1.2779671    2.0548196   -293.72287   -2.4098387    10890.368 
    4709 7.3679594e-35    1.2780524    2.0495649   -293.72915   -3.1051412    10890.368 
    4710 3.5828076e-33    1.2781354    2.0449346   -293.73474   -3.7638992    10890.368 
    4711 1.7424378e-31    1.2782159    2.0408569   -293.73972   -4.3879012    10890.368 
    4712 8.4752852e-30    1.2782943    2.0372684   -293.74416   -4.9788606    10890.368 
    4713 4.123072e-28    1.2783704    2.0341125   -293.74811   -5.5384168    10890.368 
    4714 2.0061535e-26    1.2784445    2.0313393   -293.75164   -6.0681374    10890.368 
    4715 9.7631929e-25    1.2785165    2.0289044   -293.75478   -6.5695202    10890.368 
    4716 4.752398e-23    1.2785865    2.0267685   -293.75758   -7.0439955    10890.368 
    4717 2.3138577e-21    1.2786546    2.0248966   -293.76007   -7.4929278    10890.368 
    4718 1.1268708e-19    1.2787209    2.0232579    -293.7623   -7.9176188    10890.368 
    4719 5.4895545e-18    1.2787854    2.0218249   -293.76429    -8.319309    10890.368 
    4720 2.6750922e-16    1.2788481    2.0205735   -293.76606   -8.6991803    10890.368 
    4721 1.3040481e-14    1.2789092     2.019482   -293.76765   -9.0583581    10890.368 
    4722 6.3594226e-13    1.2789687    2.0185314   -293.76906   -9.3979137    10890.368 
    4723 3.1026203e-11    1.2790266    2.0177049   -293.77032   -9.7188663    10890.368 
    4724 1.5144186e-09     1.279083    2.0169876   -293.77145   -10.022185    10890.368 
    4725 7.395921e-08     1.279138    2.0163663   -293.77246   -10.308794    10890.368 
    4726 3.6146567e-06    1.2791916    2.0158292   -293.77336    -10.57961    10890.368 
    4727 0.00017849867    1.2792443    2.0153616    -293.7741   -10.837711    10890.368 
    4728  0.014102559    1.2793239    2.0147546   -293.76891   -11.190905    10890.368 
    4729    172.66071    1.2813212    2.0298037   -215.54269    307.72755    10890.368 
    4730            0    2.3693592    5695.9098    5473.9031   -33989.432    10890.368 
    4731            0     2.097452    5165.9669    4937.8157   -31146.375    10890.368 
    4732            0    2.0113614    4665.9755    4432.1642   -28470.368    10890.368 
    4733            0    2.0577385    4200.8304    3961.8456   -25966.374    10890.368 
    4734            0    2.0946782    3772.5544    3528.7705   -23648.917    10890.368 
    4735            0    2.1135475    3381.3118    3133.1026   -21523.704    10890.368 
    4736            0    2.1180294    3026.0656    2773.8015   -19584.208    10890.368 
    4737            0    2.1119516    2704.9987    2449.0374   -17820.561    10890.368 
    4738            0    2.0989304    2415.8587    2156.5391   -16221.069    10890.368 
    4739            0    2.0821715    2156.1908    1893.8305    -14773.25    10890.368 
    4740            0    2.0643791    1923.4927    1658.3861   -13464.509    10890.368 
    4741            0    2.0477357    1715.3129    1447.7311   -12282.573    10890.368 
    4742            0    2.0339251    1529.3113    1259.5024    -11215.76    10890.368 
    4743            0    2.0241795    1363.2936     1091.484   -10253.122    10890.368 
    4744            0    2.0193381    1215.2283    941.62359     -9384.52    10890.368 
    4745            0    2.0199097    1083.2526    808.03904   -8600.6448    10890.368 
    4746 1.0555268e-318    2.0239191    965.67018    689.01391   -7889.0194    10890.368 
    4747 2.8564435e-317    2.0263492    860.93969    582.98509   -7244.6245    10890.368 
    4748 7.2896648e-316    2.0272911    767.67495    488.55148   -6661.7582    10890.368 
    4749 1.9468917e-314     2.027021     684.6319     404.4558   -6134.1591    10890.368 
    4750 5.5419099e-313    2.0259526    610.69537    329.57114    -5655.322    10890.368 
    4751 1.6726292e-311    2.0256485     544.8685    262.89129   -5219.9445    10890.368 
    4752 5.319007e-310    2.0262716    486.26101     203.5163   -4824.7135    10890.368 
    4753 1.7720586e-308    2.0276443    434.07758    150.64189   -4465.5507    10890.368 
    4754 6.1536038e-307    2.0296166    387.60955    103.55138    -4138.804    10890.368 
    4755 2.2172469e-305    2.0320613    346.22587    61.606566   -3841.2044    10890.368 
    4756 8.2561439e-304    2.0348704    309.36501    24.239491   -3569.8268    10890.368 
    4757 3.1656156e-302    2.0379524    276.52744   -9.0550945   -3322.0542    10890.368 
    4758 1.2458577e-300    2.0412296    247.26897    -38.72651   -3095.5454    10890.368 
    4759 5.0184945e-299    2.0446365    221.19468   -65.174252   -2888.2057    10890.368 
    4760 2.0638382e-297    2.0481177    197.95349   -88.753475   -2698.1604    10890.368 
    4761 8.645535e-296    2.0517689    177.23334   -109.77975   -2522.7246    10890.368 
    4762 3.681727e-294    2.0559542    158.75725   -128.53294   -2360.9898    10890.368 
    4763 1.5910842e-292    2.0605763    142.27871   -145.26252   -2212.1116    10890.368 
    4764 6.9668379e-291    2.0655215    127.57841    -160.1905   -2074.8776    10890.368 
    4765 3.0865267e-289    2.0706925    114.46139   -173.51426   -1948.2005    10890.368 
    4766 1.3818309e-287    2.0760066    102.75432   -185.40929   -1831.1047    10890.368 
    4767 6.2446692e-286    2.0813938     92.30305   -196.03165   -1722.7143    10890.368 
    4768 2.845814e-284    2.0867952    82.970528   -205.52013   -1622.2424    10890.368 
    4769 1.3066725e-282    2.0921612    74.634832   -213.99819   -1528.9818    10890.368 
    4770 6.0402286e-281    2.0974508    67.187508   -221.57566   -1442.2959    10890.368 
    4771 2.809101e-279    2.1026299    60.532056   -228.35027   -1361.6119    10890.368 
    4772 1.3135403e-277    2.1076709    54.582603   -234.40901   -1286.4136    10890.368 
    4773 6.1722891e-276    2.1125514    49.262719   -239.82929   -1216.2355    10890.368 
    4774 2.9131806e-274    2.1172537    44.504363   -244.68005   -1150.6573    10890.368 
    4775 1.3804548e-272    2.1217641    40.246954   -249.02266   -1089.2996    10890.368 
    4776 6.5651888e-271    2.1260723    36.436544   -252.91178   -1031.8192    10890.368 
    4777 3.1325509e-269    2.1301709    33.025079    -256.3961    -977.9054    10890.368 
    4778 1.4991586e-267    2.1340552    29.969754   -259.51901   -927.27694    10890.368 
    4779 7.1942139e-266    2.1377223    27.232426   -262.31916    -879.6786    10890.368 
    4780 3.461042e-264    2.1411713    24.779103   -264.83101   -834.87875    10890.368 
    4781 1.6689055e-262    2.1444027    22.579488   -267.08527   -792.66689    10890.368 
    4782 8.0645946e-261    2.1474184    20.606568   -269.10933   -752.85148    10890.368 
    4783 3.9047534e-259    2.1502212     18.83626    -270.9276   -715.25811    10890.368 
    4784 1.8941231e-257    2.1528148    17.247082   -272.56188   -679.72773    10890.368 
    4785 9.2040182e-256    2.1552036    15.819875   -274.03158   -646.11513    10890.368 
    4786 4.479812e-254    2.1573925    14.537543   -275.35406   -614.28763    10890.368 
    4787 2.183836e-252     2.159387    13.384831   -276.54478   -584.12378    10890.368 
    4788 1.066176e-250    2.1611926    12.348125   -277.61757   -555.51232    10890.368 
    4789 5.2126975e-249    2.1628155     11.41527   -278.58475    -528.3512    10890.368 
    4790 2.5521238e-247    2.1642616    10.575414   -279.45734   -502.54668    10890.368 
    4791 1.2512147e-245    2.1655373    9.8188646   -280.24517   -478.01255    10890.368 
    4792 6.142457e-244    2.1666486    9.1369645   -280.95704   -454.66944    10890.368 
    4793 3.0194336e-242     2.167602    8.5219786    -281.6008   -432.44417    10890.368 
    4794 1.4862031e-240    2.1684036    7.9669946   -282.18346   -411.26917    10890.368 
    4795 7.3248598e-239    2.1690595    7.4658339   -282.71131   -391.08202    10890.368 
    4796 3.6148553e-237    2.1695759    7.0129724   -283.18995   -371.82491    10890.368 
    4797 1.7863121e-235    2.1699586    6.6034701   -283.62441    -353.4443    10890.368 
    4798 8.8390419e-234    2.1702134    6.2329082   -284.01917   -335.89052    10890.368 
    4799 4.3796865e-232    2.1703461    5.8973332   -284.37825    -319.1174    10890.368 
    4800 2.1731071e-230    2.1703619    5.5932068   -284.70525   -303.08203    10890.368 
    4801 1.0797702e-228    2.1702664    5.3173616    -285.0034   -287.74443    10890.368 
    4802 5.3728756e-227    2.1700647    5.0669612   -285.27556   -273.06734    10890.368 
    4803 2.6774514e-225    2.1697616    4.8394652   -285.52434   -259.01598    10890.368 
    4804 1.3362596e-223    2.1693621    4.6325974   -285.75204   -245.55784    10890.368 
    4805 6.6792873e-222    2.1688708    4.4443176   -285.96075   -232.66251    10890.368 
    4806 3.3439173e-220     2.168292    4.2727969   -286.15231   -220.30153    10890.368 
    4807 1.6768078e-218    2.1676301    4.1163948   -286.32841   -208.44818    10890.368 
    4808 8.4222777e-217    2.1668891    3.9736396   -286.49054   -197.07742    10890.368 
    4809 4.2375052e-215    2.1660731    3.8432106   -286.64005   -186.16571    10890.368 
    4810 2.1357026e-213    2.1651857    3.7239217   -286.77814   -175.69091    10890.368 
    4811 1.0782906e-211    2.1642305     3.614708   -286.90591   -165.63218    10890.368 
    4812 5.4539252e-210    2.1632111    3.5146122   -287.02432   -155.96991    10890.368 
    4813 2.763589e-208    2.1621307    3.4227741   -287.13425   -146.68557    10890.368 
    4814 1.4029429e-206    2.1609924    3.3384199   -287.23649    -137.7617    10890.368 
    4815 7.1354052e-205    2.1597993    3.2608536   -287.33176    -129.1818    10890.368 
    4816 3.6359472e-203    2.1585542    3.1894483    -287.4207   -120.93028    10890.368 
    4817 1.8562788e-201    2.1572599    3.1236399   -287.50386   -112.99237    10890.368 
    4818 9.4951109e-200     2.155919    3.0629199   -287.58179   -105.35412    10890.368 
    4819 4.8662076e-198     2.154534    3.0068297   -287.65494   -98.002281    10890.368 
    4820 2.4987078e-196    2.1531072    2.9549559   -287.72374   -90.924318    10890.368 
    4821 1.2855027e-194    2.1516409    2.9069254   -287.78857   -84.108327    10890.368 
    4822 6.6261234e-193    2.1501372     2.862401   -287.84978   -77.543013    10890.368 
    4823 3.4219162e-191    2.1485983    2.8210783   -287.90766   -71.217648    10890.368 
    4824 1.7704955e-189     2.147026    2.7826819   -287.96252   -65.122037    10890.368 
    4825 9.177539e-188    2.1454223    2.7469628   -288.01459   -59.246487    10890.368 
    4826 4.765979e-186    2.1437888    2.7136954   -288.06412   -53.581776    10890.368 
    4827 2.4794724e-184    2.1421273    2.6826753   -288.11131   -48.119128    10890.368 
    4828 1.2922094e-182    2.1404394    2.6537174   -288.15635   -42.850184    10890.368 
    4829 6.7461615e-181    2.1387266    2.6266537   -288.19941   -37.766985    10890.368 
    4830 3.5278757e-179    2.1369903    2.6013315   -288.24065   -32.861942    10890.368 
    4831 1.8479229e-177     2.135232    2.5776122   -288.28021   -28.127821    10890.368 
    4832 9.6950229e-176    2.1334529    2.5553698   -288.31822    -23.55772    10890.368 
    4833 5.0943387e-174    2.1316543    2.5344895    -288.3548   -19.145057    10890.368 
    4834 2.6808945e-172    2.1298374    2.5148669   -288.39005   -14.883545    10890.368 
    4835 1.4128727e-170    2.1280033    2.4964067   -288.42407   -10.767185    10890.368 
    4836 7.4565154e-169    2.1261531    2.4790221   -288.45696   -6.7902427    10890.368 
    4837 3.9405451e-167    2.1242878    2.4626337   -288.48878   -2.9472427    10890.368 
    4838 2.0851731e-165    2.1224084     2.447169   -288.51963   0.76704985    10890.368 
    4839 1.1047686e-163    2.1205157    2.4325616   -288.54955    4.3576393    10890.368 
    4840 5.8603306e-162    2.1186108    2.4187509   -288.57863    7.8293113    10890.368 
    4841 3.1122388e-160    2.1166944    2.4056812   -288.60691    11.186644    10890.368 
    4842 1.6546362e-158    2.1147672    2.3933015   -288.63444    14.434016    10890.368 
    4843 8.8062335e-157    2.1128302    2.3815648   -288.66128    17.575621    10890.368 
    4844 4.6915425e-155    2.1108839    2.3704282   -288.68747     20.61547    10890.368 
    4845 2.501838e-153    2.1089291    2.3598519   -288.71304    23.557406    10890.368 
    4846 1.3353701e-151    2.1069664    2.3497996   -288.73805    26.405108    10890.368 
    4847 7.1338598e-150    2.1049964    2.3402376   -288.76251    29.162101    10890.368 
    4848 3.8142581e-148    2.1030197    2.3311349   -288.78647    31.831761    10890.368 
    4849 2.0409904e-146     2.101037    2.3224628   -288.80994    34.417325    10890.368 
    4850 1.0929511e-144    2.0990486    2.3141949   -288.83297    36.921894    10890.368 
    4851 5.8569764e-143    2.0970552    2.3063066   -288.85557    39.348442    10890.368 
    4852 3.1408272e-141    2.0950572    2.2987753   -288.87777    41.699819    10890.368 
    4853 1.6853803e-139     2.093055    2.2915799   -288.89959     43.97876    10890.368 
    4854 9.0494293e-138    2.0910492     2.284701   -288.92104    46.187887    10890.368 
    4855 4.8618401e-136      2.08904    2.2781204   -288.94215    48.329716    10890.368 
    4856 2.6135074e-134     2.087028    2.2718212   -288.96294    50.406661    10890.368 
    4857 1.4056538e-132    2.0850134    2.2657877   -288.98342    52.421038    10890.368 
    4858 7.5640286e-131    2.0829966    2.2600055    -289.0036     54.37507    10890.368 
    4859 4.0722765e-129    2.0809781    2.2544607    -289.0235    56.270893    10890.368 
    4860 2.1934127e-127     2.078958    2.2491408   -289.04314    58.110554    10890.368 
    4861 1.1819324e-125    2.0769367    2.2440338   -289.06252    59.896021    10890.368 
    4862 6.3715464e-124    2.0749146    2.2391286   -289.08165    61.629185    10890.368 
    4863 3.4361186e-122    2.0728918    2.2344149   -289.10056     63.31186    10890.368 
    4864 1.8537629e-120    2.0708686     2.229883   -289.11923     64.94579    10890.368 
    4865 1.0004492e-118    2.0688453    2.2255237    -289.1377    66.532649    10890.368 
    4866 5.4011116e-117    2.0668222    2.2213285   -289.15595    68.074049    10890.368 
    4867 2.9168322e-115    2.0647994    2.2172893   -289.17401    69.571535    10890.368 
    4868 1.5756987e-113    2.0627772    2.2133986   -289.19188    71.026595    10890.368 
    4869 8.5145541e-112    2.0607557    2.2096494   -289.20957    72.440659    10890.368 
    4870 4.6022648e-110    2.0587353    2.2060349   -289.22708    73.815101    10890.368 
    4871 2.4882643e-108     2.056716    2.2025489   -289.24442    75.151242    10890.368 
    4872 1.345647e-106     2.054698    2.1991855    -289.2616    76.450354    10890.368 
    4873 7.2789782e-105    2.0526815     2.195939   -289.27862    77.713659    10890.368 
    4874 3.9383052e-103    2.0506667    2.1928043   -289.29549    78.942332    10890.368 
    4875 2.1312941e-101    2.0486538    2.1897762   -289.31221    80.137507    10890.368 
    4876 1.153634e-99    2.0466428    2.1868502   -289.32879     81.30027    10890.368 
    4877 6.2456726e-98    2.0446338    2.1840218   -289.34523     82.43167    10890.368 
    4878 3.3819945e-96    2.0426272    2.1812867   -289.36153    83.532715    10890.368 
    4879 1.831662e-94    2.0406228    2.1786411   -289.37771    84.604376    10890.368 
    4880 9.9218571e-93     2.038621     2.176081   -289.39376    85.647586    10890.368 
    4881 5.3754202e-91    2.0366217     2.173603   -289.40969    86.663247    10890.368 
    4882 2.9127316e-89    2.0346251    2.1712037   -289.42549    87.652223    10890.368 
    4883 1.5785344e-87    2.0326314    2.1688797   -289.44119     88.61535    10890.368 
    4884 8.5559904e-86    2.0306405    2.1666282   -289.45677    89.553431    10890.368 
    4885 4.6381674e-84    2.0286526    2.1644461   -289.47224     90.46724    10890.368 
    4886 2.5146631e-82    2.0266678    2.1623307    -289.4876    91.357524    10890.368 
    4887 1.3635404e-80    2.0246861    2.1602794   -289.50286    92.225001    10890.368 
    4888 7.3944964e-79    2.0227076    2.1582897   -289.51802    93.070363    10890.368 
    4889 4.0105079e-77    2.0207325    2.1563592   -289.53308    93.894279    10890.368 
    4890 2.1753952e-75    2.0187607    2.1544856   -289.54804    94.697391    10890.368 
    4891 1.1801113e-73    2.0167924    2.1526668   -289.56291    95.480321    10890.368 
    4892 6.4025326e-72    2.0148276    2.1509008   -289.57768    96.243667    10890.368 
    4893 3.4739442e-70    2.0128663    2.1491854   -289.59236    96.988005    10890.368 
    4894 1.8850997e-68    2.0109087     2.147519   -289.60696    97.713892    10890.368 
    4895 1.0230211e-66    2.0089548    2.1458997   -289.62147    98.421865    10890.368 
    4896 5.5522889e-65    2.0070045    2.1443257   -289.63589    99.112441    10890.368 
    4897 3.0136664e-63    2.0050581    2.1427955   -289.65023    99.786121    10890.368 
    4898 1.635884e-61    2.0031155    2.1413075   -289.66449    100.44339    10890.368 
    4899 8.8806073e-60    2.0011767    2.1398602   -289.67867     101.0847    10890.368 
    4900 4.8213021e-58    1.9992419    2.1384522   -289.69277    101.71052    10890.368 
    4901 2.6176784e-56     1.997311    2.1370821   -289.70679    102.32127    10890.368 
    4902 1.4213378e-54     1.995384    2.1357485   -289.72073    102.91737    10890.368 
    4903 7.7180261e-53    1.9934611    2.1344504    -289.7346    103.49923    10890.368 
    4904 4.191235e-51    1.9915423    2.1331864    -289.7484    104.06723    10890.368 
    4905 2.2761641e-49    1.9896275    2.1319554   -289.76213    104.62176    10890.368 
    4906 1.2362034e-47    1.9877168    2.1307563   -289.77578    105.16318    10890.368 
    4907 6.7142909e-46    1.9858103     2.129588   -289.78937    105.69184    10890.368 
    4908 3.6469794e-44    1.9839079    2.1284496   -289.80288    106.20808    10890.368 
    4909 1.9810186e-42    1.9820097      2.12734   -289.81633    106.71223    10890.368 
    4910 1.0761307e-40    1.9801157    2.1262583   -289.82971     107.2046    10890.368 
    4911 5.8460428e-39    1.9782259    2.1252037   -289.84303    107.68552    10890.368 
    4912 3.1759865e-37    1.9763404    2.1241753   -289.85628    108.15526    10890.368 
    4913 1.7254973e-35    1.9744592    2.1231721   -289.86946    108.61412    10890.368 
    4914 9.374934e-34    1.9725822    2.1221935   -289.88259    109.06238    10890.368 
    4915 5.0937752e-32    1.9707095    2.1212387   -289.89565    109.50031    10890.368 
    4916 2.7677594e-30    1.9688411    2.1203069   -289.90865    109.92816    10890.368 
    4917 1.5039496e-28    1.9669771    2.1193975   -289.92159    110.34619    10890.368 
    4918 8.1724836e-27    1.9651174    2.1185097   -289.93446    110.75464    10890.368 
    4919 4.4410952e-25     1.963262    2.1176429   -289.94728    111.15375    10890.368 
    4920 2.413464e-23     1.961411    2.1167964   -289.96004    111.54375    10890.368 
    4921 1.3116133e-21    1.9595644    2.1159697   -289.97275    111.92485    10890.368 
    4922 7.1282761e-20    1.9577222    2.1151621   -289.98539    112.29727    10890.368 
    4923 3.8741505e-18    1.9558843    2.1143732   -289.99798    112.66122    10890.368 
    4924 2.1056262e-16    1.9540508    2.1136023   -290.01051    113.01689    10890.368 
    4925 1.1444543e-14    1.9522218    2.1128489   -290.02299    113.36449    10890.368 
    4926 6.2205332e-13    1.9503971    2.1121125   -290.03541    113.70421    10890.368 
    4927 3.3811805e-11    1.9485768    2.1113926   -290.04778    114.03621    10890.368 
    4928 1.8378934e-09     1.946761    2.1106888   -290.06009    114.36069    10890.368 
    4929 9.990409e-08    1.9449496    2.1100006   -290.07235    114.67781    10890.368 
    4930 5.4308165e-06    1.9431425    2.1093276   -290.08456    114.98775    10890.368 
    4931 0.00029553982     1.941338    2.1086685    -290.0966    115.29154    10890.368 
    4932  0.017024188    1.9394321    2.1079859   -290.10185    115.63727    10890.368 
    4933    6.2759003    1.9316094    2.1052671   -287.31854    128.80831    10890.368 
    4934    147.36285    1.3070443    2.3973373   -226.24552    455.17228    10890.368 
    4935    64.033429    1.2458348    2.5357906   -263.95821    291.46984    10890.368 
    4936    1078.6608     1.119569    3.0962907     196.9284    2178.1528    10890.368 
    4937    1.0815155    1.1044561    3.1758383   -290.99222    117.99749    10890.368 
    4938     2.808602    1.0994697    3.1561254   -290.18477    116.91328    10890.368 
    4939    12209.268    1.0258543    2.7108326    5240.4832    23254.223    10890.368 
    4940 1.4432185e-33    1.0256537    2.6992559   -291.35045    34.741854    10890.368 
    4941 7.7339965e-32    1.0254667    2.6879841    -291.3705     35.00206    10890.368 
    4942 4.1456571e-30    1.0252929    2.6770056   -291.39019    35.241781    10890.368 
    4943 2.2227747e-28    1.0251321    2.6663097   -291.40952    35.461968    10890.368 
    4944 1.1920805e-26    1.0249839    2.6558863   -291.42851    35.663527    10890.368 
    4945 6.3946918e-25    1.0248478    2.6457256   -291.44718     35.84732    10890.368 
    4946 3.4311017e-23    1.0247238    2.6358186   -291.46552    36.014172    10890.368 
    4947 1.841382e-21    1.0246113    2.6261564   -291.48354    36.164864    10890.368 
    4948 9.8843267e-20    1.0245102    2.6167309   -291.50127    36.300146    10890.368 
    4949 5.3068898e-18    1.0244202    2.6075343   -291.51871    36.420729    10890.368 
    4950 2.849836e-16    1.0243409    2.5985591   -291.53585    36.527292    10890.368 
    4951 1.5306778e-14    1.0242721    2.5897981   -291.55272    36.620482    10890.368 
    4952  8.22298e-13    1.0242135    2.5812445   -291.56933    36.700918    10890.368 
    4953 4.4182864e-11    1.0241649     2.572892   -291.58566    36.769189    10890.368 
    4954 2.3744085e-09     1.024126    2.5647342   -291.60175    36.825855    10890.368 
    4955 1.2762391e-07    1.0240966    2.5567653   -291.61758    36.871454    10890.368 
    4956 6.8610397e-06    1.0240765    2.5489795   -291.63317    36.906509    10890.368 
    4957 0.00036929546    1.0240653    2.5413632   -291.64838    36.932202    10890.368 
    4958  0.021033627    1.0240627    2.5334863   -291.65504    36.987991    10890.368 
    4959    7.5912856     1.024085     2.502474   -288.28908    51.417023    10890.368 
    4960    28.701596    1.1072928    8.2682925   -273.79442   -8.1868778    10890.368 
    4961    1.3863567    1.1149232    8.6900905   -285.69641   -69.951218    10890.368 
    4962    256.02442    1.1396309     8.991049   -169.96956     390.8641    10890.368 
    4963 1.138311e-31    4.0753888    61.115272   -208.30292   -2078.9289    10890.368 
    4964 3.8272934e-33    4.0499753    57.724599   -212.08989   -2018.4938    10890.368 
    4965 1.8601399e-31    4.0252531    54.649886   -215.54416   -1961.2022    10890.368 
    4966 9.0776596e-30    4.0012002    51.856925   -218.70108   -1906.8194    10890.368 
    4967 4.4474041e-28    3.9777941    49.315373   -221.59205   -1855.1323    10890.368 
    4968 2.1871705e-26     3.955012    46.998313   -224.24493   -1805.9477    10890.368 
    4969 1.0795639e-24    3.9328311    44.881849   -226.68451   -1759.0899    10890.368 
    4970 5.3475646e-23     3.911229    42.944768    -228.9328    -1714.399    10890.368 
    4971 2.6580464e-21    3.8901832    41.168226   -231.00939   -1671.7292    10890.368 
    4972 1.3255738e-19     3.869694    39.535481   -232.93169   -1630.6385    10890.368 
    4973 6.631394e-18    3.8499293    38.031754   -234.71492   -1590.8804    10890.368 
    4974 3.3277649e-16    3.8308941    36.643937   -236.37274   -1552.7902    10890.368 
    4975 1.6751358e-14     3.812547     35.36023    -237.9175    -1516.265    10890.368 
    4976 8.4579018e-13    3.7948491    34.170129   -239.36024   -1481.2105    10890.368 
    4977 4.2830776e-11     3.777764    33.064284   -240.71077   -1447.5397    10890.368 
    4978 2.1751781e-09    3.7612574    32.034367   -241.97788   -1415.1728    10890.368 
    4979 1.1077541e-07    3.7452973    31.072957   -243.16938   -1384.0359    10890.368 
    4980 5.6567212e-06    3.7298534    30.173438   -244.29229   -1354.0607    10890.368 
    4981 0.00028961847    3.7148973    29.329899   -245.35273   -1325.1833    10890.368 
    4982  0.014875301    3.7003929    28.536556   -246.35061      -1297.3    10890.368 
    4983   0.79308154    3.6858136    27.762252   -246.98523    -1267.965    10890.368 
    4984    155.21715    3.6446689    25.673651   -179.71208   -895.30698    10890.368 
    4985 6.7188405e-17    3.2779519    102.47973   -185.64652    953.50943    10890.368 
    4986 9.1388008e-18    3.2484324    92.975654   -195.26815     944.4739    10890.368 
    4987 4.2218348e-16    3.2211942    84.418041   -203.93054    932.94529    10890.368 
    4988 1.9627323e-14    3.1960131     76.71152   -211.73042    919.31648    10890.368 
    4989 9.1771945e-13    3.1726874    69.770249   -218.75485    903.93502    10890.368 
    4990 4.313369e-11    3.1510351    63.516991   -225.08215    887.10786    10890.368 
    4991 2.0369379e-09    3.1308876    57.882267    -230.7828    869.29259    10890.368 
    4992 9.6609406e-08    3.1119883    52.803555   -235.92034    851.10639    10890.368 
    4993 4.6001776e-06    3.0941787    48.224574   -240.55186     832.1516    10890.368 
    4994 0.00021983062    3.0773625     44.09485   -244.72845    812.61334    10890.368 
    4995  0.010541047    3.0614503    40.368554   -248.49211    792.66929    10890.368 
    4996   0.51030998    3.0462608    36.982184   -251.68997    773.22844    10890.368 
    4997    34.041954    3.0265626    32.814706   -240.71049    808.54248    10890.368 
    4998    788.88999     2.802952    6.1075937    74.716096    1598.1406    10890.368 
    4999    5.7299301    2.7711561     8.800719    -277.2517   -62.405771    10890.368 
    5000    69.169172    2.7457147    10.517684    -246.7283   -42.917411    10890.368 
Loop time of 7.83614 on 1 procs for 5000 steps with 153 atoms

Pair  time (%) = 0.898888 (11.4711)
Bond  time (%) = 0.0961881 (1.22749)
Neigh time (%) = 0 (0)
Comm  time (%) = 0.00555038 (0.0708306)
Outpt time (%) = 0.503181 (6.42128)
Other time (%) = 6.33233 (80.8093)

Nlocal:    153 ave 153 max 153 min
Histogram: 1 0 0 0 0 0 0 0 0 0
Nghost:    0 ave 0 max 0 min
Histogram: 1 0 0 0 0 0 0 0 0 0
Neighs:    6142 ave 6142 max 6142 min
Histogram: 1 0 0 0 0 0 0 0 0 0
FullNghs:  12284 ave 12284 max 12284 min
Histogram: 1 0 0 0 0 0 0 0 0 0

Total # of neighbors = 12284
Ave neighs/atom = 80.2876
Ave special neighs/atom = 2.64052
Neighbor list builds = 0
Dangerous builds = 0
