LAMMPS (9 Oct 2012)
# 3d protein simulation

units real

timestep 2

dimension	3

boundary s s s
#boundary p p p

neighbor	10 bin
neigh_modify	delay 5

atom_modify sort 0 0.0

special_bonds fene

atom_style	peptide

bond_style harmonic

pair_style vexcluded 2 3.5 3.5

read_data data.testeo
  3 = max bonds/atom
  orthogonal box = (-200 -200 -200) to (200 200 200)
  1 by 1 by 1 MPI processor grid
  153 atoms
  202 bonds
  5 = max # of 1-2 neighbors
  5 = max # of special neighbors

pair_coeff * * 0.0
pair_coeff 1 1 20.0 3.5 4.5
pair_coeff 1 4 20.0 3.5 4.5
pair_coeff 4 4 20.0 3.5 4.5
pair_coeff 3 3 20.0 3.5 3.5


velocity	all create 300.0 2349852

group		alpha_carbons id 1 4 7 10 13 16 19 22 25 28 31 34 37 40 43 46 49 52 55 58 61 64 67 70 73 76 79 82 85 88 91 94 97 100 103 106 109 112 115 118 121 124 127 130 133 136 139 142 145 148 151
51 atoms in group alpha_carbons

group		beta_atoms id 3 6 9 12 15 18 21 24 27 30 33 36 39 42 45 48 51 54 57 60 63 66 69 72 75 78 81 84 87 90 93 96 99 102 105 108 111 114 117 120 123 126 129 132 135 138 141 144 147 150 153
51 atoms in group beta_atoms

group		oxygens id 2 5 8 11 14 17 20 23 26 29 32 35 38 41 44 47 50 53 56 59 62 65 68 71 74 77 80 83 86 89 92 95 98 101 104 107 110 113 116 119 122 125 128 131 134 137 140 143 146 149 152
51 atoms in group oxygens


fix		  1 all nvt temp 300.0 300.0 1.0
fix		  2 alpha_carbons backbone beta_atoms oxygens fix_backbone_coeff.data testeo.seq
Chain flag on
Chi flag on
Rama flag on
Rama_P flag on
SSWeight flag on
ABC flag on
DebyeHuckel on
ABC flag on
AMH-Go flag on

#fix		  3 all fixprueba 10



variable    stepq equal step
#variable E_bond  equal emol
#fix energy all print 10 "${stepq} ${E_bond}"



thermo		1
dump		1 all atom 10 dump.lammpstrj

dump_modify	1 sort id




minimize 1.0e-4 1.0e-6 100 1000
WARNING: Resetting reneighboring criteria during minimization (min.cpp:173)
Memory usage per processor = 0.867977 Mbytes
Step Temp E_pair E_mol TotEng Press Volume 
       0          300    54.408864    955.49334    899.80215    -33253.58    10890.368 
       1          300    55.080702    488.88679    437.86489   -23755.083    10890.368 
       2          300     54.38349    229.67384    184.17434     -15130.8    10890.368 
       3          300    50.567722    89.484811    38.287452   -8432.9575    10890.368 
       4          300    42.647746    18.671475   -48.500081   -1241.7421    10890.368 
       5          300    30.409398    11.195147   -78.869188    6068.2383    10890.368 
       6          300    25.680688    8.9057284   -88.851499    5345.2942    10890.368 
       7          300    22.533616    5.0430594   -97.535647     2300.977    10890.368 
       8          300    19.544158    5.6827846   -103.00458    1970.2639    10890.368 
       9          300    13.060179    7.0695237   -110.32053    339.71712    10890.368 
      10          300     11.70698    5.1083121   -114.53156   -177.43395    10890.368 
      11          300    11.373552     3.840425   -116.55322    624.09541    10890.368 
      12          300     11.00562    3.5024872   -117.82607     1177.205    10890.368 
      13          300    9.7314356    4.9141924   -119.86698    2387.1696    10890.368 
      14          300    7.5083815    7.2185664   -122.49838     3526.605    10890.368 
      15          300    5.8912829    3.8353554   -128.01436    1526.6949    10890.368 
      16          300    5.6128073    3.6234773   -129.43664    1200.1925    10890.368 
      17          300    5.3960363    3.4220353   -130.08365     640.1892    10890.368 
      18          300    5.2793113      2.88497   -130.66218    291.07044    10890.368 
      19          300    5.1093814    2.9385581   -131.26189    917.43265    10890.368 
      20          300    4.8856164    3.4055219    -131.6785    1558.2911    10890.368 
      21          300    4.7138562    3.6418784   -132.57185    1447.5933    10890.368 
      22          300    4.6868351    2.9439336   -133.82721      810.274    10890.368 
      23          300    4.7119362    2.4766392   -134.10228    634.87105    10890.368 
      24          300    4.6888863    2.4546262   -134.38465    427.35404    10890.368 
      25          300    4.5795274    2.6585222   -135.32572    477.30215    10890.368 
      26          300     4.545716    2.6675638   -135.75244    665.79355    10890.368 
      27          300    4.5070878    2.6573012   -136.06247    861.99306    10890.368 
      28          300     4.330776    2.7495067   -136.49555    837.54316    10890.368 
      29          300    4.0071999    3.1643429   -137.16371    803.39286    10890.368 
      30          300    3.7788258    2.9510717   -138.43273    984.96646    10890.368 
      31          300    3.5218506    2.7739176    -139.5098    757.20917    10890.368 
      32          300    3.2947334    2.8198684   -140.20926    471.74376    10890.368 
      33          300    3.2857823    2.4712544   -140.58212    523.06812    10890.368 
      34          300    3.2815496    2.3042007   -140.77109    625.41862    10890.368 
      35          300    3.2668479    2.5021073   -140.87894    740.99824    10890.368 
      36          300    3.2734793    2.6583622   -141.07899    839.08182    10890.368 
      37          300    3.2819269     2.492186   -141.28488     781.7796    10890.368 
      38          300    3.2655789    2.2873994   -141.45918    597.65576    10890.368 
      39          300     3.237862    2.2726005   -141.58701    514.83348    10890.368 
      40          300    3.1655712    2.6188205   -141.94146    756.29248    10890.368 
      41          300    3.0366504    2.9119344   -142.49008    846.24044    10890.368 
      42          300    2.8284119    2.4261703   -143.84851    544.49177    10890.368 
      43          300    2.6892987    2.4365163   -144.82349     507.0913    10890.368 
      44          300    2.7544789     2.714918   -145.97435    495.29808    10890.368 
      45          300    2.8779864    2.3981663   -146.53477    463.09256    10890.368 
      46          300    2.7733608    2.2486298   -146.93838    582.27477    10890.368 
      47          300    2.6693144    2.3172644   -147.14545    727.16601    10890.368 
      48          300    2.5773884     2.391086   -147.31783    836.26585    10890.368 
      49          300    2.4639591    2.3380383   -147.54673    800.32852    10890.368 
      50          300    2.4141444    2.2847733   -147.74372    723.76226    10890.368 
      51          300    2.3873817    2.3589416   -147.82983    741.93734    10890.368 
      52          300    2.3631655    2.4071686   -147.96407    764.55428    10890.368 
      53          300    2.3659949    2.3286954   -148.08379    716.76284    10890.368 
      54          300    2.3724128    2.2873592   -148.18325    640.12979    10890.368 
      55          300     2.382304     2.208089   -148.36191    655.15221    10890.368 
      56          300    2.3810683    2.2494316   -148.51423    711.34842    10890.368 
      57          300    2.3541361    2.3789057   -148.66813     728.9024    10890.368 
      58          300    2.3642381    2.3678669   -148.86142    758.98341    10890.368 
      59          300    2.3782663     2.420775    -148.9906    742.94809    10890.368 
      60          300    2.3698385    2.3499264   -149.37045    637.36093    10890.368 
      61          300    2.3625872    2.3127945   -149.49813    622.49349    10890.368 
      62          300    2.3566374    2.2128217   -149.61004    673.26243    10890.368 
      63          300    2.3482763    2.2328319   -149.63898    691.04119    10890.368 
      64          300    2.3339573    2.2469692   -149.67776    711.44989    10890.368 
      65          300    2.2978793    2.3318916   -149.77831    733.85545    10890.368 
      66          300    2.2955281    2.3377667   -149.85579    721.80918    10890.368 
      67          300    2.2982138     2.262531   -149.91123    685.01515    10890.368 
      68          300    2.3068772    2.1804898   -150.00161    626.96891    10890.368 
      69          300     2.302575    2.2150994   -150.02414    656.75133    10890.368 
Loop time of 0.526359 on 1 procs for 69 steps with 153 atoms

Minimization stats:
  Stopping criterion = energy tolerance
  Energy initial, next-to-last, final = 
         763.877212512     -285.926550532     -285.949079315
  Force two-norm initial, final = 1269.63 4.92169
  Force max component initial, final = 276.454 1.28301
  Final line search alpha, max atom move = 0.000915546 0.00117465
  Iterations, force evaluations = 69 264

Pair  time (%) = 0.0481648 (9.15057)
Bond  time (%) = 0.00579739 (1.10141)
Neigh time (%) = 0 (0)
Comm  time (%) = 0.000158548 (0.0301217)
Outpt time (%) = 0.00924945 (1.75725)
Other time (%) = 0.462989 (87.9606)

Nlocal:    153 ave 153 max 153 min
Histogram: 1 0 0 0 0 0 0 0 0 0
Nghost:    0 ave 0 max 0 min
Histogram: 1 0 0 0 0 0 0 0 0 0
Neighs:    6142 ave 6142 max 6142 min
Histogram: 1 0 0 0 0 0 0 0 0 0
FullNghs:  12284 ave 12284 max 12284 min
Histogram: 1 0 0 0 0 0 0 0 0 0

Total # of neighbors = 12284
Ave neighs/atom = 80.2876
Ave special neighs/atom = 2.64052
Neighbor list builds = 0
Dangerous builds = 0

reset_timestep	0
run		10
Memory usage per processor = 0.857471 Mbytes
Step Temp E_pair E_mol TotEng Press Volume 
       0          300     2.302575    2.2150994   -150.02414    2883.2883    11124.107 
       1    303.05794    2.4269802     4.754479    -145.8704    551.56678    11124.107 
       2    298.74251     2.600203    11.842745   -139.72844    412.14035    11124.107 
       3    306.60163    2.8015335    21.320286   -125.07175    293.90411    11124.107 
       4    293.00344    3.0458403    32.168007    -118.0753    143.53345    11124.107 
       5    322.62879    3.3033841      41.5113   -92.575361    110.21067    11124.107 
       6    257.14019     3.581002    48.245452   -112.27029    -50.94453    11124.107 
       7    322.19484    3.8123653    50.466527   -77.593412    90.278257    11124.107 
       8    271.42504    4.0600897    49.421703   -98.098748    73.934979    11124.107 
       9    322.80554    4.2459975    46.860456   -74.393495    267.09039    11124.107 
      10    271.07155    4.4384494      43.8611   -97.312537    300.13821    11124.107 
Loop time of 0.0219798 on 1 procs for 10 steps with 153 atoms

Pair  time (%) = 0.00169706 (7.72101)
Bond  time (%) = 0.000184059 (0.837401)
Neigh time (%) = 0 (0)
Comm  time (%) = 6.91414e-06 (0.0314568)
Outpt time (%) = 0.00180602 (8.21673)
Other time (%) = 0.0182858 (83.1934)

Nlocal:    153 ave 153 max 153 min
Histogram: 1 0 0 0 0 0 0 0 0 0
Nghost:    0 ave 0 max 0 min
Histogram: 1 0 0 0 0 0 0 0 0 0
Neighs:    6129 ave 6129 max 6129 min
Histogram: 1 0 0 0 0 0 0 0 0 0
FullNghs:  12258 ave 12258 max 12258 min
Histogram: 1 0 0 0 0 0 0 0 0 0

Total # of neighbors = 12258
Ave neighs/atom = 80.1176
Ave special neighs/atom = 2.64052
Neighbor list builds = 0
Dangerous builds = 0
