LAMMPS (9 Oct 2012)
# 3d protein simulation

units real

timestep 2

dimension	3

boundary s s s
#boundary p p p

neighbor	10 bin
neigh_modify	delay 5

atom_modify sort 0 0.0

special_bonds fene

atom_style	peptide

bond_style harmonic

pair_style vexcluded 2 3.5 3.5

read_data data.testeo
  3 = max bonds/atom
  orthogonal box = (-200 -200 -200) to (200 200 200)
  1 by 1 by 1 MPI processor grid
  153 atoms
  202 bonds
  5 = max # of 1-2 neighbors
  5 = max # of special neighbors

pair_coeff * * 0.0
pair_coeff 1 1 20.0 3.5 4.5
pair_coeff 1 4 20.0 3.5 4.5
pair_coeff 4 4 20.0 3.5 4.5
pair_coeff 3 3 20.0 3.5 3.5


velocity	all create 300.0 9849853

group		alpha_carbons id 1 4 7 10 13 16 19 22 25 28 31 34 37 40 43 46 49 52 55 58 61 64 67 70 73 76 79 82 85 88 91 94 97 100 103 106 109 112 115 118 121 124 127 130 133 136 139 142 145 148 151
51 atoms in group alpha_carbons

group		beta_atoms id 3 6 9 12 15 18 21 24 27 30 33 36 39 42 45 48 51 54 57 60 63 66 69 72 75 78 81 84 87 90 93 96 99 102 105 108 111 114 117 120 123 126 129 132 135 138 141 144 147 150 153
51 atoms in group beta_atoms

group		oxygens id 2 5 8 11 14 17 20 23 26 29 32 35 38 41 44 47 50 53 56 59 62 65 68 71 74 77 80 83 86 89 92 95 98 101 104 107 110 113 116 119 122 125 128 131 134 137 140 143 146 149 152
51 atoms in group oxygens


fix		  1 all nvt temp 300.0 300.0 100.0
fix		  2 alpha_carbons backbone beta_atoms oxygens fix_backbone_coeff.data testeo.seq
Chain flag on
Chi flag on
Rama flag on
Rama_P flag on
SSWeight flag on
ABC flag on
Dssp_Hdrgn flag on
P_AP flag on
Water flag on
Burial flag on
Helix flag on
Fragment_Memory_Table flag on
DebyeHuckel on

Reading fragments...
Computing FM table...
#fix		  3 all fixprueba 10

variable      biasinge equal f_qbias
# output wham.dat, a file with collective variables that can be used to compute pmfs
compute     qw alpha_carbons qwolynes rnative.dat 2 0.15
variable    qw equal c_qw
compute     rg alpha_carbons gyration
variable    rg equal c_rg
compute     qo alpha_carbons qonuchic cutoff 12.0 nativecoords.dat 1.2
variable    qo equal c_qo
compute     tc beta_atoms totalcontacts 6.5 2
variable    tc equal c_tc
variable    step equal step
variable    E_P equal pe

fix         wham all print 100 "${step}        ${qw} ${rg} ${qo} ${tc} ${E_P}"


#variable    stepq equal step
#variable E_bond  equal emol
#fix energy all print 10 "${stepq} ${E_bond}"



thermo		1
dump		1 all atom 10 dump.lammpstrj

dump_modify	1 sort id




#minimize 1.0e-4 1.0e-6 100 1000

reset_timestep	0
run		100
Memory usage per processor = 0.857471 Mbytes
Step Temp E_pair E_mol TotEng Press Volume 
       0          300    54.408864    955.49334    706.11014    -33253.58    10890.368 
       1    378.44273    54.669208    918.38231     705.3696    -34183.48    10890.368 
       2    620.43692    55.214585    803.35421    703.33835   -30852.968    10890.368 
       3    959.06926    56.107411    639.40359    700.21967   -25578.879    10890.368 
       4    1302.1316    57.377024     466.6564    696.19404   -19243.518    10890.368 
       5    1563.1372    58.935575    323.51797    691.01957   -12770.588    10890.368 
       6    1689.0166    60.589597    235.03245    683.58493   -6845.7274    10890.368 
       7     1674.251    62.168504    206.61536    675.16701   -1797.2969    10890.368 
       8    1557.6552    63.391775    224.95538    665.52276    2296.8797    10890.368 
       9    1403.9022    63.897569    265.17022    655.28018    5527.4021    10890.368 
      10    1277.9055    63.334477    301.10421    644.84103    8054.5025    10890.368 
      11    1221.9194    61.450872    314.82101    634.00748    9963.2972    10890.368 
      12    1243.1544    58.309516     302.0591    622.88326    11280.598    10890.368 
      13      1315.05    54.152413    272.21047    611.31194    11937.772    10890.368 
      14      1389.98    49.311034    243.32752    599.62196    11865.019    10890.368 
      15    1418.5504    44.184976    234.23088    588.40712    11067.467    10890.368 
      16    1369.1657    39.166293    256.66252    578.17661     9755.573    10890.368 
      17    1240.7369    34.534589    310.38784    569.74484    8372.0729    10890.368 
      18    1063.0769    30.414377    383.07653    563.06005    7418.4766    10890.368 
      19    884.91063    26.876735    454.88602    557.80067    7309.3366    10890.368 
      20    755.55911     23.92789    505.72778    553.29253    8332.4666    10890.368 
      21    707.79639    21.505993    522.33503    548.15676     10605.97    10890.368 
      22    747.61661    19.513372    502.54753    542.93212    14060.189    10890.368 
      23     853.7722    17.847525    455.43031     536.6985    18401.319    10890.368 
      24    986.72927    16.422636    397.42177    529.44168    23134.327    10890.368 
      25    1103.5743    15.171416    346.13568    521.35608    27620.453    10890.368 
      26    1172.9539    14.070126     314.2381    512.72152    31225.909    10890.368 
      27    1184.2919    13.125125    305.64715    503.83673    33481.303    10890.368 
      28    1148.6741     12.38762    315.21668    494.99673    34150.124    10890.368 
      29    1092.2204    11.881645    331.63816    486.29659    33203.514    10890.368 
      30    1044.9321    11.643562    342.23132    477.64422    30728.071    10890.368 
      31    1029.1617    11.572681    337.80217    468.72073    26837.104    10890.368 
      32    1051.4824    11.506266    315.93813    459.20652    21629.936    10890.368 
      33    1100.9741    11.340301    281.75244    448.94974    15362.079    10890.368 
      34    1153.9922    10.981415    245.92591    437.98438    8275.8648    10890.368 
      35    1182.9553    10.409135    220.77973    426.65728    589.45763    10890.368 
      36    1166.7743    9.6718251    215.71686    415.52826   -7370.8615    10890.368 
      37    1099.2971    8.8542432    233.64098    405.20074   -15164.109    10890.368 
      38    992.21904    8.0384539    269.70488    396.11735   -22246.607    10890.368 
      39    871.09428    7.2600242     312.9102    388.36315   -28125.504    10890.368 
      40    766.10163    6.5663266    349.97338    381.68113   -32389.644    10890.368 
      41    701.26052    6.0404929    369.98076    375.94914   -34791.683    10890.368 
      42    686.34131    5.7502395    368.05995    369.88929   -35269.461    10890.368 
      43    714.38384     5.713735    346.71269    363.54386   -33928.546    10890.368 
      44    765.30048    5.8717415    314.41051    356.80927   -31066.433    10890.368 
      45    814.09518    6.1616403    282.10453    349.82546   -27102.013    10890.368 
      46    840.45588    6.5159494    259.06634    342.74447   -22494.534    10890.368 
      47    835.88772    6.8704274    249.70396     336.0177   -17685.226    10890.368 
      48    805.76137    7.1638206    252.49161    329.68462   -13037.676    10890.368 
      49    765.92317    7.3609132    261.22476    323.72172   -8841.3849    10890.368 
      50    735.73854    7.4598601    267.88684    317.94912   -5304.7657    10890.368 
      51    730.54102    7.4811623    265.88852    312.38068   -2585.1118    10890.368 
      52    756.14232    7.4542679    252.46822    306.11145    -775.2456    10890.368 
      53    807.04924    7.4154647    229.50599    299.24264    115.09128    10890.368 
      54    868.63449    7.4000686    202.65163    291.72047    161.66411    10890.368 
      55    922.18709    7.4333544    179.24483    283.64627   -489.44104    10890.368 
      56    951.09978    7.4971706    165.82828    275.26671   -1627.9977    10890.368 
      57    945.93266    7.4656347    166.07787    266.86545   -3019.5037    10890.368 
      58    906.77929    7.3365378    179.77034    258.78826   -4408.9936    10890.368 
      59     842.7536    7.1435602    203.00884    251.28711   -5517.4887    10890.368 
      60    768.78398    6.9225057    229.55854    244.46293   -6066.7643    10890.368 
      61    700.81803    6.7047492      252.812     238.4265   -5811.8477    10890.368 
      62     651.2119    6.5122848     267.7264    232.67496   -4623.7548    10890.368 
      63    625.76817    6.3889282    272.12803    227.16404    -2531.729    10890.368 
      64    622.85829    6.3751078    267.02913    221.70679    499.70196    10890.368 
      65    634.92216    6.5010681    255.90525    216.23143    4322.5729    10890.368 
      66    651.87273    6.7901641    243.23602    211.40485    8633.8506    10890.368 
      67    664.77458    7.2486977    232.88624    205.93474    13086.229    10890.368 
      68    668.50212    7.8885748    226.91112    200.56282    17334.569    10890.368 
      69    662.68304    8.7190029     225.1665     195.3206    21065.267    10890.368 
      70    650.77505    9.7394691    225.78532    190.21121     24015.25    10890.368 
      71    637.83616     10.94226    226.22701    183.69074     26012.19    10890.368 
      72    628.15258    12.341295      224.399    178.70783    26950.663    10890.368 
      73    623.52329    13.902157    219.38964    173.71448    26596.586    10890.368 
      74    623.18856    15.555671    211.61195    168.73682    25085.604    10890.368 
      75    625.12111    17.212714    202.33669    163.75235    22528.037    10890.368 
      76    627.17515    18.776648    193.02606    159.29487    19046.398    10890.368 
      77    628.04866     20.12676    184.77529    154.36747     14807.36    10890.368 
      78    627.59817    21.166697    178.06788    149.46394    10040.114    10890.368 
      79    626.38988    21.829734     172.8787    144.56104     4988.696    10890.368 
      80    624.79354    22.088852    169.00132    139.64197   -105.25108    10890.368 
      81    622.17183    21.959735    166.39351    134.69638   -5013.6439    10890.368 
      82    616.64158     21.49615     165.3513     129.7654   -9515.2611    10890.368 
      83    605.63087    20.778738     166.4114    124.91301   -13403.803    10890.368 
      84    587.09859    19.898704     170.0093    120.24841   -16509.692    10890.368 
      85    560.90957    18.946038    176.04436     115.8593   -18734.612    10890.368 
      86    529.72464    17.996685    183.56512    112.23482   -20037.247    10890.368 
      87    498.91029    17.104575    190.75913    108.52942   -20422.046    10890.368 
      88    475.35029    16.299391      195.316     105.0799    -19914.32    10890.368 
      89    465.50858    15.579104     195.0833    101.74805   -18578.746    10890.368 
      90    473.27616    14.925158    188.81416    98.361056   -16547.063    10890.368 
      91     498.3416     14.32887    176.74686    94.765097   -13991.506    10890.368 
      92    535.70968    13.780696    160.79308    90.855137     -11118.9    10890.368 
      93    576.57333    13.270587    144.22014    86.611804   -8149.3044    10890.368 
      94    610.44397    12.788963    130.86595    82.103981   -5306.8815    10890.368 
      95    628.03719    12.326383    124.07939     77.47064   -2779.2985    10890.368 
      96    624.06333    11.863221     125.6973    72.888903   -687.59186    10890.368 
      97    598.95484    11.379693    135.38551    68.535854    922.85718    10890.368 
      98    558.91822    10.872252    150.58439    64.522352    2084.5723    10890.368 
      99    514.30931    10.334527    167.11773    60.872755    2872.0315    10890.368 
100        0.99326591785827889058 10.045649578343331498 0.99735449735449732689 66 -158.47712477362836125
     100    476.70373    9.7629085    180.32086    57.509294     3388.978    10890.368 
Loop time of 0.464164 on 1 procs for 100 steps with 153 atoms

Pair  time (%) = 0.0201364 (4.3382)
Bond  time (%) = 0.00203061 (0.437477)
Neigh time (%) = 0 (0)
Comm  time (%) = 0.000193357 (0.0416572)
Outpt time (%) = 0.0131819 (2.83993)
Other time (%) = 0.428622 (92.3427)

Nlocal:    153 ave 153 max 153 min
Histogram: 1 0 0 0 0 0 0 0 0 0
Nghost:    0 ave 0 max 0 min
Histogram: 1 0 0 0 0 0 0 0 0 0
Neighs:    6142 ave 6142 max 6142 min
Histogram: 1 0 0 0 0 0 0 0 0 0
FullNghs:  12284 ave 12284 max 12284 min
Histogram: 1 0 0 0 0 0 0 0 0 0

Total # of neighbors = 12284
Ave neighs/atom = 80.2876
Ave special neighs/atom = 2.64052
Neighbor list builds = 0
Dangerous builds = 0
