LAMMPS (9 Oct 2012)
# 3d protein simulation

units real

timestep 2

dimension	3

boundary s s s
#boundary p p p

neighbor	10 bin
neigh_modify	delay 5

atom_modify sort 0 0.0

special_bonds fene

atom_style	peptide

bond_style harmonic

pair_style vexcluded 2 3.5 3.5

read_data data.testeo
  3 = max bonds/atom
  orthogonal box = (-200 -200 -200) to (200 200 200)
  1 by 1 by 1 MPI processor grid
  153 atoms
  202 bonds
  5 = max # of 1-2 neighbors
  5 = max # of special neighbors

pair_coeff * * 0.0
pair_coeff 1 1 20.0 3.5 4.5
pair_coeff 1 4 20.0 3.5 4.5
pair_coeff 4 4 20.0 3.5 4.5
pair_coeff 3 3 20.0 3.5 3.5


velocity	all create 300.0 9849853

group		alpha_carbons id 1 4 7 10 13 16 19 22 25 28 31 34 37 40 43 46 49 52 55 58 61 64 67 70 73 76 79 82 85 88 91 94 97 100 103 106 109 112 115 118 121 124 127 130 133 136 139 142 145 148 151
51 atoms in group alpha_carbons

group		beta_atoms id 3 6 9 12 15 18 21 24 27 30 33 36 39 42 45 48 51 54 57 60 63 66 69 72 75 78 81 84 87 90 93 96 99 102 105 108 111 114 117 120 123 126 129 132 135 138 141 144 147 150 153
51 atoms in group beta_atoms

group		oxygens id 2 5 8 11 14 17 20 23 26 29 32 35 38 41 44 47 50 53 56 59 62 65 68 71 74 77 80 83 86 89 92 95 98 101 104 107 110 113 116 119 122 125 128 131 134 137 140 143 146 149 152
51 atoms in group oxygens


fix		  1 all nvt temp 300.0 300.0 100.0
fix		  2 alpha_carbons backbone beta_atoms oxygens fix_backbone_coeff.data testeo.seq
Chain flag on
Chi flag on
Rama flag on
Rama_P flag on
SSWeight flag on
ABC flag on
DebyeHuckel on
ABC flag on
AMH-Go flag on

#fix		  3 all fixprueba 10

variable      biasinge equal f_qbias
# output wham.dat, a file with collective variables that can be used to compute pmfs
compute     qw alpha_carbons qwolynes rnative.dat 2 0.15
variable    qw equal c_qw
compute     rg alpha_carbons gyration
variable    rg equal c_rg
compute     qo alpha_carbons qonuchic cutoff 12.0 nativecoords.dat 1.2
variable    qo equal c_qo
compute     tc beta_atoms totalcontacts 6.5 2
variable    tc equal c_tc
variable    step equal step
variable    E_P equal pe

fix         wham all print 100 "${step}        ${qw} ${rg} ${qo} ${tc} ${E_P}"


#variable    stepq equal step
#variable E_bond  equal emol
#fix energy all print 10 "${stepq} ${E_bond}"



thermo		1
dump		1 all atom 10 dump.lammpstrj12

dump_modify	1 sort id




#minimize 1.0e-4 1.0e-6 100 1000

reset_timestep	0
run		10000
Memory usage per processor = 0.857471 Mbytes
Step Temp E_pair E_mol TotEng Press Volume 
       0          300    54.408864    955.49334    899.06532    -33253.58    10890.368 
       1    379.45234    54.672498    918.38611    898.50647   -33778.734    10890.368 
       2    625.19944    55.228337    803.33531    896.53241   -31034.227    10890.368 
       3    972.05339    56.143825     639.1914     893.4316   -26634.349    10890.368 
       4    1328.6211    57.457487    466.22804    889.27776   -21204.971    10890.368 
       5    1606.1423    59.091292    323.61024    883.75744   -15429.556    10890.368 
       6    1746.3564    60.859409    237.58268    876.43255   -9905.9011    10890.368 
       7    1738.3562    62.589722    214.52364    867.28318   -5041.6135    10890.368 
       8    1618.4666    63.987947    241.10945    856.84383   -1032.0861    10890.368 
       9    1453.0879    64.670403    291.17268     845.8921     2131.265    10890.368 
      10     1312.181      64.2612    336.31328    834.93483    4583.7656    10890.368 
      11    1244.2121    62.482782    356.13866    823.91994    6439.6039    10890.368 
      12    1261.5635     59.37558    344.56918    812.57356    7777.0616    10890.368 
      13    1340.2824    55.162102    310.46876    800.75851     8591.919    10890.368 
      14    1432.1443    50.166087    272.91897    788.67725    8860.5929    10890.368 
      15      1484.06    44.790189    253.14524    776.81963     8584.438    10890.368 
      16    1458.2818    39.440826    266.08803    765.80291    7868.9118    10890.368 
      17    1346.3089    34.435794    314.63159    756.18177    6948.9773    10890.368 
      18    1171.6019    29.965892    388.48771    748.26745    6174.9397    10890.368 
      19    980.45782    26.105323    467.96951    741.94879    5923.1274    10890.368 
      20    825.14376    22.880001    531.05005    736.69746    6528.1879    10890.368 
      21    745.93384     20.24075    560.99016    731.72121    8192.1738    10890.368 
      22    758.25451    18.089256     551.7852    726.26266    10915.711    10890.368 
      23    848.98375    16.311927    509.61073    719.82976    14484.457    10890.368 
      24    982.60169    14.805929    449.97785    712.26245    18510.997    10890.368 
      25    1114.5136    13.483416    391.85565    703.65826    22513.067    10890.368 
      26    1206.5059    12.304906    351.03493    694.29263    25995.917    10890.368 
      27    1238.7956    11.284529    335.13141    684.52885    28564.133    10890.368 
      28     1214.709    10.467381    341.86072    674.73813    29945.475    10890.368 
      29    1156.8498    9.8964754     360.8862     665.1662    30015.342    10890.368 
      30    1096.9189    9.5854373    378.27992     655.8204    28781.708    10890.368 
      31    1063.4435    9.4261167    381.84242     646.4195     26325.23    10890.368 
      32    1071.5264     9.301643    365.45128    636.58345    22761.049    10890.368 
      33    1117.8938    9.1228478    331.09424    625.98193    18215.005    10890.368 
      34    1182.6773    8.8247181    288.06163    614.50644    12839.004    10890.368 
      35    1236.9104    8.3590481    249.63335    602.33913      6805.15    10890.368 
      36    1253.0985    7.7435947    228.39064    589.94611     335.8935    10890.368 
      37    1215.4072    7.0479491    231.72618    577.96598   -6264.2898    10890.368 
      38     1125.763    6.3520817    259.12735    567.02145   -12609.615    10890.368 
      39    1003.5352    5.6999386    302.23106    557.49358    -18270.95    10890.368 
      40    878.86865    5.0685613    347.65769    549.34399   -22841.723    10890.368 
      41    782.16155    4.4897793    381.60096    542.20132   -26007.842    10890.368 
      42    733.76796    4.0144434    394.47784    535.48867   -27556.373    10890.368 
      43      737.689    3.6771083    383.94688    528.68168   -27490.415    10890.368 
      44    781.11638    3.4615569    355.26708    521.45781   -25962.107    10890.368 
      45    839.85601    3.3970451    318.93672    513.79964    -23253.96    10890.368 
      46    887.74781    3.4618178     286.5927    505.88445   -19745.322    10890.368 
      47    906.19721    3.5979694    266.80201    498.00491   -15820.747    10890.368 
      48    890.12508    3.7571269    262.33496    490.43672   -11824.718    10890.368 
      49     848.5149    3.9134113    269.82813    483.33601   -8034.7383    10890.368 
      50    799.69973    4.0539465     281.7494    476.67343   -4654.5731    10890.368 
      51     763.6427    4.1718159     289.6917    470.24357   -1826.2968    10890.368 
      52    754.39046    4.2682951    287.62484    463.75215    358.23375    10890.368 
      53    775.41355    4.3471192    273.92235    456.92631    1844.5875    10890.368 
      54    819.13281    4.4089611      251.588    449.60358    2606.6934    10890.368 
      55    870.27812    4.4488023    226.82714    441.76446    2658.7191    10890.368 
      56    911.54989     4.464063    206.66036    433.54359    2076.3786    10890.368 
      57    929.48168    4.3860007    196.49109    425.15082    1000.7665    10890.368 
      58     918.3376    4.1940085    198.43566    416.86037   -383.00789    10890.368 
      59    881.21628    3.9236399     210.8643    408.91099    -1824.577    10890.368 
      60    828.40856    3.6291101    229.16728    401.44301    -3045.514    10890.368 
      61    773.57614    3.3801265      247.412    394.47083   -3790.9837    10890.368 
      62    729.28401    3.2054687    260.31125    387.88719   -3843.3521    10890.368 
      63    703.16945     3.092011    264.85923    381.50685    -3093.826    10890.368 
      64    695.98659    3.0480438    261.12742     375.1783   -1521.6326    10890.368 
      65    702.12476    3.0722483    251.98787    368.81364    785.60024    10890.368 
      66    712.20037    3.1793903    241.89586    362.42679     3660.982    10890.368 
      67    716.79915    3.3850476    235.17705    356.10744    6883.2478    10890.368 
      68    709.94316    3.7073918     234.4447    349.97781    10201.886    10890.368 
      69    691.03593    4.1610258    239.72337    344.13297    13369.883    10890.368 
      70     664.6267    4.7606266    248.58113     338.6024    16162.167    10890.368 
      71    638.22686    5.5159555    257.17222    333.33574    18386.571    10890.368 
      72    619.16963     6.428145    261.73599    328.22546    19889.538    10890.368 
      73    611.83716    7.4826938    259.94117    323.15181    20560.546    10890.368 
      74    616.28736     8.642657    251.57515    318.01801    20329.876    10890.368 
      75    628.67218    9.8682583    238.38862    312.78779    19169.953    10890.368 
      76     643.0861    11.106657    223.25984     307.4722    17113.326    10890.368 
      77    653.91592    12.318825    209.08927    302.12968    14252.555    10890.368 
      78    657.82037    13.424054    197.86264    296.80964    10720.285    10890.368 
      79    654.50669    14.329082    190.20328     291.5526    6711.2454    10890.368 
      80    646.18076    14.962268    185.48644    286.36929    2456.9661    10890.368 
      81     636.1518    15.288834       182.39    281.24555   -1799.8708    10890.368 
      82    627.16519    15.301787    179.62793    276.15059   -5825.8865    10890.368 
      83    620.07177    15.023728    176.58232    271.05871   -9418.6732    10890.368 
      84    613.35696     14.51627    173.60146    265.98272   -12423.148    10890.368 
      85     603.7673    13.849716    171.84891    260.97659   -14736.188    10890.368 
      86    587.80126    13.096027    172.74935    256.13682   -16301.513    10890.368 
      87    563.54674    12.317359    177.23307    251.57502   -17112.653    10890.368 
      88    532.14682    11.560129     185.0807    247.37902   -17196.886    10890.368 
      89    498.22442    10.854483     194.6631    243.57292   -16610.458    10890.368 
      90    468.94783     10.21597    203.24223    240.09444   -15434.023    10890.368 
      91    451.91946    9.6489416    207.78576    236.80216   -13770.514    10890.368 
      92     452.5646      9.14496    206.03321    233.51074   -11740.582    10890.368 
      93     471.9269    8.6909978    197.42477     230.0449   -9493.4754    10890.368 
      94    505.74003    8.2776149    183.52232    226.28992   -7190.9368    10890.368 
      95    545.25707    7.8946305    167.71493    222.22003   -4991.1151    10890.368 
      96    579.66212    7.5303482    154.25821    217.90207   -3033.9507    10890.368 
      97    599.33915    7.1724339    146.94086     213.4739   -1422.4244    10890.368 
      98    598.92119    6.8093347    147.82406    209.10416   -207.75315    10890.368 
      99    579.05938    6.4322346    156.49539    204.94191    616.89665    10890.368 
100        0.9774005521794886242 10.046516156586939417 0.99735449735449732689 73 -46.433605888077636337
     100    546.26328    6.0372052    170.11493    201.06907    1111.6511    10890.368 
     101    510.83925    5.6197578    184.26492    197.47301     1382.425    10890.368 
     102    483.54459    5.1799021    194.34022    194.04871    1541.0227    10890.368 
     103    472.09514    4.7259207    197.02861    190.64054    1696.2704    10890.368 
     104    478.65271    4.2799815     191.3941    187.10249    1920.8861    10890.368 
     105    499.13599    3.8776212    179.19476     183.3488    2257.2829    10890.368 
     106    524.63187    3.5508957    164.31953    179.38455    2711.3551    10890.368 
     107    544.42463    3.3177659    151.51457    175.30557    3266.6434    10890.368 
     108    549.64683    3.1738962    144.81149    171.26038    3887.0319    10890.368 
     109    536.33481     3.112672    146.18284    167.41576    4540.7644    10890.368 
     110    506.87012    3.1012164    154.88033    163.88429    5211.0757    10890.368 
     111    469.22409     3.121211    167.68286    160.70239    5878.7821    10890.368 
     112    434.34629    3.1629582    179.96192    157.79901    6542.0595    10890.368 
     113    412.57812    3.2259096     187.2135    155.02837    7185.8342    10890.368 
     114    410.23589    3.3046941    186.54601    152.21072    7780.6545    10890.368 
     115    427.49238    3.3941411     177.6365    149.19856    8280.6638    10890.368 
     116    458.23523    3.4902519    162.84777    145.92103    8624.3126    10890.368 
     117    491.95864    3.5892087     146.4741    142.40178     8745.476    10890.368 
     118    517.07608    3.6865425     133.3644    138.74802    8589.2761    10890.368 
     119     524.5894    3.7768057    127.37063    135.11783    8127.7711    10890.368 
     120    510.92533    3.8538865    130.12477    131.67448    7370.3433    10890.368 
     121    479.01908    3.9118678    140.53727    128.53787    6365.0339    10890.368 
     122    437.31256    3.9461546    155.16896    125.74671    5189.8368    10890.368 
     123    397.02648    3.9559305    169.33726    123.24331    3939.3161    10890.368 
     124    368.65211    3.9582539     178.5781     120.9061    2700.9971    10890.368 
     125     358.8328    3.9572137     179.9819    118.57639    1533.9836    10890.368 
     126    368.55099    3.9536043    172.99007    116.12495    462.65975    10890.368 
     127    393.11699    3.9450496    159.42949    113.48307   -520.70574    10890.368 
     128    423.87916    3.9297842    142.82382      110.655   -1449.4268    10890.368 
     129     451.0195    3.9070309    127.24597    107.70535   -2367.4964    10890.368 
     130    466.50505    3.8768944    116.09993    104.73301   -3313.8455    10890.368 
     131    466.28373    3.8400395    111.20925    101.84079   -4309.0758    10890.368 
     132    451.11442    3.7973655    112.46153    99.107668   -5348.4128    10890.368 
     133    425.89449    3.7498404    118.06414    96.568962   -6401.9952    10890.368 
     134    397.82577    3.6985636    125.27354     94.20989   -7421.3852    10890.368 
     135    374.08724     3.644989    131.32845    91.975132   -8349.5562    10890.368 
     136    359.76972    3.5904791    134.28055    89.791558   -9129.2913    10890.368 
     137    356.66182    3.5346437    133.47905    87.592702   -9712.7394    10890.368 
     138    363.15362    3.4798125    129.59734    85.340651   -10068.996    10890.368 
     139    375.16272    3.4292756    124.24603    83.031278   -10176.299    10890.368 
     140    387.67896    3.3862881    119.34104    80.688435   -10021.106    10890.368 
     141    396.38025    3.3560128    116.45275    78.352301   -9594.7055    10890.368 
     142    398.82676     3.340213    116.34197    76.061028   -8896.8227    10890.368 
     143    394.90809    3.3426978    118.80431     73.84031   -7925.9462    10890.368 
     144    386.53162    3.3666488    122.83268    71.697329   -6695.6507    10890.368 
     145    376.72961     3.407709    127.01398    69.618013   -5228.8954    10890.368 
     146    368.51878    3.4620258    130.01012    67.575801   -3564.7933    10890.368 
     147    363.92071    3.5268576     130.9672    65.541437   -1761.4776    10890.368 
     148    363.42189    3.6006658    129.73573    63.493648    105.03306    10890.368 
     149    365.99473    3.6829362    126.85159    61.426303    1946.2331    10890.368 
     150    369.62187    3.7740097    123.30279    59.350071    3667.8204    10890.368 
     151    372.11999    3.8727551    120.16844    57.287717    5182.4473    10890.368 
     152    371.96308    3.9757491     118.2512    55.263887    6411.9946    10890.368 
     153    368.81899    4.0808869    117.82654    53.296391    7300.9618    10890.368 
     154    363.61891    4.1868742    118.59105    51.386922    7821.2265    10890.368 
     155    358.13727    4.2944993    119.82704    49.521879    7968.2595    10890.368 
     156    354.23437    4.4008248    120.72329    47.674171    7761.0305    10890.368 
     157    353.04911    4.5048492    120.72613    45.816767     7241.872    10890.368 
     158    354.49622    4.6063748    119.77618     43.93547    6463.6005    10890.368 
     159    357.27201    4.7009109    118.33166    42.033349    5491.1568    10890.368 
     160     359.3837    4.7856753    117.15809    40.132825    4398.8694    10890.368 
     161    359.01476     4.859435      116.967    38.266172    3266.6788    10890.368 
     162    355.36435    4.9221128    118.05612    36.462048    2176.9156    10890.368 
     163    349.10155    4.9729414    120.10967    34.733511    1212.0578    10890.368 
     164    342.21319    5.0067796    122.25509    33.067994    441.48253    10890.368 
     165    337.26495    5.0215261    123.37132    31.433543   -83.586618    10890.368 
     166     336.3532    5.0195492    122.53434    29.785908   -331.81531    10890.368 
     167    340.16023    5.0192599    119.42568    28.092279   -304.42313    10890.368 
     168    347.53884    5.0281119    114.53418    26.334329   -49.177935    10890.368 
     169    355.74767    5.0443037    109.06666    24.522834    368.25831    10890.368 
     170    361.29131    5.0656852    104.57946    22.694547    863.40021    10890.368 
     171    361.13261    5.0903854    102.45215    20.901011    1346.1059    10890.368 
     172     353.8321    5.1209525    103.38613    19.195266    1732.7657    10890.368 
     173    340.21762    5.1529536    107.10719    17.609917    1946.7459    10890.368 
     174    323.28745    5.1787755    112.39098    16.149076    1939.0978    10890.368 
     175    307.35396    5.1932475     117.4119    14.783896    1685.4413    10890.368 
     176    296.70993    5.1966773    120.31184    13.462652    1184.4508    10890.368 
     177    294.24466    5.1881721     119.8055    12.124425    446.14283    10890.368 
     178    300.45385    5.1673026     115.6219     10.72147   -502.07966    10890.368 
     179    313.19905    5.1343203    108.62568    9.2348293   -1619.3728    10890.368 
     180    328.32521    5.0865181    100.56624    7.6762914   -2858.4279    10890.368 
     181    340.94344     5.026356    93.530261    6.0873698   -4161.1443    10890.368 
     182    346.97781    4.9587457    89.274395    4.5208355   -5452.4458    10890.368 
     183    344.46006    4.8947559    88.663868    3.0287544   -6649.2502    10890.368 
     184    334.13479    4.8354497    91.408616    1.6370684   -7659.8911    10890.368 
     185     319.1434     4.785811    96.188866   0.34861421   -8394.0216    10890.368 
     186     303.9403    4.7400224    101.12149  -0.86670878   -8780.9815    10890.368 
     187    292.81931    4.6867954    104.39694   -2.0537342   -8767.9451    10890.368 
     188    288.54407    4.6159776     104.8659   -3.2575296   -8332.5218    10890.368 
     189    291.56781    4.5215848    102.37704   -4.5076135   -7489.0672    10890.368 
     190    300.05949    4.4038022    97.763884   -5.8095239   -6287.5865    10890.368 
     191    310.67728    4.2692313    92.505871   -7.1458045   -4807.3329    10890.368 
     192    319.78045    4.1285702    88.198756   -8.4852148    -3148.628    10890.368 
     193    324.64512    3.9931488    86.024918    -9.794078    -1417.065    10890.368 
     194    324.27899     3.863717    86.399952   -11.052486     287.2946    10890.368 
     195    319.59363     3.733253    88.899389   -12.252247    1873.2729    10890.368 
     196    312.89546    3.5881877    92.464771   -13.410056    3260.1507    10890.368 
     197    306.95603    3.4341499    95.798337   -14.548612    4392.5298    10890.368 
     198     304.0489    3.2767543    97.798923   -15.696242    5229.5778    10890.368 
     199    305.20218    3.1223348    97.899383   -16.876301     5756.737    10890.368 
200        0.96515346431089754642 10.057648408499906267 1 76 -158.50834234138437751
     200    309.90639    2.9874509    96.205083   -18.094988    5973.2624    10890.368 
     201    316.37062    2.8877307     93.40278   -19.345843    5894.7471    10890.368 
     202    322.18367    2.8401818    90.486338   -20.609352    5557.8537    10890.368 
     203     325.1476     2.861407    88.401993   -21.858496    5014.5918    10890.368 
     204    323.99623    2.9582506    87.736546   -23.071121    4334.1335    10890.368 
     205    318.75229    3.1295211      88.5505   -24.233989    3593.5165    10890.368 
     206    310.63106     3.364845    90.402667   -25.346624       2873.3    10890.368 
     207    301.54117    3.6442581    92.549646    -26.42027    2249.3898    10890.368 
     208    293.37197    3.9399852    94.241476   -27.472133    1783.9241    10890.368 
     209    287.33586    4.2192545    95.002488   -28.515648    1523.8074    10890.368 
     210      283.591    4.4445258    94.793519    -29.55945    1480.1709    10890.368 
     211    281.28301    4.5937521    93.993449   -30.595021    1638.7113    10890.368 
     212    279.01061    4.6584288    93.206936   -31.603149    1966.3709    10890.368 
     213    275.52791     4.637888    92.972985   -32.562779    2409.7862    10890.368 
     214     270.3875    4.5421285    93.490656   -33.457658    2912.8671    10890.368 
     215    264.27515     4.386954    94.475677   -34.286996    3411.5583    10890.368 
     216    258.87162    4.1935055    95.219199   -35.066405    3846.3974    10890.368 
     217    256.25778    3.9857814    94.841907   -35.825911    4166.9958    10890.368 
     218    258.07784    3.7865843    92.656742   -36.600441    4333.4186    10890.368 
     219    264.76857    3.6151774    88.503152   -37.416858    4315.0477    10890.368 
     220    275.18908    3.4775462    82.915754   -38.281993    4097.1938    10890.368 
     221    286.78017    3.3555667      77.0472   -39.192739    3673.4932    10890.368 
     222    296.24414    3.2521429    72.347216   -40.115369     3044.518    10890.368 
     223     300.6127    3.1726644    70.094832   -41.011688    2235.9938    10890.368 
     224    298.30059    3.1172785     70.94672   -41.847314    1295.8967    10890.368 
     225    289.71515    3.0822039     74.66674   -42.604279    280.88929    10890.368 
     226    277.21234    3.0648571    80.144071   -43.285496   -737.72833    10890.368 
     227    264.39768    3.0591773    85.707655   -43.916108   -1685.3958    10890.368 
     228    254.97141     3.058662    89.641541   -44.533495   -2499.1816    10890.368 
     229    251.50758    3.0564134    90.733807   -45.175013   -3129.7682    10890.368 
     230    254.57923    3.0460617    88.675718    -45.86443   -3554.8672    10890.368 
     231    262.52979    3.0237058    84.175006   -46.602547   -3777.0532    10890.368 
     232     271.9805    2.9861123    78.743081   -47.367425   -3821.2958    10890.368 
     233    278.91352    2.9305021    74.221842   -48.121447   -3729.7865    10890.368 
     234    279.98529    2.8552674    72.200781   -48.823179   -3551.9112    10890.368 
     235    273.64406    2.7605137    73.512184   -49.440467   -3335.5235    10890.368 
     236    260.68789    2.6472067     77.96705    -49.96011   -3115.7782    10890.368 
     237    244.06563    2.5165093     84.41629   -50.394402   -2920.1039    10890.368 
     238    227.98821    2.3761553    91.113162   -50.774494   -2764.1984    10890.368 
     239    216.65443    2.2361338    96.256066    -51.14085   -2652.9479    10890.368 
     240    212.98983    2.1023984    98.535426   -51.531622   -2585.1985    10890.368 
     241    217.79089    1.9793766    97.509774   -51.968193   -2554.4209    10890.368 
     242     229.5441    1.8705927    93.696174   -52.449713   -2551.7111    10890.368 
     243    244.96167    1.7784043    88.357446   -52.955216   -2563.2588    10890.368 
     244    260.03572    1.7028617    83.067444   -53.454146   -2572.6033    10890.368 
     245    271.25562    1.6453907    79.204653   -53.916176   -2557.0075    10890.368 
     246    276.60319    1.6072318    77.540014    -54.32285   -2487.7353    10890.368 
     247    276.02245      1.58989    78.045701   -54.671471   -2331.1111    10890.368 
     248    271.24356     1.592295    79.973644   -54.976286   -2055.9695    10890.368 
     249    265.05574    1.6116282    82.161653   -55.261924   -1636.7838    10890.368 
     250    260.29752    1.6437959    83.453747   -55.555066   -1062.2048    10890.368 
     251    258.90649    1.6838228    83.092156   -55.875534   -340.45249    10890.368 
     252    261.31976    1.7270555    80.957046   -56.231472    499.92328    10890.368 
     253    266.39392    1.7793415    77.586002   -56.611238     1411.053    10890.368 
     254     271.8666    1.8395863    73.978257   -56.996145    2323.1843    10890.368 
     255    275.15383    1.9038343    71.256812   -57.360568    3171.4315    10890.368 
     256    274.21566    1.9682647    70.300458   -57.681857    3881.0599    10890.368 
     257     268.2362    2.0296397    71.463966   -57.946506    4392.4842    10890.368 
     258    257.89566    2.0866064    74.472218     -58.1542    4667.1056    10890.368 
     259    245.17076    2.1399926    78.516284   -58.316247    4687.3658    10890.368 
     260    232.73223    2.1918478    82.514727    -58.45342    4460.8148    10890.368 
     261    223.16375    2.2437986    85.450053   -58.585784    4007.5282    10890.368 
     262    218.23687    2.2899844    86.671756   -58.729186    3366.1723    10890.368 
     263    218.46208    2.3243628    86.067789   -58.886752    2591.0505    10890.368 
     264    223.05911    2.3388228    84.054761   -59.051931    1742.7705    10890.368 
     265    230.32144    2.3310327    81.399234    -59.20779    882.87364    10890.368 
     266    238.23916    2.3020336    78.937771   -59.336494    74.162014    10890.368 
     267    245.14918    2.2558276    77.296925    -59.42584   -621.08135    10890.368 
     268    250.18959    2.1994274    76.709501   -59.472785   -1148.8665    10890.368 
     269    253.41007    2.1400438    76.988953   -59.485699   -1467.0406    10890.368 
     270    255.52297    2.0866554    77.663156   -59.479012   -1547.2598    10890.368 
     271    257.41753    2.0476095    78.209219   -59.469424   -1382.7857    10890.368 
     272    259.63924    2.0359954    78.293989   -59.467007   -989.82797    10890.368 
     273    262.06658    2.0665903    77.923866    -59.47146   -408.70824    10890.368 
     274    263.91881    2.1464973     77.44409   -59.474021    299.27328    10890.368 
     275    264.05876      2.28418    77.386545   -59.459838    1063.5491    10890.368 
     276    261.54004     2.482164    78.222777    -59.41305    1795.5184    10890.368 
     277    256.13613    2.7253669    80.124151   -59.326187    2416.8424    10890.368 
     278    248.59031    2.9954995    82.829637   -59.201296    2862.8411    10890.368 
     279    240.51545    3.2720584    85.683061   -59.051422    3080.4796    10890.368 
     280    233.92475    3.5357105    87.839807   -58.895257    3039.9204    10890.368 
     281    230.54509    3.7738047    88.571507   -58.750052    2737.2235    10890.368 
     282    231.19336    3.9808404    87.550886   -58.623289    2182.1772    10890.368 
     283    235.46752    4.1571365    84.997682   -58.506262    1409.6693    10890.368 
     284     241.8945    4.2975272    81.616973   -58.382755    461.52097    10890.368 
     285    248.48235    4.3974082     78.34783   -58.229862   -600.74572    10890.368 
     286    253.48132    4.4514523    76.014623   -58.028848   -1696.8296    10890.368 
     287    256.03934    4.4528263    75.024137   -57.775383   -2743.8129    10890.368 
     288    256.47154    4.4057355    75.231264    -57.47786   -3659.4254    10890.368 
     289    256.05712    4.3210805    76.032158   -57.156188   -4362.5495    10890.368 
     290    256.43528    4.2117282    76.645937   -56.833132   -4786.0173    10890.368 
     291    258.84323    4.0901019    76.468147    -56.52487   -4885.0805    10890.368 
     292    263.52205    3.9661527    75.348737   -56.234529   -4643.4417    10890.368 
     293    269.53967    3.8461814    73.678984   -55.951348   -4075.3777    10890.368 
     294    275.10838    3.7328417    72.250516   -55.655572    -3223.791    10890.368 
     295    278.27378      3.62576    71.941957   -55.327144    -2156.096    10890.368 
     296    277.69849    3.5243765    73.357466   -54.954481   -952.00258    10890.368 
     297    273.24092    3.4299726    76.559818   -54.537247    300.27633    10890.368 
     298    266.10209    3.3322258    81.004415   -54.093037    1518.5208    10890.368 
     299     258.4243    3.2305608    85.703553   -53.642646    2613.4298    10890.368 
300        0.95635625109471245064 10.09343003459755117 0.99470899470899465378 72 -167.62996112055367348
     300    252.53902    3.1319861    89.558803   -53.208791    3513.2485    10890.368 
     301    250.14773    3.0432529    91.743526   -52.804692    4163.0086    10890.368 
     302    251.69806    2.9698131    91.992069   -52.428979    4522.7857    10890.368 
     303    256.21477    2.9149311    90.687319   -52.066263    4573.6186    10890.368 
     304    261.65993    2.8835993    88.711331   -51.688574    4322.8703    10890.368 
     305    265.71484    2.8646351    87.111544    -51.27497    3794.0314    10890.368 
     306    266.64445    2.8497354    86.708949   -50.809159    3029.2831    10890.368 
     307    263.95494    2.8352431    87.791013   -50.291562    2101.0887    10890.368 
     308    258.60776    2.8176145    90.008857   -49.738467    1095.9621    10890.368 
     309     252.6659    2.7956423    92.517571   -49.174811    108.79374    10890.368 
     310     248.5337    2.7681255    94.301897   -48.623857    -766.0445    10890.368 
     311    248.07659    2.7307886    94.558429   -48.099673   -1453.6705    10890.368 
     312    251.95327    2.6821315    92.985638   -47.599158   -1901.5799    10890.368 
     313    259.42431    2.6218922    89.873868   -47.104576   -2081.0715    10890.368 
     314    268.67344    2.5511317    85.973678   -46.591798   -1994.1386    10890.368 
     315    277.49777    2.4752706    82.207021   -46.037446   -1669.3595    10890.368 
     316    284.09163     2.398401    79.341044   -45.430761   -1155.2501    10890.368 
     317    287.61696    2.3323231    77.746132   -44.773091   -503.95191    10890.368 
     318    288.40763    2.2865709    77.316353   -44.081767    217.89317    10890.368 
     319    287.74799     2.270609    77.565928   -43.377795    934.99169    10890.368 
     320    287.30881    2.2945108    77.856446   -42.681874    1580.0349    10890.368 
     321    288.47893    2.3664233      77.6681   -42.008121    2094.0521    10890.368 
     322    291.80467      2.49142     76.82089   -41.360829    2432.5481    10890.368 
     323    296.73313    2.6712301    75.572893    -40.72977    2563.8042    10890.368 
     324     301.7389    2.8876227    74.562087   -40.105913    2468.0198    10890.368 
     325    304.77288    3.1285081    74.607857   -39.470838      2142.62    10890.368 
     326     303.9409    3.3826884    76.429403   -38.812096    1610.4749    10890.368 
     327    298.20292    3.6387287    80.368161   -38.125676     915.4844    10890.368 
     328    287.83721    3.8865841    86.206642   -37.418083    119.68065    10890.368 
     329    274.51421    4.1189293    93.150498   -36.705104   -702.46913    10890.368 
     330    260.93235    4.3318805    99.991997   -36.007259   -1472.1447    10890.368 
     331    250.11138    4.5249527    105.41419   -35.342871    -2115.567    10890.368 
     332    244.55774     4.700284    108.34556   -34.720812   -2573.1588    10890.368 
     333    245.56711    4.8613134    108.25364   -34.135698   -2806.8138    10890.368 
     334    252.88962    5.0111989    105.28313    -33.56787    -2803.943    10890.368 
     335    264.86737    5.1510857    100.19493   -32.986942   -2576.3795    10890.368 
     336    279.01284    5.2581154     94.12946   -32.368056   -2150.6069    10890.368 
     337    292.73368    5.3161978    88.276462   -31.689761   -1588.3931    10890.368 
     338    304.03605    5.3259835    83.558281   -30.946486   -950.62904    10890.368 
     339    312.03938    5.2912586    80.420252   -30.148065   -299.89794    10890.368 
     340    317.05404    5.2186797    78.788406    -29.31604    305.51652    10890.368 
     341    320.25151    5.1173112    78.196727   -28.476507    817.87272    10890.368 
     342    323.06619    4.9922795    78.031613   -27.653889    1200.2887    10890.368 
     343    326.52491    4.8479734    77.805903   -26.863126    1422.2355    10890.368 
     344    330.75389    4.6908903    77.365429   -26.107391    1470.7048    10890.368 
     345    334.86455    4.5277172    76.952729   -25.378325      1347.13    10890.368 
     346    337.25121    4.3623227    77.105615    -24.66196    1063.2763    10890.368 
     347    336.19873    4.1966951    78.428494   -23.944133    647.98757    10890.368 
     348    330.58837    4.0321187    81.318409   -23.216743    143.88847    10890.368 
     349    320.45651     3.867401    85.747445   -22.480895   -392.18179    10890.368 
     350    307.18037     3.699066    91.184597   -21.748708   -902.18799    10890.368 
     351     293.2093    3.5269742    96.693781   -21.037371   -1326.6773    10890.368 
     352    281.42124    3.3511903    101.18336   -20.364624    -1613.694    10890.368 
     353    274.29104    3.1721908    103.72963   -19.741373   -1726.5741    10890.368 
     354    273.13686    2.9914466    103.86862   -19.167783    -1648.805    10890.368 
     355    277.69509    2.8213563    101.75635   -18.625968   -1386.6413    10890.368 
     356    286.20921    2.6674515    98.136875   -18.091795   -977.80949    10890.368 
     357    295.98396    2.5277641    94.122595    -17.53755   -470.78711    10890.368 
     358    304.22678    2.4034338    90.846368    -16.93982    71.883636    10890.368 
     359    308.95479    2.2989629     89.09562   -16.287852    586.48058    10890.368 
     360    309.65498    2.2197349    89.050151   -15.587079    1015.8314    10890.368 
     361    307.44828    2.1715174    90.220194   -14.857507    1315.0088    10890.368 
     362    304.68473    2.1593755    91.618478    -14.12669    1455.5871    10890.368 
     363    304.08226    2.1820353    92.120122   -13.424546    1424.3277    10890.368 
     364    307.68238    2.2428106    90.892575    -12.76785    1217.6562    10890.368 
     365    316.01491    2.3468564    87.741406   -12.157781    846.61554    10890.368 
     366    327.78582    2.4991243    83.239231   -11.578866    327.92257    10890.368 
     367     340.2186    2.7038442    78.576053   -11.005096   -309.81941    10890.368 
     368    349.95278    2.9628036    75.174554    -10.41094   -1025.8014    10890.368 
     369     354.1897    3.2748182    74.204105   -9.7795113   -1771.7588    10890.368 
     370    351.66598    3.6286847    76.171472   -9.1128828   -2490.9907    10890.368 
     371    343.08833    4.0082919    80.739435   -8.4285198   -3120.2617    10890.368 
     372    330.88892    4.3922734    86.836179   -7.7552677   -3597.3736    10890.368 
     373    318.40298    4.7552881    93.011107   -7.1232412   -3866.2269    10890.368 
     374    308.77181    5.0723958    97.903651   -6.5526353   -3890.0398    10890.368 
     375     303.9725    5.3239719    100.65325   -6.0479021   -3658.1931    10890.368 
     376    304.30772    5.4987058    101.11509   -5.5958326   -3183.3894    10890.368 
     377    308.49266    5.5921482    99.824472   -5.1710754   -2502.7996    10890.368 
     378    314.24844    5.6074032     97.74505   -4.7458973   -1671.3896    10890.368 
     379    319.16059    5.5595916    95.906685   -4.2965677   -756.72766    10890.368 
     380    321.50782    5.4686635    95.060753   -3.8137963    168.75622    10890.368 
     381    320.78476    5.3605808    95.461706   -3.3008748    1042.2171    10890.368 
     382    317.77346    5.2615556    96.836385    -2.771822    1804.7927    10890.368 
     383    314.17541     5.185187    98.536455   -2.2489575    2406.7296    10890.368 
     384       311.93    5.1338148    99.813705   -1.7505293    2823.8949    10890.368 
     385    312.43876    5.1008532    100.12272   -1.2926226      3047.72    10890.368 
     386    316.01677    5.0841994    99.341343   -0.8735504    3069.6688    10890.368 
     387    321.76209    5.0739656    97.828976  -0.48144902    2904.4412    10890.368 
     388    327.87189    5.0604748    96.294111 -0.096377038    2580.2849    10890.368 
     389    332.33431    5.0356562    95.512902   0.30226606    2138.6435    10890.368 
     390    333.73967    4.9938421    96.000582   0.72784504    1633.4034    10890.368 
     391    331.89618    4.9326758    97.764594    1.1803056    1128.4164    10890.368 
     392     327.9986    4.8530799    100.24717    1.6465134    686.93421    10890.368 
     393    324.24741    4.7544335    102.49792     2.102897     373.9469    10890.368 
     394    323.01988    4.6326201     103.5282    2.5223114    239.72328    10890.368 
     395    325.89174     4.488383      102.717    2.8874205     310.2841    10890.368 
     396    332.90359    4.3310663    100.10613     3.197148    585.62777    10890.368 
     397    342.39886    4.1739382    96.452923    3.4664573    1043.4036    10890.368 
     398    351.52463    4.0291079    93.003442     3.723164    1640.6715    10890.368 
     399    357.22655    3.8960219     91.05741    3.9906782    2318.0241    10890.368 
400        0.94421609634243486298 10.153625148795015321 0.99206349206349198067 67 -157.62567494461239903
     400    357.36063    3.7786479    91.484405     4.288399    3003.7595    10890.368 
     401    351.51323    3.6888113    94.374643    4.6181486    3637.1471    10890.368 
     402    341.26947    3.6331587    98.961394    4.9668164    4157.3884    10890.368 
     403    329.76638    3.5882124    103.85231    5.3016698    4521.1981    10890.368 
     404    320.60114    3.5379371    107.49798     5.594867    4682.6857    10890.368 
     405    316.59785    3.4738526    108.72195    5.8251718    4617.4566    10890.368 
     406    318.87541    3.3826533    107.12959    5.9864032    4319.1531    10890.368 
     407    326.45637    3.2536643    103.25329    6.0901588    3779.8258    10890.368 
     408    336.58742     3.090623    98.382528    6.1642357    3005.4388    10890.368 
     409     345.6915    2.9015975    94.136914    6.2408563    2026.3095    10890.368 
     410    350.58814    2.6962282    91.923504    6.3453486    883.16022    10890.368 
     411    349.57597    2.4907566    92.459277    6.4909701   -363.15381    10890.368 
     412    343.03668    2.3018409    95.516468    6.6737454   -1632.2292    10890.368 
     413    333.33459      2.14071    99.979297    6.8711522   -2837.3923    10890.368 
     414    324.02494    2.0183137    104.20109    7.0522047    -3894.534    10890.368 
     415    318.66713    1.9326971    106.54903    7.1875695   -4723.0666    10890.368 
     416    319.58135    1.8662883    105.95519    7.2514351   -5275.5457    10890.368 
     417    326.97973    1.8161212    102.29099    7.2426825   -5531.7363    10890.368 
     418    338.85867    1.7803167    96.425795    7.1779748   -5500.8293    10890.368 
     419    351.64344    1.7596697    89.946562    7.0872308   -5217.0401    10890.368 
     420    361.37311    1.7580644    84.636326    7.0020364   -4734.0812    10890.368 
     421    365.01645    1.7828042    81.896977     6.947439   -4122.1747    10890.368 
     422    361.44941    1.8360673    82.319103    6.9298763   -3453.6905    10890.368 
     423    351.74945    1.9182269    85.543417    6.9385169   -2789.5497    10890.368 
     424     338.7538     2.025855    90.444105     6.950805    -2185.742    10890.368 
     425    326.06533    2.1472341    95.550174    6.9385178   -1682.9032    10890.368 
     426    316.88094    2.2697208    99.537965    6.8799534   -1311.1552    10890.368 
     427     313.0683    2.3805832    101.62032    6.7656194    -1088.653    10890.368 
     428    314.76992     2.467398    101.71368    6.6013034   -1017.4069    10890.368 
     429    320.58934    2.5183413    100.35579    6.4028838   -1092.8979    10890.368 
     430    328.22361     2.529478    98.433532    6.1916675   -1301.0623    10890.368 
     431    335.29594    2.5015166    96.836608    5.9853113    -1608.493    10890.368 
     432    340.08202    2.4394933     96.16079     5.793213   -1971.3794    10890.368 
     433    341.91655    2.3523551     96.54904    5.6140639   -2335.1524    10890.368 
     434    341.19899    2.2520645    97.706211     5.438482   -2641.9067    10890.368 
     435    339.04965    2.1499606    99.062138     5.252414   -2832.9934    10890.368 
     436     336.7688    2.0532371    100.01427    5.0407665    -2860.867    10890.368 
     437    335.29955    1.9689959    100.16018    4.7945556   -2693.3281    10890.368 
     438    334.89427     1.905669     99.43761    4.5137814    -2315.693    10890.368 
     439    335.10071    1.8698207     98.12529    4.2062036   -1737.1079    10890.368 
     440    335.04509    1.8673162    96.710011    3.8851519   -981.16728    10890.368 
     441    333.88675    1.9015378    95.679208    3.5643665   -88.858915    10890.368 
     442    331.24926    1.9709491    95.323159    3.2519864    885.53001    10890.368 
     443    327.42857    2.0715775    95.630365    2.9479671    1884.5103    10890.368 
     444    323.30166    2.1958918    96.317096    2.6439706    2850.7298    10890.368 
     445     319.9636    2.3332784    96.976478    2.3271076    3730.0949    10890.368 
     446    318.24611    2.4712528    97.282187    1.9855814    4473.9662    10890.368 
     447    318.32102    2.5970144    97.159467    1.6139205    5042.3905    10890.368 
     448    319.55928    2.6991272    96.849968     1.215858    5406.2255    10890.368 
     449    320.71631    2.7690445      96.8391   0.80382665    5549.5926    10890.368 
     450    320.39015    2.8021896    97.667271   0.39531105     5472.021    10890.368 
     451    317.59463    2.7984298    99.690363 0.0072014471    5189.6363    10890.368 
     452    312.24073     2.761624    102.87692  -0.34960676    4737.9594    10890.368 
     453    305.33763    2.6948088    106.72267  -0.67664441    4162.9733    10890.368 
     454    298.79293    2.6031097    110.33095  -0.98703071    3516.5496    10890.368 
     455    294.84381    2.4951756    112.65246   -1.3021262    2854.7273    10890.368 
     456    295.29962    2.3787679    112.81501   -1.6461521    2225.3918    10890.368 
     457    300.84284    2.2611524    110.43338   -2.0364027    1666.1337    10890.368 
     458    310.65732    2.1490647    105.78268   -2.4770054    1198.3323    10890.368 
     459    322.55856    2.0482656     99.75862   -2.9571902    826.28404    10890.368 
     460    333.61932    1.9632004    93.621973     -3.45519    539.57293    10890.368 
     461    341.09737    1.8965168    88.607287   -3.9460165    318.96203    10890.368 
     462    343.34191     1.848651    85.531133   -4.4111796    139.15928    10890.368 
     463    340.34973     1.820282    84.540824   -4.8443385   -24.925217    10890.368 
     464    333.76539    1.8118415    85.095333   -5.2545269    -194.0853    10890.368 
     465    326.29631    1.8294279     86.18715   -5.6644906   -378.10301    10890.368 
     466    320.76927    1.8907022    86.725108   -6.0980357   -589.33185    10890.368 
     467    319.17789    1.9974113    85.944176   -6.5792462   -844.15107    10890.368 
     468    321.98842     2.137863    83.696165   -7.1193799   -1151.8814    10890.368 
     469    327.94632    2.2975255    80.522274   -7.7126467   -1515.9742    10890.368 
     470    334.49351    2.4562405    77.481108   -8.3409295   -1933.4597    10890.368 
     471    338.61411    2.5991769    75.793866   -8.9752938   -2396.3868    10890.368 
     472    337.84268    2.7175271    76.427218   -9.5862486   -2883.4545    10890.368 
     473    331.10481    2.8034553    79.754398   -10.152888   -3365.1227    10890.368 
     474    319.09574    2.8515699    85.406616   -10.667226   -3799.7092    10890.368 
     475    304.09579    2.8592643    92.359298    -11.13596   -4140.3482    10890.368 
     476    289.30591    2.8255876    99.218157   -11.577581   -4339.8743    10890.368 
     477     277.9284    2.7518103    104.60586   -12.016083   -4364.2918    10890.368 
     478    272.29324    2.6428847    107.52383   -12.472931   -4193.7435    10890.368 
     479    273.30363     2.505932    107.57888   -12.960057   -3826.3394    10890.368 
     480    280.32942    2.3454298    105.01935   -13.480971   -3280.8124    10890.368 
     481    291.51561    2.1738389    100.59322   -14.027917   -2595.0204    10890.368 
     482    304.38573    2.0072692    95.295681   -14.590011   -1824.1999    10890.368 
     483    316.51049    1.8623391    90.101566    -15.15628   -1026.3344    10890.368 
     484    326.02906    1.7488533    85.764597   -15.722539    -263.5172    10890.368 
     485    331.90525    1.6746142    82.724913   -16.286546    413.06124    10890.368 
     486    333.91059      1.64672    81.118857   -16.850886    961.06016    10890.368 
     487    332.46027    1.6698783    80.850082   -17.416601    1347.1855    10890.368 
     488    328.38814    1.7419216    81.671704   -17.983244    1557.2513    10890.368 
     489    322.73108     1.857427    83.250634   -18.549516     1592.032    10890.368 
     490    316.57608    2.0105753    85.206536    -19.11445    1471.4537    10890.368 
     491    310.94609    2.1979957    87.142409   -19.677813    1227.1241    10890.368 
     492    306.68128     2.414669    88.691032   -20.244108    900.32872    10890.368 
     493    304.28491    2.6572329    89.587046   -20.819331    541.14108    10890.368 
     494    303.78304    2.9204142    89.747632   -21.407419     206.4115    10890.368 
     495    304.64963    3.1942063    89.323293   -22.011139   -60.192431    10890.368 
     496     305.8737    3.4744692     88.68167   -22.624034   -219.59103    10890.368 
     497    306.22756    3.7561133    88.304984   -23.234492   -242.84095    10890.368 
     498    304.66042    4.0323173    88.623236   -23.828244   -113.71647    10890.368 
     499    300.68885    4.2945379    89.840613   -24.393324    171.07156    10890.368 
500        0.92135275222847656806 10.233771657425348778 0.96560846560846558262 68 -158.41809708614124474
     500      294.634    4.5333238    91.825206   -24.924403    601.47363    10890.368 
     501    287.59681    4.7388379    94.113961   -25.425294    1153.8463    10890.368 
     502    281.16057    4.9002446    96.042022   -25.907491    1795.7297    10890.368 
     503    276.90368    5.0069067    96.955762   -26.387103    2478.7627    10890.368 
     504    275.88473    5.0535819    96.436115   -26.879349    3149.9945    10890.368 
     505    278.29088    5.0484055    94.449115   -27.389878    3749.6893    10890.368 
     506    283.38834    4.9982076     91.37027   -27.919242    4211.7228    10890.368 
     507    289.76519    4.9076935    87.872115   -28.459617    4480.2546    10890.368 
     508    295.75547    4.7832151    84.719043    -28.99941    4512.5139    10890.368 
     509    299.93001    4.6323037    82.539804    -29.52714    4283.1881    10890.368 
     510    301.48342     4.461363    81.652933   -30.035382    3788.9692    10890.368 
     511    300.39915    4.2743135    81.998325   -30.523201    3048.7037    10890.368 
     512    297.35558    4.0747699    83.191153   -30.994734     2102.244    10890.368 
     513    293.43162    3.8658004    84.671947   -31.457754    1007.1929    10890.368 
     514    289.72429    3.6505792    85.896187   -31.921113      -167.07    10890.368 
     515    286.98488    3.4524057    86.496162   -32.387759   -1335.8996    10890.368 
     516    285.50726    3.2876959    86.357925   -32.857915   -2440.0238    10890.368 
     517    285.18794    3.1499924     85.60379   -33.328747   -3415.4508    10890.368 
     518    285.65461    3.0332232    84.495941   -33.795033   -4205.8471    10890.368 
     519    286.48781    2.9353143    83.310681   -34.252431   -4772.3841    10890.368 
     520    287.39949     2.857269    82.238779    -34.69939   -5089.6971    10890.368 
     521    288.29198    2.7982203    81.349613   -35.138549   -5149.5847    10890.368 
     522     289.1832    2.7547579    80.622079   -35.576089   -4961.8674    10890.368 
     523    290.10416    2.7134199    80.012369   -36.013188   -4547.8536    10890.368 
     524    290.96441    2.6582778    79.513931   -36.452574   -3955.5402    10890.368 
     525    291.51037    2.5939353    79.178868   -36.890016   -3236.3569    10890.368 
     526    291.46261     2.523398    79.086929   -37.320898   -2446.8606    10890.368 
     527    290.65966    2.4539264    79.283674   -37.740449    -1646.162    10890.368 
     528    289.18719    2.3933477    79.723252    -38.14626   -893.36243    10890.368 
     529    287.40928    2.3457034    80.247614   -38.540407   -231.86456    10890.368 
     530    285.85446    2.3153067    80.620709   -38.928208    301.78806    10890.368 
     531    285.01472    2.3030668    80.609414    -39.31685    682.96718    10890.368 
     532    285.11373    2.3065282    80.082755   -39.712172    905.23521    10890.368 
     533    285.94105    2.3197519    79.091624   -40.115532    975.92079    10890.368 
     534    286.82286    2.3317658    77.894489   -40.525724    910.88009    10890.368 
     535    286.76003    2.3398263    76.909467   -40.932238    734.52037    10890.368 
     536    284.73439    2.3433923    76.597656   -41.322263    482.83339    10890.368 
     537    280.08434    2.3429846    77.309266   -41.682711    194.27892    10890.368 
     538    272.81976    2.3407791    79.141221   -42.004356   -87.294651    10890.368 
     539    263.76937    2.3395318    81.858035   -42.285227   -318.36679    10890.368 
     540    254.47301    2.3446629    84.912973   -42.532555   -456.58793    10890.368 
     541    246.83962    2.3634866    87.575581   -42.759038   -474.51447    10890.368 
     542    242.64841    2.3972172    89.133999    -42.98211   -355.95564    10890.368 
     543    243.02505     2.445233     89.11093   -43.216113   -100.06235    10890.368 
     544    248.08343    2.5042516    87.420539   -43.467423    279.81714    10890.368 
     545    256.84684    2.5670931    84.410682   -43.735175     752.0067    10890.368 
     546    267.47883    2.6308391    80.774554    -44.00821    1271.3352    10890.368 
     547    277.76696    2.6926956    77.359926   -44.272835    1787.3349    10890.368 
     548     285.6983    2.7506334    74.939201   -44.516295    2252.0989    10890.368 
     549    289.94806    2.8035147    74.012846   -44.730991    2622.8506    10890.368 
     550    290.14963    2.8515631    74.701462   -44.915756    2868.7924    10890.368 
     551    286.89045     2.895701    76.748607   -45.075471    2973.8708    10890.368 
     552    281.46421     2.936984    79.620711   -45.218824    2938.0093    10890.368 
     553     275.4749    2.9765046    82.664172   -45.355473    2772.3253    10890.368 
     554    270.41903    3.0154709    85.269433   -45.493322    2499.5917    10890.368 
     555    267.35749    3.0549147    86.998704   -45.636792    2149.7547    10890.368 
     556    266.74522    3.0954376    87.651503   -45.786253    1757.7713    10890.368 
     557    268.42908    3.1375402    87.264648   -45.938971     1355.603    10890.368 
     558    271.78118    3.1823354    86.061939    -46.09031    973.67174    10890.368 
     559    275.90604    3.2305207    84.379161   -46.235567    637.72353    10890.368 
     560    279.85546    3.2819237    82.588124   -46.370896    366.85788    10890.368 
     561    282.80938    3.3350156    81.033461   -46.493491    172.43215    10890.368 
     562    284.20758    3.3865558    79.984124   -46.601436    57.817588    10890.368 
     563     283.8293    3.4351211     79.59542    -46.69259    22.956059    10890.368 
     564    281.84794    3.4744937    79.879124   -46.767072    49.482931    10890.368 
     565    278.79996    3.4991592    80.694642    -46.82769    124.22177    10890.368 
     566    275.48377    3.5096757    81.771934   -46.876606    221.15096    10890.368 
     567    272.78644    3.5000634    82.776825    -46.92146     315.1855    10890.368 
     568    271.42262    3.4688138    83.410386    -46.96889    383.11196    10890.368 
     569     271.6949    3.4198654    83.512321     -47.0229    401.76699    10890.368 
     570    273.37448     3.360714    83.123913   -47.081792    355.61314    10890.368 
     571    275.76102    3.2991196    82.475641   -47.139436    231.84563    10890.368 
     572    277.92254    3.2446663    81.895114   -47.185436    31.558122    10890.368 
     573    279.05417     3.203356    81.664107    -47.21082   -237.18375    10890.368 
     574    278.80035    3.1778451    81.886317   -47.210881   -557.19461    10890.368 
     575    277.41237    3.1673976    82.423842   -47.187748   -899.61309    10890.368 
     576    275.67428    3.1676051    82.933899   -47.149704   -1228.2287    10890.368 
     577    274.61375    3.1701991    82.997297   -47.108033   -1502.4253    10890.368 
     578    275.12313    3.1562629    82.291089   -47.070775   -1680.6209    10890.368 
     579    277.57643    3.0967584    80.740037   -47.048953    -1742.029    10890.368 
     580    281.61226    2.9841409    78.586604   -47.038556   -1671.1473    10890.368 
     581    286.21146    2.8180638    76.348237   -47.031186   -1467.2655    10890.368 
     582    290.00999    2.6033587    74.670394   -47.015467   -1140.2063    10890.368 
     583    291.74715    2.3503867    74.120982   -46.979616   -712.95052    10890.368 
     584     290.7101    2.0713886    74.994131   -46.915441   -214.24794    10890.368 
     585    287.00837    1.7768655    77.191162    -46.82507    318.41705    10890.368 
     586    281.57112    1.4860463    80.226043    -46.71486    845.54648    10890.368 
     587    275.87384    1.2174179    83.363591   -46.597254    1329.7679    10890.368 
     588    271.46814   0.97876126    85.850304   -46.486652    1743.9916    10890.368 
     589    269.43383   0.77544584    87.161021   -46.393238    2046.3128    10890.368 
     590    270.00255   0.62177792    87.163144   -46.316533    2207.6173    10890.368 
     591    272.52929   0.52805695    86.139183   -46.246775    2205.5737    10890.368 
     592    275.77051   0.49353693    84.660349   -46.170194    2030.7191    10890.368 
     593    278.37534   0.50329106    83.362979   -46.071656    1691.7811    10890.368 
     594    279.35441   0.53328667    82.718823   -45.946497    1204.9075    10890.368 
     595    278.37418   0.57602999    82.884574   -45.792738    604.63178    10890.368 
     596    275.82291   0.62777643    83.680928   -45.617094   -58.041898    10890.368 
     597    272.58843    0.6897574    84.697125   -45.432857   -719.49464    10890.368 
     598    269.68007    0.7756065    85.469622   -45.247713   -1330.6049    10890.368 
     599    267.86844   0.89817173    85.655514   -45.068965    -1833.604    10890.368 
600        0.89615469645337098026 10.304543234698533283 0.94973544973544965497 64 -166.07230011553110671
     600    267.45188    1.0726339    85.143902   -44.894365   -2188.7303    10890.368 
     601    268.22751    1.3032101    84.071784   -44.719468   -2370.7487    10890.368 
     602    269.63614     1.587066    82.750535   -44.536102   -2369.6419    10890.368 
     603    271.02113    1.9156157     81.53677   -44.336101   -2191.5496    10890.368 
     604    271.90873    2.2751121    80.695228   -44.114438   -1857.6491    10890.368 
     605    272.20683    2.6501781    80.299955   -43.870006   -1405.3314    10890.368 
     606    272.26507    3.0227831    80.206142   -43.606065    -876.3514    10890.368 
     607    272.75371     3.372586    80.104915   -43.331516   -325.85752    10890.368 
     608    274.39303    3.6862585    79.646134   -43.054724    190.06981    10890.368 
     609    277.63611    3.9570409    78.588111   -42.782271    620.91991    10890.368 
     610    282.41964    4.1815424    76.919844   -42.516453    913.83071    10890.368 
     611    288.07879    4.3576636    74.906525   -42.253712    1029.4111    10890.368 
     612    293.47314    4.4861685    73.031949   -41.985667    942.20543    10890.368 
     613    297.31286    4.5694885    71.850313   -41.702792    643.41442    10890.368 
     614     298.5733    4.6116577    71.797689   -41.398018      145.419    10890.368 
     615    296.84602    4.6197887     73.03267   -41.069534   -516.60672    10890.368 
     616    292.50884    4.5997351    75.366319   -40.722607   -1294.2553    10890.368 
     617    286.63978     4.554045    78.308656    -40.36752   -2121.4835    10890.368 
     618    280.69328    4.4847894    81.216807   -40.016233    -2924.074    10890.368 
     619    276.06384    4.3946796    83.493031   -39.678366   -3627.2107    10890.368 
     620    273.68111    4.2869889    84.766217   -39.357158   -4160.8454    10890.368 
     621    273.75619    4.1630255    84.998961   -39.051545   -4471.1192    10890.368 
     622    275.76548    4.0234767    84.488788   -38.752092   -4517.8947    10890.368 
     623    278.63677    3.8731314    83.766339   -38.446639   -4291.3026    10890.368 
     624    281.10908    3.7263411     83.42003   -38.123053   -3796.2958    10890.368 
     625    282.17669    3.5959334    83.901736   -37.773031   -3056.4214    10890.368 
     626    281.43639    3.4904739    85.372344   -37.394382   -2110.8469    10890.368 
     627    279.24498    3.4126309    87.634672    -36.99194   -1009.7639    10890.368 
     628    276.63383    3.3592813    90.177363   -36.575176    187.02649    10890.368 
     629    274.99344    3.3188418    92.323418   -36.156197    1414.8828    10890.368 
     630    275.60747    3.2672419    93.444975    -35.74906     2611.579    10890.368 
     631    279.16338    3.1856168     93.17996   -35.355397    3708.7755    10890.368 
     632    285.42208    3.0487021    91.578164   -34.980563    4648.6645    10890.368 
     633    293.16416     2.861792    89.118671   -34.609275    5376.9748    10890.368 
     634    300.51392    2.6395361    86.574548   -34.226807    5851.5172    10890.368 
     635    305.54031    2.3966554    84.765813   -33.818708    6054.5667    10890.368 
     636    306.89371    2.1486722    84.280258   -33.376908    5983.2139    10890.368 
     637    304.28949     1.910898    85.262883   -32.903492    5658.0442    10890.368 
     638    298.65193    1.6961676    87.354382   -32.410774    5119.2949    10890.368 
     639    291.84296    1.5135895     89.80797   -31.917689    4421.7639    10890.368 
     640    286.06042    1.3679264    91.746763   -31.443474    3627.8693    10890.368 
     641    283.11207    1.2596643    92.470679   -31.000936    2799.8924    10890.368 
     642    283.81861    1.1856977    91.703258   -30.591841    1992.9193    10890.368 
     643    287.75593    1.1395527     89.69091   -30.205482    1252.5744    10890.368 
     644    293.41974    1.1096426    87.119864   -29.824803    606.56031    10890.368 
     645    298.75399    1.0868021    84.879398   -29.428384    69.347638    10890.368 
     646    301.86767    1.0640578    83.752398   -29.000655   -355.87419    10890.368 
     647    301.70157    1.0383164    84.138181   -28.536426   -679.29316    10890.368 
     648    298.41142    1.0129113    85.904345   -28.040638   -912.60526    10890.368 
     649    293.33992   0.99052224    88.421056    -27.52979   -1074.0067    10890.368 
     650    288.57202    0.9730739    90.769327   -27.024093   -1180.0554    10890.368 
     651    286.22253   0.96088379    92.052695   -26.541652   -1252.3212    10890.368 
     652    287.70788    0.9525694    91.705379   -26.091395   -1311.6117    10890.368 
     653    293.24088   0.94928726    89.688104   -25.671218   -1374.6822    10890.368 
     654    301.75089   0.95669482    86.503266   -25.264569   -1465.2633    10890.368 
     655    311.24487   0.97125997    83.025475   -24.853214   -1601.5822    10890.368 
     656    319.45414   0.98644474    80.211507   -24.418692   -1789.5669    10890.368 
     657    324.54276   0.98964449    78.794729   -23.954655   -2028.9049    10890.368 
     658    325.62805    0.9759336    79.070908   -23.462369   -2310.6999    10890.368 
     659    322.96598   0.94390647    80.843158   -22.954159   -2613.6287    10890.368 
     660    317.76265    0.8948365    83.531945   -22.447423   -2909.8197    10890.368 
     661    311.70979   0.83237377    86.394862   -21.958479   -3169.3749    10890.368 
     662    306.44015   0.76187436    88.767126   -21.497495   -3365.1033    10890.368 
     663    303.09346   0.68951353    90.238603   -21.066194   -3476.3973    10890.368 
     664    302.11151    0.6213517     90.71958   -20.658743   -3491.5434    10890.368 
     665    303.27439    0.5647551    90.395444   -20.265045   -3404.2924    10890.368 
     666    305.92443   0.52656749    89.608095   -19.874245    -3222.453    10890.368 
     667    309.26488   0.50871986    88.717922   -19.478263   -2961.3673    10890.368 
     668    312.61898   0.50657159    87.994096   -19.073719   -2635.2034    10890.368 
     669    315.57328   0.51419765     87.56075   -18.661534   -2266.6226    10890.368 
     670    317.99045   0.52942264    87.403892   -18.247828     -1872.86    10890.368 
     671    319.92753   0.56120924    87.425214    -17.83489   -1470.0398    10890.368 
     672    321.50769   0.61012379    87.518003   -17.430153   -1076.2714    10890.368 
     673    322.78193    0.6693448    87.635325   -17.037847   -697.44578    10890.368 
     674    323.62613   0.73417296    87.819827   -16.658044   -347.22693    10890.368 
     675    323.76802   0.80458225    88.178251   -16.287054   -28.594635    10890.368 
     676    322.94794   0.87998029    88.805993   -15.919627    260.41594    10890.368 
     677    321.13072   0.95949934    89.690564   -15.551194    528.04053    10890.368 
     678    318.67718    1.0414613    90.640584   -15.181097     788.5303    10890.368 
     679    316.36512    1.1244546    91.286835   -14.813756    1056.0938    10890.368 
     680    315.20513    1.2078774    91.177113   -14.458161    1344.6778    10890.368 
     681    316.08406    1.2921772    89.945621   -14.124326    1664.6582    10890.368 
     682    319.35283    1.3800336     87.49712   -13.820213    2021.0929    10890.368 
     683    324.54032    1.4814735    84.127352   -13.543056    2406.5388    10890.368 
     684    330.34916    1.6001841     80.51486   -13.286056    2800.5086    10890.368 
     685    334.95979    1.7367959    77.566188   -13.035957    3176.3464    10890.368 
     686     336.5666    1.8914781    76.153768   -12.779047    3505.8547    10890.368 
     687    333.98657    2.0666863    76.831521    -12.50459    3757.2993    10890.368 
     688    327.13506    2.2580409    79.628394   -12.211644    3903.1207    10890.368 
     689    317.15167    2.4595093    83.998187   -11.908562    3923.1256    10890.368 
     690    306.12919    2.6709486    88.951612   -11.608106    3807.5169    10890.368 
     691    296.53779    2.8864039    93.335776   -11.328251    3554.7367    10890.368 
     692    290.48948    3.0964888     96.17506   -11.083158    3174.8446    10890.368 
     693    289.07977    3.2939296    96.963658   -10.878925    2679.2267    10890.368 
     694    292.03932    3.4859619    95.812165   -10.705871    2088.6636    10890.368 
     695    297.85574     3.678536      93.3954   -10.547869    1420.1075    10890.368 
     696    304.31588    3.8743317    90.712555   -10.382033    697.17248    10890.368 
     697    309.27619    4.0730495    88.737343   -10.188348   -50.649416    10890.368 
     698    311.43601    4.2728601    88.071846   -9.9555092   -787.26771    10890.368 
     699    310.83606    4.4701929    88.724169   -9.6856265   -1471.6768    10890.368 
700        0.86747307642848792142 10.356931254168497247 0.90211640211640209408 63 -149.3445191736214781
     700    308.88377    4.6597683     90.09602   -9.3944938   -2061.0058    10890.368 
     701    307.86174    4.8350379    91.198059   -9.1071207   -2515.5614    10890.368 
     702    310.06427      4.98899    91.028727   -8.8495626   -2804.9718    10890.368 
     703    316.85921      5.11517    88.985458   -8.6397057   -2913.6585    10890.368 
     704    328.02374    5.2078698    85.154632   -8.4811908    -2843.753    10890.368 
     705    341.61819    5.2644227    80.362574   -8.3618718   -2619.2875    10890.368 
     706    354.48094    5.2860834    75.953817   -8.2589997   -2278.5248    10890.368 
     707    363.19882    5.2774223     73.36432   -8.1477773   -1869.1117    10890.368 
     708    365.20806    5.2511053    73.636441    -8.010306   -1435.4338    10890.368 
     709    359.69214    5.2153948    77.045705   -7.8412013   -1015.3718    10890.368 
     710    347.90432    5.1686914    82.976689   -7.6495071   -652.60057    10890.368 
     711    332.78694    5.1087204    90.091705   -7.4589712   -370.25973    10890.368 
     712    318.07676     5.035455    96.736844   -7.2956585   -178.28659    10890.368 
     713    307.16332    4.9500515    101.44641   -7.1816447   -84.575793    10890.368 
     714     302.0962     4.855705    103.37437    -7.126637   -88.073336    10890.368 
     715    303.08772    4.7506487    102.50687   -7.1244994   -180.42068    10890.368 
     716    308.62008    4.6360839    99.591783   -7.1536427   -359.33643    10890.368 
     717    316.12322    4.5189513    95.817917   -7.1877555   -611.19394    10890.368 
     718    322.96122    4.4152583    92.373388   -7.1997595   -913.61573    10890.368 
     719    327.35801    4.3326903    90.046901   -7.1784194   -1241.8574    10890.368 
     720    328.92357     4.262333    89.015856   -7.1294794   -1554.2048    10890.368 
     721    328.56787    4.1970778    88.884109   -7.0699037   -1814.0243    10890.368 
     722    327.93857      4.13405    88.939153   -7.0221055   -1976.2092    10890.368 
     723    328.63634    4.0654749    88.509361   -7.0097587   -2008.5704    10890.368 
     724     331.4876    3.9929545    87.276588   -7.0425245   -1890.7589    10890.368 
     725    336.19777    3.9197147    85.421227   -7.1179861   -1616.8825    10890.368 
     726     341.4835    3.8490583    83.550207   -7.2225507   -1197.3111    10890.368 
     727    345.60591    3.7834156     82.44508   -7.3375307   -656.31255    10890.368 
     728    347.08119    3.7237696    82.735097   -7.4466544   -27.856327    10890.368 
     729    345.28262    3.6695595    84.625541   -7.5422017    649.07341    10890.368 
     730    340.69839    3.6190825    87.787297   -7.6278576    1334.7739    10890.368 
     731    334.74701    3.5712444    91.451049   -7.7167218    1991.9819    10890.368 
     732      329.228    3.5232176     94.67258   -7.8273049    2585.9649    10890.368 
     733    325.60639    3.4733684    96.671888   -7.9753601    3079.2165    10890.368 
     734    324.41033    3.4230572    97.120425   -8.1677936    3440.1203    10890.368 
     735    324.99022    3.3748503    96.266435    -8.398717    3640.7525    10890.368 
     736    325.73921    3.3326328    94.844193   -8.6505814    3661.1094    10890.368 
     737    324.72992    3.3020802    93.790727    -8.897395     3488.454    10890.368 
     738    320.54784    3.2842004      93.8676   -9.1162808    3122.7231    10890.368 
     739    312.99918    3.2775217    95.328171    -9.293932    2581.0483    10890.368 
     740    303.41042    3.2785574    97.761812   -9.4320872    1897.1782    10890.368 
     741    294.37557    3.2722415    100.18855   -9.5516524    1122.1296    10890.368 
     742    288.94317    3.2486878     101.3884   -9.6814393    303.34208    10890.368 
     743    289.54138    3.2073817    100.35571   -9.8517255   -505.93563    10890.368 
     744    297.03633    3.1493067    96.717997   -10.082432   -1259.1053    10890.368 
     745    310.22718     3.076244    90.961091   -10.375635   -1920.9986    10890.368 
     746    326.01478    2.9899921    84.363231   -10.714548    -2469.317    10890.368 
     747    340.23697    2.8914426    78.641091   -11.068645   -2891.1686    10890.368 
     748    348.92201    2.7789735    75.414565   -11.405144    -3183.096    10890.368 
     749    349.55483    2.6519766    75.666687   -11.697826   -3343.9267    10890.368 
     750    341.92897    2.5125489     79.38519   -11.935746   -3373.6252    10890.368 
     751    328.28446    2.3651257    85.516462   -12.127697   -3268.1468    10890.368 
     752     312.6603    2.2153194    92.260491   -12.300034   -3023.6058    10890.368 
     753    299.65158    2.0694082    97.619485   -12.488825   -2640.7478    10890.368 
     754    292.97137    1.9336416    100.02469   -12.728048   -2130.0405    10890.368 
     755    294.28377    1.8135148    98.836652   -13.037797   -1515.3526    10890.368 
     756     302.6885    1.7131259     94.55336   -13.416788   -834.01078    10890.368 
     757    315.02807    1.6326445    88.655349   -13.843731   -132.11571    10890.368 
     758    326.91281    1.5728665    83.134636   -14.282574    533.71837    10890.368 
     759    334.14294    1.5367933    79.856305    -14.69626    1117.9922    10890.368 
     760    334.08149    1.5283972    79.959417   -15.055623    1583.6565    10890.368 
     761    326.51546    1.5443033    83.492612   -15.351051    1908.9812    10890.368 
     762    313.70945    1.5759472    89.403596   -15.594447    2092.4622    10890.368 
     763    299.64723    1.6128872    95.884824   -15.815129    2148.7222    10890.368 
     764    288.72584    1.6444946    100.95825   -16.050625    2102.0116    10890.368 
     765    284.34162     1.661582    103.10298   -16.334055    1977.4266    10890.368 
     766    287.83476    1.6578672    101.71883   -16.683044    1795.9808    10890.368 
     767    298.12683    1.6312315    97.278628   -17.094626    1571.4941    10890.368 
     768    312.14242    1.5852583    91.131894   -17.547196    1311.0483    10890.368 
     769    325.84585    1.5265972    85.040732   -18.010336     1013.371    10890.368 
     770    335.51989    1.4636944    80.614752   -18.455138    679.39313    10890.368 
     771    338.85795    1.4054107    78.834448   -18.863194    316.11896    10890.368 
     772    335.53406    1.3595074    79.809933   -19.231226   -65.872845    10890.368 
     773    327.11176     1.331855    82.832572   -19.569695   -447.41557    10890.368 
     774    316.37904    1.3239805    86.676362    -19.89884   -806.68589    10890.368 
     775    306.37252    1.3329651    90.029036   -20.241072   -1121.4371    10890.368 
     776    299.42632    1.3538099    91.903585   -20.612935   -1377.7288    10890.368 
     777    296.55053    1.3798535    91.900419   -21.020532   -1567.0192    10890.368 
     778    297.30187    1.4026191    90.253376    -21.45773   -1689.1543    10890.368 
     779    300.13137    1.4132848    87.667211   -21.908895   -1750.8541    10890.368 
     780     303.0503    1.4042983    85.021754   -22.354813   -1762.6709    10890.368 
     781    304.36065    1.3708587      83.0561   -22.779502    -1735.542    10890.368 
     782    303.19484    1.3119871    82.143782   -23.175347   -1678.1127    10890.368 
     783     299.6974    1.2309647    82.228231   -23.544694   -1595.6354    10890.368 
     784    294.82371    1.1360009    82.922643    -23.89768   -1488.5749    10890.368 
     785    289.88396    1.0394962     83.71516   -24.246524    -1358.637    10890.368 
     786    286.04293   0.95404354    84.183798   -24.600663   -1210.4076    10890.368 
     787    283.97052   0.89111937    84.133469   -24.962449   -1045.5451    10890.368 
     788    283.76776   0.85296535    83.609151   -25.329503    -871.5182    10890.368 
     789    285.12236   0.83761409     82.80059   -25.695496   -706.09904    10890.368 
     790    287.56972    0.8468923    81.901773   -26.056601   -559.66615    10890.368 
     791    290.75418   0.88728282    80.999606   -26.408003   -445.71542    10890.368 
     792    294.52848   0.94850829    80.050928   -26.757548   -376.70886    10890.368 
     793    298.83124    1.0187275    78.955179   -27.113861   -359.26135    10890.368 
     794    303.45837    1.0895844    77.676672   -27.484689   -394.49118    10890.368 
     795     307.8837    1.1557571    76.350025   -27.872845   -481.87854    10890.368 
     796    311.22729    1.2163302    75.309374   -28.274126   -623.01515    10890.368 
     797    312.42264    1.2761284    75.017954   -28.678136   -811.94026    10890.368 
     798       310.55    1.3425852     75.91771    -29.07096   -1038.0136    10890.368 
     799    305.21403    1.4238543    78.249805   -29.439085   -1285.1036    10890.368 
800        0.84747946827251774415 10.407851032816786585 0.85714285714285709528 60 -164.26839739354628023
     800    296.84755    1.5234632     81.90833   -29.771781    -1527.615    10890.368 
     801    286.80154    1.6339834    86.380539   -30.071128   -1740.8718    10890.368 
     802    277.15513    1.7546023     90.80652    -30.34372   -1898.2405    10890.368 
     803    270.29455    1.8841236    94.154502   -30.605979   -1972.7785    10890.368 
     804    268.32255    2.0203822    95.479127    -30.87909   -1943.2064    10890.368 
     805    272.43292    2.1605213     94.20074   -31.183114   -1798.0618    10890.368 
     806    282.43734    2.3013986    90.324435   -31.530591   -1538.7724    10890.368 
     807    296.61807    2.4400525    84.520344    -31.92197   -1180.7463    10890.368 
     808    312.00956    2.5741358    78.016744   -32.344704   -751.94908    10890.368 
     809    325.08788    2.7022163    72.311925   -32.776515   -289.04038    10890.368 
     810    332.70092    2.8253811    68.773675   -33.191942    171.45337    10890.368 
     811     332.9791    2.9458992    68.243248   -33.569612    589.42886    10890.368 
     812    325.92661    3.0642603    70.772225   -33.899454    935.36325    10890.368 
     813    313.47319    3.1795624    75.586611    -34.18608    1191.5394    10890.368 
     814    298.94621    3.2897028    81.301195   -34.447964    1347.5829    10890.368 
     815     286.0959    3.3938701    86.325555   -34.714304    1405.5647    10890.368 
     816    277.98735    3.5009051    89.337944   -35.007234    1369.0293    10890.368 
     817    276.10859    3.6062936      89.6796     -35.3462     1239.705    10890.368 
     818    279.93725    3.7015517    87.546616   -35.732392    1022.3178    10890.368 
     819    287.11993    3.7777558    83.915944   -36.149639    721.83531    10890.368 
     820    294.24164    3.8267473    80.223003   -36.568934    345.84646    10890.368 
     821    297.95206    3.8405137    77.887334    -36.95731   -89.376074    10890.368 
     822    296.08729    3.8136808    77.835715   -37.288436   -563.84258    10890.368 
     823    288.42717    3.7460679    80.179528    -37.55116    -1044.982    10890.368 
     824    276.82986    3.6407571    84.160188    -37.75404   -1491.9388    10890.368 
     825    264.66768    3.5036758    88.390064   -37.923219   -1860.5414    10890.368 
     826    255.74088    3.3428386    91.314254    -38.09396   -2110.2664    10890.368 
     827     253.0297    3.1673556    91.737722   -38.298397   -2211.5315    10890.368 
     828    257.70826     2.986358    89.235002   -38.554165   -2151.3097    10890.368 
     829    268.75521    2.8080084    84.299187   -38.858654   -1935.4802    10890.368 
     830     283.2848    2.6388506    78.180351   -39.191609    -1586.586    10890.368 
     831    297.46795    2.4857852    72.475963   -39.522575   -1138.9378    10890.368 
     832    307.71738    2.3517847    68.623796   -39.824375   -636.37371    10890.368 
     833    311.73055      2.23222    67.477408    -40.07914   -114.36763    10890.368 
     834    309.01736    2.1133726    69.105394   -40.289578    388.75628    10890.368 
     835    300.80012    1.9927662    72.863272   -40.466003     844.6284    10890.368 
     836    289.41671    1.8713706    77.682581    -40.62714    1233.3016    10890.368 
     837    277.48456    1.7527915    82.449035   -40.789704    1539.0352    10890.368 
     838    267.14139    1.6388525    86.324197   -40.963675    1751.6106    10890.368 
     839    259.60123    1.5314496    88.907092    -41.14861    1865.2489    10890.368 
     840    255.11805    1.4318168    90.208806   -41.336457    1876.6868    10890.368 
     841    253.26752    1.3417124    90.491407    -41.51578    1786.0438    10890.368 
     842    253.35294    1.2629989    90.068442   -41.678269    1601.2224    10890.368 
     843    254.73369    1.1997558    89.162142   -41.820455    1335.0037    10890.368 
     844    256.96869    1.1534671    87.867315   -41.945017    1006.3507    10890.368 
     845    259.75728     1.124758    86.212005   -42.058066    633.85994    10890.368 
     846    262.79453     1.118899    84.254859   -42.162733    239.80433    10890.368 
     847    265.68437    1.1402635    82.151731   -42.258725   -152.73189    10890.368 
     848    267.97288    1.1918686    80.148646   -42.341962   -521.99777    10890.368 
     849    269.29814    1.2752619    78.504126   -42.407154   -848.33519    10890.368 
     850    269.57227    1.3905442    77.384531     -42.4512   -1114.5857    10890.368 
     851    269.08352     1.536435     76.79051   -42.475521   -1306.5198    10890.368 
     852    268.43753    1.7120745     76.55619   -42.486488   -1410.7972    10890.368 
     853    268.35356    1.9160337     76.42578   -42.491747    -1423.827    10890.368 
     854    269.38113     2.140797    76.176317   -42.499303   -1345.9244    10890.368 
     855    271.64462     2.377014    75.731813   -42.512589   -1182.2391    10890.368 
     856    274.74225    2.6150581    75.216049   -42.529081   -942.79723    10890.368 
     857    277.85635    2.8460154    74.916083   -42.540571   -643.85623    10890.368 
     858    280.04764    3.0600299    75.165317   -42.537334   -304.43882    10890.368 
     859    280.62192    3.2484448    76.191238   -42.511106    58.186276    10890.368 
     860    279.42763      3.40469     77.99099   -42.459071    427.58718    10890.368 
     861    276.95652    3.5254804    80.290765   -42.386047    793.60346    10890.368 
     862    274.19562    3.6143152    82.614179   -42.300464    1146.6699    10890.368 
     863    272.28415    3.6745182    84.438446   -42.214583    1476.3125    10890.368 
     864    272.09702     3.710636    85.378758   -42.137138    1774.2367    10890.368 
     865    273.92467    3.7282897    85.325391   -42.070269    2031.2668    10890.368 
     866    277.39304    3.7340101    84.472747   -42.007597    2238.9697    10890.368 
     867    281.68168    3.7208667    83.224299   -41.938801    2390.2947    10890.368 
     868    285.88149    3.6802817    82.012638   -41.853181    2467.8312    10890.368 
     869    289.36045    3.6138858    81.116246    -41.74506    2469.0189    10890.368 
     870    292.01749    3.5224678    80.553354   -41.617402    2390.3686    10890.368 
     871    294.23834    3.4069498    80.104724   -41.480175    2233.1348    10890.368 
     872    296.60317    3.2695149    79.452547    -41.34595    2004.9377    10890.368 
     873    299.49471    3.1134271    78.367738    -41.22482    1716.8085    10890.368 
     874    302.79512     2.945848    76.855671   -41.119091    1377.8122    10890.368 
     875    305.82556    2.7771692    75.190989   -41.023486    999.55097    10890.368 
     876    307.55803    2.6192527    73.827867   -40.927842    594.64973    10890.368 
     877    306.99853    2.4840044    73.228954   -40.821885    177.71864    10890.368 
     878    303.57621     2.381682    73.689767   -40.699459   -233.75757    10890.368 
     879    297.37993    2.3192996    75.230649   -40.560548   -618.76344    10890.368 
     880    289.16202    2.3007194    77.592056   -40.409717   -952.21021    10890.368 
     881    280.13629    2.3238354    80.322188   -40.254505   -1214.8317    10890.368 
     882    271.65933    2.3818935    82.912364   -40.101309   -1385.9645    10890.368 
     883    264.91469     2.465953    84.925872    -39.95359   -1449.7707    10890.368 
     884    260.69267    2.5663639    86.083385   -39.811217   -1396.5125    10890.368 
     885    259.29371    2.6733101    86.294073   -39.671623   -1224.3769    10890.368 
     886    260.53282    2.7798563    85.643335   -39.531545   -942.52615    10890.368 
     887    263.81681    2.8913168     84.35342   -39.384171   -565.57045    10890.368 
     888    268.29724    3.0135543    82.730809    -39.22485   -121.71649    10890.368 
     889    273.05413    3.1497354     81.10525   -39.048922    358.87915    10890.368 
     890    277.26427    3.3025883    79.768942   -38.853348    844.17282    10890.368 
     891    280.35436    3.4746916    78.923391   -38.636641    1299.9562    10890.368 
     892    282.09891    3.6657877     78.64508   -38.400552    1693.7809    10890.368 
     893    282.63114    3.8730433     78.88048   -38.149082     1998.302    10890.368 
     894    282.36555    4.0916535    79.471656   -37.887484     2192.513    10890.368 
     895    281.86074    4.3158176     80.20286   -37.620815    2262.8832    10890.368 
     896    281.66469    4.5398284    80.853362   -37.352827    2203.8819    10890.368 
     897    282.18018    4.7589376    81.244338   -37.085602    2017.9927    10890.368 
     898    283.57093    4.9697411     81.27492   -36.819794    1715.3203    10890.368 
     899    285.71303    5.1700579    80.947569   -36.555104    1313.3958    10890.368 
900        0.83314969692219664754 10.430831748884973109 0.82539682539682535101 59 -166.86605444689217848
     900    288.19519    5.3590513    80.380995   -36.289678    835.76405    10890.368 
     901    290.38217    5.5341776    79.801943   -36.020603    310.47303    10890.368 
     902    291.54874    5.6910752    79.503939     -35.7434   -232.42174    10890.368 
     903    291.07922    5.8253852    79.768734    -35.45327    -755.2379    10890.368 
     904    288.70627    5.9337457    80.764045   -35.145379   -1227.1748    10890.368 
     905    284.70535     6.010004    82.452326   -34.819519   -1614.6095    10890.368 
     906    279.94348    6.0481971    84.553947   -34.479914   -1886.3442    10890.368 
     907    275.73297    6.0437837    86.593076    -34.13487   -2017.2065    10890.368 
     908      273.507     5.994504    88.023316   -33.794061   -1991.3821    10890.368 
     909    274.40744    5.9007424    88.395731   -33.464884   -1805.4025    10890.368 
     910    278.91732    5.7653691    87.512322   -33.149595   -1470.0206    10890.368 
     911    286.65952    5.5930733    85.512551   -32.844183   -1009.5916    10890.368 
     912    296.41722    5.3896823    82.864951    -32.54256   -457.44871    10890.368 
     913    306.38317    5.1695786    80.266843   -32.230986    138.91056    10890.368 
     914    314.57884    4.9384572    78.478637   -31.902499    726.14251    10890.368 
     915    319.32555    4.7025545    78.131347   -31.550722    1254.7658    10890.368 
     916    319.67322    4.4685121        79.55   -31.173856    1683.2252    10890.368 
     917    315.69619    4.2438013    82.633257   -30.775084    1981.1351    10890.368 
     918    308.56426     4.037083     86.82511   -30.362882    2131.6897    10890.368 
     919    300.33893    3.8580239    91.202397    -29.95043    2132.0215    10890.368 
     920    293.51204    3.7144643    94.677631   -29.551044    1994.5323    10890.368 
     921    290.35861    3.5996468    96.281566   -29.183907    1738.7699    10890.368 
     922     292.2418    3.5149421    95.456767    -28.85529    1385.2543    10890.368 
     923    299.11922     3.462562    92.270439   -28.563621    959.99855    10890.368 
     924     309.4387    3.4418099     87.46284     -28.2962    490.77407    10890.368 
     925    320.47726    3.4479562    82.292814   -28.033343     2.183108    10890.368 
     926    329.07862    3.4759669    78.204501   -27.752764   -478.37166    10890.368 
     927    332.59295    3.5203154    76.406832    -27.43703    -922.3022    10890.368 
     928    329.73186     3.570644    77.496723   -27.079187   -1295.6677    10890.368 
     929    321.01822    3.6117082    81.254824   -26.690285   -1565.9652    10890.368 
     930    308.67602    3.6405703     86.68954    -26.28835   -1702.2745    10890.368 
     931    295.98626     3.659211    92.327427   -25.900453   -1673.6916    10890.368 
     932    286.30514    3.6705557    96.663205   -25.549861   -1469.0331    10890.368 
     933    282.03156    3.6690106     98.62821   -25.251918   -1091.3649    10890.368 
     934    283.86081    3.6502506    97.918211   -25.004718   -562.15484    10890.368 
     935    290.60729    3.6118586     95.06871   -24.789971    78.776319    10890.368 
     936    299.65094    3.5536492    91.250328   -24.578996    778.10672    10890.368 
     937    307.85006    3.4804396    87.852871     -24.3425     1479.458    10890.368 
     938    312.61566    3.4015704    86.002156   -24.060259    2122.8241    10890.368 
     939    312.77181    3.3273501    86.177597   -23.728667    2658.5462    10890.368 
     940    308.88806    3.2701253    88.066327   -23.361149    3051.5813    10890.368 
     941     302.9829    3.2431516    90.703366     -22.9833    3281.8198    10890.368 
     942    297.71647    3.2586197    92.843176   -22.623656    3342.3693    10890.368 
     943    295.38147     3.324273    93.423659   -22.302977    3238.9329    10890.368 
     944    297.06045    3.4404044    91.951371   -22.028527    2979.3853    10890.368 
     945    302.26389    3.6027333    88.669041   -21.787709    2578.2865    10890.368 
     946    309.17256    3.7903311    84.450212   -21.561692    2056.1608    10890.368 
     947    315.34752    3.9869619    80.468222   -21.322916    1433.2316    10890.368 
     948    318.67029    4.1770198      77.7665   -21.051691    748.99173    10890.368 
     949    318.14112    4.3439846    76.894353   -20.742772    34.282018    10890.368 
     950    314.22694    4.4757657    77.737658   -20.405509   -664.57358    10890.368 
     951    308.65695    4.5623111    79.601181   -20.061186   -1297.3236    10890.368 
     952    303.73259    4.5983742    81.506091   -19.734919   -1819.8865    10890.368 
     953    301.42695    4.5843725     82.58785   -19.445884   -2199.6225    10890.368 
     954    302.61279    4.5227657    82.444218   -19.201278   -2419.5922    10890.368 
     955    306.70962    4.4197136    81.298624   -18.992056   -2479.4742    10890.368 
     956    311.90552     4.284195    79.910791   -18.796272   -2395.4343    10890.368 
     957    315.88516    4.1267018    79.262482   -18.587219   -2195.5199    10890.368 
     958    316.79303    3.9579653    80.136024   -18.343731   -1913.2476    10890.368 
     959    314.05575    3.7879097    82.751758   -18.058687   -1581.3304    10890.368 
     960    308.72784     3.624279    86.614636   -17.742005   -1225.6217    10890.368 
     961    303.19327    3.4717682    90.642607   -17.418886   -866.80644    10890.368 
     962    300.31436    3.3360328    93.539233   -17.118169   -522.36756    10890.368 
     963     302.3403    3.2200329    94.275939   -16.863792   -207.40065    10890.368 
     964    309.97635    3.1256429    92.502851   -16.664599    64.086339    10890.368 
     965    321.97942    3.0533886    88.729709    -16.50962    277.91797    10890.368 
     966    335.44438    2.9949791     84.20184   -16.377761    418.94977    10890.368 
     967    346.68776    2.9473608    80.505703   -16.238393     471.5168    10890.368 
     968    352.45879    2.9093117    79.034916   -16.066599    429.68784    10890.368 
     969    351.06908    2.8788862    80.497687   -15.850257    302.05916    10890.368 
     970    343.04851    2.8480271    84.632741   -15.594907    114.60118    10890.368 
     971    331.07021    2.8088305    90.236156   -15.321821    -103.7586    10890.368 
     972    319.16568    2.7576384     95.50081   -15.062716    -314.5632    10890.368 
     973     311.4704    2.6865783    98.574551   -14.852959   -478.50762    10890.368 
     974    310.84563    2.5905939    98.167191   -14.718216   -574.34891    10890.368 
     975    317.83553    2.4739726    94.014748   -14.663498   -591.42427    10890.368 
     976    330.34715    2.3400305    87.038028   -14.675106   -540.79583    10890.368 
     977    344.16557     2.194519    79.128422   -14.721307   -443.76672    10890.368 
     978    354.19375    2.0489232     72.60927   -14.760458   -330.03606    10890.368 
     979    356.06724    1.9101428    69.532583    -14.75728   -227.36052    10890.368 
     980     347.5985    1.7839335    71.034349   -14.690534   -161.35153    10890.368 
     981    329.58156    1.6757333    76.959182    -14.55989   -141.98089    10890.368 
     982    305.69372    1.5882414    85.876703   -14.386411   -162.07569    10890.368 
     983    281.49802    1.5220499    95.487074   -14.206699   -202.46294    10890.368 
     984    262.86863    1.4751603    103.28683   -14.060848   -236.29202    10890.368 
     985    254.31934    1.4402691    107.28737   -13.982293   -241.36902    10890.368 
     986    257.71633    1.4227773    106.56861   -13.981605   -201.14894    10890.368 
     987    271.82184     1.427957    101.50647   -14.044616   -120.82485    10890.368 
     988     292.7302    1.4455467    93.622243   -14.139209   -8.4530541    10890.368 
     989      315.003    1.4641576     85.10731   -14.224618     117.8788    10890.368 
     990    333.22884    1.4742419    78.169254   -14.266223    239.15104    10890.368 
     991     343.5177    1.4755587    74.397362   -14.245712    342.81723    10890.368 
     992    344.50893    1.4829697     74.33733   -14.158426    423.21085    10890.368 
     993    337.59435    1.4989846    77.403272   -14.028477    485.15358    10890.368 
     994    326.26545    1.5247419    82.149275   -13.890344    535.45729    10890.368 
     995    314.84437    1.5607952    86.798244   -13.780698    586.27701    10890.368 
     996    307.04966    1.6053308    89.843585   -13.728461    640.76403    10890.368 
     997    304.87048    1.6574327    90.517006    -13.74375    697.65524    10890.368 
     998    308.11526    1.7187163    88.966548   -13.815341    746.18148    10890.368 
     999    314.74807    1.7890247     86.10185   -13.917397    766.67401    10890.368 
1000        0.812955122066439273 10.458161261445713563 0.80687830687830686127 61 -159.82683942804263211
    1000    321.81254    1.8682877    83.188504   -14.019005    736.76749    10890.368 
    1001    326.56016    1.9640701    81.358488    -14.09395    647.73384    10890.368 
    1002     327.4047      2.07769    81.220896   -14.132761    480.80274    10890.368 
    1003     324.3459    2.2010834    82.705342   -14.141674    240.23673    10890.368 
    1004    318.75497    2.3240093     85.17043   -14.138779   -57.723206    10890.368 
    1005    312.71187    2.4356453    87.706816   -14.145984   -387.74621    10890.368 
    1006    308.17867    2.5262929    89.500438   -14.180717   -719.90093    10890.368 
    1007     306.3305    2.5896834    90.114531   -14.249827    -1025.265    10890.368 
    1008    307.27122    2.6243126    89.594443   -14.348258   -1277.2906    10890.368 
    1009    310.19434    2.6335564      88.3746   -14.461848   -1452.8689    10890.368 
    1010    313.87204    2.6236206    87.043403   -14.575271   -1534.2365    10890.368 
    1011    317.23916    2.6062072    86.072261   -14.676749   -1509.9526    10890.368 
    1012    319.83328     2.593326    85.623467   -14.762743   -1368.6319    10890.368 
    1013    321.89899    2.5853204    85.515515   -14.846016   -1106.0239    10890.368 
    1014    324.10379    2.5885174    85.356756   -14.940638   -729.20309    10890.368 
    1015    327.04583    2.6092008    84.781663   -15.060321    -250.2464    10890.368 
    1016    330.81067     2.634006    83.677362   -15.216699    314.98333    10890.368 
    1017    334.71175     2.654622    82.294496   -15.406537      923.814    10890.368 
    1018    337.42679    2.6777463    81.178812    -15.61582     1533.482    10890.368 
    1019    337.52833    2.7111621    80.949342   -15.825214    2099.9374    10890.368 
    1020    334.12206     2.757684    82.017331   -16.018618    2581.7468    10890.368 
    1021     327.3475    2.8079783    84.369585   -16.187432    2954.1516    10890.368 
    1022    318.46805    2.8425197    87.515534   -16.340675    3190.6592    10890.368 
    1023    309.51783    2.8586255    90.624225   -16.490538    3280.7304    10890.368 
    1024     302.6754     2.856248    92.799694   -16.655607    3227.2703    10890.368 
    1025    299.54595    2.8373481      93.3914   -16.851539    3041.5211    10890.368 
    1026    300.61355    2.8057559    92.224746   -17.085294    2740.1713    10890.368 
    1027    305.05997    2.7667929    89.670705    -17.35282    2343.8702    10890.368 
    1028    311.00668    2.7270131    86.533927   -17.640161     1875.399    10890.368 
    1029    316.09492    2.6928621    83.800019     -17.9289     1359.947    10890.368 
    1030    318.21593    2.6741994    82.325119   -18.199191    827.14201    10890.368 
    1031    316.17829    2.6789011    82.563835   -18.437902    306.42416    10890.368 
    1032    310.10876     2.712442    84.416215   -18.640661   -168.35825    10890.368 
    1033    301.45639    2.7783404    87.241815   -18.813795   -563.36331    10890.368 
    1034    292.59702    2.8782976    90.039845   -18.973645   -846.63669    10890.368 
    1035    286.13219    3.0174023    91.747025   -19.142192   -992.33153    10890.368 
    1036    284.10563    3.2058229    91.568182   -19.335882   -993.92994    10890.368 
    1037    287.36837    3.4387146     89.24054   -19.569578   -859.73269    10890.368 
    1038    295.24908    3.7046999    85.151963   -19.844959    -610.9634    10890.368 
    1039    305.66766    3.9855097    80.271503   -20.150056   -277.45563    10890.368 
    1040    315.66893    4.2521223    75.904021   -20.468611    96.359904    10890.368 
    1041    322.21869    4.4830228    73.336534   -20.776464    463.02426    10890.368 
    1042    323.06551    4.6606865     73.47391   -21.053268    781.70121    10890.368 
    1043    317.41176    4.7730685    76.566129   -21.286245    1021.4111    10890.368 
    1044    306.18696    4.8166827    82.104456   -21.474997    1167.1142    10890.368 
    1045    291.86659    4.8016931    88.916396   -21.625628    1214.1786    10890.368 
    1046    277.87685    4.7330872    95.439696   -21.759621    1167.6106    10890.368 
    1047    267.70629    4.6185827    100.10954   -21.901543    1043.2721    10890.368 
    1048    263.97207    4.4688395    101.76047   -22.074073    860.42597    10890.368 
    1049    267.70046    4.2956415    99.938131   -22.290894    637.53795    10890.368 
    1050    278.02068    4.1101951    95.031217    -22.55199    389.59987    10890.368 
    1051    292.37851    3.9218377    88.176595   -22.843499    127.55285    10890.368 
    1052    307.23049    3.7371567     80.95424   -23.142425   -139.44755    10890.368 
    1053    319.02469    3.5598479    74.956383   -23.424556   -403.72267    10890.368 
    1054    325.17037    3.3910114     71.36244   -23.672233   -653.33912    10890.368 
    1055    324.68904    3.2292601    70.653933   -23.880321   -873.83507    10890.368 
    1056    318.34733    3.0736698     72.55586   -24.055751   -1048.1823    10890.368 
    1057    308.26079    2.9236347    76.209228   -24.214663   -1158.0573    10890.368 
    1058    297.13723    2.7803193     80.49663   -24.375908   -1186.5969    10890.368 
    1059    287.45405     2.646901    84.393505   -24.553063   -1127.6627    10890.368 
    1060    280.84423    2.5249217    87.223789   -24.751918   -983.29395    10890.368 
    1061      277.851    2.4166379    88.749902   -24.968724   -765.26265    10890.368 
    1062    278.06313    2.3249732    89.101422   -25.193687    -493.8038    10890.368 
    1063    280.49408    2.2527298    88.608793   -25.415925   -193.44779    10890.368 
    1064    284.01195    2.1962783    87.633107   -25.629589    113.29987    10890.368 
    1065    287.61937     2.154167    86.465606   -25.833029    396.51945    10890.368 
    1066    290.54426    2.1302169    85.319666   -26.028971    634.18018    10890.368 
    1067    292.21594     2.124791    84.386707   -26.218688    814.75179    10890.368 
    1068    292.18534    2.1292955    83.892734   -26.404592    925.54808    10890.368 
    1069    290.10971    2.1448075     84.09572   -26.580567    959.58176    10890.368 
    1070    285.91364    2.1789273    85.191732   -26.735961    915.27912    10890.368 
    1071    280.05808    2.2379871    87.157762   -26.861992    800.60127    10890.368 
    1072    273.73565    2.3261583    89.612575   -26.957343    631.85854    10890.368 
    1073    268.81775       2.4455    91.791869   -27.032116     432.0613    10890.368 
    1074    267.44622    2.5953707    92.702436   -27.107346    227.11075    10890.368 
    1075    271.31814     2.771998    91.443834   -27.208535    41.068489    10890.368 
    1076     280.8928    2.9683531    87.596485   -27.355384   -108.75815    10890.368 
    1077    294.85934    3.1744218    81.516184   -27.552185   -215.29461    10890.368 
    1078    310.17147    3.3779299    74.382354   -27.783531   -282.32468    10890.368 
    1079    322.76285    3.5676333    67.928572   -28.018699   -318.70116    10890.368 
    1080    328.80516    3.7363029    63.910941   -28.218291    -340.8503    10890.368 
    1081    326.08868    3.8718978    63.491326   -28.353991   -359.18562    10890.368 
    1082    314.98111    3.9640214    66.772857   -28.416309   -377.37867    10890.368 
    1083    298.54857    4.0039428    72.688084   -28.422277   -389.24441    10890.368 
    1084    281.70416    3.9879426    79.314132   -28.410935    -379.8864    10890.368 
    1085    269.62953    3.9179921    84.523424   -28.430366   -333.09607    10890.368 
    1086    266.01144     3.801294    86.739253   -28.519337   -238.37775    10890.368 
    1087    271.75245    3.6423412    85.512055   -28.691291   -90.850999    10890.368 
    1088    284.60664    3.4472572    81.692169   -28.929007    91.420193    10890.368 
    1089    299.91702     3.230658    77.125353   -29.190275    286.04655    10890.368 
    1090    312.22869    3.0073586    73.979973   -29.424702    466.50547    10890.368 
    1091    317.14783     2.791119    73.959453    -29.59293    613.55735    10890.368 
    1092    312.79092    2.5976573    77.692596   -29.676427    717.65297    10890.368 
    1093    300.34375    2.4325471    84.517273   -29.684994    781.89718    10890.368 
    1094    283.55033     2.289868    92.716073   -29.653265    817.03839    10890.368 
    1095    267.37931    2.1716661    100.09117   -29.620653    833.58834    10890.368 
    1096    256.43123    2.0812238    104.65456   -29.623107    844.60788    10890.368 
    1097    253.60642    2.0203792    105.19868   -29.681475    856.09121    10890.368 
    1098    259.40071    1.9987868    101.58122   -29.792643    866.24284    10890.368 
    1099    272.00304    2.0183115    94.674552   -29.939366    854.61411    10890.368 
1100        0.7971321465289260555 10.496315735496478894 0.79365079365079360674 58 -160.59277687557317904
    1100    288.02204     2.070942    86.043861   -30.094848    799.95282    10890.368 
    1101    303.51704    2.1445782    77.488698   -30.233676    680.95428    10890.368 
    1102    315.03384    2.2241661    70.595438   -30.339052    481.93591    10890.368 
    1103    320.35817    2.2933082    66.415877   -30.405291    198.37726    10890.368 
    1104    318.84559    2.3363075    65.327065   -30.436598   -164.05646    10890.368 
    1105    311.32676    2.3431409    67.064988   -30.444953   -583.22029    10890.368 
    1106     299.7194    2.3228946    70.880288   -30.436477   -1029.4165    10890.368 
    1107    286.53743    2.2785253    75.746721   -30.423269   -1475.3008    10890.368 
    1108    274.38687    2.2121005    80.568164   -30.413246   -1884.5212    10890.368 
    1109    265.52436    2.1257501    84.357593   -30.412137   -2219.7258    10890.368 
    1110    261.52047     2.018793    86.383908   -30.426455   -2453.7762    10890.368 
    1111    263.00441    1.8950338    86.291574    -30.45961   -2570.7203    10890.368 
    1112    269.52147     1.760327    84.184383   -30.512201   -2563.6259    10890.368 
    1113    279.55235    1.6210168    80.642667    -30.57925    -2438.001    10890.368 
    1114    290.75629    1.4835443     76.63506    -30.64906   -2210.8967    10890.368 
    1115    300.47308    1.3539587    73.304803   -30.704776   -1907.5694    10890.368 
    1116    306.41625    1.2367693    71.659484   -30.728615   -1556.9793    10890.368 
    1117    307.36197    1.1322268    72.251307   -30.711215    -1189.461    10890.368 
    1118    303.57744    1.0435561    74.967446   -30.652839   -833.22531    10890.368 
    1119      296.792   0.97314065     79.03154   -30.568277   -508.30711    10890.368 
    1120    289.65439   0.92150168    83.244491   -30.481927   -228.86082    10890.368 
    1121    284.83421    0.8877601    86.390809   -30.418945   -4.0135361    10890.368 
    1122    284.10727   0.86947396    87.658105   -30.394536    159.12581    10890.368 
    1123    287.77945   0.86122988    86.903398   -30.408091    252.96546    10890.368 
    1124    294.66623   0.85539011     84.65956   -30.446519    268.02919    10890.368 
    1125    302.62448    0.8530977    81.886542   -30.484766    196.07685    10890.368 
    1126    309.41097   0.85660164    79.579588   -30.501333    39.732302    10890.368 
    1127    313.49617   0.86625131    78.400514   -30.486448   -190.64417    10890.368 
    1128    314.50527   0.88322316    78.477829   -30.443903   -475.28157    10890.368 
    1129    313.15747   0.90857956    79.440554   -30.389237   -787.69822    10890.368 
    1130    310.77787   0.94307389    80.649692    -30.34219   -1095.7842    10890.368 
    1131     308.6235   0.98767062    81.512943   -30.318643   -1367.0821    10890.368 
    1132    307.32655    1.0454214    81.743588   -30.323307   -1573.3735    10890.368 
    1133    306.68853    1.1191008    81.456985   -30.349195   -1695.3824    10890.368 
    1134    305.89544    1.2088588    81.071439    -30.38066    -1723.731    10890.368 
    1135    304.02858    1.3119679    81.067581   -30.400239   -1654.4627    10890.368 
    1136    300.63017    1.4236116    81.718888   -30.396622   -1488.6824    10890.368 
    1137      296.057    1.5385141    82.919498   -30.369242   -1230.6257    10890.368 
    1138    291.44716    1.6487812    84.194143   -30.329763   -889.75993    10890.368 
    1139    288.28235    1.7462947    84.895168   -30.296368    -481.4324    10890.368 
    1140    287.73662    1.8237366    84.503521   -30.285182   -22.159596    10890.368 
    1141    290.10088     1.874415    82.898365    -30.30329    460.15547    10890.368 
    1142    294.54358    1.8955979    80.471116   -30.344214    934.55579    10890.368 
    1143    299.35386    1.8875994    78.019062   -30.390303    1367.8216    10890.368 
    1144    302.57891    1.8535027    76.453281   -30.419951    1728.9539    10890.368 
    1145    302.80261    1.7984311    76.437553   -30.416514      1994.31    10890.368 
    1146    299.74243    1.7281387    78.107458   -30.375542    2150.9213    10890.368 
    1147    294.41671    1.6472202    80.987437   -30.305696    2198.8719    10890.368 
    1148    288.79114    1.5583993    84.143737   -30.228237    2144.4282    10890.368 
    1149    285.03767    1.4741101    86.514573   -30.165668    2006.9688    10890.368 
    1150    284.72501    1.4087757    87.293647   -30.133475    1799.6588    10890.368 
    1151     288.2128    1.3704265    86.224461   -30.137247    1543.1963    10890.368 
    1152    294.47539    1.3640894    83.696201   -30.167689    1246.5453    10890.368 
    1153     301.4375    1.3878978    80.607913   -30.205348    918.89474    10890.368 
    1154    306.69361    1.4376952    78.046544   -30.227072    569.95978    10890.368 
    1155    308.37078    1.5080302    76.895354   -30.214693    211.34828    10890.368 
    1156    305.81486    1.5925934     77.51602   -30.161782    -141.4913    10890.368 
    1157    299.84043    1.6845718    79.623104   -30.076172   -469.12544    10890.368 
    1158    292.44538    1.7770623    82.398331   -29.977176   -750.19732    10890.368 
    1159    286.09458    1.8636505    84.800083   -29.888298   -965.20782    10890.368 
    1160    282.84448    1.9391694    85.947459   -29.828178   -1100.8008    10890.368 
    1161     283.6394    2.0005342    85.430645   -29.803501   -1153.0761    10890.368 
    1162     288.0358    2.0474518     83.43272   -29.806955   -1128.7718    10890.368 
    1163    294.43188    2.0828653    80.627932   -29.821462   -1043.2535    10890.368 
    1164     300.6809    2.1158821     77.91243   -29.825575   -915.32634    10890.368 
    1165    304.83881    2.1519823    76.085147   -29.806161   -769.70478    10890.368 
    1166    305.74372    2.1978736    75.603544   -29.757869    -630.2892    10890.368 
    1167    303.24757    2.2606342    76.494576   -29.685747   -513.72833    10890.368 
    1168    298.09201    2.3446128     78.42713   -29.600844    -430.9723    10890.368 
    1169    291.52662     2.450226     80.88925   -29.514889   -387.70883    10890.368 
    1170    284.85975    2.5735826     83.38363   -29.435788   -385.49343    10890.368 
    1171    279.11373    2.7071007    85.564412   -29.365329   -422.89476    10890.368 
    1172    274.88393    2.8406621    87.274845   -29.299358   -494.97628    10890.368 
    1173    272.39874    2.9640125    88.491217   -29.230977   -597.23855    10890.368 
    1174     271.7098    3.0706395    89.214203   -29.152855   -722.84417    10890.368 
    1175    272.88689    3.1560069    89.372269   -29.062169   -861.77133    10890.368 
    1176    276.08487    3.2178582    88.797315   -28.962188   -1002.2139    10890.368 
    1177    281.42004    3.2581941    87.299377   -28.861009   -1129.8714    10890.368 
    1178    288.70807    3.2824967    84.816638   -28.767587   -1235.5026    10890.368 
    1179    297.21088    3.2983423    81.564996   -28.685422   -1311.1086    10890.368 
    1180    305.56397    3.3121869    78.097527   -28.610666   -1353.2322    10890.368 
    1181    312.02085     3.327485    75.207751   -28.530935   -1364.8069    10890.368 
    1182    314.96385    3.3507613    73.683046   -28.433153   -1335.2762    10890.368 
    1183    313.53904    3.4029644    73.994165   -28.302631   -1269.6526    10890.368 
    1184    308.16591    3.4973693    76.051753   -28.137079   -1171.4501    10890.368 
    1185    300.59862    3.6303417    79.158986   -27.951554   -1040.3314    10890.368 
    1186    293.43671    3.7925418    82.207932   -27.769865   -868.94795    10890.368 
    1187    289.25415    3.9736603    84.061499   -27.615784   -656.87761    10890.368 
    1188    289.67076    4.1583585    83.977478   -27.506204   -408.77793    10890.368 
    1189    294.70638    4.3306716    81.908753   -27.442257   -135.49631    10890.368 
    1190    302.68474    4.4758138    78.558386   -27.408914    145.15577    10890.368 
    1191    310.74334    4.5815711    75.161604   -27.380307    411.27867    10890.368 
    1192    315.77938    4.6393373    73.069151   -27.328807    641.43879    10890.368 
    1193    315.50739    4.6446889    73.277916   -27.234249    819.49099    10890.368 
    1194    309.26629    4.5974623    76.071771   -27.090329    938.13185    10890.368 
    1195    298.30133    4.5013669    80.895998   -26.906515    1000.0467    10890.368 
    1196    285.42317    4.3632383     86.50925   -26.705092    1016.2868    10890.368 
    1197    274.15319    4.1920807    91.364602   -26.514007    1002.4001    10890.368 
    1198    267.63426    3.9980422     94.09482   -26.357366     973.5526    10890.368 
    1199    267.66664    3.7911466    93.940649   -26.246398    941.31533    10890.368 
1200        0.7794880144556104451 10.564186084917801978 0.75396825396825395416 58 -150.40347228112989342
    1200    274.17688    3.5811623     90.97793   -26.178555    911.92825    10890.368 
    1201    285.30045    3.3915266    86.067966    -26.12823    881.84241    10890.368 
    1202    298.06615    3.2329541     80.55075   -26.070464    842.24248    10890.368 
    1203     309.3853    3.1121878     75.79627   -25.980587    782.90616    10890.368 
    1204    316.98698      3.03142    72.780747   -25.847616    699.00565    10890.368 
    1205    319.99357    2.9872032    71.839343   -25.676285    590.54663    10890.368 
    1206    318.94368    2.9712024    72.670797   -25.484328    464.63938    10890.368 
    1207    315.32444    2.9726507    74.564485   -25.294322    332.77099    10890.368 
    1208    310.86033    2.9804736    76.734242   -25.124589    207.62692    10890.368 
    1209    306.87462    2.9852709    78.611829   -24.982753    100.29881    10890.368 
    1210    303.97487     2.978098    79.987801   -24.863754    26.368441    10890.368 
    1211    302.10918    2.9517709    80.968666   -24.757154   -13.846532    10890.368 
    1212    300.89792    2.9104671     81.80403   -24.648885   -23.225206    10890.368 
    1213    300.03416    2.8609906    82.690445    -24.53161   -1.0203956    10890.368 
    1214    299.50884     2.811906    83.655723   -24.406392    54.152804    10890.368 
    1215    299.56901    2.7705201    84.572659   -24.281094    143.58617    10890.368 
    1216     300.4544    2.7445693    85.278212   -24.165036    261.04592    10890.368 
    1217    302.09196    2.7446126    85.720202   -24.062132    400.18609    10890.368 
    1218    303.95405    2.7771091    86.041295   -23.969851    548.80536    10890.368 
    1219    305.17521     2.844822    86.545062   -23.877025    695.92226    10890.368 
    1220    304.91236    2.9373738    87.550125   -23.773916    833.74929    10890.368 
    1221      302.764    3.0484134    89.198727   -23.650152    946.06021    10890.368 
    1222    299.07568    3.1763924    91.312203   -23.504688    1026.9929    10890.368 
    1223    294.97945    3.3193514    93.372984   -23.346208    1076.5847    10890.368 
    1224    292.07235    3.4759988    94.659913   -23.189774    1099.2367    10890.368 
    1225    291.85493    3.6426866    94.495814   -23.051647    1095.1046    10890.368 
    1226    295.13817    3.8113501    92.514669   -22.941547    1068.3293    10890.368 
    1227    301.64807    3.9674689    88.840886   -22.861444    1018.0473    10890.368 
    1228    309.99691    4.0974503    84.106404   -22.800683    940.43452    10890.368 
    1229    318.06672    4.1815252    79.291039   -22.743215    834.80319    10890.368 
    1230    323.63855    4.2058992    75.437109   -22.672458    691.40167    10890.368 
    1231    325.08222    4.1720904    73.336545   -22.575658    509.57136    10890.368 
    1232    321.89432    4.0847536    73.296877   -22.451024    294.04957    10890.368 
    1233    314.85072    3.9533771    75.065326   -22.306276    57.263114    10890.368 
    1234    305.74431     3.791253    77.933723   -22.156466   -183.64872    10890.368 
    1235    296.80789    3.6134548    80.983537   -22.018778   -409.98223    10890.368 
    1236    290.02352    3.4346296    83.382714   -21.906485   -605.07481    10890.368 
    1237    286.55509    3.2671033     84.63079   -21.824208   -757.26601    10890.368 
    1238    286.48873    3.1197019    84.671618   -21.766362   -861.36611    10890.368 
    1239    288.94874    2.9971424    83.845123   -21.719144   -917.11556    10890.368 
    1240    292.51595    2.8988767    82.710106   -21.667063   -929.60912    10890.368 
    1241     295.7676    2.8232529    81.816176   -21.597157   -907.18917    10890.368 
    1242    297.74418    2.7662981      81.5141   -21.503305   -853.72894    10890.368 
    1243    298.17472    2.7205407    81.868845   -21.390176   -773.85465    10890.368 
    1244    297.40479     2.687006    82.693027    -21.26685   -674.70525    10890.368 
    1245    296.12842    2.6769213    83.666462   -21.141236   -558.10465    10890.368 
    1246    295.06735    2.6978649    84.478978    -21.02194   -431.89454    10890.368 
    1247    294.71086    2.7564584    84.934887   -20.911403   -301.64467    10890.368 
    1248    295.21539    2.8596464    84.982872   -20.805987   -169.45223    10890.368 
    1249     296.4811     3.010464    84.673196   -20.701006   -49.308451    10890.368 
    1250    298.32694    3.2100539     84.07698   -20.590807    49.907275    10890.368 
    1251     300.6742    3.4451669     83.21596   -20.474762    125.44919    10890.368 
    1252    303.58137    3.7033424    82.041836   -20.355487    165.35851    10890.368 
    1253    307.16572    3.9824733    80.470509    -20.23829    165.83941    10890.368 
    1254    311.47433    4.2796919    78.458261   -20.129325    124.99084    10890.368 
    1255    316.31963    4.5908087    76.081351    -20.03276    42.313449    10890.368 
    1256    321.19001    4.9096611    73.578747   -19.949183    -81.28108    10890.368 
    1257    325.29197    5.2276625    71.333612    -19.87556   -242.90346    10890.368 
    1258    327.72499    5.5332793     69.79471    -19.80649   -435.07362    10890.368 
    1259     327.7404     5.810489    69.362082   -19.735339   -645.70775    10890.368 
    1260    324.99136    6.0382319    70.272323   -19.658806   -860.01488    10890.368 
    1261    319.69568    6.1986342    72.517736    -19.57587   -1058.9137    10890.368 
    1262    312.67216    6.2819109    75.821602   -19.486988    -1220.016    10890.368 
    1263    305.23542    6.2847364    79.675958    -19.39631   -1316.8888    10890.368 
    1264    298.96295    6.2100958    83.434761   -19.310252   -1323.8923    10890.368 
    1265    295.37383    6.0667569    86.445051   -19.235713   -1218.3747    10890.368 
    1266    295.58097    5.8654958    88.190876   -19.180981   -985.96622    10890.368 
    1267    299.98588    5.6241694    88.419465    -19.14993   -625.61694    10890.368 
    1268    308.10669    5.3630447    87.217367   -19.143118   -146.18167    10890.368 
    1269    318.59649    5.1025785    85.010563   -19.156699    433.93425    10890.368 
    1270    329.47849    4.8620583    82.476416   -19.182458    1083.7335    10890.368 
    1271    338.57017    4.6562813    80.380913   -19.209558    1763.6844    10890.368 
    1272    344.00183     4.491561    79.377473    -19.22875    2433.2637    10890.368 
    1273    344.68038     4.366355    79.825965   -19.235707    3051.2055    10890.368 
    1274    340.55913     4.278663    81.688491   -19.230131      3582.66    10890.368 
    1275    332.64824      4.22326    84.535658   -19.217233    3997.1247    10890.368 
    1276    322.74568    4.1915645    87.661235   -19.207614    4275.9672    10890.368 
    1277    312.97877    4.1782387    90.267591   -19.209874    4402.2807    10890.368 
    1278    305.30291    4.1732335     91.66482   -19.233452    4367.3482    10890.368 
    1279    301.06688    4.1668556    91.432415     -19.2836    4169.6565    10890.368 
    1280    300.74258    4.1511328    89.510659   -19.361393     3813.365    10890.368 
    1281    303.85672    4.1205846    86.212478   -19.463873    3308.3116    10890.368 
    1282    309.11444    4.0725877     82.16278   -19.584539    2670.3249    10890.368 
    1283    314.68591    4.0072934    78.178175    -19.71388    1772.4333    11807.123 
    1284    318.61637     3.927134     75.10145   -19.840179    1006.4406    11807.123 
    1285    319.30211    3.8360402    73.610714   -19.951124    197.73836    11807.123 
    1286    315.94455    3.7385508    74.036112    -20.03658   -615.63264    11807.123 
    1287    308.86432    3.6390103    76.231609    -20.09212    -1391.987    11807.123 
    1288    299.55347    3.5410051    79.553375   -20.122032   -2088.7994    11807.123 
    1289    290.38561    3.4482619    82.979223    -20.14073   -2664.5801    11807.123 
    1290    284.01044    3.3668058    85.364663   -20.167566   -3088.4403    11807.123 
    1291    282.57035    3.2986479    85.779701   -20.224406   -3342.0712    11807.123 
    1292    286.93835    3.2503271    83.831219   -20.326113   -3417.1069    11807.123 
    1293    296.28705    3.2270148    79.858689   -20.473579    -3331.631    11807.123 
    1294     308.1533    3.2227677    74.918626   -20.653803   -3113.5301    11807.123 
    1295    319.02214    3.2301295    70.528948   -20.841568   -2802.6198    11807.123 
    1296    325.35435    3.2420731    68.225468   -21.005976   -2441.1022    11807.123 
    1297    324.73898    3.2518783    69.059362   -21.121945   -2071.0286    11807.123 
    1298    316.78561    3.2566958    73.203454    -21.17766   -1724.6104    11807.123 
    1299     303.4193    3.2554935    79.818811   -21.181133   -1421.5864    11807.123 
1300        0.75152142770223795409 10.644645931574599373 0.724867724867724883 57 -151.83272476094859371
    1300    288.40978    3.2488427    87.255482   -21.159121   -1170.0303    11807.123 
    1301    276.24115     3.238464    93.544852   -21.149123    -969.6712    11807.123 
    1302    270.67986    3.2265712    97.028343   -21.186136   -816.81161    11807.123 
    1303    273.53348    3.2151573    96.904319   -21.289169   -708.86552    11807.123 
    1304    284.04895    3.2053728    93.492349   -21.453504   -646.73171    11807.123 
    1305    299.18095    3.1971258    88.110786   -21.652426   -634.02976    11807.123 
    1306    314.66196    3.1812989     82.60582   -21.848204   -668.60729    11807.123 
    1307    326.44258    3.1483627    78.702597   -22.007895   -751.56238    11807.123 
    1308     332.0088    3.1010758    77.418914   -22.111268   -869.34125    11807.123 
    1309    331.13373    3.0376432     78.75372   -22.164237   -1004.7428    11807.123 
    1310    325.75379    2.9580411    81.759253   -22.191111   -1128.4425    11807.123 
    1311    319.07568    2.8638212    84.954847   -22.226716    -1207.819    11807.123 
    1312    314.29137    2.7583578    86.911663   -22.303311   -1213.8863    11807.123 
    1313     313.4004    2.6463564    86.781672   -22.438592   -1125.3764    11807.123 
    1314    316.56375    2.5301871     84.57832   -22.632977   -933.35476    11807.123 
    1315    322.17789    2.4189111    81.122434   -22.865761   -645.72587    11807.123 
    1316    327.60283       2.3204    77.695627   -23.110004   -280.27878    11807.123 
    1317    330.21976    2.2495914    75.545377   -23.336019    144.27811    11807.123 
    1318    328.43153    2.2155131    75.429275   -23.527254      601.352    11807.123 
    1319     322.2405    2.2184964    77.357472   -23.681727    1071.2845    11807.123 
    1320    313.19403    2.2541667    80.616951   -23.812064    1539.9966    11807.123 
    1321     303.7703    2.3154591    84.054562   -23.941905    1997.2846    11807.123 
    1322    296.45551    2.3960014    86.506902   -24.093825    2426.0132    11807.123 
    1323    292.84835    2.4873567    87.218163    -24.28382    2814.1309    11807.123 
    1324    293.12113    2.5837229    86.092926   -24.512657    3143.1832    11807.123 
    1325    296.04781    2.6799453    83.692736   -24.764612    3392.7817    11807.123 
    1326    299.56545    2.7664089    80.984263   -25.016736     3540.985    11807.123 
    1327    301.64264    2.8330941    78.941008   -25.245093    3573.5118    11807.123 
    1328    301.10753     2.871562    78.156691   -25.435154    3485.4336    11807.123 
    1329    298.10752    2.8749653    78.625082   -25.588289    3282.1499    11807.123 
    1330    294.00586    2.8401063    79.774339    -25.72071    2977.4039    11807.123 
    1331    290.75878    2.7679407    80.739863   -25.857297    2592.0676    11807.123 
    1332    290.03391    2.6635021    80.760502   -26.021235     2148.845    11807.123 
    1333    292.43565     2.535358    79.532487   -26.224326    1668.0261    11807.123 
    1334    297.16082    2.3953392    77.372996   -26.462076    1166.7519    11807.123 
    1335    302.24219    2.2561723    75.122871   -26.714585    653.53036    11807.123 
    1336     305.2877    2.1274931    73.825221   -26.953853    140.23396    11807.123 
    1337    304.43243    2.0050975    74.305443   -27.159057   -362.20757    11807.123 
    1338    299.10028    1.8895321    76.817534   -27.316164   -852.53669    11807.123 
    1339    290.30957    1.7859316    80.895752   -27.428873   -1316.9242    11807.123 
    1340    280.41779    1.6961089    85.472893    -27.51553   -1736.3575    11807.123 
    1341    272.33083    1.6174467    89.230557   -27.604652   -2094.9656    11807.123 
    1342    268.47785    1.5488103    91.058543   -27.720836    -2379.082    11807.123 
    1343     269.9311    1.4838286    90.458086    -27.87935   -2580.9074    11807.123 
    1344     275.9811    1.4165294    87.739738   -28.076487   -2703.2306    11807.123 
    1345    284.34987    1.3423684    83.934064    -28.29164    -2753.904    11807.123 
    1346    292.00403     1.258996    80.431801   -28.494392   -2743.0219    11807.123 
    1347    296.28989    1.1697593    78.472737   -28.654128   -2678.9793    11807.123 
    1348    295.99095    1.0793561    78.666275   -28.754152   -2567.6133    11807.123 
    1349    291.88872    0.9935882    80.728658   -28.797948   -2405.7383    11807.123 
    1350     286.5704   0.91921765    83.553427   -28.810146   -2184.3193    11807.123 
    1351    283.51132   0.86278089    85.609908   -28.829038   -1892.8558    11807.123 
    1352    285.74012   0.82856929     85.53647   -28.891546   -1523.5826    11807.123 
    1353     294.5684   0.80975932     82.71032   -29.025616   -1077.2225    11807.123 
    1354    308.86372   0.80697976    77.571172    -29.22925   -574.88178    11807.123 
    1355    325.21234   0.82063593     71.55667   -29.478961   -45.548714    11807.123 
    1356    338.96639   0.84916681     66.65069   -29.735099    473.05198    11807.123 
    1357    345.80514   0.88884435    64.697675   -29.956498    945.73055    11807.123 
    1358    343.26343   0.93499789    66.729447   -30.115496    1342.9151    11807.123 
    1359    331.66907    0.9849118    72.554909   -30.206082     1647.686    11807.123 
    1360    314.13785     1.035792    80.769557   -30.246805    1859.3544    11807.123 
    1361    295.61193    1.0834956    89.186684   -30.275084    1986.4874    11807.123 
    1362    281.28533     1.122197    95.538041   -30.333263    2044.5971    11807.123 
    1363    274.95811    1.1474094    98.196039   -30.454528    2042.3372    11807.123 
    1364    277.89014    1.1623927    96.667634   -30.649676    1987.9206    11807.123 
    1365    288.53648    1.1733951    91.700052   -30.904979    1879.1576    11807.123 
    1366    303.18917    1.1897213    84.979449   -31.188588    1715.1381    11807.123 
    1367    317.28126    1.2206385    78.544472   -31.461842    1490.1965    11807.123 
    1368    326.87275    1.2684426    74.127917   -31.695168      1207.73    11807.123 
    1369    329.80608    1.3333628    72.648205   -31.875516    882.04373    11807.123 
    1370    326.19066    1.4133687    74.008733   -32.009511    538.13416    11807.123 
    1371    318.10333    1.5044031    77.247051   -32.119394     208.4744    11807.123 
    1372    308.67358    1.6010712    80.952823   -32.234245   -72.937872    11807.123 
    1373    300.92175    1.6976056    83.787546   -32.379543   -277.51561    11807.123 
    1374    296.77388     1.788037    84.918135   -32.568332   -386.24091    11807.123 
    1375    296.55911    1.8706732    84.223726   -32.798174   -389.63636    11807.123 
    1376    299.13194    1.9448404    82.229148   -33.053467   -306.45195    11807.123 
    1377    302.48574    2.0102481    79.821389   -33.311888   -159.19063    11807.123 
    1378     304.5741    2.0697565    77.876986   -33.552178    19.365344    11807.123 
    1379    304.04027    2.1232447    76.946103   -33.763066    195.96139    11807.123 
    1380    300.58715    2.1710378    77.100529   -33.944429    338.98123    11807.123 
    1381    294.92116    2.2151081    77.978132   -34.105263    423.85702    11807.123 
    1382    288.35715    2.2591787    78.979586   -34.258267    429.53211    11807.123 
    1383    282.28738     2.306004    79.521862   -34.413512    343.91457    11807.123 
    1384     277.7246    2.3515155    79.245295   -34.579098    160.20616    11807.123 
    1385    275.06021    2.3983855    78.105547   -34.752178   -127.54252    11807.123 
    1386    274.09992    2.4513948    76.337269   -34.925625   -513.25414    11807.123 
    1387    274.29905     2.511215    74.329669   -35.092823   -983.08849    11807.123 
    1388    275.03867    2.5774084    72.481796   -35.247003   -1514.3963    11807.123 
    1389    275.81894    2.6444986    71.098554   -35.388767   -2077.8332    11807.123 
    1390    276.31958     2.711807    70.354064   -35.518664   -2637.7024    11807.123 
    1391    276.36269    2.7784867    70.310728   -35.639145   -3151.4614    11807.123 
    1392    275.84691    2.8433055    70.958186    -35.75051   -3577.3774    11807.123 
    1393    274.72208    2.9028989    72.235782   -35.850992   -3875.7526    11807.123 
    1394    273.03342    2.9531863    74.022935   -35.937486   -4013.4916    11807.123 
    1395    271.00706    2.9915338    76.110527   -36.007283   -3966.8522    11807.123 
    1396    269.10637    3.0164682    78.186492   -36.061004   -3722.7687    11807.123 
    1397    267.98516    3.0275154    79.867876   -36.103401   -3281.0139    11807.123 
    1398    268.31333     3.024842    80.789053   -36.142066     -2655.11    11807.123 
    1399    270.52387    3.0087797    80.722623   -36.184309   -1872.3531    11807.123 
1400        0.73207506214460160709 10.671432558375753885 0.70899470899470895535 53 -160.64128866914359151
    1400     274.5778    2.9827953    79.683258   -36.234722   -968.62891    11807.123 
    1401    279.88946    2.9552208    77.960274   -36.288554    6.4916282    11807.123 
    1402    285.47613    2.9252975    76.048494   -36.338649    992.38096    11807.123 
    1403    290.26929    2.8888028    74.491859   -36.375367    1930.7681    11807.123 
    1404    293.49297    2.8416268    73.693375   -36.391375     2767.834    11807.123 
    1405    294.95356    2.7807933    73.768804   -36.385556    3459.1925    11807.123 
    1406    295.09792    2.7039974    74.509717   -36.365488     3971.687    11807.123 
    1407    294.79328    2.6132122    75.478298   -36.343351    4283.9506    11807.123 
    1408    294.92969    2.5082055    76.199412     -36.3307     4393.722    11807.123 
    1409    295.97742    2.3848411    76.370443   -36.338455     4303.394    11807.123 
    1410    297.70781    2.2529772    75.997836   -36.364599    4029.6643    11807.123 
    1411     299.2626    2.1244432    75.396298    -36.39629    3600.5759    11807.123 
    1412    299.51827    1.9970176    75.048212   -36.422613    3050.0417    11807.123 
    1413    297.57952    1.8735555    75.383027   -36.428289    2417.3081    11807.123 
    1414     293.2318    1.7580705     76.56878   -36.406225    1749.5845    11807.123 
    1415    287.16091    1.6539779    78.405332   -36.359006    1096.1823    11807.123 
    1416    280.81565    1.5643398    80.367629   -36.298035    504.17558    11807.123 
    1417    275.95928    1.4919781    81.785665   -36.239201    13.437777    11807.123 
    1418    274.06949      1.43936    82.093453   -36.196869   -347.60401    11807.123 
    1419    275.80415    1.4084736    81.052991   -36.178597   -565.40672    11807.123 
    1420    280.71826    1.4058899    78.869186   -36.181063   -637.88473    11807.123 
    1421    287.36283    1.4350927    76.151604   -36.192888   -591.42492    11807.123 
    1422    293.72693     1.492931    73.730819   -36.197079   -456.92962    11807.123 
    1423    297.86698    1.5735397    72.388478   -36.176975   -271.87364    11807.123 
    1424    298.54938    1.6684994    72.588738   -36.121734   -74.850003    11807.123 
    1425    295.68369    1.7675293    74.301506   -36.030151    99.204131    11807.123 
    1426    290.39323    1.8596456    76.982156   -35.911633     222.2662    11807.123 
    1427    284.68129    1.9344533    79.724408   -35.783765    275.49671    11807.123 
    1428    280.78327    1.9833744    81.545869   -35.667134    246.73298    11807.123 
    1429    280.40857    2.0013733    81.717197   -35.578092    130.56678    11807.123 
    1430     284.1233    1.9888524    80.023833   -35.524024    -70.49978    11807.123 
    1431    291.10224    1.9560359    76.865646    -35.49648   -352.33417    11807.123 
    1432    299.36165    1.9117061    73.149795   -35.479151   -707.33254    11807.123 
    1433    306.38947    1.8644513    70.007307   -35.450378   -1120.7102    11807.123 
    1434    309.96497    1.8215761     68.42773   -35.391661   -1570.8558    11807.123 
    1435    308.89225    1.7878215    68.937159   -35.294099   -2029.0664    11807.123 
    1436    303.38896    1.7647579      71.4312   -35.161297   -2460.8721    11807.123 
    1437    294.99893    1.7509659    75.218817   -35.007881   -2829.1867    11807.123 
    1438    286.06749    1.7429168    79.257608   -34.854274   -3098.8649    11807.123 
    1439    278.95712    1.7419281    82.494913   -34.719955   -3237.1884    11807.123 
    1440    275.31803    1.7499843    84.194821   -34.614843   -3231.7585    11807.123 
    1441    275.62032    1.7599095    84.147476   -34.539405   -3079.8745    11807.123 
    1442    279.06741    1.7667446    82.695854   -34.481979   -2791.4536    11807.123 
    1443    283.94011    1.7676647    80.581434   -34.424173   -2387.0222    11807.123 
    1444    288.22283    1.7627777    78.669649    -34.34679   -1897.1345    11807.123 
    1445      290.292    1.7543354    77.652228   -34.236491   -1353.8564    11807.123 
    1446    289.43693    1.7453287    77.826816   -34.089832   -788.13088    11807.123 
    1447    286.04282    1.7385199    79.024778   -33.913938   -227.00588    11807.123 
    1448    281.38914    1.7358316    80.705525   -33.723582    307.49269    11807.123 
    1449    277.14946    1.7382015     82.17713   -33.535671    798.04208    11807.123 
    1450    274.78211    1.7458484    82.859084    -33.36305    1230.8887    11807.123 
    1451    275.03394    1.7587748    82.489812   -33.209917    1594.6954    11807.123 
    1452    277.73044     1.777278    81.204875   -33.070641    1880.0172    11807.123 
    1453    281.91232    1.8022795    79.462712   -32.932407    2079.6618    11807.123 
    1454    286.24737    1.8353791    77.853468   -32.780547    2189.7236    11807.123 
    1455    289.54592    1.8786685    76.869603   -32.604316    2210.7275    11807.123 
    1456    291.17908    1.9344245    76.728259   -32.400832    2148.2275    11807.123 
    1457    291.24549     2.005238    77.311265   -32.175832    2013.9652    11807.123 
    1458    290.44945    2.0908332     78.24018   -31.940328     1823.102    11807.123 
    1459    289.73473    2.1883991    79.050754   -31.709208    1592.6537    11807.123 
    1460    289.84158    2.3039174    79.395311   -31.488955    1334.8458    11807.123 
    1461    290.99003    2.4374187    79.190618   -31.283367    1054.1528    11807.123 
    1462    292.78677    2.5891227    78.653686   -31.086079    755.35087    11807.123 
    1463    294.40848    2.7531364    78.210091   -30.886813    444.05278    11807.123 
    1464    294.98202    2.9228909    78.306734   -30.673179    118.95415    11807.123 
    1465    294.01952    3.0938985    79.199798   -30.436766   -217.02921    11807.123 
    1466    291.74501    3.2619335    80.800731   -30.176821   -558.08395    11807.123 
    1467    289.13986    3.4235321    82.651477   -29.901613   -894.93551    11807.123 
    1468    287.65334    3.5761381    84.057089   -29.626307   -1215.6932    11807.123 
    1469    288.64914    3.7178463    84.343842   -29.367574   -1507.8701    11807.123 
    1470    292.78097    3.8468555    83.153922   -29.136695   -1760.8555    11807.123 
    1471    299.55106    3.9609762    80.658198   -28.934732    -1967.228    11807.123 
    1472    307.26459    4.0641765    77.584775   -28.748174    -2117.701    11807.123 
    1473    313.48556    4.1588988    75.024119   -28.556031   -2220.9999    11807.123 
    1474     315.8735    4.2429753    74.056574   -28.335912   -2279.1827    11807.123 
    1475    313.08717    4.3124207    75.335209   -28.073195   -2292.5294    11807.123 
    1476    305.43012    4.3625612    78.782159   -27.767624   -2257.8569    11807.123 
    1477    294.95294    4.3893802     83.52757    -27.43494   -2168.7883    11807.123 
    1478    284.92191    4.3907468    88.135577   -27.102561   -2018.2183    11807.123 
    1479    278.79699     4.367241    91.055957   -26.800445   -1802.3259    11807.123 
    1480    279.05161    4.3223846    91.153736   -26.550183   -1524.7838    11807.123 
    1481    286.24022    4.2622146    88.134032   -26.356483   -1199.5645    11807.123 
    1482    298.65277    4.1943253    82.707789   -26.204754   -850.50219    11807.123 
    1483    312.72409    4.1230883     76.42622      -26.064   -501.39911    11807.123 
    1484    324.08021    4.0478374    71.221335   -25.900215   -191.83673    11807.123 
    1485    328.91801    3.9724945    68.791068   -25.683706    49.281876    11807.123 
    1486    325.29893    3.8987281    70.027731   -25.401287     204.4435    11807.123 
    1487    313.88615    3.8253935    74.686233   -25.060639    273.27682    11807.123 
    1488    297.85133    3.7496663    81.415705   -24.689198    271.40285    11807.123 
    1489    281.94771    3.6678852    88.161176   -24.326426    226.55587    11807.123 
    1490    271.02637    3.5761509    92.814419   -24.011436    170.78239    11807.123 
    1491    268.47352    3.4718654    93.902663   -23.768888     135.1704    11807.123 
    1492    275.09197    3.3544157    91.083004   -23.599342    144.12959    11807.123 
    1493    288.80862      3.22521    85.271328   -23.478421     209.6037    11807.123 
    1494    305.31518     3.088039    78.357433   -23.365045    333.98233    11807.123 
    1495    319.44273    2.9485952    72.596835   -23.215794    513.04595    11807.123 
    1496    326.81868    2.8137829    69.880693   -22.999419    740.73107    11807.123 
    1497    325.25891    2.6908718    71.126592   -22.706506    1013.1013    11807.123 
    1498    315.43164    2.5880082    75.991568   -22.352289    1332.7013    11807.123 
    1499    300.58679     2.514309    83.000012   -21.970256    1699.2805    11807.123 
1500        0.71328207872740745366 10.717518543222986693 0.71164021164021162846 55 -150.93701830426795141
    1500    285.45206     2.475035    90.038834   -21.603506    2111.2756    11807.123 
    1501    274.66177    2.4729561    95.052754   -21.289754    2559.8819    11807.123 
    1502    271.25116    2.5082615    96.707058   -21.048788    3024.0291    11807.123 
    1503     275.7139    2.5786629    94.798327    -20.87528    3468.9253    11807.123 
    1504    285.92759    2.6796571    90.279641   -20.740424    3848.6159    11807.123 
    1505    297.96038    2.8048588    84.897513   -20.602158    4112.3744    11807.123 
    1506    307.47388    2.9463556    80.569973   -20.420041    4213.4923    11807.123 
    1507    311.23733    3.0936643    78.723651   -20.169009    4121.1676    11807.123 
    1508    308.21616    3.2360208    79.820492    -19.84777      3818.12    11807.123 
    1509    299.87493    3.3657005    83.233773   -19.477601    3311.8924    11807.123 
    1510    289.61082    3.4755907    87.507505   -19.095299    2631.0612    11807.123 
    1511    281.52568    3.5619942    90.895778   -18.739462    1821.9016    11807.123 
    1512    279.00038    3.6220852    91.982888    -18.43778    931.62276    11807.123 
    1513      283.563    3.6532326    90.164356   -18.197084    11.277074    11807.123 
    1514    294.42205    3.6550435    85.827704   -18.002031   -892.76794    11807.123 
    1515    308.80519    3.6291031    80.184108   -17.821865   -1740.9967    11807.123 
    1516     322.9473    3.5784967    74.825379   -17.622484   -2500.3604    11807.123 
    1517    333.35724    3.5090799    71.172329   -17.379298   -3139.1987    11807.123 
    1518    337.92838    3.4294718     70.01079   -17.083925   -3634.6854    11807.123 
    1519    336.52192    3.3455263    71.271938   -16.748203   -3965.3911    11807.123 
    1520    330.83607     3.262045    74.123022   -16.398289   -4114.4076    11807.123 
    1521    323.65468    3.1826045    77.321577   -16.065753   -4073.4675    11807.123 
    1522    317.77476    3.1095646    79.694235   -15.776878   -3846.9021    11807.123 
    1523    315.01364    3.0442269    80.561543   -15.543959   -3454.3908    11807.123 
    1524    315.65001    2.9870479    79.956134   -15.361697   -2931.1492    11807.123 
    1525    318.48235    2.9366534    78.562982   -15.208963   -2322.2912    11807.123 
    1526    321.43666    2.8860705    77.416124   -15.061528   -1682.1638    11807.123 
    1527     322.4593    2.8357146    77.475904   -14.894523   -1066.8334    11807.123 
    1528    320.36526    2.7866817    79.248309   -14.696322   -524.96778    11807.123 
    1529    315.32426    2.7376394    82.586393   -14.467895   -85.372065    11807.123 
    1530    308.78976    2.6800283    86.738858   -14.229372    235.18926    11807.123 
    1531      302.941    2.6184544    90.616734    -13.99877    425.97133    11807.123 
    1532    299.88617    2.5493047    93.175824   -13.797335    490.90066    11807.123 
    1533    300.88751    2.4674169    93.774271   -13.635499    446.28492    11807.123 
    1534    305.89647    2.3703702    92.377957   -13.510735    313.82034    11807.123 
    1535    313.57296    2.2586847    89.549253   -13.408945    118.20386    11807.123 
    1536    321.75691    2.1354383    86.232181   -13.310102   -114.07661    11807.123 
    1537    328.21154    2.0054369    83.418135   -13.195866    -355.1863    11807.123 
    1538    331.35923    1.8750644    81.815997   -13.057967   -574.06759    11807.123 
    1539    330.75115     1.760827     81.64438   -12.894624   -740.14885    11807.123 
    1540    327.14408    1.6697012    82.612256   -12.718884   -830.89591    11807.123 
    1541    322.15216    1.5987397    84.082162   -12.549279   -825.65046    11807.123 
    1542    317.61504    1.5441609    85.340701   -12.403044   -715.62687    11807.123 
    1543    314.96432    1.5116161    85.863472   -12.287943    -498.4267    11807.123 
    1544    314.84143    1.5043658    85.476517   -12.203625    -194.8904    11807.123 
    1545     317.0429    1.5162084    84.366613   -12.143121    166.54272    11807.123 
    1546    320.72897    1.5392142    82.962918   -12.095386    549.98551    11807.123 
    1547    324.80099     1.564987    81.754793   -12.050755    915.79697    11807.123 
    1548    328.27431    1.5858665     81.12381   -12.004205     1225.533    11807.123 
    1549    330.51784    1.5960673    81.247257   -11.956053    1446.8847    11807.123 
    1550    331.31192    1.5927425    82.091558   -11.910634    1555.5274    11807.123 
    1551    330.75748     1.576849    83.476008   -11.873363    1538.1589    11807.123 
    1552    329.11126    1.5535088     85.16704   -11.848292    1397.1474    11807.123 
    1553    326.64434    1.5246218    86.961653   -11.837655     1147.091    11807.123 
    1554    323.55453    1.4918313    88.730335   -11.839754    801.94764    11807.123 
    1555    319.93565    1.4716088    90.411408   -11.851433     395.8047    11807.123 
    1556    315.90915    1.4818604    91.961875   -11.864883   -43.908258    11807.123 
    1557    311.77986    1.5176992    93.294358   -11.876774   -479.56312    11807.123 
    1558    308.07326    1.5674604    94.236693     -11.8885   -871.66207    11807.123 
    1559    305.47725    1.6248249    94.543673    -11.90261   -1191.6216    11807.123 
    1560    304.67174    1.6871955    93.968037   -11.925821   -1410.0033    11807.123 
    1561    306.08697    1.7521489    92.373434   -11.965389   -1512.6693    11807.123 
    1562    309.66352    1.8165136    89.844546   -12.024851   -1491.5672    11807.123 
    1563    314.74541    1.8772476    86.732039   -12.103715    -1350.681    11807.123 
    1564    320.20657    1.9391084      83.5908   -12.191974   -1106.0677    11807.123 
    1565    324.81247     2.004922    81.014739   -12.279348   -777.54634    11807.123 
    1566     327.6719    2.0768182    79.427274   -12.356657   -395.13921    11807.123 
    1567    328.58182    2.1551672    78.916594   -12.421693    13.689909    11807.123 
    1568    328.12036    2.2339146    79.190877   -12.482564    425.00561    11807.123 
    1569    327.40748     2.304613     79.68503   -12.552826    817.26916    11807.123 
    1570      327.613    2.3605281    79.783911   -12.648313    1167.5351    11807.123 
    1571     329.4281    2.3988223    79.073765   -12.780447    1460.9908    11807.123 
    1572    332.71166    2.4179215    77.523074   -12.951546    1687.9531    11807.123 
    1573    336.44799    2.4149074    75.521241   -13.154979    1840.3735    11807.123 
    1574    339.04433    2.3888521    73.756279   -13.376056    1914.0601    11807.123 
    1575     338.8783    2.3415217    72.973613   -13.596959    1913.8268    11807.123 
    1576    334.92061    2.2740168    73.697689   -13.801269    1855.1069    11807.123 
    1577    327.19269    2.1869114    76.012527   -13.981877    1755.6956    11807.123 
    1578     316.9045     2.089572    79.479477   -14.139248    1639.9614    11807.123 
    1579    306.20133    1.9958665    83.232338   -14.287361    1539.6597    11807.123 
    1580    297.56759    1.9264746    86.236831    -14.44208     1481.944    11807.123 
    1581    293.04678    1.8917369    87.638167   -14.625729     1480.439    11807.123 
    1582    293.52359    1.9008718    87.080007    -14.85057    1540.0167    11807.123 
    1583    298.36378    1.9562265    84.870453   -15.115856    1652.8964    11807.123 
    1584    305.57763     2.054721    81.910493   -15.405568    1800.2904    11807.123 
    1585    312.50566    2.1870175    79.386405   -15.693758    1958.4317    11807.123 
    1586    316.78777    2.3397078    78.327236   -15.955765    2095.1414    11807.123 
    1587    317.25672     2.500834    79.195616    -16.17685    2183.1024    11807.123 
    1588    314.39071     2.657703    81.683108   -16.360595    2203.7556    11807.123 
    1589    310.10753    2.7979526    84.807295   -16.527513    2145.3698    11807.123 
    1590    306.95665    2.9101848    87.285803   -16.709264     2005.033    11807.123 
    1591    307.03565    2.9879668    88.044205   -16.933119    1777.4048    11807.123 
    1592    311.06784    3.0238916     86.65756   -17.214367    1459.9346    11807.123 
    1593    318.00995    3.0149272    83.545249   -17.547718    1052.9617    11807.123 
    1594    325.37583    2.9648253    79.833747   -17.909775    560.33259    11807.123 
    1595    330.17006    2.8827839    76.936192   -18.267022   -9.3565917    11807.123 
    1596    330.07159    2.7752224    76.009089   -18.590509   -637.08331    11807.123 
    1597    324.38705    2.6503672    77.495001   -18.864173    -1297.799    11807.123 
    1598    314.41535    2.5189639    80.927686   -19.091301   -1955.6615    11807.123 
    1599    303.08577    2.3925634    85.071881   -19.293456   -2566.8422    11807.123 
1600        0.70595079172955965685 10.743103251979171375 0.69841269841269837393 51 -152.7007187153073744
    1600    293.97884    2.2819386    88.350856   -19.503866   -3091.4678    11807.123 
    1601    290.07977    2.1966382    89.409294   -19.754907   -3494.7607    11807.123 
    1602    292.69956    2.1459444    87.610602   -20.066685    -3754.127    11807.123 
    1603    300.96329    2.1388058    83.289065   -20.438528   -3866.0335    11807.123 
    1604    312.06141    2.1794692    77.661763   -20.849717   -3841.1031    11807.123 
    1605    322.18324    2.2663572    72.425036   -21.267464   -3704.6698    11807.123 
    1606    327.82993    2.3903229    69.175084   -21.655834   -3483.2058    11807.123 
    1607    327.02771     2.534689     68.85363   -21.992267   -3210.2257    11807.123 
    1608    320.01457    2.6884782    71.417553   -22.270757   -2910.8271    11807.123 
    1609     309.1834    2.8407605    75.848201   -22.506901   -2601.9848    11807.123 
    1610    298.26146    2.9816413    80.501481   -22.732502   -2294.0928    11807.123 
    1611    291.00938    3.1034468    83.679771   -22.984984   -1993.1454    11807.123 
    1612    289.89346    3.2009293     84.22819   -23.294012   -1707.5577    11807.123 
    1613    295.18744    3.2711426    81.948758   -23.671014   -1447.1293    11807.123 
    1614    304.82547    3.3153913    77.684356    -24.10384   -1224.3824    11807.123 
    1615    315.07541    3.3382538    73.037856   -24.561143   -1052.1753    11807.123 
    1616    321.81963     3.345907     69.81835   -25.000651   -934.53514    11807.123 
    1617    322.00631     3.333692    69.403712   -25.390044   -868.02075    11807.123 
    1618    314.73544    3.3041453    72.243907   -25.708559   -844.01459    11807.123 
    1619    301.62206    3.2652536    77.681843   -25.959627   -837.99207    11807.123 
    1620    286.31726    3.2266704    84.156121   -26.168588   -818.14529    11807.123 
    1621    273.31789    3.1986165    89.718156   -26.374224   -752.24301    11807.123 
    1622    266.48575    3.1903748    92.683723   -26.615179   -615.37926    11807.123 
    1623    267.79347    3.2061878     92.19217   -26.915143   -393.31194    11807.123 
    1624    276.70368    3.2417827    88.481303   -27.278476   -93.017808    11807.123 
    1625    290.38199     3.294938    82.788688   -27.684422    261.59935    11807.123 
    1626    304.67059    3.3605004     76.92139   -28.099268    638.35321    11807.123 
    1627    315.46058    3.4304252    72.649645   -28.488396    1000.6648    11807.123 
    1628    319.98203    3.4954825    71.137036   -28.828745    1315.6208    11807.123 
    1629      317.581    3.5535981    72.598317   -29.112729    1560.5893    11807.123 
    1630    309.77133    3.6023922    76.288654   -29.353397    1718.3641    11807.123 
    1631    299.57225    3.6385987    80.809976   -29.576588    1785.1706    11807.123 
    1632    290.38111     3.660503    84.616514   -29.812181     1764.683    11807.123 
    1633    284.80943    3.6674371    86.538142   -30.083555    1664.3058    11807.123 
    1634     283.8714    3.6590344    86.143888   -30.399381    1492.2037    11807.123 
    1635    286.78132    3.6345206    83.829942   -30.750731     1256.122    11807.123 
    1636    291.39149    3.5938432    80.614687   -31.115574    967.26077    11807.123 
    1637    295.10249    3.5392458    77.724012   -31.463269    634.67606    11807.123 
    1638    295.89059    3.4643313    76.124667   -31.772036    271.56135    11807.123 
    1639    293.05372    3.3629609    76.178484     -32.0322   -100.08148    11807.123 
    1640    287.41801    3.2299652    77.544129   -32.252148   -452.82606    11807.123 
    1641    280.93247    3.0662567    79.360758   -32.452909   -761.32206    11807.123 
    1642     275.8278    2.8775805    80.635945    -32.66083   -1001.5527    11807.123 
    1643    273.68359     2.672353    80.679998   -32.895873   -1157.7768    11807.123 
    1644    274.78573    2.4602713    79.405007   -33.162754   -1225.6295    11807.123 
    1645      278.049    2.2507821    77.360989   -33.448596   -1212.4264    11807.123 
    1646    281.53928    2.0517931    75.490937   -33.728356   -1134.5618    11807.123 
    1647    283.37379    1.8689141    74.706625   -33.975696   -1012.6304    11807.123 
    1648     282.6106    1.7052864    75.465559   -34.174837   -867.03857    11807.123 
    1649    279.73772    1.5628096    77.531611   -34.327579   -715.66724    11807.123 
    1650    276.53909    1.4425252    80.026491   -34.453828   -570.16878    11807.123 
    1651    275.37029    1.3458128      81.7602   -34.584127   -436.96754    11807.123 
    1652     278.1258    1.2749243    81.713858   -34.747911   -323.28218    11807.123 
    1653    285.31349    1.2327264    79.484403   -34.961829   -237.86835    11807.123 
    1654      295.623     1.222481    75.510312    -35.22264   -190.67012    11807.123 
    1655    306.18994    1.2486459     70.97843   -35.508234   -189.41753    11807.123 
    1656    313.51688    1.3157545    67.429703   -35.783108   -242.82202    11807.123 
    1657    314.73935    1.4201007    66.198603   -36.012641   -348.83276    11807.123 
    1658    308.75897    1.5490452    67.889153   -36.178422   -494.02055    11807.123 
    1659     296.8092    1.6986776    72.087494   -36.278144    -653.8626    11807.123 
    1660    282.23401    1.8669093    77.431467    -36.33429   -793.21398    11807.123 
    1661    269.50079    2.0479153    82.033669   -36.385627   -879.74711    11807.123 
    1662    262.72533     2.233613    84.124486   -36.473711   -881.37633    11807.123 
    1663     264.2336     2.417699    82.688556   -36.627355   -778.25911    11807.123 
    1664     273.6876    2.5965741    77.862732   -36.851191   -567.57612    11807.123 
    1665    288.10349    2.7696676    70.941421   -37.123425   -264.08423    11807.123 
    1666    302.78681    2.9391559    63.973513   -37.403743    103.72153    11807.123 
    1667    312.89033    3.1056657    59.083762   -37.646972    504.22432    11807.123 
    1668    315.02905    3.2686576    57.755525   -37.822205    900.32665    11807.123 
    1669    308.41466    3.4378698    60.323646   -37.916437    1265.0418    11807.123 
    1670    295.13587    3.6185413    65.855653   -37.945009    1583.3579    11807.123 
    1671    279.45163    3.8158336     72.46228   -37.942396    1846.3578    11807.123 
    1672    266.36305    4.0338598    77.927708    -37.95267    2052.8039    11807.123 
    1673    259.96071    4.2741151    80.444098   -38.014157     2202.448    11807.123 
    1674    262.08603    4.5353257    79.206823   -38.146233     2290.562    11807.123 
    1675    271.74765    4.8136052    74.675572   -38.342049    2306.9335    11807.123 
    1676    285.47878    5.1012087    68.417524    -38.57143    2237.9947    11807.123 
    1677    298.51301     5.386711    62.584708    -38.79128    2073.9111    11807.123 
    1678    306.39242    5.6552672    59.197074   -38.960358    1810.9705    11807.123 
    1679    306.46928    5.8886127    59.470629   -39.053354    1457.7027    11807.123 
    1680    298.78642    6.0662707     63.41889   -39.069174    1037.9785    11807.123 
    1681    286.02935     6.167471    69.864975   -39.031352    588.52325    11807.123 
    1682    272.56948    6.1736428    76.858351   -38.979986    152.94322    11807.123 
    1683     262.9427    6.0711052    82.345811    -38.95749   -226.61471    11807.123 
    1684    260.30828     5.853451    84.856282   -38.993158   -517.75146    11807.123 
    1685    265.42777    5.5231432    83.959432   -39.092696   -703.64143    11807.123 
    1686    276.50018     5.091974    80.347934   -39.237137   -784.82443    11807.123 
    1687    289.87156    4.5802523    75.534708   -39.391258   -776.73339    11807.123 
    1688    301.33018    4.0148265    71.292935   -39.517335   -704.06122    11807.123 
    1689     307.5142    3.4262634    69.047423   -39.588307   -593.93267    11807.123 
    1690    306.95269    2.8456473    69.426414    -39.59575   -469.98369    11807.123 
    1691    300.42022    2.3015012     72.11133   -39.550962   -348.89018    11807.123 
    1692    290.53722    1.8172618    76.011096   -39.479931    -239.8979    11807.123 
    1693    280.79903    1.4095886    79.679515   -39.414356   -146.86307    11807.123 
    1694    274.38395      1.08767    81.822925   -39.381515    -71.08403    11807.123 
    1695    273.13464   0.85400454    81.728186    -39.39515   -14.881483    11807.123 
    1696     277.0266   0.70572496    79.476538   -39.451662    18.770369    11807.123 
    1697    284.29926   0.62492951    75.882344   -39.531901    28.216151    11807.123 
    1698    292.12561    0.5859978    72.186683   -39.608755  -0.96835258    11807.123 
    1699    297.59983   0.57624545    69.611456   -39.654702   -73.628234    11807.123 
1700        0.68945493743133812181 10.780195980009620982 0.69047619047619046562 53 -175.01437347851984327
    1700    298.76043   0.59067557    68.930624   -39.651063   -186.31049    11807.123 
    1701    295.25078   0.62280344    70.207063   -39.597356   -328.30791    11807.123 
    1702     288.3797   0.66782046    72.788603   -39.508654   -480.08843    11807.123 
    1703    280.58024   0.72350156    75.563557   -39.410507   -618.23743    11807.123 
    1704    274.48256   0.79008003    77.379396   -39.329292   -720.49887    11807.123 
    1705    271.94939   0.86966006    77.467852   -39.282156    -770.7574    11807.123 
    1706    273.44766   0.95879147    75.718948   -39.270222    -757.5877    11807.123 
    1707    277.94768    1.0505699    72.704861   -39.279679   -688.87837    11807.123 
    1708    283.37257    1.1429347      69.4553    -39.28613   -576.99273    11807.123 
    1709    287.45109    1.2341573    67.067905   -39.264557   -438.93101    11807.123 
    1710    288.61235    1.3226101    66.301926   -39.198422   -290.86995    11807.123 
    1711    286.59586    1.4054317    67.303414   -39.086367   -145.94841    11807.123 
    1712    282.54763    1.4808914    69.560303   -38.942156   -12.380514    11807.123 
    1713    278.57672    1.5501942    72.101732   -38.788074    106.25693    11807.123 
    1714    276.93752    1.6108975    73.868288   -38.650519    207.16603    11807.123 
    1715    279.12521    1.6627757    74.118587    -38.54695    291.06897    11807.123 
    1716    285.22818    1.7140647        72.72   -38.478934    357.36861    11807.123 
    1717    293.82113    1.7704861    70.213071   -38.434313    397.25173    11807.123 
    1718    302.42689    1.8330752    67.619359   -38.389368    406.08986    11807.123 
    1719    308.37259     1.903115    66.061233   -38.319148    382.37718    11807.123 
    1720    309.75751    1.9884371     66.33165    -38.20476    334.57695    11807.123 
    1721    306.19935    2.0912068    68.572395    -38.04307     265.8477    11807.123 
    1722      299.039    2.2033953    72.186337   -37.847317    191.53884    11807.123 
    1723    290.90674    2.3161586    76.016938   -37.642231    130.59616    11807.123 
    1724    284.83052    2.4212136    78.736197   -37.456182    100.39156    11807.123 
    1725    283.17742    2.5122675    79.307025   -37.311325    111.93117    11807.123 
    1726    286.79561    2.5859387    77.358927     -37.2155    168.16689    11807.123 
    1727    294.65595    2.6425953    73.344359   -37.159476    262.79158    11807.123 
    1728    304.13438    2.6854998    68.416957   -37.119611    369.77601    11807.123 
    1729    311.85167    2.7184233    64.067426   -37.066065    464.87687    11807.123 
    1730    314.79522    2.7452828    61.635407   -36.972684    524.67254    11807.123 
    1731    311.35488    2.7689398    61.860578   -36.825433    533.11245    11807.123 
    1732    301.92167    2.7859887     64.62728    -36.62809    487.71948    11807.123 
    1733    288.80899    2.7923332    68.995503    -36.40037    391.73575    11807.123 
    1734    275.52559    2.7864022    73.514062    -36.17217    257.51081    11807.123 
    1735    265.65042    2.7659859    76.712213   -35.973424    103.19921    11807.123 
    1736    261.66693    2.7299856    77.602262   -35.822944   -53.368528    11807.123 
    1737    264.16818    2.6790358    76.017774   -35.721055   -198.56433    11807.123 
    1738    271.70371    2.6157139    72.668033   -35.649055   -324.45765    11807.123 
    1739    281.31647    2.5437951    68.889576   -35.575582    -426.1056    11807.123 
    1740    289.57153    2.4658091    66.183598   -35.468973   -501.49869    11807.123 
    1741     293.7142    2.3809081    65.703004   -35.307787   -545.87864    11807.123 
    1742    292.54179    2.2886313    67.866511   -35.088056   -557.04918    11807.123 
    1743    286.71168    2.1962131    72.227748   -34.822252   -525.13726    11807.123 
    1744    278.43972    2.1126642    77.631451   -34.533658   -441.23844    11807.123 
    1745    270.69798     2.038155    82.594261   -34.252167   -298.77749    11807.123 
    1746     266.1902    1.9726355    85.775325   -33.999596   -100.06668    11807.123 
    1747    266.47048    1.9161954    86.381771   -33.785059     144.5094    11807.123 
    1748    271.48125    1.8690086    84.385532   -33.603124     415.1637    11807.123 
    1749    279.62129    1.8368098    80.495688   -33.434234    685.08773    11807.123 
    1750    288.31229      1.82691    75.907626   -33.252838    918.42031    11807.123 
    1751    294.86459    1.8413436    71.914584   -33.037543    1080.1765    11807.123 
    1752    297.34634    1.8800905     69.50619   -32.775709    1145.6748    11807.123 
    1753    295.20362    1.9366246    69.080319   -32.466133    1107.2404    11807.123 
    1754    289.39723     1.996399    70.357364   -32.126568    963.12485    11807.123 
    1755    282.02973     2.059433    72.519632   -31.777315    726.55324    11807.123 
    1756    275.62513    2.1260809    74.527008   -31.442024    422.33318    11807.123 
    1757    272.27126    2.1963054    75.497516   -31.137361    80.537474    11807.123 
    1758    272.92693    2.2696818    75.017766   -30.867028   -268.17037    11807.123 
    1759    277.13812    2.3456427    73.273921   -30.621349      -594.96    11807.123 
    1760    283.25771    2.4283825    70.959575   -30.377522   -875.07143    11807.123 
    1761    289.09595     2.514194    68.998937   -30.113124   -1091.0209    11807.123 
    1762    292.70791    2.5978384     68.19389   -29.815024   -1225.5823    11807.123 
    1763    293.06446    2.6899877    68.924667   -29.472641   -1271.8579    11807.123 
    1764    290.39748    2.7871304    71.013207    -29.09699   -1223.9849    11807.123 
    1765    286.04199    2.8830813     73.79864   -28.706618   -1077.5948    11807.123 
    1766    281.87154    2.9715066    76.391696   -28.322964   -834.45199    11807.123 
    1767     279.5658     3.047748     78.00765   -27.962081   -506.22979    11807.123 
    1768    279.98699    3.1100111    78.249531   -27.628682   -113.62366    11807.123 
    1769    282.90202    3.1601075    77.233007   -27.315209    315.33617    11807.123 
    1770    287.15639    3.2058583    75.505979   -27.002248    745.32604    11807.123 
    1771    291.23657    3.2494269    73.796402   -26.669207    1140.3763    11807.123 
    1772    293.96241    3.2800577     72.69373   -26.305638    1469.5415    11807.123 
    1773    294.98627    3.2929183    72.400113   -25.909482    1701.9943    11807.123 
    1774    294.91136    3.2877102    72.662025   -25.493335    1822.7687    11807.123 
    1775    294.95912    3.2651558    72.919035   -25.078415    1826.9602    11807.123 
    1776     296.2922    3.2279329    72.610639   -24.685073    1716.6545    11807.123 
    1777    299.31598    3.1805217    71.501487   -24.323234    1500.7313    11807.123 
    1778    303.30562    3.1283474    69.865324   -23.987148    1192.1875    11807.123 
    1779    306.57951    3.0767936    68.423396   -23.656627    808.02835    11807.123 
    1780    307.20121    3.0223127    68.044567   -23.308348    373.61949    11807.123 
    1781    303.88887    2.9621059    69.332028   -22.923936   -90.789784    11807.123 
    1782    296.74262    2.8988814    72.284272   -22.500758   -553.98036    11807.123 
    1783    287.46279    2.8362095    76.191417   -22.054071   -980.57303    11807.123 
    1784    278.88065    2.7780586    79.834969   -21.611383   -1334.8141    11807.123 
    1785    273.96451    2.7277454    81.925858   -21.201421   -1586.0148    11807.123 
    1786     274.6831    2.6885511     81.61058   -20.841039   -1716.5959    11807.123 
    1787    281.18436    2.6623334    78.840915   -20.527878   -1722.2606    11807.123 
    1788    291.62559    2.6485738      74.4549   -20.240229   -1613.7869    11807.123 
    1789    302.74206    2.6450276    69.925864   -19.945181   -1412.5085    11807.123 
    1790    310.97062    2.6490814    66.862665   -19.610034    -1147.627    11807.123 
    1791    313.73065     2.656414    66.437943   -19.215162   -848.60583    11807.123 
    1792    310.39465    2.6613168    68.951165   -18.761024   -537.57089    11807.123 
    1793    302.58098    2.6584855    73.689205   -18.268488   -231.36173    11807.123 
    1794    293.64302    2.6440919    79.144617   -17.772585    63.087433    11807.123 
    1795    287.50807    2.6161381    83.526489   -17.310899    345.91221    11807.123 
    1796    287.26553    2.5721407    85.390341   -16.910619    611.37134    11807.123 
    1797    293.98919    2.5092634    84.168028   -16.578066    852.69023    11807.123 
    1798    306.24447    2.4259212     80.39686   -16.294852    1060.7998    11807.123 
    1799     320.4943    2.3213517    75.551269   -16.025134    1219.7891    11807.123 
1800        0.67435875257441380004 10.811213561973772812 0.68518518518518511939 51 -166.28457424992066649
    1800    332.29099    2.1962489    71.524616   -15.729134    1314.3069    11807.123 
    1801    337.84096    2.0539722    69.944655   -15.376952    1334.9362    11807.123 
    1802    335.36998    1.9005029    71.574734   -14.960128    1281.4573    11807.123 
    1803    325.78701    1.7422461    76.025237   -14.495362    1165.6605    11807.123 
    1804    312.38762    1.5862684    81.885758   -14.018248    1009.2239    11807.123 
    1805     299.7144    1.4398168    87.226519   -13.570763    837.64656    11807.123 
    1806    292.00131    1.3104715    90.278075   -13.186978    675.40913    11807.123 
    1807    291.77945      1.20863    90.037392   -12.877122    539.47307    11807.123 
    1808    299.12971    1.1366704    86.585304   -12.631052    428.85442    11807.123 
    1809    311.80007     1.093857    81.017688   -12.417788    334.60725    11807.123 
    1810      326.077    1.0808379    75.038764   -12.199486    235.73918    11807.123 
    1811    338.07895    1.1004745    70.379256   -11.946128    114.14789    11807.123 
    1812     345.0064    1.1532821    68.249604   -11.644645   -43.327236    11807.123 
    1813    345.91622    1.2371885    69.006562    -11.30147    -240.9426    11807.123 
    1814    341.81837    1.3476398    72.122399   -10.938516   -472.97199    11807.123 
    1815    335.12826    1.4781138     76.43766   -10.585018   -725.46554    11807.123 
    1816    328.71896    1.6193325    80.589203   -10.267869   -977.41908    11807.123 
    1817    324.90873    1.7609382    83.460254   -10.004783   -1212.1201    11807.123 
    1818    324.72691    1.8969777    84.505493   -9.7979378   -1414.3901    11807.123 
    1819    327.69144    2.0243275    83.854834   -9.6352167   -1573.4762    11807.123 
    1820    332.14408    2.1393447     82.17688   -9.4934232   -1678.4199    11807.123 
    1821    335.97442    2.2348376    80.364601   -9.3519565    -1724.457    11807.123 
    1822    337.46046    2.3167688    79.165765   -9.1912515   -1714.8342    11807.123 
    1823    335.93289    2.3899291    78.901566   -9.0079698    -1648.341    11807.123 
    1824    331.99135    2.4590238    79.378427   -8.8108748   -1519.2399    11807.123 
    1825    327.20009    2.5233803    80.021046   -8.6210245   -1327.3571    11807.123 
    1826    323.39948    2.5852354    80.164271     -8.45824   -1078.0297    11807.123 
    1827    321.93611    2.6470057     79.37561   -8.3361932   -780.78945    11807.123 
    1828    323.13271    2.7094559    77.669626   -8.2560244   -452.49848    11807.123 
    1829    326.19811    2.7713548    75.523837   -8.2061805   -116.14404    11807.123 
    1830    329.60404    2.8294456    73.691605   -8.1675457    202.39769    11807.123 
    1831    331.76928     2.873756    72.893542   -8.1208916    484.32705    11807.123 
    1832    331.71805    2.8929262    73.519934   -8.0571934    705.65641    11807.123 
    1833    329.47606    2.8873607    75.460953   -7.9763451    854.97285    11807.123 
    1834     326.0692    2.8582055    78.135699   -7.8904797    931.25168    11807.123 
    1835    323.09801    2.8066657    80.706203   -7.8177128    943.35009    11807.123 
    1836    322.06907     2.733709    82.392042   -7.7764332    902.33995    11807.123 
    1837    323.74841    2.6438576    82.766153   -7.7768099     820.7816    11807.123 
    1838    327.79181    2.5428231    81.921954   -7.8183694    712.56184    11807.123 
    1839    332.78899     2.436629     80.45059   -7.8895693    590.49702    11807.123 
    1840    336.71897    2.3310263    79.232237   -7.9714317    466.72454    11807.123 
    1841    337.67063    2.2309586    79.110462   -8.0438393    354.10952    11807.123 
    1842    334.57348      2.14142    80.563123   -8.0932473    269.30904    11807.123 
    1843     327.6738    2.0699718    83.492221   -8.1150462    227.05498    11807.123 
    1844    318.55876    2.0175863    87.220078    -8.120471      241.118    11807.123 
    1845    309.66898    1.9818653     90.70855   -8.1301888    323.61155    11807.123 
    1846    303.45679    1.9583402    92.930816   -8.1674181    480.28023    11807.123 
    1847    301.50547    1.9410748    93.257168   -8.2482169    704.39764    11807.123 
    1848    303.94932    1.9231432    91.701203   -8.3745059    977.76462    11807.123 
    1849    309.43589    1.8982598     88.92078   -8.5323567    1272.1447    11807.123 
    1850    315.66273    1.8613836    85.965202   -8.6972241    1553.9497    11807.123 
    1851    320.27967    1.8090862    83.865185   -8.8450747    1789.7397    11807.123 
    1852     321.8036    1.7444113     83.22872   -8.9582737    1951.4793    11807.123 
    1853    320.19185    1.6658076    84.005126   -9.0380663    2015.7621    11807.123 
    1854    316.82045    1.5717875    85.515857   -9.1003978    1975.3514    11807.123 
    1855     313.8913      1.46483    86.735642   -9.1707492     1832.539    11807.123 
    1856    313.52349    1.3514212    86.712154   -9.2744913    1598.2658    11807.123 
    1857     316.8811    1.2386756    84.959961   -9.4283541    1288.3517    11807.123 
    1858    323.66419    1.1340266    81.678156   -9.6340837    916.76343    11807.123 
    1859    332.15772    1.0420518    77.711923   -9.8778704    501.92311    11807.123 
    1860    339.81265   0.96098217    74.270057   -10.138568    58.069679    11807.123 
    1861     344.1376   0.89139637    72.502944   -10.391287   -396.98118    11807.123 
    1862    343.60767   0.83303667     73.08653   -10.618215   -841.55778    11807.123 
    1863    338.25282   0.78521847     75.95947   -10.814815   -1248.5727    11807.123 
    1864    329.70756   0.75339956    80.308554   -10.988742   -1586.7222    11807.123 
    1865    320.71282   0.73907097    84.814489   -11.162354    -1831.689    11807.123 
    1866    314.20142   0.74238923     88.08179   -11.362625   -1961.1977    11807.123 
    1867    312.28067   0.76525055    89.108518   -11.611668    -1969.338    11807.123 
    1868    315.47793   0.81000033    87.632789   -11.920383   -1859.4964    11807.123 
    1869    322.51834   0.88131402    84.232731   -12.281268     -1655.72    11807.123 
    1870     330.7334    0.9788126    80.139121   -12.673568   -1391.1414    11807.123 
    1871    336.95236    1.1011465    76.820435   -13.068425   -1104.0721    11807.123 
    1872    338.58605     1.246114    75.483274   -13.438999    -832.0606    11807.123 
    1873    334.52109    1.4108459    76.662117   -13.769207   -605.77439    11807.123 
    1874     325.5077    1.5947765    80.039563   -14.057974   -442.63302    11807.123 
    1875     313.9291    1.7953587     84.55407   -14.320191    -354.6673    11807.123 
    1876    303.02585    2.0075503    88.753179   -14.580504   -340.58589    11807.123 
    1877     295.8397    2.2289651    91.264456   -14.866847   -390.03193    11807.123 
    1878    294.26228    2.4658049    91.225721   -15.195176   -492.48357    11807.123 
    1879    298.48299    2.7167454    88.538301   -15.574651   -636.73819    11807.123 
    1880     306.9721      2.98393    83.873859   -15.995278   -812.79236    11807.123 
    1881    316.99347    3.2640456    78.444888   -16.439348   -1012.7668    11807.123 
    1882    325.44821    3.5580929     73.62292   -16.883078   -1220.6025    11807.123 
    1883    329.81139    3.8619904    70.528876   -17.306731   -1424.7006    11807.123 
    1884    328.82556    4.1658725    69.728466   -17.699794    -1604.863    11807.123 
    1885    322.75133    4.4671513    71.116845   -18.059118   -1740.1689    11807.123 
    1886    313.17353    4.7575339    74.014643    -18.39488    -1811.452    11807.123 
    1887    302.41982    5.0267965     77.42968   -18.721357   -1798.5465    11807.123 
    1888    292.81104    5.2624204    80.385952   -19.054649    -1691.024    11807.123 
    1889    286.00541    5.4559011    82.207392   -19.403924   -1489.7391    11807.123 
    1890    282.63881    5.6010346    82.669241   -19.770586   -1206.1563    11807.123 
    1891    282.33423     5.693818     81.98481   -20.148192   -862.51794    11807.123 
    1892    284.02673    5.7284267    80.656332   -20.525806   -485.06885    11807.123 
    1893    286.42195    5.7019029    79.261985   -20.892585    -111.8815    11807.123 
    1894    288.42793     5.619612    78.260225   -21.241264    223.96512    11807.123 
    1895    289.44763    5.4915969    77.871309   -21.569734    494.44608    11807.123 
    1896    289.44897    5.3296695    78.060673   -21.881158    676.40537    11807.123 
    1897    288.83336    5.1497454    78.609312   -22.180667    758.90814    11807.123 
    1898    288.21364    4.9660173    79.225617   -22.474936    736.16152    11807.123 
    1899    288.19857    4.7890549    79.647802   -22.768165    616.05949    11807.123 
1900        0.66139028960151191594 10.837324292699083372 0.68253968253968255731 51 -154.1146909105685836
    1900    289.24572    4.6263737    79.701872   -23.062338    416.96503    11807.123 
    1901    291.63154    4.4798765    79.304217   -23.357722    165.01228    11807.123 
    1902    295.48255    4.3496269    78.426439   -23.654891   -111.90863    11807.123 
    1903    300.82332    4.2362724    77.055237   -23.956536    -383.1693    11807.123 
    1904    307.58673    4.1371778    75.181956   -24.268303    -615.1377    11807.123 
    1905     315.5278    4.0475692    72.839757   -24.598648     -782.178    11807.123 
    1906    324.08089    3.9640919    70.177091   -24.954968   -864.52761    11807.123 
    1907    332.25518    3.8839127    67.526207    -25.34049   -851.85503    11807.123 
    1908    338.66516    3.8051223    65.414942   -25.751072   -743.92369    11807.123 
    1909    341.77399    3.7241664    64.483467   -26.174189    -548.3604    11807.123 
    1910    340.31726     3.637048    65.305958   -26.592103   -287.04125    11807.123 
    1911    333.79471    3.5432869    68.166322   -26.986389    16.986432    11807.123 
    1912    322.86327    3.4438173    72.867906   -27.344804    339.16733    11807.123 
    1913    309.42877    3.3404157    78.665259   -27.666732    656.28867    11807.123 
    1914    296.33232     3.234605    84.372851   -27.965483    946.93702    11807.123 
    1915    286.66072    3.1279817    88.645925   -28.264833    1190.4322    11807.123 
    1916    282.85997    3.0219544     90.36206   -28.591694    1367.5162    11807.123 
    1917    285.92714    2.9178678    88.984907   -28.966591    1460.3144    11807.123 
    1918    294.96809    2.8157838    84.783447   -29.395278     1451.314    11807.123 
    1919    307.30189    2.7122924    78.818182   -29.867241    1326.0041    11807.123 
    1920     319.1256     2.606391    72.676506   -30.356907    1073.8306    11807.123 
    1921     326.5923    2.5003794    68.021825   -30.831127    697.84578    11807.123 
    1922    326.98392    2.3968039    66.090448   -31.259518     216.6911    11807.123 
    1923    319.60113    2.2981044     67.29473   -31.623319   -334.62073    11807.123 
    1924    306.07435    2.2062155    71.065775   -31.921619   -906.21116    11807.123 
    1925    289.95079    2.1268167    75.999368   -32.174873   -1435.5456    11807.123 
    1926    275.68829    2.0711876     80.27427   -32.413387   -1868.2623    11807.123 
    1927    267.32867    2.0372808     82.22372   -32.677062   -2155.9698    11807.123 
    1928    267.22784    2.0180032    80.884273   -32.995802   -2262.6866    11807.123 
    1929    275.26139    2.0049414    76.341976   -33.381513   -2180.2411    11807.123 
    1930    288.78825    1.9960434    69.752876   -33.821217   -1924.2119    11807.123 
    1931    303.43133    1.9921945    63.012236   -34.282901   -1525.8803    11807.123 
    1932    314.43381    1.9975326    58.168117   -34.724846   -1028.4429    11807.123 
    1933    318.17155    2.0154853     56.76478   -35.110147   -480.79863    11807.123 
    1934    313.31125    2.0455829      59.3367   -35.420775    77.596303    11807.123 
    1935    301.22399    2.0889113    65.226438   -35.659104    613.58732    11807.123 
    1936    285.51593    2.1479073    72.790538   -35.847846    1098.7756    11807.123 
    1937    270.84034    2.2196506    79.925442    -36.02656    1514.1326    11807.123 
    1938    261.39483     2.299568    84.733691   -36.233311    1848.4235    11807.123 
    1939    259.61484    2.3806661    86.103161   -36.493145    2093.2953    11807.123 
    1940     265.4959    2.4557798    84.008907   -36.808957    2240.5501    11807.123 
    1941    276.74142    2.5176325    79.449591   -37.162517    2280.3438    11807.123 
    1942    289.63724     2.560638    74.060192   -37.522349    2208.3027    11807.123 
    1943     300.3191    2.5826779     69.54945   -37.856033    2028.0737    11807.123 
    1944    305.98929    2.5853556    67.160755   -38.141488    1754.1804    11807.123 
    1945    305.68284    2.5736208    67.332494   -38.373269    1412.8146    11807.123 
    1946    300.36892    2.5549251      69.6522   -38.562593     1039.653    11807.123 
    1947    292.41562    2.5380944    73.091488   -38.731925    675.01334    11807.123 
    1948    284.66155    2.5318674    76.415118   -38.905646    358.47083    11807.123 
    1949    279.44237    2.5398955    78.608759   -39.105048    124.71723    11807.123 
    1950    277.90366    2.5696175    79.179265   -39.333164   -8.2249755    11807.123 
    1951    279.80656     2.619088    78.237325   -39.586528   -39.082707    11807.123 
    1952    283.83371    2.6901901    76.358834   -39.846778    23.305342    11807.123 
    1953    288.23502     2.780659    74.298775   -40.095996    159.23476    11807.123 
    1954    291.54016    2.8868004    72.680192   -40.319699    345.39322    11807.123 
    1955    293.05628     3.000018    71.779232   -40.515282    555.65154    11807.123 
    1956     292.9798    3.1120943    71.480087   -40.690264    763.52899    11807.123 
    1957    292.13004    3.2157354    71.399736   -40.858631    945.24334    11807.123 
    1958    291.45411    3.3036077     71.11349   -41.034753    1081.6229    11807.123 
    1959    291.53288    3.3689606    70.375653   -41.226937    1156.8908    11807.123 
    1960    292.30178    3.4064756    69.238985   -41.435365    1160.2572    11807.123 
    1961    293.09293    3.4217831    68.026041   -41.647654     1087.739    11807.123 
    1962    292.99087    3.4149573    67.172016   -41.851488    934.44033    11807.123 
    1963    291.30225     3.380852    67.014992   -42.034689    710.87209    11807.123 
    1964    287.90704    3.3177058    67.626342   -42.192322    433.96878    11807.123 
    1965    283.39592    3.2274163    68.752529   -42.326907    121.20334    11807.123 
    1966    278.91795     3.109963    69.892008   -42.448531   -200.49096    11807.123 
    1967    275.78204     2.967435    70.475979   -42.570221   -502.80288    11807.123 
    1968    274.98488     2.804083    70.084022   -42.703301   -759.97363    11807.123 
    1969    276.82812    2.6268577    68.616321   -42.853735   -950.28144    11807.123 
    1970    280.76893    2.4453074    66.360743   -43.018431   -1062.6751    11807.123 
    1971    285.55935    2.2661689    63.928175   -43.188258    -1094.206    11807.123 
    1972    289.63679    2.0946185    62.070493   -43.349029   -1046.6246    11807.123 
    1973     291.6508    1.9340572    61.434554   -43.487038   -929.99254    11807.123 
    1974    290.95357     1.787451    62.332064   -43.593522   -756.37029    11807.123 
    1975    287.87787    1.6563003    64.607536    -43.66891    -538.8934    11807.123 
    1976    283.67338    1.5408148     67.66209   -43.723609   -290.29582    11807.123 
    1977    280.09239    1.4409188    70.638415   -43.775248   -21.061747    11807.123 
    1978    278.75331     1.356707    72.711298   -43.842833    250.72691    11807.123 
    1979    280.51558    1.2922987    73.378167   -43.936289    508.07546    11807.123 
    1980    285.11879    1.2472736    72.637715   -44.056814    731.89694    11807.123 
    1981    291.23278    1.2196932    70.982436   -44.192393    903.22979    11807.123 
    1982     296.9151    1.2070697    69.202603   -44.323921    1006.5424    11807.123 
    1983    300.32153    1.2073275    68.074911   -44.432511    1035.1737    11807.123 
    1984     300.3967    1.2166302    68.058427   -44.506867    992.70541    11807.123 
    1985    297.26448    1.2304577    69.117388   -44.547427    883.52767    11807.123 
    1986    292.16508    1.2441944    70.742083   -44.567248    723.00797    11807.123 
    1987    286.97624    1.2533754    72.156527   -44.585674    531.67702    11807.123 
    1988    283.49806    1.2554136    72.627877   -44.620943    333.50998    11807.123 
    1989    282.78998    1.2481308    71.755244   -44.683769    142.65103    11807.123 
    1990    284.80219    1.2303223    69.627373   -44.772607   -33.124062    11807.123 
    1991    288.42668    1.2014074    66.794067   -44.874898   -191.27648    11807.123 
    1992    291.93871    1.1589429    64.066379    -44.97366   -336.09179    11807.123 
    1993    293.64321    1.1047342    62.224659    -45.05077   -477.18063    11807.123 
    1994    292.49397    1.0430441    61.743385   -45.095557   -621.75985    11807.123 
    1995    288.46374   0.97965858    62.630964   -45.107642   -774.77783    11807.123 
    1996    282.53019   0.92179357     64.43996    -45.09671   -938.07706    11807.123 
    1997    276.29869   0.87674856    66.441262   -45.077745   -1108.9084    11807.123 
    1998     271.3966   0.84723484    67.897784   -45.068809   -1285.2489    11807.123 
    1999    268.86667   0.83453075    68.338887   -45.079431   -1463.2924    11807.123 
2000        0.63993995698254413362 10.908812123624914037 0.65343915343915337512 49 -166.88475410335936999
    2000     268.7689   0.83807573    67.735363   -45.110102   -1646.4672    11807.123 
    2001    270.13791   0.86014973    66.515066   -45.150456   -1835.2909    11807.123 
    2002    271.33628   0.90200341    65.408663   -45.182929   -2028.6594    11807.123 
    2003    270.65505   0.96312704    65.182721   -45.188883   -2223.7923    11807.123 
    2004    266.95075    1.0405265    66.357195    -45.15534   -2411.2721    11807.123 
    2005    260.08819    1.1305415    69.008447   -45.078838   -2578.0067    11807.123 
    2006    251.03871    1.2293605    72.726375   -44.966405   -2704.0176    11807.123 
    2007    241.60106     1.334081    76.737354   -44.833148   -2765.6855    11807.123 
    2008    233.85459    1.4433816     80.14601   -44.695547    -2744.705    11807.123 
    2009    229.53066    1.5564587    82.210704   -44.565835   -2625.6461    11807.123 
    2010    229.51131    1.6728862    82.559214   -44.448178   -2404.1807    11807.123 
    2011    233.61397    1.7929459    81.277693   -44.336552   -2083.4805    11807.123 
    2012    240.70578    1.9178189    78.853721   -44.217446   -1675.6156    11807.123 
    2013    249.09159    2.0486461     76.00267   -44.074843   -1199.9219    11807.123 
    2014    257.03001    2.1855334    73.442078   -43.895727   -679.64809    11807.123 
    2015    263.20263    2.3277413    71.689837   -43.674589   -137.26788    11807.123 
    2016    267.00413    2.4745146    70.946811   -43.412662    402.72659    11807.123 
    2017    268.58246    2.6194641    71.092159   -43.119633     917.8265    11807.123 
    2018    268.63903    2.7545237    71.779285   -42.807749    1390.3919    11807.123 
    2019    268.09458    2.8717701     72.58675   -42.488109    1806.0802    11807.123 
    2020    267.75488     2.965006    73.165062   -42.167355    2153.6126    11807.123 
    2021    268.08796     3.031129    73.329265   -41.846441     2424.698    11807.123 
    2022    269.16859    3.0710053    73.074597   -41.521718    2614.2504    11807.123 
    2023    270.77131    3.0896529    72.526093   -41.187655    2720.7804    11807.123 
    2024    272.52775    3.0984345    71.858103   -40.841711    2751.9818    11807.123 
    2025    274.07816     3.120862    71.225983   -40.478765    2712.1058    11807.123 
    2026    275.16943    3.1718617    70.736171   -40.101214    2608.0663    11807.123 
    2027    275.66173    3.2561105    70.456201    -39.71271    2453.6308    11807.123 
    2028    275.47258    3.3733733    70.442202   -39.315356    2257.9998    11807.123 
    2029    274.54437    3.5209888    70.755512   -38.908732     2031.952    11807.123 
    2030    272.89203    3.6893117    71.445162   -38.491512    1783.7798    11807.123 
    2031    270.69387    3.8647059    72.501721   -38.061737    1521.9101    11807.123 
    2032    268.37986    4.0318185    73.807913   -37.619125    1253.7991    11807.123 
    2033    266.64912     4.174305    75.121133   -37.166163    988.18959    11807.123 
    2034      266.356    4.2774612    76.112172   -36.708296    728.76637    11807.123 
    2035    268.27589    4.3320258    76.458951   -36.251215    479.43673    11807.123 
    2036    272.82213    4.3332736    75.967114   -35.798968    244.16771    11807.123 
    2037     279.8143    4.2812366    74.670869   -35.350971      22.8824    11807.123 
    2038    288.39814    4.1793221    72.869091   -34.903048   -186.77383    11807.123 
    2039    297.18379    4.0360505    71.070349   -34.445953   -387.94351    11807.123 
    2040    304.58949    3.8604178    69.852172    -33.97192   -586.15356    11807.123 
    2041    309.29436    3.6659839     69.67444      -33.475   -782.79358    11807.123 
    2042    310.65901    3.4679996    70.710231   -32.956267   -973.29628    11807.123 
    2043    308.97032    3.2796148    72.758375    -32.42233   -1147.5348    11807.123 
    2044     305.3846    3.1077445     75.27763   -31.887825   -1299.7464    11807.123 
    2045     301.5691    2.9603481    77.540661   -31.369952   -1415.6152    11807.123 
    2046      299.183    2.8501954    78.856987   -30.878414   -1483.9329    11807.123 
    2047    299.36757    2.7776684    78.790059   -30.421643   -1502.7631    11807.123 
    2048    302.39651    2.7355445    77.295414   -29.997853   -1470.1538    11807.123 
    2049    307.58764    2.7171018    74.733954   -29.597384   -1397.2107    11807.123 
    2050    313.52257    2.7206917    71.758789   -29.208099   -1292.6811    11807.123 
    2051    318.49035    2.7526768     69.11909    -28.81708   -1170.3076    11807.123 
    2052    321.00492    2.8197661    67.448037   -28.415205   -1044.5655    11807.123 
    2053    320.21528    2.9194466      67.1024   -28.004371   -929.79961    11807.123 
    2054    316.08836    3.0515981    68.096471   -27.589012   -833.53152    11807.123 
    2055    309.37307     3.209483     70.13587   -27.177861   -751.17047    11807.123 
    2056    301.35877    3.3848947    72.723411   -26.779291   -681.39235    11807.123 
    2057    293.54152    3.5712604    75.292442   -26.399675   -616.35819    11807.123 
    2058    287.31615    3.7601773    77.325402   -26.042205   -545.36249    11807.123 
    2059    283.73148    3.9460026    78.433887   -25.705714   -458.13152    11807.123 
    2060    283.34855    4.1245334    78.400767   -25.387162   -344.65925    11807.123 
    2061    286.18909    4.2893823    77.198958   -25.082135   -194.32837    11807.123 
    2062    291.72653    4.4315515    75.001295   -24.787894   -5.2471022    11807.123 
    2063    298.92081     4.545514    72.181714    -24.50179    226.15007    11807.123 
    2064    306.33149     4.631732    69.293672   -24.217747    490.92489    11807.123 
    2065    312.32868    4.6891081    67.004565   -23.931076    775.44087    11807.123 
    2066    315.40755    4.7168313    65.972787   -23.635432    1066.2687    11807.123 
    2067    314.56494    4.7153963    66.678516   -23.324969    1348.7373    11807.123 
    2068    309.65612    4.6873008    69.249008   -22.996926     1608.877    11807.123 
    2069     301.6005    4.6371329    73.341981   -22.653839    1836.4042    11807.123 
    2070    292.30633    4.5697423    78.151301   -22.307382    2022.4205    11807.123 
    2071    284.25909    4.4963107      82.5679   -21.973057    2158.7078    11807.123 
    2072    279.85009    4.4303631    85.473767   -21.668056    2239.5166    11807.123 
    2073    280.62702     4.385297    86.088173   -21.403959    2258.2102    11807.123 
    2074    286.71737    4.3727473     84.24757   -21.181078    2207.3481    11807.123 
    2075    296.66207    4.3999774      80.5082   -20.986807    2075.3065    11807.123 
    2076    307.76245    4.4680526    76.015434   -20.798951    1852.4245    11807.123 
    2077    316.86477    4.5719464    72.166197   -20.592948    1533.4138    11807.123 
    2078      321.345    4.7013231    70.168579   -20.350168    1121.4062    11807.123 
    2079    319.96105    4.8439462    70.645665   -20.064936     633.4639    11807.123 
    2080    313.30702    4.9837479    73.421069    -19.74156     101.4016    11807.123 
    2081    303.63672    5.0936703    77.567748   -19.409139   -437.38078    11807.123 
    2082    294.13166    5.1745179    81.706447   -19.090169   -948.62527    11807.123 
    2083    287.89399     5.225492     84.46092   -18.810591   -1393.1146    11807.123 
    2084    286.93164    5.2477174    84.919885   -18.584409     -1738.89    11807.123 
    2085    291.49764    5.2437278    82.944625   -18.408822   -1966.8119    11807.123 
    2086    300.03282     5.216647     79.20918   -18.264286    -2071.648    11807.123 
    2087    309.73433    5.1730559     74.95159    -18.12198   -2058.5298    11807.123 
    2088    317.58328    5.1206401    71.519924   -17.952967   -1951.1964    11807.123 
    2089    321.44665    5.0621649    69.878799   -17.740381   -1773.2496    11807.123 
    2090    320.81569    5.0002961    70.265714   -17.485559   -1548.1277    11807.123 
    2091    316.91471    4.9385055    72.132692      -17.208    -1296.403    11807.123 
    2092    312.12418    4.8817612    74.399697   -16.938197   -1035.3719    11807.123 
    2093    308.94708     4.836709    75.920094   -16.705798    -780.4243    11807.123 
    2094    308.94143    4.8111898    75.968465   -16.527629   -546.85868    11807.123 
    2095    312.06419    4.8131224    74.547678   -16.400645   -350.65251    11807.123 
    2096    316.70795    4.8487977    72.384171   -16.302719   -206.42365    11807.123 
    2097    320.42108      4.91959    70.609941   -16.202984   -125.22198    11807.123 
    2098    321.00835    5.0241982    70.262673   -16.073037   -112.60036    11807.123 
    2099    317.54858    5.1573118    71.815336   -15.900055    -161.9531    11807.123 
2100        0.62985686958918896128 10.951723749896325799 0.65873015873015872135 52 -156.54960359475398946
    2100    310.88669    5.3094266    74.938144   -15.692092   -255.41408    11807.123 
    2101    303.36771    5.4679947    78.600796   -15.475173   -366.50639    11807.123 
    2102    297.90195    5.6192958    81.481184     -15.2833   -464.19166    11807.123 
    2103    296.73802    5.7520561    82.516818    -15.14245   -521.50106    11807.123 
    2104    300.44845    5.8544238    81.372287    -15.06276   -521.45439    11807.123 
    2105    307.56114    5.9206013    78.623888   -15.028212   -458.36145    11807.123 
    2106    315.02982    5.9436309    75.571502   -15.007143   -339.15488    11807.123 
    2107    319.39387     5.915491    73.739257   -14.960764   -170.49006    11807.123 
    2108    318.17262    5.8309042    74.253902   -14.859914    29.283883    11807.123 
    2109     310.9618    5.6940735    77.347351   -14.695425     247.3579    11807.123 
    2110     299.7986    5.5148845     82.18643   -14.482439    481.29519    11807.123 
    2111    288.58607    5.3069585    87.113296   -14.257084    720.45932    11807.123 
    2112    281.76303    5.0879244    90.221302   -14.062575    960.48101    11807.123 
    2113    282.69846    4.8763681     90.05685   -13.933251    1193.2995    11807.123 
    2114    292.39939    4.6895425    86.185093   -13.880786    1403.4946    11807.123 
    2115    309.02077    4.5395562    79.403457   -13.890371    1566.9652    11807.123 
    2116    328.37216    4.4319662     71.51631   -13.926472    1657.4302    11807.123 
    2117    345.25423    4.3650628    64.747078   -13.946937    1651.6761    11807.123 
    2118    355.15703    4.3298989    60.998029   -13.918235    1537.7525    11807.123 
    2119    355.71595    4.3109535    61.222555   -13.827621    1318.1692    11807.123 
    2120    347.41976    4.2912136     65.13022   -13.684946    1012.7986    11807.123 
    2121    333.34705    4.2534856    71.319594   -13.520289    656.04214    11807.123 
    2122    318.05652    4.1850378    77.778653   -13.372196    289.40962    11807.123 
    2123    306.04742     4.079102      82.5653   -13.276493   -43.181467    11807.123 
    2124    300.33638    3.9390437    84.428109   -13.251413   -305.45101    11807.123 
    2125    301.62469    3.7689308    83.161969   -13.295586   -480.95536    11807.123 
    2126    308.27638    3.5731185    79.595982   -13.387404   -565.64405    11807.123 
    2127    317.05991    3.3580387    75.239534   -13.493158   -567.73593    11807.123 
    2128    324.37108    3.1312414    71.724699   -13.579054   -503.77408    11807.123 
    2129    327.49955    2.8993621     70.24282   -13.622394    -391.0207    11807.123 
    2130    325.49907    2.6706289    71.165702   -13.618579   -246.34328    11807.123 
    2131     319.3987    2.4559762     73.97265   -13.579903   -86.094419    11807.123 
    2132     311.7126    2.2603954    77.496104    -13.53387     77.68863    11807.123 
    2133     305.4304    2.0863898    80.387727   -13.510894    235.60507    11807.123 
    2134    302.88476    1.9349753     81.62781   -13.533679    377.22947    11807.123 
    2135    304.92212    1.8064375    80.887557    -13.60858    489.97299    11807.123 
    2136    310.68323    1.6958888      78.6125   -13.724487    563.80651    11807.123 
    2137    318.02871    1.5988417    75.805523   -13.857533    581.95661    11807.123 
    2138    324.43107    1.5159074     73.60594   -13.980558    538.35355    11807.123 
    2139     327.9772    1.4470127     72.83773   -14.076032    431.13065    11807.123 
    2140    328.05301    1.3937094    73.709342   -14.140366    272.71675    11807.123 
    2141    325.48204    1.3456225    75.775842   -14.189451    98.350761    11807.123 
    2142    322.04622    1.2978873    78.165122   -14.243372   -74.623979    11807.123 
    2143    319.63773    1.2466434    79.968196   -14.327325   -215.99644    11807.123 
    2144    319.43385    1.1897735    80.622757   -14.456198   -301.95809    11807.123 
    2145    321.38941    1.1292738    80.136434   -14.629972   -315.75512    11807.123 
    2146    324.26872    1.0701645    79.064588   -14.834314   -250.51446    11807.123 
    2147    326.18356    1.0197736    78.257499   -15.046173   -108.84738    11807.123 
    2148    325.41364   0.98652666    78.482317   -15.242628    99.649279    11807.123 
    2149    321.17652   0.97847566    80.073067    -15.40944    361.48621    11807.123 
    2150    314.03819    1.0000375    82.750602   -15.547027      664.571    11807.123 
    2151    305.78195    1.0549939    85.689071    -15.66904    993.32401    11807.123 
    2152    298.78314     1.146362    87.808863   -15.798715     1325.098    11807.123 
    2153    295.13415    1.2751194    88.186011   -15.958903    1637.6798    11807.123 
    2154    295.83727     1.441023    86.421543   -16.163585    1907.4025    11807.123 
    2155    300.39916    1.6418075    82.824122   -16.410839     2102.158    11807.123 
    2156    306.98009    1.8684732    78.332231    -16.68568    2190.8467    11807.123 
    2157    313.03316    2.1101957    74.203034   -16.964476    2147.0363    11807.123 
    2158    316.20402    2.3552306    71.584862   -17.224372    1954.7098    11807.123 
    2159    315.14599    2.5922991    71.133142   -17.451564     1609.788    11807.123 
    2160     309.9559    2.8137856    72.806103   -17.644717    1127.0303    11807.123 
    2161    302.10136    3.0144618     75.90276    -17.81491    533.41475    11807.123 
    2162    293.89663    3.1904081     79.31286   -17.980704   -132.86415    11807.123 
    2163    287.72789    3.3395513    81.880846   -18.161817   -825.80994    11807.123 
    2164    285.30126    3.4621422    82.759077   -18.373018   -1498.5905    11807.123 
    2165    287.14484    3.5607931    81.643684   -18.620032   -2108.7968    11807.123 
    2166    292.49725    3.6403364    78.832452   -18.898241   -2621.7688    11807.123 
    2167    299.59607    3.7073768    75.098948    -19.19445   -3013.0966    11807.123 
    2168     306.2686    3.7698516    71.427661   -19.490991    -3268.457    11807.123 
    2169    310.65715    3.8322603     68.69296   -19.768701    -3375.945    11807.123 
    2170    311.82833    3.8819608    67.383145   -20.023508   -3337.0416    11807.123 
    2171    310.03306    3.9161198     67.46504   -20.255373   -3163.0655    11807.123 
    2172    306.56202    3.9363006    68.437795   -20.476841   -2869.0357    11807.123 
    2173    303.23224    3.9441984    69.560434   -20.707518    -2474.865    11807.123 
    2174    301.66635    3.9406321    70.168183   -20.966422   -2007.4145    11807.123 
    2175    302.65162    3.9252107    69.952243   -21.264311   -1500.5018    11807.123 
    2176    305.84554    3.8937475    69.086911   -21.599151   -990.29284    11807.123 
    2177    309.93456    3.8406474     68.15004   -21.957066   -518.98396    11807.123 
    2178    313.18514    3.7625046    67.869427   -22.318908   -124.89392    11807.123 
    2179     314.1628    3.6578743     68.80514   -22.667125    158.46727    11807.123 
    2180    312.30283    3.5267446    71.102773   -22.993789    314.45459    11807.123 
    2181    308.11147      3.37145    74.418562   -23.302004     336.8922    11807.123 
    2182    302.94561    3.1921959    78.038617   -23.604182    237.56338    11807.123 
    2183    298.45584    2.9921209    81.135235   -23.918833    39.539322    11807.123 
    2184     295.9639    2.7861731    83.053391   -24.255814   -231.99354    11807.123 
    2185    296.02719    2.5808386    83.516923   -24.622585   -547.03651    11807.123 
    2186    298.28491    2.3834948    82.690259   -25.016525   -869.71983    11807.123 
    2187     301.6412    2.2027487    81.087668   -25.427654   -1169.9371    11807.123 
    2188    304.70682    2.0429583     79.37341   -25.842038   -1417.0313    11807.123 
    2189    306.30849    1.9033678    78.125761   -26.248612   -1589.9265    11807.123 
    2190    305.89725    1.7862271     77.64468    -26.63956   -1670.8449    11807.123 
    2191    303.74428    1.6949934    77.860141   -27.014847   -1644.9268    11807.123 
    2192    300.85218    1.6326538    78.370645    -27.38232   -1509.0127    11807.123 
    2193    298.59497    1.6000954     78.60344   -27.755988   -1266.6425    11807.123 
    2194    298.19625    1.5976687    78.045482    -28.15137   -931.13899    11807.123 
    2195    300.23295    1.6249103    76.465434   -28.579844    -525.9186    11807.123 
    2196     304.3609    1.6775663    74.040618   -29.042253   -79.015234    11807.123 
    2197    309.35932    1.7455782     71.33041   -29.534451    372.68958    11807.123 
    2198    313.52161     1.830983    69.094031   -30.036934    785.60782    11807.123 
    2199    315.28408    1.9281131    68.015899   -30.531499    1126.7858    11807.123 
2200        0.61393981476699299726 11.01446214612437835 0.64021164021164023161 48 -173.18318424810752276
    2200    313.79809    2.0288055    68.445466   -31.006564    1368.1555    11807.123 
    2201    309.24234    2.1336732    70.254269   -31.457049     1494.969    11807.123 
    2202    302.77084    2.2449634    72.868923    -31.88914    1506.8667    11807.123 
    2203    296.10402    2.3660898    75.464076   -32.315944    1415.2681    11807.123 
    2204    290.93395    2.5010547    77.236814   -32.751958    1240.3217    11807.123 
    2205    288.37228    2.6534251    77.659202   -33.207658    1007.1878    11807.123 
    2206    288.62822    2.8250833     76.62438   -33.686196    742.57281    11807.123 
    2207    290.99996    3.0150929    74.449464   -34.183108    472.38639    11807.123 
    2208    294.14841    3.2205148    71.750636   -34.687548    221.33637    11807.123 
    2209    296.54817    3.4339071    69.242097    -35.18647     7.539646    11807.123 
    2210    296.96857    3.6409573    67.525024   -35.667263   -150.79386    11807.123 
    2211    294.82629    3.8246015    66.925777   -36.122373   -243.01426    11807.123 
    2212    290.33437    3.9738936    67.423868     -36.5481   -263.80225    11807.123 
    2213    284.42456    4.0786875    68.685946   -36.948705    -212.0487    11807.123 
    2214    278.44544    4.1322639    70.194359   -37.333462   -89.952628    11807.123 
    2215    273.73625    4.1323295    71.429458   -37.713194    91.264719    11807.123 
    2216    271.21838    4.0798978    72.044058   -38.096672    314.38556    11807.123 
    2217    271.14203    3.9798617    71.967344   -38.486672    556.94426    11807.123 
    2218    273.07768    3.8403873    71.399401    -38.87955    793.26661    11807.123 
    2219    276.14649    3.6736863    70.700498   -39.265976    1000.7308    11807.123 
    2220     279.3884    3.4912876    70.223761    -39.63754    1150.1531    11807.123 
    2221    282.10383    3.3044084    70.164207    -39.98931    1222.5773    11807.123 
    2222    284.02874    3.1239114    70.488777   -40.322249    1208.7166    11807.123 
    2223    285.29307    2.9559821    70.974587   -40.643547    1106.9513    11807.123 
    2224    286.18645    2.8071609    71.333635   -40.960759    918.43415    11807.123 
    2225    286.88112    2.6821411    71.361097   -41.279673    656.82108    11807.123 
    2226    287.24682    2.5826217    71.040633   -41.600057    336.23361    11807.123 
    2227    286.84009    2.5075522    70.559045   -41.916584   -23.443173    11807.123 
    2228    285.08761     2.455462    70.224251   -42.218874   -402.44485    11807.123 
    2229    281.57781     2.424118    70.322761   -42.496616   -778.04103    11807.123 
    2230    276.33502    2.4110086    70.977178   -42.743213   -1125.6924    11807.123 
    2231    269.95408    2.4136674    72.062516   -42.957838   -1424.5548    11807.123 
    2232    263.52764    2.4286183    73.216816   -43.146548   -1655.8166    11807.123 
    2233    258.37094    2.4548884    73.945077   -43.319936   -1802.8461    11807.123 
    2234    255.64139    2.4934643    73.782813   -43.489912   -1859.5669    11807.123 
    2235    255.97251    2.5461091    72.465153   -43.664079   -1828.3827    11807.123 
    2236    259.23544    2.6103599    70.045441    -43.84622   -1721.7101    11807.123 
    2237    264.51568    2.6827455    66.919831   -44.032279    -1558.087    11807.123 
    2238    270.33183    2.7597151    63.742069   -44.212166   -1361.2182    11807.123 
    2239    275.04837    2.8380304    61.247851   -44.372994    -1156.492    11807.123 
    2240    277.35869    2.9152706    60.039958    -44.50347    -967.2186    11807.123 
    2241    276.68294    2.9903915    60.403022   -44.597959   -811.39612    11807.123 
    2242    273.34331    3.0642244    62.211554   -44.658707   -699.70377    11807.123 
    2243     268.4509    3.1393786    64.965549   -44.695047   -633.91304    11807.123 
    2244    263.53729    3.2188962    67.943546   -44.720796   -609.33453    11807.123 
    2245     260.0512    3.3085632    70.421427     -44.7482   -612.01402    11807.123 
    2246     258.9116    3.4098473    71.880927    -44.78596   -635.96253    11807.123 
    2247    260.24032    3.5220736    72.142812   -44.833953   -673.14946    11807.123 
    2248    263.35367    3.6445432     71.38636   -44.885217   -713.25119    11807.123 
    2249    267.01046     3.775811    70.060077   -44.929995   -745.70149    11807.123 
    2250     269.8144    3.9157913    68.724394   -44.955402   -765.44078    11807.123 
    2251    270.62984    4.0564462    67.884236   -44.954553   -767.42016    11807.123 
    2252    268.88501    4.1888826    67.857004   -44.923809   -745.30452    11807.123 
    2253    264.71669    4.3046717    68.700569   -44.864054   -693.45374    11807.123 
    2254     258.9431    4.3965182     70.20844   -44.780089   -607.60017    11807.123 
    2255    252.87955    4.4589923    71.966312   -44.679718   -485.79209    11807.123 
    2256    248.03491    4.4891541    73.458278   -44.572451   -329.40159    11807.123 
    2257    245.74362    4.4868717    74.204738   -44.467523   -143.95787    11807.123 
    2258    246.80918    4.4546696    73.903781   -44.371296    60.467519    11807.123 
    2259    251.25308    4.3969926    72.537487   -44.284685    270.12224    11807.123 
    2260    258.25284    4.3200922    70.403704   -44.202755    470.21087    11807.123 
    2261    266.32302    4.2319487    68.050038   -44.114438    639.75766    11807.123 
    2262    273.71381     4.137879    66.117272   -44.007262    762.64391    11807.123 
    2263    278.91479    4.0386129    65.139276   -43.868559    830.41234    11807.123 
    2264    281.09209    3.9164089    65.368417   -43.701078    840.80391    11807.123 
    2265    280.27799    3.7674313    66.692704   -43.506508    793.57595    11807.123 
    2266    277.29797    3.5938303    68.676391   -43.296326    700.59223    11807.123 
    2267    273.45736    3.4001569    70.714616   -43.084574    578.87726    11807.123 
    2268     270.0673    3.1918555    72.247971   -42.883814    446.05062    11807.123 
    2269    267.99698    2.9750273    72.958859   -42.700347    319.69531    11807.123 
    2270    267.41268    2.7563692    72.877014   -42.532118    214.06085    11807.123 
    2271    267.80068    2.5429138    72.352675   -42.369484    138.80693    11807.123 
    2272    268.27334    2.3383006    71.904048    -42.19791    102.57479    11807.123 
    2273    268.02192      2.14143    71.992528   -42.006615    104.34205    11807.123 
    2274    266.73766    1.9564298    72.813286   -41.788997     141.9133    11807.123 
    2275    264.84374    1.7880871    74.185221   -41.548239    210.33144    11807.123 
    2276    263.40068    1.6424177    75.594025   -41.297023    307.00296    11807.123 
    2277    263.70501    1.5288571    76.384073   -41.049657     421.1013    11807.123 
    2278    266.72339    1.4502156    76.033573   -40.821187     534.4456    11807.123 
    2279    272.57463    1.4069974    74.405743   -40.617245    627.97271    11807.123 
    2280    280.30074    1.3983129    71.866249   -40.432056    680.11655    11807.123 
    2281    288.06877    1.4226045    69.202987   -40.249585    672.83585    11807.123 
    2282    293.76711     1.477798     67.36059   -40.049779     582.5377    11807.123 
    2283    295.80284    1.5598181    67.078612    -39.81703    400.24459    11807.123 
    2284    293.78302    1.6640955    68.573673    -39.54682    124.96455    11807.123 
    2285    288.78751    1.7864642    71.401096   -39.250165   -227.82658    11807.123 
    2286    283.07613    1.9297253    74.569719   -38.948764   -627.66981    11807.123 
    2287    279.32087    2.0934952    76.885089   -38.670846   -1045.0894    11807.123 
    2288    279.61505    2.2691416    77.400508   -38.437832   -1441.7553    11807.123 
    2289    284.61247    2.4445466    75.801089   -38.257206   -1788.5387    11807.123 
    2290    293.17525    2.6082001    72.566613   -38.117818   -2062.2551    11807.123 
    2291    302.69814    2.7485111    68.834218   -37.994248   -2248.5677    11807.123 
    2292    310.00439    2.8550324    66.001458    -37.85666   -2340.2697    11807.123 
    2293     312.4863     2.924473    65.214137   -37.680936   -2332.2848    11807.123 
    2294    309.08282    2.9571007    66.932013    -37.45892   -2227.9401    11807.123 
    2295    300.71683    2.9545431    70.736598   -37.200651   -2028.6628    11807.123 
    2296    290.01114    2.9225149    75.455939    -36.93083   -1738.1236    11807.123 
    2297    280.40952     2.870468    79.558774   -36.679955   -1365.0027    11807.123 
    2298    275.01962      2.81064    81.673016   -36.473428   -926.15347    11807.123 
    2299     275.5881    2.7566105    81.043517   -36.322641   -448.58387    11807.123 
2300        0.60973285177431058024 11.02760265498797132 0.62962962962962953917 48 -163.96989017147103596
    2300    281.95386    2.7215767    77.773348   -36.221352    31.016809    11807.123 
    2301    292.14445    2.7166673    72.775132   -36.148639    470.11557    11807.123 
    2302    303.06987    2.7471426    67.460809   -36.073525    828.84994    11807.123 
    2303    311.54248    2.7981918    63.283709   -35.976781    1069.8366    11807.123 
    2304    315.25403    2.8645096    61.290944   -35.841225    1166.8315    11807.123 
    2305    313.44132    2.9420987    61.828271   -35.666658    1112.2078    11807.123 
    2306    307.03945    3.0258543    64.483404   -35.466377    917.87896    11807.123 
    2307    298.27497    3.1092489    68.273385   -35.262273    612.21405    11807.123 
    2308    289.87456    3.1845937      71.9994   -35.077258    235.39765    11807.123 
    2309    284.17343    3.2429926    74.641099   -34.928178   -166.23479    11807.123 
    2310    282.42116    3.2775197    75.657175   -34.819461   -549.68332    11807.123 
    2311    284.50615    3.2830549    75.099037    -34.74302   -877.65743    11807.123 
    2312    289.15489    3.2562376    73.515319   -34.681526   -1120.7353    11807.123 
    2313    294.49184    3.1963392    71.699389   -34.615075   -1259.1252    11807.123 
    2314    298.74202    3.1044375    70.382198   -34.528095   -1279.5707    11807.123 
    2315    300.80967    2.9839895    69.984524   -34.415159   -1182.3903    11807.123 
    2316    300.54515    2.8437635    70.511884   -34.280884   -972.92895    11807.123 
    2317    298.64343    2.6954198    71.616706   -34.137417   -664.47481    11807.123 
    2318    296.24696    2.5504947    72.787233   -33.999641   -279.21814    11807.123 
    2319    294.43721    2.4192082    73.576607    -33.87866    154.15152    11807.123 
    2320    293.82803    2.3093716     73.77553   -33.777741     600.8964    11807.123 
    2321    294.42016    2.2226129    73.461857   -33.692215    1025.6047    11807.123 
    2322    295.72845    2.1582631    72.918118   -33.611843    1386.6149    11807.123 
    2323    297.10161    2.1162458     72.46551   -33.526402    1649.9058    11807.123 
    2324    298.07339    2.0948218    72.298551   -33.430432    1789.9668    11807.123 
    2325    298.55964    2.0911775     72.39897   -33.325365     1792.648    11807.123 
    2326    298.82778    2.1019746    72.564165   -33.218112    1656.3307    11807.123 
    2327    299.27866    2.1237871    72.527605   -33.117056    1391.4248    11807.123 
    2328    300.17399    2.1531715    72.105214   -33.026802    1019.9239    11807.123 
    2329    301.45811     2.180603    71.294421   -32.949355    573.57676    11807.123 
    2330    302.74062    2.2018838    70.282204   -32.878931    81.106838    11807.123 
    2331    303.45725    2.2171718    69.365272   -32.808588   -421.12857    11807.123 
    2332    303.12441    2.2277284    68.827775   -32.732635   -896.57509    11807.123 
    2333    301.54473    2.2359426    68.833935   -32.648812   -1311.1389    11807.123 
    2334    298.89081     2.245155    69.376776   -32.558477   -1635.9152    11807.123 
    2335    295.65044    2.2592552    70.292641   -32.465461   -1849.3321    11807.123 
    2336    292.47299    2.2841124    71.323727   -32.373546   -1938.3741    11807.123 
    2337    289.98583     2.326162    72.199469   -32.286289   -1901.5135    11807.123 
    2338     288.6583    2.3829144    72.710324   -32.205103   -1746.5769    11807.123 
    2339    288.67612    2.4472879    72.762858   -32.131013   -1500.0495    11807.123 
    2340    289.87488    2.5176529    72.405947   -32.063118    -1190.566    11807.123 
    2341     291.7767    2.5897011    71.825953   -31.999088   -851.54367    11807.123 
    2342    293.68257     2.657241    71.307437   -31.934881   -517.79747    11807.123 
    2343    294.83441    2.7135541    71.160603   -31.865154   -221.82699    11807.123 
    2344    294.62312    2.7529473    71.627784   -31.784529     9.760172    11807.123 
    2345    292.78996    2.7720843    72.794578   -31.689422    159.23889    11807.123 
    2346    289.55294    2.7707648    74.537453    -31.57957    219.70904    11807.123 
    2347    285.60395    2.7519914     76.53163    -31.45842    195.64206    11807.123 
    2348    281.96431    2.7213629    78.321961   -31.332073    101.91865    11807.123 
    2349    279.73748    2.6859859    79.435916   -31.207346   -38.472367    11807.123 
    2350    279.82947    2.6531831    79.504352   -31.089896    -197.6759    11807.123 
    2351    282.70871    2.6292821    78.358099   -30.983109   -346.64435    11807.123 
    2352     288.2555    2.6187132    76.081373   -30.887792   -458.73433    11807.123 
    2353     295.7131    2.6267977      73.0158   -30.805005   -509.36054    11807.123 
    2354    303.78333    2.6700413    69.713938   -30.724505   -485.38648    11807.123 
    2355    310.88185    2.7465769    66.841315    -30.64223   -384.92505    11807.123 
    2356    315.48051    2.8492567    65.033536   -30.549794   -209.85271    11807.123 
    2357    316.50798    2.9690105    64.727097   -30.438832    27.444563    11807.123 
    2358    313.72746    3.0929484    66.006609   -30.303973    313.63544    11807.123 
    2359     307.9213    3.2034112    68.526962    -30.15085    630.26639    11807.123 
    2360    300.77099    3.2939096    71.561121   -29.988867    955.87338    11807.123 
    2361    294.43058    3.3631407    74.185944    -29.83472    1270.4856    11807.123 
    2362    290.88162    3.4135606    75.563357   -29.705419    1553.5299    11807.123 
    2363     291.2707    3.4507662    75.224475   -29.611553      1783.84    11807.123 
    2364    295.48163    3.4826063    73.249197   -29.552476    1940.4362    11807.123 
    2365    302.11106     3.521429    70.265165   -29.516212     2008.028    11807.123 
    2366     308.8997    3.5805288    67.256759   -29.482304    1969.9629    11807.123 
    2367    313.46031    3.6656328    65.250886   -29.431225    1823.5931    11807.123 
    2368    314.02734    3.7784142    64.991948   -29.350363    1576.0325    11807.123 
    2369    309.99503    3.9170961    66.719071   -29.236194    1249.4806    11807.123 
    2370     302.0652    4.0739827    70.113916   -29.097498    875.79056    11807.123 
    2371    291.99006    4.2431852      74.4199   -28.947276    495.25475    11807.123 
    2372    282.04629    4.4175444    78.673677   -28.800444    152.24111    11807.123 
    2373    274.42092    4.5889071    81.964998   -28.668775    -111.9396    11807.123 
    2374     270.6838    4.7488203    83.650183   -28.558275   -264.68249    11807.123 
    2375    271.46364    4.8892647    83.475026   -28.468552   -286.40344    11807.123 
    2376    276.36813    5.0033255    81.596206   -28.393708   -172.95446    11807.123 
    2377    284.13247    5.0856946    78.513293   -28.324104    64.078967    11807.123 
    2378    292.94597    5.1329249    74.934898   -28.248568    399.10953    11807.123 
    2379    300.88481    5.1434136    71.608182   -28.156782    795.95311    11807.123 
    2380    306.36336    5.1158566    69.146053   -28.041751    1214.9262    11807.123 
    2381      308.481    5.0570684    67.890279   -27.900786    1615.1312    11807.123 
    2382    307.22423    4.9733814    67.844266   -27.738017    1950.1983    11807.123 
    2383    303.42419    4.8654487    68.700084   -27.564375    2189.1833    11807.123 
    2384    298.44024    4.7531428    69.952687   -27.388442    2315.7468    11807.123 
    2385    293.75591    4.6595964    71.067755   -27.222006    2312.0002    11807.123 
    2386    290.59211    4.5916113    71.651456   -27.072775    2166.5355    11807.123 
    2387    289.56509    4.5404109    71.574208   -26.943548    1886.0005    11807.123 
    2388    290.53314    4.4964553    71.005473   -26.828922    1485.7137    11807.123 
    2389    292.71391    4.4470018    70.348106   -26.719157    991.01795    11807.123 
    2390    294.99282    4.3794083    70.093859   -26.603379    433.00992    11807.123 
    2391    296.32118    4.2873448    70.647325   -26.471408   -150.18056    11807.123 
    2392    296.08274    4.1690462    72.175617   -26.318279   -715.67733    11807.123 
    2393    294.29979     4.026629    74.534472   -26.145357   -1219.8091    11807.123 
    2394    291.61205    3.8648725    77.296975   -25.959674   -1622.2931    11807.123 
    2395     289.0386    3.6902859    79.876986   -25.771648   -1889.4145    11807.123 
    2396    287.61601    3.5096567    81.706763   -25.589818   -1999.9982    11807.123 
    2397    288.03457    3.3248303    82.409321   -25.420809   -1951.1054    11807.123 
    2398    290.39741    3.1384462    81.907125   -25.263796   -1755.5007    11807.123 
    2399    294.19879     2.952788    80.429726   -25.112526   -1440.3227    11807.123 
2400        0.61301628653096418287 11.000837274849999403 0.62698412698412697708 49 -160.21305126429143684
    2400    298.52261    2.7702239    78.419261   -24.957496   -1044.8103    11807.123 
    2401    302.38077    2.5938821    76.369636   -24.789776   -615.93353    11807.123 
    2402    305.06283    2.4282725    74.659193   -24.604517   -202.92003    11807.123 
    2403     306.3628    2.2793705    73.438777   -24.403036    148.58246    11807.123 
    2404    306.59619    2.1544809     72.61615   -24.192475    400.53496    11807.123 
    2405    306.40269    2.0618037    71.940759   -23.983225    525.66178    11807.123 
    2406    306.41511    2.0096036     71.15358   -23.784997    508.33843    11807.123 
    2407    306.94924    2.0004534    70.139477   -23.600025    352.82212    11807.123 
    2408    307.80981    2.0270675    69.014501      -23.431    79.625477    11807.123 
    2409    308.33249    2.0888135     68.10783   -23.269194   -300.88817    11807.123 
    2410     307.6882    2.1827834    67.830261   -23.101551   -759.42607    11807.123 
    2411    305.29168    2.3059681    68.481864   -22.917426   -1249.8321    11807.123 
    2412    301.18094    2.4517953    70.076794   -22.712444    -1724.961    11807.123 
    2413    296.16962    2.6093939    72.267068   -22.490783   -2131.2409    11807.123 
    2414    291.67277     2.766929     74.41179   -22.264516   -2416.9347    11807.123 
    2415    289.24998    2.9152446    75.781236   -22.048113   -2538.2358    11807.123 
    2416    290.02494    3.0457048    75.826688   -21.853903   -2469.4133    11807.123 
    2417    294.19938    3.1508397    74.412523   -21.685505   -2202.0014    11807.123 
    2418     300.8647    3.2253959    71.912838   -21.535709   -1748.3553    11807.123 
    2419    308.22302     3.266083    69.120822   -21.388449   -1140.1315    11807.123 
    2420    314.16654    3.2712566    66.989389   -21.224474   -423.86583    11807.123 
    2421    317.01837    3.2423639    66.289092   -21.028859    347.70617    11807.123 
    2422    316.17298    3.1840636    67.307817   -20.796155    1115.7196    11807.123 
    2423     312.3828    3.1010553    69.708425   -20.534627    1826.7793    11807.123 
    2424    307.53883    3.0010458    72.611587   -20.265223    2437.3277    11807.123 
    2425    304.00223    2.9030238    74.889305   -20.009573    2913.2203    11807.123 
    2426    303.72361    2.8206557    75.573948   -19.790346     3225.245    11807.123 
    2427    307.44291    2.7648482    74.237003   -19.616914     3356.951    11807.123 
    2428    314.28349    2.7453517    71.190146   -19.482345    3301.4612    11807.123 
    2429    321.95285     2.769272    67.417984   -19.365146    3062.5644    11807.123 
    2430    327.51628    2.8389274    64.250817   -19.233571    2663.6236    11807.123 
    2431    328.48141    2.9319139    62.887955   -19.069446    2134.6113    11807.123 
    2432    323.73954    3.0331438    63.953489   -18.858656    1512.7341    11807.123 
    2433    314.04967    3.1317663    67.251925   -18.607288    854.71138    11807.123 
    2434    301.88985    3.2163141    71.817904   -18.336748    226.67833    11807.123 
    2435    290.66662    3.2767657    76.243337   -18.076799   -313.49463    11807.123 
    2436    283.59754    3.3096975    79.156755   -17.852374   -716.62809    11807.123 
    2437    282.67562    3.3138574    79.680204   -17.675977   -949.32752    11807.123 
    2438    288.05666    3.2893851    77.704923   -17.543112   -1002.1041    11807.123 
    2439    298.05948    3.2388811     73.90052   -17.434079   -887.44802    11807.123 
    2440    309.75538    3.1679299    69.468863   -17.320806    -637.1463    11807.123 
    2441    319.94004    3.0794534    65.738184   -17.175124   -292.01951    11807.123 
    2442     326.1371    2.9620263    63.737794   -16.987234    96.070105    11807.123 
    2443    327.29845    2.8182218     63.89022   -16.753129    473.75841    11807.123 
    2444    324.03969    2.6539393     65.91217   -16.485621    799.10212    11807.123 
    2445    318.34605    2.4754925    68.947438   -16.207285    1040.3431    11807.123 
    2446    312.82859    2.2912547     71.88121   -15.946394    1179.5163    11807.123 
    2447    309.80774    2.1290171    73.726963   -15.716338    1209.7225    11807.123 
    2448    310.58417    2.0004486    73.951479   -15.527964    1120.4355    11807.123 
    2449    315.07489     1.905615    72.630529   -15.375615    915.52647    11807.123 
    2450    321.91211    1.8416028    70.385545   -15.242244     606.5537    11807.123 
    2451    329.00288    1.8044583     68.12915   -15.106585    212.96917    11807.123 
    2452    334.30188    1.7907193    66.721806   -14.951647    -237.5473    11807.123 
    2453    336.49673    1.7981541    66.673786   -14.770989     -709.858    11807.123 
    2454    335.35793     1.825614    68.002428   -14.570206   -1163.8995    11807.123 
    2455    331.67376    1.8657965    70.284452   -14.362961   -1552.6899    11807.123 
    2456    326.80786    1.9101582    72.861475   -14.166347   -1846.2989    11807.123 
    2457    322.13867    1.9584153    75.094799   -13.990567   -2017.3299    11807.123 
    2458    318.63707    2.0070254    76.564406   -13.839043    -2054.624    11807.123 
    2459    316.67677    2.0513152    77.148033   -13.707022   -1960.7137    11807.123 
    2460    316.11085    2.0844811     76.97595   -13.585749   -1751.7523    11807.123 
    2461    316.52178    2.0949151    76.309621   -13.465634   -1450.2183    11807.123 
    2462    317.46288    2.0698141    75.413326    -13.34524   -1092.9023    11807.123 
    2463    318.61849      2.01669    74.467145   -13.219868   -717.62483    11807.123 
    2464    319.87136    1.9431578    73.543155   -13.093958   -363.82661    11807.123 
    2465    321.24054    1.8627116    72.639808    -12.97012    -65.73142    11807.123 
    2466    322.75995    1.7856437     71.74462   -12.853048     148.4237    11807.123 
    2467    324.36216    1.7201728    70.892593   -12.745061    260.34428    11807.123 
    2468    325.81861    1.6716801     70.19543   -12.646141     261.7467    11807.123 
    2469    326.76689    1.6421195    69.829423   -12.554112    155.02967    11807.123 
    2470    326.81528    1.6300695    69.985631   -12.465529   -46.768196    11807.123 
    2471      325.695    1.6293407    70.799369   -12.375937   -315.93134    11807.123 
    2472    323.38078    1.6303329    72.284632   -12.285789   -620.13073    11807.123 
    2473    320.15389    1.6330025    74.296294   -12.193854   -929.59508    11807.123 
    2474    316.59435    1.6360714    76.537724   -12.102364     -1149.53     12417.71 
    2475    313.46272    1.6361807    78.616327   -12.015685    -1354.325     12417.71 
    2476     311.5111    1.6306514    80.130843   -11.938247     -1472.09     12417.71 
    2477    311.28619    1.6185741     80.76579    -11.87371   -1485.6365     12417.71 
    2478    312.97807    1.6025594    80.368388   -11.823215   -1389.8574     12417.71 
    2479    316.35093    1.5858447    78.991513   -11.786873   -1193.9606     12417.71 
    2480    320.76097    1.5721957     76.89661   -11.763032   -917.61293     12417.71 
    2481    325.25445    1.5652408    74.517545   -11.748722   -589.76483     12417.71 
    2482    328.73966     1.567347    72.387982   -11.739595   -245.08692     12417.71 
    2483    330.22349    1.5773237     71.03577   -11.729515    82.525365     12417.71 
    2484    329.07421    1.5896429    70.854325   -11.713944    359.09705     12417.71 
    2485    325.26013    1.6060837    71.973853     -11.6864    565.57862     12417.71 
    2486    319.51154    1.6244757    74.172384   -11.647768    678.63984     12417.71 
    2487    313.29419    1.6413035    76.869457   -11.603311    692.49089     12417.71 
    2488    308.53148    1.6491573    79.232959   -11.565602    616.73175     12417.71 
    2489    307.09029    1.6425671    80.395775   -11.550992    461.95337     12417.71 
    2490    310.16168    1.6221745    79.731636   -11.575033    247.62945     12417.71 
    2491    317.74307    1.5902972    77.106543   -11.646811    -5.270212     12417.71 
    2492    328.39685     1.550625    73.012141   -11.764819   -277.17425     12417.71 
    2493    339.43717    1.5078326    68.512512   -11.916022   -551.36604     12417.71 
    2494    347.56088    1.4671648    64.990935   -12.078574   -813.80849     12417.71 
    2495    349.78643     1.434014    63.751172   -12.227463   -1051.7391     12417.71 
    2496    344.43276    1.4145034    65.586149   -12.342294   -1249.3254     12417.71 
    2497    331.82792      1.41609    70.453999   -12.412114    -1391.508     12417.71 
    2498    314.47144    1.4414123    77.384574   -12.443907   -1465.9486     12417.71 
    2499    296.51428    1.4911231    84.678546   -12.460738   -1458.4608     12417.71 
2500        0.60323228620187763216 11.031975061722759435 0.62169312169312163086 50 -140.56366561487016043
    2500    282.65443    1.5616149    90.367949   -12.497712   -1358.4851     12417.71 
    2501    276.73812     1.648606    92.812636   -12.590031   -1170.9841     12417.71 
    2502    280.50868    1.7489888    91.244654   -12.760283   -911.24186     12417.71 
    2503    292.94001    1.8594767     86.06928    -13.00919    -607.4461     12417.71 
    2504    310.41776    1.9779523    78.797502   -13.314356   -295.92128     12417.71 
    2505     327.7871    2.1038878    71.604124    -13.63551   -18.287134     12417.71 
    2506    339.95051    2.2346282    66.641599   -13.933147    190.51068     12417.71 
    2507    343.50854    2.3772047    65.333936   -14.172479    307.30793     12417.71 
    2508    337.90804    2.5297409    67.891644   -14.345132    325.71057     12417.71 
    2509    325.65625    2.6866154     73.22473    -14.46643    261.06062     12417.71 
    2510    311.51077    2.8398161    79.293647   -14.573073      143.958     12417.71 
    2511    300.92406    2.9789317    83.783597   -14.711798     14.12912     12417.71 
    2512    298.25039       3.0905    84.875169   -14.926944   -91.527775     12417.71 
    2513     305.3142    3.1655802    81.851413   -15.242375   -145.25207     12417.71 
    2514    320.81263    3.1994106    75.338106   -15.657399   -135.09131     12417.71 
    2515    340.73185    3.1937291    67.102614   -16.147652   -61.266605     12417.71 
    2516    359.61999    3.1549763    59.486638   -16.675357     65.46217     12417.71 
    2517    372.27312    3.0931013    54.669894   -17.202134     229.1937     12417.71 
    2518    375.27901    3.0198807     54.01049   -17.699865    414.42636     12417.71 
    2519    367.92739     2.949472    57.670824   -18.157487    612.59208     12417.71 
    2520    352.23603    2.9034489    64.632018   -18.580875    822.84241     12417.71 
    2521    332.18064     2.905943    73.064957   -18.985733      1035.99     12417.71 
    2522    312.42291       2.9655    80.912893   -19.398969    1245.4015     12417.71 
    2523    296.94451    3.0840454    86.489042   -19.843746    1442.9345     12417.71 
    2524    288.03423    3.2614685    88.901681    -20.33308    1617.9887     12417.71 
    2525    285.92067    3.4930601    88.192555   -20.865822    1747.8209     12417.71 
    2526    289.06799    3.7674363     85.17812   -21.427867     1811.014     12417.71 
    2527    294.94271    4.0712214    81.079452    -21.99836    1787.7568     12417.71 
    2528    300.95953    4.3900833    77.086856   -22.558447    1667.1623     12417.71 
    2529    305.26574     4.713111    74.010676   -23.095482    1448.1397     12417.71 
    2530    307.13916     5.025452    72.122844   -23.610044    1137.9858     12417.71 
    2531    306.91716    5.3100715    71.214309   -24.110875    758.25484     12417.71 
    2532    305.56513    5.5487049    70.810538   -24.611498    338.47713     12417.71 
    2533    304.12316    5.7258632    70.435527   -25.122388   -89.557652     12417.71 
    2534    303.26929    5.8295313    69.812433   -25.647611   -492.57197     12417.71 
    2535     303.1516     5.851481    68.931556   -26.183907    -841.4799     12417.71 
    2536      303.496    5.7883428    67.982834   -26.723086   -1113.2292     12417.71 
    2537    303.88354    5.6418734    67.207514   -27.256505   -1291.4779     12417.71 
    2538    304.03343    5.4189641     66.74975   -27.779108    -1366.378     12417.71 
    2539    303.95426     5.131317    66.576852   -28.291188   -1336.9543     12417.71 
    2540    303.90712    4.7940979    66.497832   -28.797799    -1208.303     12417.71 
    2541    304.21109    4.4248917    66.264836   -29.306806   -994.18733     12417.71 
    2542     304.9942    4.0447588    65.708438   -29.823956   -715.86836     12417.71 
    2543    306.01044     3.675123    64.847758   -30.350866   -399.38802     12417.71 
    2544    306.60779    3.3360419    63.928313   -30.883077   -74.451931     12417.71 
    2545    305.87138    3.0469315    63.367662   -31.410862    231.43209     12417.71 
    2546    302.92393    2.8250718    63.621928   -31.919292    488.53597     12417.71 
    2547    297.28215    2.6780065    65.014595   -32.395218    673.13685     12417.71 
    2548    289.13489     2.608119    67.584638   -32.828996    771.16668     12417.71 
    2549     279.4456    2.6148437     71.00814   -33.219819    780.70813     12417.71 
    2550    269.82404    2.7015693    74.629759   -33.571707    707.14142     12417.71 
    2551     262.1834    2.8628563    77.606581   -33.900103    562.34105     12417.71 
    2552     258.2309    3.0900927    79.134353   -34.223362    368.32305     12417.71 
    2553    258.94652    3.3702431    78.694752   -34.557723     147.2554     12417.71 
    2554    264.21282    3.6843294    76.245737   -34.912371   -83.113859     12417.71 
    2555    272.73115    4.0121064      72.2834   -35.285271   -303.95484     12417.71 
    2556    282.30366    4.3334589     67.73895    -35.66394   -498.15917     12417.71 
    2557    290.42834    4.6309988    63.726939   -36.028194   -653.17109     12417.71 
    2558    295.04004    4.8885903    61.215736   -36.359053   -757.88652     12417.71 
    2559    295.14249     5.100079    60.726751   -36.644958   -797.56282     12417.71 
    2560    291.14488    5.2717097    62.166324   -36.882203   -765.63392     12417.71 
    2561    284.76607    5.4053857    64.852638   -37.084102   -656.40413     12417.71 
    2562    278.47851    5.5082023    67.737875   -37.271924   -463.75264     12417.71 
    2563    274.69929    5.5929589    69.753339    -37.46865   -191.75188     12417.71 
    2564    274.99837    5.6722384     70.16256    -37.69245    145.59172     12417.71 
    2565    279.57094    5.7565433    68.805639   -37.949526    527.16065     12417.71 
    2566    287.14848    5.8519557    66.154258   -38.233622    921.71479     12417.71 
    2567     295.3795     5.962979    63.160154   -38.526585     1292.567     12417.71 
    2568    301.56322    6.0917849    60.946699   -38.805508    1603.8917     12417.71 
    2569    303.51223    6.2365785    60.442989   -39.047502    1828.1953     12417.71 
    2570    300.25364    6.3843357    62.077091   -39.244403    1944.9733     12417.71 
    2571    292.33766    6.5329478    65.626402    -39.39395    1943.9976     12417.71 
    2572    281.69134    6.6834944     70.27178   -39.507683     1831.328     12417.71 
    2573    271.06082    6.8333024     74.83881   -39.605527    1625.9525     12417.71 
    2574    263.18335    6.9748321    78.149673    -39.71136    1347.6567     12417.71 
    2575    259.96052    7.1041293      79.3755   -39.841078    1020.7907     12417.71 
    2576    261.92398    7.2156291    78.271147   -39.999661    669.49812     12417.71 
    2577     268.1477    7.3012738    75.217837   -40.178661    315.60612     12417.71 
    2578    276.61827    7.3478593    71.067156   -40.361779   -22.563019     12417.71 
    2579    284.91472    7.3421257    66.850484   -40.528268   -330.89891     12417.71 
    2580     290.9539    7.2674703    63.462123   -40.665287   -596.44628     12417.71 
    2581    293.54409    7.1122618    61.426679   -40.766953   -807.98074     12417.71 
    2582    292.58574     6.868297      60.8193   -40.838806   -954.43147     12417.71 
    2583    288.90159    6.5368435    61.341344   -40.892075   -1025.2411     12417.71 
    2584    283.82654    6.1278314    62.496711   -40.938494   -1016.9274     12417.71 
    2585    278.73885    5.6549169    63.786713   -40.987464   -929.48373     12417.71 
    2586    274.68659    5.1374574    64.852528   -41.042567   -768.46595     12417.71 
    2587    272.21286    4.5986796    65.531068   -41.102303   -545.29322     12417.71 
    2588    271.37091    4.0633392    65.832578   -41.162695   -275.57474     12417.71 
    2589     271.8546    3.5577041    65.876546   -41.218385    22.714077     12417.71 
    2590    273.16258    3.1025191    65.827137   -41.266661    326.82081     12417.71 
    2591    274.72186    2.7112134    65.855104   -41.306289    616.50469     12417.71 
    2592    275.95014    2.3902371     66.12853   -41.336821    873.50094     12417.71 
    2593    276.30132    2.1383933    66.814393   -41.355425    1084.7288     12417.71 
    2594    275.32534    1.9397822    68.066416   -41.363485    1246.0653     12417.71 
    2595    272.74959    1.7904575    69.983354   -41.353052    1342.3052     12417.71 
    2596    268.65139     1.682814    72.535505   -41.319854    1376.8907     12417.71 
    2597    263.59322     1.611427    75.494629   -41.261391    1349.7557     12417.71 
    2598    258.64985    1.5765933    78.405916   -41.179458    1274.3169     12417.71 
    2599    255.26691    1.5738824     80.64405   -41.085618    1163.4906     12417.71 
2600        0.59147667626762434612 11.038710299005989768 0.60846560846560837632 49 -156.48126690723842103
    2600    254.89804    1.6071999    81.560995   -40.991264    1032.0616     12417.71 
    2601    258.53956    1.6795627    80.693977   -40.908511     895.8439     12417.71 
    2602    266.29645    1.7916901    77.963436   -40.843679    767.89059     12417.71 
    2603     277.1639    1.9412235    73.776941   -40.792832    654.40287     12417.71 
    2604    289.15065    2.1187837    68.980122   -40.745629    557.31722     12417.71 
    2605    299.74732    2.3177443    64.648308   -40.683941    470.55826     12417.71 
    2606    306.63099    2.5306231    61.777179   -40.591274    392.72719     12417.71 
    2607     308.3682     2.747286    60.975442   -40.459182    319.67187     12417.71 
    2608    304.86725    2.9564285    62.268732   -40.289581     252.7961     12417.71 
    2609    297.41979    3.1478242    65.085415   -40.094277    194.58921     12417.71 
    2610    288.31585    3.3134222    68.431392   -39.891988    150.39618     12417.71 
    2611    280.16812    3.4464271       71.194    -39.70207    126.06875     12417.71 
    2612    275.15334    3.5418603    72.475532   -39.538783    125.27284     12417.71 
    2613    274.40755    3.5971499    71.852769      -39.407    147.55591     12417.71 
    2614    277.74444    3.6117571    69.488955   -39.301094    188.83259     12417.71 
    2615    283.75589    3.5867654    66.073825   -39.207347    237.57794     12417.71 
    2616    290.24174    3.5253302     62.61897   -39.108385    281.15977     12417.71 
    2617    294.83774    3.4346104    60.171244   -38.986803    307.61494     12417.71 
    2618    295.67496    3.3212096    59.523866   -38.831221    304.40507     12417.71 
    2619    291.89262    3.1899422    61.000439   -38.637724    265.60882     12417.71 
    2620    283.86941    3.0444709    64.366985    -38.41062    191.22509     12417.71 
    2621    273.12961     2.887556    68.891194   -38.161064    86.819093     12417.71 
    2622    261.95306     2.721665    73.530688   -37.904026   -38.095614     12417.71 
    2623    252.79645    2.5497119    77.198996   -37.654147   -172.49233     12417.71 
    2624    247.67959    2.3756897    79.038564   -37.421483   -306.43472     12417.71 
    2625    247.69505    2.2050052     78.63032   -37.208421    -433.1733     12417.71 
    2626    252.76091    2.0443942    76.088622   -37.008834   -550.21466     12417.71 
    2627    261.66968    1.9013754    72.022305   -36.809798   -659.12828     12417.71 
    2628    272.41084    1.7832857    67.376887   -36.595255   -764.18682     12417.71 
    2629    282.68022    1.6960485    63.200579   -36.350367   -870.22598     12417.71 
    2630    290.45332    1.6423904    60.392289   -36.064137   -978.96533     12417.71 
    2631     294.4807    1.6140607    59.492076   -35.736454   -1088.0631     12417.71 
    2632    294.56299     1.604496    60.565212   -35.371769   -1195.1986     12417.71 
    2633    291.56019    1.6071373    63.207969   -34.981458   -1289.1704     12417.71 
    2634    287.12062    1.6125645    66.674991   -34.584406   -1354.8298     12417.71 
    2635    283.18782    1.6209141    70.095792   -34.193607    -1382.498     12417.71 
    2636    281.44398    1.6274347    72.720446   -33.821293   -1363.5444     12417.71 
    2637    282.83396    1.6224593    74.122926   -33.471861   -1289.2536     12417.71 
    2638    287.30522    1.5986762    74.298587   -33.138308   -1161.5948     12417.71 
    2639     293.8631    1.5483383    73.625721   -32.810848   -987.02737     12417.71 
    2640    300.91307    1.4713021    72.711063   -32.474134   -778.49037     12417.71 
    2641    306.76149    1.3711446    72.176407   -32.116808   -549.62795     12417.71 
    2642    310.11412    1.2538495    72.460108   -31.734049   -314.32126     12417.71 
    2643    310.41124    1.1270338    73.695881    -31.32853   -84.900437     12417.71 
    2644    307.92154   0.99885237    75.697794   -30.908837     128.7913     12417.71 
    2645    303.59758   0.87681366    78.042095   -30.486379    319.43334     12417.71 
    2646    298.76425   0.76678751    80.208317   -30.072052    481.59346     12417.71 
    2647     294.7464   0.67243415    81.731014   -29.673519    610.80895     12417.71 
    2648    292.54176   0.59517768    82.318016   -29.293973    703.02512     12417.71 
    2649    292.60234   0.54532973    81.905779   -28.930313    758.94496     12417.71 
    2650    294.82536   0.53043044    80.642457   -28.576992    770.75265     12417.71 
    2651    298.69083   0.55395894    78.811663   -28.224952    734.68723     12417.71 
    2652    303.46812   0.61787992    76.730254   -27.867881    645.41981     12417.71 
    2653    308.44758   0.71974029    74.660301    -27.50303    503.56806     12417.71 
    2654    313.06838   0.85597788    72.771054   -27.132747    315.03262     12417.71 
    2655    316.93159    1.0248853    71.160177   -26.761592    87.342288     12417.71 
    2656    319.73736    1.2220813     69.91087   -26.395212   -166.76331     12417.71 
    2657    321.21178    1.4430529    69.139779   -26.036095   -438.05104     12417.71 
    2658    321.11667    1.6839834    68.993618   -25.682824   -711.49677     12417.71 
    2659    319.38176    1.9400483     69.57956    -25.33121   -973.78753     12417.71 
    2660    316.29097    2.2056889    70.858414   -24.978412   -1208.2822     12417.71 
    2661    312.60762    2.4751136    72.564843   -24.624914   -1398.9229     12417.71 
    2662    309.50839    2.7378781    74.219275   -24.278816   -1532.4792     12417.71 
    2663    308.27274    2.9822171    75.257776   -23.951577   -1597.8393     12417.71 
    2664    309.81539     3.196938    75.243322   -23.653563   -1588.5797     12417.71 
    2665    314.25503    3.3729492    74.070894   -23.388579   -1505.1278     12417.71 
    2666    320.72415    3.5045467    72.067774   -23.151086   -1355.2649     12417.71 
    2667    327.54185    3.5901675    69.928946   -22.927701   -1153.0243     12417.71 
    2668    332.71835    3.6325043     68.49817   -22.702338   -916.17627     12417.71 
    2669    334.61548    3.6378998    68.473565   -22.462177   -662.52702     12417.71 
    2670    332.52019    3.6118037    70.149815   -22.203665   -405.99767     12417.71 
    2671    326.90678    3.5611686    73.294252    -21.93226   -160.76392     12417.71 
    2672      319.301    3.4945117    77.201793   -21.661193    65.357562     12417.71 
    2673     311.8099    3.4191539    80.905904   -21.406873     267.6512     12417.71 
    2674    306.46675    3.3401164    83.473549    -21.18364    442.62422     12417.71 
    2675     304.6061    3.2596265     84.28849   -20.999305    586.20882     12417.71 
    2676    306.46071     3.177437    83.235838   -20.852762    693.19027     12417.71 
    2677    311.08746    3.0950929    80.733937   -20.735804    760.59177     12417.71 
    2678    316.66293    3.0213561    77.606263   -20.629554    779.42469     12417.71 
    2679     321.0596    2.9557753    74.831618   -20.518698    744.55703     12417.71 
    2680    322.50773    2.8953486    73.249102   -20.387337    658.62601     12417.71 
    2681    320.14408     2.827162    73.305824   -20.233804    526.46698     12417.71 
    2682    314.27999    2.7517841    74.922723     -20.0583    361.72601     12417.71 
    2683    306.33538    2.6725616    77.519354   -19.871234    183.42022     12417.71 
    2684    298.44381    2.5921266    80.190172   -19.688145    14.771658     12417.71 
    2685    292.82665    2.5120095    81.980546   -19.524915   -121.28478     12417.71 
    2686    291.13642     2.432461    82.178633   -19.392775   -205.69995     12417.71 
    2687    293.96714    2.3526626    80.534662   -19.294663   -226.10862     12417.71 
    2688    300.67856    2.2712453    77.341539   -19.224291   -178.19766     12417.71 
    2689    309.58465    2.1869634    73.353447   -19.168283   -65.418405     12417.71 
    2690    318.44638    2.0993218     69.56854   -19.110541     102.7297     12417.71 
    2691    325.11873    2.0089504    66.942145   -19.037271    313.25162     12417.71 
    2692    328.15709    1.9175891    66.116604   -18.941093    552.27703     12417.71 
    2693    327.20235    1.8276761    67.247936   -18.823136    807.03369     12417.71 
    2694    323.03154    1.7416817    69.979824   -18.692629    1066.7203     12417.71 
    2695    317.26592     1.661436    73.569754    -18.56408    1322.2162     12417.71 
    2696    311.83639    1.5877193     77.12406   -18.452823    1564.9667     12417.71 
    2697    308.38239    1.5203224    79.864556   -18.370304    1785.6528     12417.71 
    2698    307.77559    1.4586486    81.341657   -18.320648    1973.3109     12417.71 
    2699    309.90496    1.4039567     81.52992   -18.301605     2117.352     12417.71 
2700        0.59385192591707158805 11.03268433148159744 0.60317460317460314112 49 -160.4679500214400889
    2700    313.78231    1.3706544    80.783253   -18.298481    2205.9464     12417.71 
    2701       317.94    1.3671128    79.672361   -18.299329    2224.0918     12417.71 
    2702    320.94882    1.4003976    78.764697   -18.291974     2163.683     12417.71 
    2703    321.88236    1.4786634    78.422574   -18.268589    2023.3051     12417.71 
    2704    320.60865    1.6045628     78.68387   -18.230788    1808.6847     12417.71 
    2705    317.79559    1.7815895    79.262397   -18.185077    1527.7447     12417.71 
    2706    314.64583    2.0124152     79.66638   -18.143107    1195.5892     12417.71 
    2707    312.46496     2.295886    79.391542   -18.117281    830.07402     12417.71 
    2708    312.19593    2.6261575    78.122503   -18.116694    450.00811     12417.71 
    2709    314.08652    2.9927415    75.870901   -18.143633    72.245276     12417.71 
    2710    317.60613     3.380124    72.999084   -18.193417   -289.39176     12417.71 
    2711    321.63935     3.770044    70.117528   -18.255733   -622.64139     12417.71 
    2712     324.8857    4.1434859    67.890287   -18.318819   -916.95511     12417.71 
    2713    326.31282    4.4825299    66.819573   -18.374073   -1162.7343     12417.71 
    2714    325.48758    4.7719789    67.090367   -18.419336     -1351.02     12417.71 
    2715    322.65951    5.0006133    68.533347   -18.459406   -1473.9938     12417.71 
    2716    318.57671     5.161774    70.716311   -18.503396   -1525.3043     12417.71 
    2717    314.12753    5.2537552    73.120644   -18.560336   -1504.2305     12417.71 
    2718    309.95742    5.2884613    75.325061    -18.63495   -1409.6186     12417.71 
    2719    306.28398    5.2846926    77.118794   -18.723216   -1255.8606     12417.71 
    2720    302.96096    5.2535199    78.501547   -18.816874   -1057.4639     12417.71 
    2721    299.70673     5.206288    79.585848   -18.905212   -831.20702     12417.71 
    2722    296.41706    5.1532698    80.459096   -18.980507   -594.05594     12417.71 
    2723    293.38037    5.1024857    81.080209   -19.041697   -361.08321     12417.71 
    2724    291.27385    5.0589439     81.26605   -19.095053   -144.25797     12417.71 
    2725    290.92454    5.0244628    80.777392   -19.151582    47.735345     12417.71 
    2726    292.93119    4.9980981    79.465241   -19.222329    208.92564     12417.71 
    2727    297.31171    4.9770358    77.407873    -19.31358    335.29085     12417.71 
    2728    303.33942    4.9580334    74.969093   -19.423957    425.45165     12417.71 
    2729    309.66596    4.9382536    72.737682   -19.544279    477.93334     12417.71 
    2730    314.71512    4.9151624     71.35491   -19.661231    495.65047     12417.71 
    2731    317.22251    4.8881904    71.284494   -19.761161    485.76642     12417.71 
    2732     316.7305    4.8539819    72.609863   -19.837686    459.56575     12417.71 
    2733    313.82039    4.8101593    74.945151   -19.893477    431.00024     12417.71 
    2734    309.97538    4.7565995    77.508743   -19.941298    417.62078     12417.71 
    2735    307.09234    4.6930767    79.354377   -20.000267    437.26771     12417.71 
    2736    306.78218    4.6185878    79.690453   -20.089766    501.79087     12417.71 
    2737    309.71446    4.5337283    78.175364   -20.220973    616.61288     12417.71 
    2738    315.27343    4.4375428    75.074841   -20.393517    773.83723     12417.71 
    2739    321.67151    4.3292093    71.211764   -20.593627    956.70092     12417.71 
    2740    326.51116    4.2098756    67.712845   -20.799329    1143.1975     12417.71 
    2741    327.61716    4.0827442    65.636104   -20.988021    1309.4054     12417.71 
    2742    323.83378    3.9529001    65.612005   -21.144378    1434.1368     12417.71 
    2743    315.49012    3.8271772      67.6285   -21.265905    1503.8042     12417.71 
    2744    304.36355    3.7142133    71.036419    -21.36213    1510.8359     12417.71 
    2745    293.15182    3.6199191    74.768837   -21.453315    1457.7914     12417.71 
    2746    284.64143    3.5489536    77.691507   -21.560474    1351.3526     12417.71 
    2747    280.86748     3.498718    78.959338   -21.700826    1193.7956     12417.71 
    2748     282.5247    3.4617184    78.263041   -21.880575    992.49263     12417.71 
    2749     288.8107    3.4278483    75.892658   -22.094072    753.94225     12417.71 
    2750    297.72825    3.3859224    72.613011   -22.326621    484.20613     12417.71 
    2751    306.72187    3.3251779    69.405482   -22.559787    191.40698     12417.71 
    2752    313.43339    3.2366498    67.165791   -22.777944   -115.02809     12417.71 
    2753     316.3485    3.1163801    66.450715   -22.971613   -421.73359     12417.71 
    2754    315.16317    2.9651774    67.341745   -23.140005   -710.75339     12417.71 
    2755    310.79013    2.7882239    69.452459    -23.29032   -961.47714     12417.71 
    2756    305.03481    2.5940046    72.062953   -23.435421   -1153.2871     12417.71 
    2757    300.05649     2.392782     74.33243   -23.590573   -1268.8779     12417.71 
    2758    297.77121    2.1950061    75.527231   -23.770044     -1297.49     12417.71 
    2759     299.3494    2.0100042    75.206213   -23.984257   -1237.3116     12417.71 
    2760    304.92328    1.8444035    73.323425   -24.237988   -1094.8959     12417.71 
    2761    313.55421    1.7023752    70.231705   -24.530214   -889.15857     12417.71 
    2762    323.45592    1.5870733    66.594544   -24.854663   -644.79828     12417.71 
    2763    332.41585    1.5009251    63.230034   -25.202845     -388.417     12417.71 
    2764    338.31162    1.4549954    60.922272   -25.561357   -143.31648     12417.71 
    2765     339.6404    1.4550363    60.238783   -25.920535    60.883735     12417.71 
    2766     335.9113    1.4999818    61.392544   -26.273082    207.78192     12417.71 
    2767    327.78525    1.5871093     64.18226   -26.616323    291.21139     12417.71 
    2768    316.95227    1.7125784    68.027026   -26.953614    314.88165     12417.71 
    2769    305.74935       1.8707    72.094352   -27.295525    290.09773     12417.71 
    2770    296.58548    2.0583914    75.499665   -27.657882     234.2021     12417.71 
    2771    291.32131    2.2803655    77.533783   -28.053576    166.01388     12417.71 
    2772    290.79075    2.5272078    77.858492   -28.496193    104.23127     12417.71 
    2773    294.54975    2.7819987     76.61173   -28.989626    61.420635     12417.71 
    2774    300.95056    3.0287798    74.381018   -29.530004    45.044655     12417.71 
    2775    307.59807     3.258011     72.03706   -30.102134    60.139908     12417.71 
    2776    312.06487    3.4588541    70.467011   -30.686017    106.70297     12417.71 
    2777    312.63351    3.6165371    70.288962    -31.26392    185.68382     12417.71 
    2778    308.82913    3.7193221    71.640531   -31.824016    299.60713     12417.71 
    2779    301.58045    3.7585783    74.116393   -32.365727    449.06131     12417.71 
    2780    292.93949    3.7301626    76.881778   -32.899732    635.82816     12417.71 
    2781    285.43816    3.6355552    78.929806   -33.445428    859.16192     12417.71 
    2782    281.29181    3.4824769     79.40002   -34.024614    1112.1144     12417.71 
    2783    281.70513    3.2831014    77.855147   -34.655182    1382.8172     12417.71 
    2784    286.49563    3.0521472    74.429105   -35.345587    1653.2264     12417.71 
    2785    294.14199    2.8065101    69.801819   -36.092038    1902.5522     12417.71 
    2786    302.24137    2.5603923    65.011805   -36.880722    2104.9298     12417.71 
    2787    308.21093    2.3242064    61.169298   -37.690601    2237.1792     12417.71 
    2788    310.01714    2.1057358    59.154735   -38.499078    2282.9654     12417.71 
    2789    306.72945    1.9102308    59.389243   -39.286923    2235.4635     12417.71 
    2790    298.74401    1.7406298    61.737957     -40.0421    2097.3467     12417.71 
    2791     287.6377    1.5965361    65.566154   -40.760256    1881.9642     12417.71 
    2792    275.69715    1.4682197    69.926254    -41.45191    1609.7912     12417.71 
    2793    265.26666     1.357399    73.817645   -42.126647    1299.0224     12417.71 
    2794    258.13696    1.2653904    76.443991   -42.798605    970.57118     12417.71 
    2795     255.1247    1.1922106    77.400138   -43.477616    643.60969     12417.71 
    2796    255.93878     1.136809    76.739435   -44.165849    332.72906     12417.71 
    2797     259.3697    1.0975129    74.908215   -44.856681    47.067454     12417.71 
    2798    263.72876    1.0728557    72.572707   -45.537777   -206.64435     12417.71 
    2799    267.39975     1.065366    70.395373   -46.192075   -425.42075     12417.71 
2800        0.59064155822701414067 11.017061050295721358 0.59523809523809523281 49 -168.83962396658637317
    2800    269.33423      1.07181    68.832148   -46.808829   -611.07549     12417.71 
    2801    269.31987    1.0878557    68.014199   -47.383287   -764.47366     12417.71 
    2802    267.95097    1.1099669    67.746806   -47.919249   -885.71833     12417.71 
    2803    266.33398    1.1360239    67.619565   -48.427413   -975.19022     12417.71 
    2804    265.62286    1.1715303    67.183635   -48.921525   -1028.7722     12417.71 
    2805    266.59025    1.2269414    66.129949   -49.409463   -1052.6958     12417.71 
    2806    269.36047    1.3040371    64.404545   -49.896386   -1061.0492     12417.71 
    2807    273.37137    1.4058352     62.22265   -50.377757   -1063.1635     12417.71 
    2808    277.61073    1.5246563    59.981974   -50.846133   -1063.3149     12417.71 
    2809    280.97815    1.6554398    58.112889   -51.288977   -1074.9271     12417.71 
    2810    282.63953    1.7991347     56.93102   -51.699315   -1102.0053     12417.71 
    2811    282.28425    1.9606657     56.54698   -52.072963   -1148.0118     12417.71 
    2812    280.14887    2.1402388    56.868254   -52.414272   -1210.1685     12417.71 
    2813    276.81982    2.3382263    57.685851   -52.729784   -1278.3253     12417.71 
    2814    272.93234    2.5525945    58.798496   -53.026993   -1343.3095     12417.71 
    2815    268.91262    2.7832298    60.108693   -53.307723   -1396.5537     12417.71 
    2816    264.89501    3.0291023    61.639073   -53.568355   -1428.1438     12417.71 
    2817    260.84126     3.288965    63.458631    -53.80057   -1432.5762     12417.71 
    2818    256.79452    3.5578625    65.555631   -53.997651   -1405.2519     12417.71 
    2819    253.11496    3.8267179     67.72855   -54.157947   -1340.9925     12417.71 
    2820    250.54105    4.0834647    69.563751   -54.287703   -1235.7637     12417.71 
    2821    250.01036    4.3142728    70.531562   -54.399819     -1087.52     12417.71 
    2822    252.28444    4.5053017    70.176173   -54.509173   -897.46187     12417.71 
    2823    257.53091     4.644014    68.325651   -54.626835   -668.11233     12417.71 
    2824    265.04834    4.7242249    65.230758   -54.754576   -410.64897     12417.71 
    2825    273.30123    4.7465038    61.559638   -54.883747   -140.82285     12417.71 
    2826    280.29501    4.7135114    58.234247   -54.998936     125.9425     12417.71 
    2827    284.17123    4.6292342    56.155495   -55.084087    378.00634     12417.71 
    2828    283.82747    4.5013353    55.909794   -55.127093     603.0603     12417.71 
    2829    279.33961    4.3391054     57.56206   -55.125862    798.35722     12417.71 
    2830    272.01919     4.152623    60.612518   -55.089481    967.95814     12417.71 
    2831    264.05831    3.9525377    64.139742   -55.036362     1122.272     12417.71 
    2832    257.86229    3.7512497    67.089372   -54.987082     1272.874     12417.71 
    2833    255.28036    3.5572459    68.618031   -54.959642    1428.6936     12417.71 
    2834     256.9747    3.3744082    68.380092   -54.962504    1595.2692     12417.71 
    2835    262.14046    3.2055786    66.659503   -54.990259    1769.2595     12417.71 
    2836    268.71161    3.0504234    64.294309   -55.023067    1944.8931     12417.71 
    2837    273.98943    2.8964286    62.408871   -55.042025    2107.7838     12417.71 
    2838    275.49593    2.7447253    62.035625   -55.021639    2238.5156     12417.71 
    2839    271.82305     2.598841    63.747892   -54.947798      2324.78     12417.71 
    2840    263.17349    2.4620166    67.430886   -54.820246    2359.4826     12417.71 
    2841    251.38212    2.3370162    72.274965   -54.653183    2341.5753     12417.71 
    2842    239.40444    2.2260761    77.001538    -54.47101    2274.9052     12417.71 
    2843    230.42742    2.1309736    80.252728   -54.300314    2165.9486     12417.71 
    2844    226.88749    2.0531073     81.01908   -54.160559    2020.1116     12417.71 
    2845    229.71277    1.9931339    78.965575   -54.057183    1839.0785     12417.71 
    2846    238.03309    1.9508758    74.549078   -53.979458    1621.0237     12417.71 
    2847    249.45063    1.9252406    68.888069   -53.904198    1361.7132     12417.71 
    2848    260.78496     1.914095    63.425369   -53.803822    1057.3121     12417.71 
    2849    269.05415    1.9142409    59.491018   -53.655656    707.96506     12417.71 
    2850    272.37905    1.9213638    57.904552   -53.449218    321.62951     12417.71 
    2851    270.52457    1.9290918    58.743183   -53.189527   -83.982086     12417.71 
    2852    264.89979    1.9311076    61.349394   -52.895367   -488.30947     12417.71 
    2853    258.03417    1.9241211    64.570881   -52.592683   -866.57431     12417.71 
    2854    252.71776    1.9065279    67.151188   -52.306618   -1192.8636     12417.71 
    2855    251.08911    1.8781619    68.140065   -52.053103   -1446.6984     12417.71 
    2856    253.97473    1.8402162    67.187363   -51.833645   -1616.4835     12417.71 
    2857    260.69355    1.7944349    64.626029   -51.635482     -1700.65     12417.71 
    2858    269.37242    1.7431911    61.323767   -51.436596   -1708.9204     12417.71 
    2859     277.6432     1.689525    58.363371   -51.214179   -1657.1553     12417.71 
    2860     283.4658    1.6367604    56.669321   -50.952913   -1564.1532     12417.71 
    2861    285.78337    1.5882474    56.712798   -50.650082   -1447.9448     12417.71 
    2862    284.79109    1.5470616    58.392954   -50.315823    -1323.277     12417.71 
    2863    281.75048    1.5156737    61.123501   -49.968908   -1200.5298     12417.71 
    2864    278.44931    1.4964133    64.077859   -49.629286   -1085.6023     12417.71 
    2865    276.53199    1.4892121    66.492388   -49.311804   -984.01052     12417.71 
    2866     276.9448    1.4918374    67.915058   -49.021056   -900.25191     12417.71 
    2867    279.68532    1.5009093    68.314913   -48.750528   -836.98734     12417.71 
    2868    283.92651    1.5089278    68.025426   -48.487139   -794.35115     12417.71 
    2869    288.42607     1.507896    67.557149   -48.215246   -774.60603     12417.71 
    2870     292.0465    1.4899216     67.36183   -47.924427   -773.86846     12417.71 
    2871    294.18454     1.450069    67.641578   -47.611835   -786.39116     12417.71 
    2872    294.94349    1.3866271    68.276683   -47.284117   -801.11711     12417.71 
    2873    294.98873    1.3013426    68.900099   -46.954616   -804.16871     12417.71 
    2874    295.14812    1.1999634    69.088511   -46.637876    -783.0899     12417.71 
    2875    295.92992     1.091012    68.591682   -46.344143   -728.81538     12417.71 
    2876    297.17072   0.98498516    67.500841   -46.074551   -637.31385     12417.71 
    2877    297.98837   0.89263962    66.274307   -45.820046    -510.6663     12417.71 
    2878    297.09641   0.82135243    65.591682   -45.566504   -350.54844     12417.71 
    2879     293.3756   0.78518042    66.079442   -45.293178   -170.33828     12417.71 
    2880    286.50022   0.78884216    68.011214   -44.991835     19.66604     12417.71 
    2881    277.33956   0.82891109    71.109775   -44.663763    208.16048     12417.71 
    2882    267.89293   0.89394918    74.552543     -44.3236    386.83137     12417.71 
    2883    260.74192   0.97048478    77.202624   -43.993448    551.19023     12417.71 
    2884     258.1849    1.0452092    77.998355   -43.694318    697.41678     12417.71 
    2885    261.35261    1.1080633    76.363549   -43.436939    817.15073     12417.71 
    2886     269.6604    1.1540658    72.477419   -43.215377    899.30575     12417.71 
    2887    280.83392    1.1822996    67.289552   -43.009675    934.49592     12417.71 
    2888    291.54533    1.2024817    62.254818   -42.788312    911.84467     12417.71 
    2889    298.49392    1.2263431    58.864214   -42.523591    821.71399     12417.71 
    2890    299.55993    1.2628803    58.131388   -42.200147     661.8234     12417.71 
    2891    294.60245    1.3174769    60.219412   -41.820556    442.89833     12417.71 
    2892    285.60593    1.3924228    64.346248   -41.405806    185.99235     12417.71 
    2893      276.095     1.486891    69.014985   -40.989343   -80.835947     12417.71 
    2894    269.98089    1.5978211     72.50277   -40.606478   -328.02505     12417.71 
    2895     270.2112    1.7213223    73.450062   -40.282314    -530.6652     12417.71 
    2896    277.67868    1.8540844      71.3508   -40.022446   -673.48294     12417.71 
    2897    290.77801    1.9943366    66.769308   -39.810227   -753.12712     12417.71 
    2898    305.79851    2.1420958     61.19582   -39.612052   -777.04269     12417.71 
    2899    318.06355    2.2987045    56.573623    -39.38878   -759.31053     12417.71 
2900        0.57901376937704662762 11.071695216924553051 0.59788359788359790592 54 -185.66507353614798603
    2900    323.46382    2.4658883    54.647613   -39.109074   -714.85043     12417.71 
    2901    319.87286    2.6446977    56.354669    -38.76014   -653.96943     12417.71 
    2902    307.94774    2.8346983    61.471832    -38.35262   -579.15141     12417.71 
    2903      291.013    3.0336631    68.655204   -37.918136   -485.21391     12417.71 
    2904    274.04029    3.2378337    75.867364   -37.499737   -362.75498     12417.71 
    2905    262.05614    3.4426258    81.052233   -37.137538   -203.61003     12417.71 
    2906    258.51591    3.6435109    82.825613   -36.854196   -6.2830874     12417.71 
    2907    264.19733    3.8367694    80.941217    -36.64592    220.70756     12417.71 
    2908    276.98826    4.0198782    76.369358   -36.483214     458.9155     12417.71 
    2909    292.63023    4.1933644    70.960314   -36.322295    686.13568     12417.71 
    2910    306.17401    4.3624519    66.808472   -36.117134    876.76947     12417.71 
    2911    313.64437    4.5265076    65.536594    -35.84017    1010.5679     12417.71 
    2912    313.33396    4.6845747    67.744816   -35.487138    1080.5862     12417.71 
    2913    306.30767    4.8358771     72.81044   -35.078639    1092.9275     12417.71 
    2914     295.9625    4.9803096    79.103061    -34.65297    1064.3964     12417.71 
    2915    286.80799    5.1191042    84.537719   -34.253599    1017.0654     12417.71 
    2916    282.89557    5.2553764    87.275648   -33.914951    971.49033     12417.71 
    2917    286.43532    5.3941393    86.335189   -33.650532    941.29784     12417.71 
    2918    297.06717    5.5365188    81.908857   -33.450782    931.63281     12417.71 
    2919    312.00097    5.6863566    75.283907    -33.28434    931.30754     12417.71 
    2920    326.98262    5.8493715    68.397518   -33.111876    925.89776     12417.71 
    2921    337.75505      6.02766    63.183144   -32.899734    900.25913     12417.71 
    2922    341.49265    6.2151134    60.934571   -32.630183    847.33015     12417.71 
    2923    337.69951    6.3944646    61.906614   -32.311384    763.88031     12417.71 
    2924    328.27279    6.5515204    65.285653   -31.967621    656.20878     12417.71 
    2925     316.7526    6.6697507    69.529883   -31.635409    538.36822     12417.71 
    2926    307.01932    6.7356772     72.94862   -31.350704    429.38293     12417.71 
    2927    301.93812    6.7427811     74.30747   -31.132997    338.78666     12417.71 
    2928    302.43773    6.6828922    73.240787    -30.98318    270.46922     12417.71 
    2929    307.30983     6.553546    70.332449   -30.881181    221.82493     12417.71 
    2930    313.78704    6.3639856     66.84832   -30.792265     186.4505     12417.71 
    2931    318.67801    6.1274348    64.229401   -30.682343    151.55766     12417.71 
    2932    319.61262    5.8564991     63.53761   -30.529017    107.68573     12417.71 
    2933    315.94956    5.5512695    65.060769    -30.32856    61.511347     12417.71 
    2934    308.96005    5.2122231    68.216538   -30.097633    9.7250009     12417.71 
    2935    301.26454    4.8553325    71.791144   -29.865724   -38.386111     12417.71 
    2936    295.79895    4.4946522    74.419814   -29.665357   -72.091498     12417.71 
    2937    294.61427    4.1421724    75.128964   -29.518975    -88.58574     12417.71 
    2938    298.00132    3.8085105    73.733178   -29.429691   -91.495505     12417.71 
    2939    304.30365    3.5020809    70.926225   -29.379181   -92.582828     12417.71 
    2940     310.5115    3.2290877    68.020489   -29.334025   -108.89647     12417.71 
    2941    313.43405    2.9936451    66.425359   -29.258274   -157.64168     12417.71 
    2942    311.00475    2.7979303    67.063889   -29.127439   -250.56701     12417.71 
    2943    303.20409    2.6413484    69.961695   -28.936892   -387.45307     12417.71 
    2944    292.20129    2.5120868    74.183628   -28.710754   -557.13293     12417.71 
    2945    281.59355    2.4089506    78.160862    -28.48477   -747.86441     12417.71 
    2946     275.0614    2.3377371    80.292312   -28.296105   -942.56167     12417.71 
    2947    274.94815    2.2929531    79.593712   -28.171114    -1123.495     12417.71 
    2948     281.2521    2.2678663    76.139124   -28.110825   -1285.8758     12417.71 
    2949    291.48777    2.2608371    71.109503   -28.089708   -1429.3139     12417.71 
    2950    301.52306    2.2701652    66.412751   -28.065341   -1558.5599     12417.71 
    2951    307.08117    2.2938127    64.001995   -27.993806   -1678.6544     12417.71 
    2952    305.37528    2.3292472    65.136835   -27.845693   -1789.5817     12417.71 
    2953    296.26871    2.3734699     69.86109   -27.616998    -1882.837     12417.71 
    2954    282.51748    2.4205494    76.898601   -27.331275   -1937.9207     12417.71 
    2955    268.94952    2.4660248    84.021916   -27.033065   -1933.2528     12417.71 
    2956    260.85788    2.5095438    88.780049   -26.771824   -1853.8406     12417.71 
    2957    262.14838    2.5538527    89.341013   -26.585098    -1686.994     12417.71 
    2958    273.88904    2.6045613    85.156289   -26.481699   -1440.7013     12417.71 
    2959      293.796    2.6600961    77.204661   -26.441536   -1137.2427     12417.71 
    2960    316.84218    2.7207484    67.716632   -26.419272   -813.53701     12417.71 
    2961    336.85091    2.7871463    59.457257    -26.36297   -509.76054     12417.71 
    2962    348.54265    2.8593349    54.804942   -26.232494   -261.48864     12417.71 
    2963    349.30174    2.9414991    54.947651   -26.014954   -87.329844     12417.71 
    2964    340.05414     3.042919     59.48728   -25.725042    4.7353286     12417.71 
    2965     324.9146    3.1627139    66.599093   -25.407455     25.54657     12417.71 
    2966    309.67971    3.2997891    73.696424   -25.118735    1.5599169     12417.71 
    2967    299.75198    3.4548803    78.358453   -24.906686   -41.659131     12417.71 
    2968    298.25093    3.6252203    79.180699   -24.795214   -84.295913     12417.71 
    2969     304.9841    3.8055679    76.238098   -24.774926   -115.84781     12417.71 
    2970    316.63524    3.9904942    71.000945   -24.806617   -134.68558     12417.71 
    2971    328.06559    4.1750485     65.75236   -24.837287   -145.71933     12417.71 
    2972    334.21527    4.3547951    62.739557   -24.819884   -154.39105     12417.71 
    2973    331.89026    4.5258992    63.379114   -24.729009   -160.95745     12417.71 
    2974    320.80225     4.685342    67.798267   -24.567365   -157.40954     12417.71 
    2975    303.54326    4.8305459    74.852355   -24.362122   -126.42076     12417.71 
    2976    284.58023    4.9606406    82.575591   -24.153359   -51.539784     12417.71 
    2977    268.70062    5.0773728    88.871804   -23.980316    83.969258     12417.71 
    2978    259.48939    5.1901407      92.1874   -23.863929    287.60399     12417.71 
    2979    258.34783    5.3061113    91.942004   -23.806639    553.93931     12417.71 
    2980    264.31282    5.4299574    88.603123   -23.787188      861.216     12417.71 
    2981     274.6296    5.5583478    83.420545   -23.773625    1180.7989     12417.71 
    2982     285.8041    5.6849545    77.948522   -23.733284    1481.3747     12417.71 
    2983    294.74902    5.7990812    73.537183   -23.645141    1735.2328     12417.71 
    2984    299.63026    5.8894878    70.963787   -23.504361    1918.7827     12417.71 
    2985    300.17931    5.9460495     70.30758   -23.322407    2020.4892     12417.71 
    2986    297.44672    5.9600538    71.076556   -23.120695     2039.201     12417.71 
    2987     293.1594    5.9253235    72.504888   -22.921659    1982.1584     12417.71 
    2988    288.97727    5.8389953     73.88685   -22.740445    1861.9316     12417.71 
    2989    285.94331    5.7018328    74.814943   -22.580268    1693.4472     12417.71 
    2990    284.30728    5.5180313    75.243685   -22.433052    1491.9263     12417.71 
    2991    283.72559     5.294565    75.382163   -22.284727    1271.9513     12417.71 
    2992    283.67651    5.0402162    75.492399   -22.122574    1047.2954     12417.71 
    2993    283.85519    4.7648724     75.70434   -21.939937    834.56173     12417.71 
    2994    284.35714    4.4686853    75.938721   -21.742741    646.50881     12417.71 
    2995    285.54511     4.156775    75.967563    -21.53923    486.69393     12417.71 
    2996    287.72254     3.839821    75.569047   -21.339004     359.4906     12417.71 
    2997    290.82536    3.5281738     74.68837   -21.146431     264.1288     12417.71 
    2998    294.27457    3.2326059    73.517371   -20.957844    196.54761     12417.71 
    2999    297.10834    2.9607478    72.447926    -20.76392    143.90582     12417.71 
3000        0.56131380790493434763 11.141214417208948007 0.58994708994708988659 52 -155.72408135539529894
    3000    298.33529    2.7167783     71.91973   -20.553393    94.236813     12417.71 
    3001    297.36287    2.5034589    72.227841    -20.31715     37.56429     12417.71 
    3002    294.34045    2.3085307    73.374705   -20.055817   -26.791962     12417.71 
    3003    290.20461    2.1202406    75.029533   -19.777819   -106.10893     12417.71 
    3004    286.43963    1.9442519    76.611957   -19.491829   -201.62309     12417.71 
    3005    284.67292    1.7815488    77.471668    -19.21193   -312.79836     12417.71 
    3006    286.16039    1.6324162    77.105086    -18.94829   -433.41999     12417.71 
    3007    291.33729    1.4998431    75.339841    -18.70483   -560.49828     12417.71 
    3008     299.5914    1.3890066    72.430609   -18.477854    -687.4343     12417.71 
    3009     309.3219    1.3081823    69.032675    -18.25836   -809.43156     12417.71 
    3010    318.31091     1.270761    66.052138   -18.026715   -924.56101     12417.71 
    3011    324.34172    1.2588283    64.402733   -17.775982   -1026.9497     12417.71 
    3012    325.81255    1.2605887    64.733251   -17.495244   -1116.9292     12417.71 
    3013    322.23401    1.2754757    67.207481   -17.181311   -1190.8127     12417.71 
    3014    314.48282    1.3032412    71.408586   -16.842029   -1236.7599     12417.71 
    3015    304.64545    1.3416157    76.413329   -16.492512   -1246.6712     12417.71 
    3016    295.47089    1.3831144    81.027664    -16.15459   -1209.6925     12417.71 
    3017    289.57961    1.4307872    84.118418   -15.843535   -1119.5234     12417.71 
    3018    288.71416    1.4913054    84.935345   -15.567862   -978.92953     12417.71 
    3019    293.26902    1.5613942    83.323958   -15.326109   -796.43741     12417.71 
    3020    302.17929    1.6327397    79.768424   -15.105739   -591.62768     12417.71 
    3021    313.22654    1.7027301    75.249493   -14.886562    -385.0959     12417.71 
    3022    323.69558    1.7694527    70.964662    -14.64901   -196.52121     12417.71 
    3023    331.15106     1.831235    67.995527    -14.37921   -42.979566     12417.71 
    3024    334.10386    1.8872555    67.017979    -14.07411     68.76953     12417.71 
    3025     332.3919    1.9412637    68.134642   -13.737766    137.07828     12417.71 
    3026    327.17583    1.9920301    70.871848   -13.385849    169.87368     12417.71 
    3027    320.55367    2.0353755    74.337588   -13.037496    178.48595     12417.71 
    3028    314.91569    2.0653624     77.48905   -12.710549    176.40563     12417.71 
    3029    312.24344    2.0775313    79.427345   -12.416835    177.83561     12417.71 
    3030    313.57059    2.0695761    79.632331   -12.158994    192.92482     12417.71 
    3031    318.74675    2.0422298    78.073573   -11.930506    226.01356     12417.71 
    3032    326.54952    1.9994167    75.177214    -11.71884    275.40631     12417.71 
    3033    335.07546    1.9476067    71.675823   -11.510453    334.70732     12417.71 
    3034    342.25988    1.8976844    68.400365   -11.294699    397.68582     12417.71 
    3035    346.37666    1.8619345    66.079539   -11.067335    452.56264     12417.71 
    3036    346.40761    1.8508108    65.192562   -10.827316    488.04461     12417.71 
    3037    342.20855    1.8662074    65.895902   -10.579383    495.36246     12417.71 
    3038    334.48274    1.9064234    68.018988    -10.32906    470.40281     12417.71 
    3039    324.60691    1.9673551    71.115277   -10.082725    412.20188     12417.71 
    3040    314.34794    2.0450933    74.557718   -9.8467668    320.13871     12417.71 
    3041     305.5084    2.1365835    77.668536   -9.6276582    198.55691     12417.71 
    3042    299.54854    2.2394931    79.868524   -9.4304854    54.606741     12417.71 
    3043    297.25815    2.3530351    80.815175   -9.2559085   -103.68103     12417.71 
    3044    298.57917    2.4716716     80.48897   -9.1013206   -268.84824     12417.71 
    3045    302.63449    2.5929552    79.191686   -8.9562136   -438.85284     12417.71 
    3046    307.99021    2.7164958    77.448058   -8.8076063   -608.86113     12417.71 
    3047    313.09278     2.839542    75.838639   -8.6434332   -773.82589     12417.71 
    3048    316.71567    2.9565341    74.821207   -8.4565904   -927.85357     12417.71 
    3049    318.27356    3.0596917    74.603779   -8.2471262   -1063.9835     12417.71 
    3050    317.90548    3.1404864    75.111231   -8.0216848   -1174.6415     12417.71 
    3051    316.31852    3.1915601    76.049489   -7.7905901   -1252.7428     12417.71 
    3052    314.47228    3.2085152    77.034233   -7.5639277   -1293.1354     12417.71 
    3053    313.23214    3.1910531    77.730952   -7.3482402   -1293.9297     12417.71 
    3054    313.11257    3.1431495    77.956539   -7.1449873   -1257.2926     12417.71 
    3055    314.17988    3.0722234    77.714316   -6.9510384   -1189.4702     12417.71 
    3056    316.12458    2.9846372    77.162565    -6.760016   -1096.9212     12417.71 
    3057    318.42983    2.8839554    76.539203   -6.5669656   -993.07171     12417.71 
    3058    320.56716    2.7763701    76.074969   -6.3676722   -889.84727     12417.71 
    3059    322.17097    2.6688444    75.921469   -6.1599907   -800.40084     12417.71 
    3060    323.13281    2.5666042      76.1141    -5.945171   -733.51707     12417.71 
    3061    323.59586    2.4715847    76.578343    -5.726867   -694.65315     12417.71 
    3062    323.85426    2.3827272    77.174211   -5.5099611   -685.54669     12417.71 
    3063    324.19919    2.2968422    77.762486   -5.2989069   -704.27973     12417.71 
    3064     324.7718     2.209749    78.267264   -5.0959496    -745.6674     12417.71 
    3065    325.48957    2.1173701     78.70667   -4.8998549   -801.78594     12417.71 
    3066    326.09361    2.0165469    79.171508   -4.7058781   -862.47835     12417.71 
    3067    326.31561    1.9064613    79.751286    -4.507949   -913.80293     12417.71 
    3068    326.11514    1.7894295    80.433393   -4.2994972   -942.76702     12417.71 
    3069    325.86766    1.6646059    81.025211   -4.0807877    -937.5238     12417.71 
    3070    326.36943    1.5328255    81.152526    -3.858244   -885.21086     12417.71 
    3071    328.60195    1.3973969     80.36437   -3.6444113   -775.94963     12417.71 
    3072    333.29051    1.2648643     78.32936   -3.4542068   -603.96394     12417.71 
    3073    340.42674    1.1420006    75.055356    -3.295439   -369.80725     12417.71 
    3074     348.9344    1.0303044    71.033286   -3.1748579   -83.840941     12417.71 
    3075    356.71749   0.94817122    67.213446   -3.0769871    229.25864     12417.71 
    3076    361.21897   0.89114229    64.780387   -2.9820006    549.94544     12417.71 
    3077    360.22462   0.84523027    64.779291    -2.872853    848.00908     12417.71 
    3078    352.70912   0.81695275    67.716889   -2.7314928    1101.7279     12417.71 
    3079    339.48367   0.79401443    73.293612   -2.5578149    1306.3328     12417.71 
    3080    323.17604   0.76527389    80.393348   -2.3656411    1448.5485     12417.71 
    3081    307.55284   0.73517483    87.363897   -2.1811932    1531.1838     12417.71 
    3082    296.44304   0.70941705    92.509019   -2.0340454    1561.2664     12417.71 
    3083    292.51697   0.69420585    94.633609    -1.945985    1546.2947     12417.71 
    3084    296.37187   0.69560069    93.452856   -1.9219355    1490.3858     12417.71 
    3085    306.25769   0.71907472    89.715091   -1.9465817    1393.6277     12417.71 
    3086    318.56688   0.76931132    84.981006   -1.9898072    1255.9853     12417.71 
    3087    328.96515   0.85545335     81.11758   -2.0116367    1079.9026     12417.71 
    3088    333.82126   0.97799557    79.664619   -1.9831718    867.56194     12417.71 
    3089    331.44473     1.135911    81.285941   -1.8894858    629.06185     12417.71 
    3090    322.70513    1.3262423      85.4972   -1.7381038    386.50056     12417.71 
    3091     310.7997    1.5433484    90.780717   -1.5574836    170.34382     12417.71 
    3092    300.19801     1.780806    95.067977   -1.3884039    8.2035363     12417.71 
    3093    295.10495    2.0318205      96.4391   -1.2709377   -76.134627     12417.71 
    3094    297.96313    2.2881329    93.804825   -1.2300698   -71.209409     12417.71 
    3095    308.51644    2.5406162    87.330439   -1.2662231    18.422246     12417.71 
    3096     323.7868    2.7801853    78.443149   -1.3548334    172.51641     12417.71 
    3097    339.00034    2.9988995    69.407145   -1.4552697    359.56548     12417.71 
    3098    349.16331    3.1910651    62.603631   -1.5252903     544.0573     12417.71 
    3099    350.74938    3.3541086    59.760437   -1.5354165    694.38617     12417.71 
3100        0.54418511305481553908 11.154445780579974823 0.57936507936507930516 52 -156.84693468002998884
    3100    342.91655    3.4867357     61.39743   -1.4772305    791.80285     12417.71 
    3101    327.80624    3.5847424    66.680553   -1.3709466    826.51642     12417.71 
    3102    309.81191    3.6543108    73.734772   -1.2519965    799.57769     12417.71 
    3103    294.11847    3.6995513    80.301098   -1.1616221    724.97933     12417.71 
    3104    284.98986    3.7153689    84.500824   -1.1380825     611.0654     12417.71 
    3105    284.38164    3.7144826     85.43922    -1.194029     468.6163     12417.71 
    3106    291.46248    3.7161222    83.431785   -1.3118493    295.80921     12417.71 
    3107    303.13592    3.7230653    79.786435    -1.458295    89.736306     12417.71 
    3108    315.28953    3.7354531    76.240746   -1.5916886   -150.84686     12417.71 
    3109    324.33373    3.7521424    74.276526   -1.6799293   -421.92471     12417.71 
    3110    328.44165    3.7717424    74.574539   -1.7123027   -710.87446     12417.71 
    3111    328.03741     3.793435    76.809158   -1.7025606   -996.01814     12417.71 
    3112    325.39225    3.8173153     79.84362   -1.6828157   -1250.4042     12417.71 
    3113    323.53788    3.8442862    82.228921   -1.6909639   -1446.1708     12417.71 
    3114    324.96159    3.8754329     82.79569   -1.7567992   -1562.1592     12417.71 
    3115    330.60273     3.911298    81.104191   -1.8920134   -1588.1409     12417.71 
    3116    339.52243    3.9512349    77.585769   -2.0878525   -1526.8691     12417.71 
    3117    349.32219    3.9973284    73.339138   -2.3210839   -1388.9169     12417.71 
    3118    357.12932    4.0513986    69.680119   -2.5633252   -1199.6416     12417.71 
    3119    360.71726    4.1074711    67.634849   -2.7945289   -983.59309     12417.71 
    3120    359.29757    4.1586777     67.57551   -3.0087283   -762.84648     12417.71 
    3121    353.72066    4.1987031    69.130922   -3.2157693   -554.82837     12417.71 
    3122    346.02919    4.2239432    71.391881   -3.4372799   -370.30641     12417.71 
    3123    338.58025    4.2355622    73.316126   -3.6954427   -219.30884     12417.71 
    3124    333.10234      4.23307      74.1647   -4.0070316   -110.73819     12417.71 
    3125    330.06049    4.2177686    73.793275   -4.3734701   -51.864292     12417.71 
    3126    328.58919    4.1924056    72.682443   -4.7798305    -48.96489     12417.71 
    3127    327.01381     4.160163    71.696582   -5.1996477   -105.08524     12417.71 
    3128    323.73687    4.1236967    71.670769   -5.6047081   -216.99864     12417.71 
    3129    318.10798    4.0852574    72.997833   -5.9771575   -371.14632     12417.71 
    3130     310.8997    4.0495333    75.393828    -6.314365   -544.06378     12417.71 
    3131    304.15278    4.0177674    77.953212   -6.6355564   -711.73094     12417.71 
    3132    300.41249    3.9919412    79.487258    -6.972248   -844.31919     12417.71 
    3133    301.64016     3.973547    79.021834   -7.3578596   -915.17232     12417.71 
    3134    308.23029    3.9750712     76.25193   -7.8104581   -901.33082     12417.71 
    3135    318.62554    4.0014572    71.753705   -8.3295617   -805.93594     12417.71 
    3136    329.69078    4.0464064    66.848626   -8.8912507   -636.59068     12417.71 
    3137    337.74148    4.1029909     63.14668    -9.457731   -409.49133     12417.71 
    3138    339.91389    4.1639032    61.936251   -9.9914715   -144.20684     12417.71 
    3139    335.31471     4.221681    63.661062   -10.469669    141.31979     12417.71 
    3140    325.47096    4.2690262    67.701504   -10.893663    433.70536     12417.71 
    3141    313.86093    4.2992888    72.563705    -11.28952     724.0642     12417.71 
    3142    304.66869    4.3071143    76.418979   -11.698883     1005.317     12417.71 
    3143    301.22044    4.2891681    77.793586   -12.162969    1268.3889     12417.71 
    3144     304.7013    4.2447858    76.142829   -12.705942    1499.3357     12417.71 
    3145    313.65513    4.1763727    72.082803   -13.324712    1679.1004     12417.71 
    3146    324.47581    4.0894018     67.18325   -13.989496    1786.5318     12417.71 
    3147    332.71869     3.991878     63.39459   -14.654509    1804.3344     12417.71 
    3148     334.7446    3.8927917    62.323851   -15.274694    1724.8449     12417.71 
    3149    329.08011    3.8024176    64.632039   -15.819481    1556.9718     12417.71 
    3150     316.9885    3.7226635    69.778508   -16.288879    1325.0159     12417.71 
    3151    302.02807    3.6621273    76.203381   -16.703541    1055.6734     12417.71 
    3152    288.79138    3.6276254    81.876444   -17.104994    784.17914     12417.71 
    3153    281.30319    3.6235925    85.004883   -17.536373    545.25848     12417.71 
    3154    281.64006    3.6524686    84.641385   -18.027044    363.80528     12417.71 
    3155     289.2713    3.7139925    80.978364   -18.582118    250.37005     12417.71 
    3156    301.32652    3.8049801    75.234347    -19.18172      201.718     12417.71 
    3157    313.66504    3.9182115    69.189403   -19.789368    206.79361     12417.71 
    3158    322.33201    4.0394345    64.551012   -20.368578    247.64243     12417.71 
    3159    324.85432    4.1566924    62.386601   -20.892737    302.57131     12417.71 
    3160    320.94169    4.2603647    62.822418   -21.355616    357.63221     12417.71 
    3161    312.37941    4.3421024    65.099766   -21.771152    404.27379     12417.71 
    3162    302.19649    4.3955798    67.942543   -22.166462    437.79314     12417.71 
    3163    293.47358     4.416948    70.076374   -22.570281    454.41911     12417.71 
    3164      288.259    4.4050125    70.693043   -23.001341    448.65039     12417.71 
    3165    286.98547    4.3611854    69.689648   -23.461418    412.21811     12417.71 
    3166    288.55972    4.2888628    67.612558   -23.934728    336.36559     12417.71 
    3167    291.01619     4.185961    65.359082   -24.400318    214.65983     12417.71 
    3168    292.39062    4.0604447    63.782988   -24.834763    41.203887     12417.71 
    3169    291.46002    3.9310625     63.37197   -25.227343   -178.29007     12417.71 
    3170    288.10613    3.8195484    64.120672   -25.577331   -435.82963     12417.71 
    3171    283.16647     3.734615    65.627149   -25.898549   -712.65103     12417.71 
    3172    277.90045    3.6820484    67.340427   -26.206419   -986.16862     12417.71 
    3173     273.3958    3.6614247    68.826883   -26.512031    -1237.769     12417.71 
    3174    270.17439     3.667134    69.931341   -26.817158   -1449.0796     12417.71 
    3175    268.14534    3.6916323    70.771066   -27.114418   -1606.0273     12417.71 
    3176    266.88863    3.7223522    71.586033   -27.392367   -1695.4755     12417.71 
    3177    266.05589    3.7467513    72.536449   -27.641967   -1714.3325     12417.71 
    3178    265.67025    3.7589287    73.556743   -27.862677   -1663.4449     12417.71 
    3179    266.18395    3.7580842    74.343663   -28.062716   -1544.7118     12417.71 
    3180    268.24122    3.7460728     74.48933   -28.255193   -1364.3425     12417.71 
    3181    272.26612    3.7220996    73.697559   -28.454379   -1135.3891     12417.71 
    3182    278.08258    3.6855715    71.978673   -28.666953   -874.35195     12417.71 
    3183     284.7825    3.6371191     69.72053   -28.889126   -602.03857     12417.71 
    3184    290.94654    3.5786228    67.587773   -29.107921   -341.31437     12417.71 
    3185    295.15319    3.5130489    66.278089   -29.306788   -113.80826     12417.71 
    3186     296.5724    3.4440152     66.23243   -29.473203    63.551199     12417.71 
    3187     295.3825    3.3750624    67.423958   -29.604935    181.09861     12417.71 
    3188    292.80718    3.3087295    69.323871   -29.712217    237.26443     12417.71 
    3189    290.72259    3.2456693    71.071007   -29.814689    237.44436     12417.71 
    3190     290.9623    3.1856713     71.78647   -29.934691    194.58986     12417.71 
    3191     294.5989    3.1279237    70.911523    -30.08688    117.29548     12417.71 
    3192    301.48275    3.0653452    68.435685   -30.275591    14.005054     12417.71 
    3193    310.21376    2.9896416    64.925128   -30.491649   -107.99076     12417.71 
    3194    318.57978    2.8921157    61.340383   -30.715528   -241.18641     12417.71 
    3195    324.28973    2.7589503    58.714154   -30.930255     -379.743     12417.71 
    3196    325.71927    2.5876931    57.809943   -31.119669   -519.30092     12417.71 
    3197    322.43027    2.3836921    58.881277   -31.278498   -650.50452     12417.71 
    3198    315.29733    2.1585291    61.606811   -31.411731   -761.62595     12417.71 
    3199    306.20616    1.9299627    65.210182   -31.533161   -838.45771     12417.71 
3200        0.54541926811312380075 11.191727897998850594 0.57936507936507930516 52 -166.43138650552162972
    3200    297.46138    1.7249416    68.711711   -31.656656   -869.60141     12417.71 
    3201    291.12029    1.5658269    71.222011    -31.79714   -850.44734     12417.71 
    3202    288.44164    1.4689496    72.186247   -31.962748   -780.49449     12417.71 
    3203     289.5961    1.4426577    71.512958   -32.153708   -666.06425     12417.71 
    3204    293.72273    1.4817137    69.561114   -32.359856   -514.64947     12417.71 
    3205    299.24826    1.5571417    67.003297   -32.575775   -344.06901     12417.71 
    3206    304.34427    1.6505522    64.616891   -32.785581   -176.79732     12417.71 
    3207    307.44236    1.7388061    63.066951    -32.98003   -27.126424     12417.71 
    3208    307.61476    1.8037721    62.741885   -33.153091    85.829087     12417.71 
    3209    304.74907    1.8362789    63.675815   -33.304594    152.21023     12417.71 
    3210    299.51567    1.8314022    65.569845   -33.438877    167.88015     12417.71 
    3211    293.13261    1.7885933    67.893466   -33.563207    134.30253     12417.71 
    3212    287.01926    1.7111015    70.032937   -33.685867    58.185122     12417.71 
    3213    282.42593      1.60454    71.450097   -33.814813   -50.415914     12417.71 
    3214     280.1184    1.4767877    71.818759   -33.955348   -180.37286     12417.71 
    3215    280.18401    1.3360216    71.112155   -34.108734    -315.1023     12417.71 
    3216    282.00029    1.1886588    69.620782   -34.272407   -443.88323     12417.71 
    3217    284.38768    1.0428863    67.887961   -34.437548   -557.94344     12417.71 
    3218    285.93796   0.90632863    66.567169   -34.592355   -647.28693     12417.71 
    3219    285.44441    0.7859998    66.230306   -34.724417   -704.58633     12417.71 
    3220    282.31329    0.6874289    67.179513    -34.82504   -721.97481     12417.71 
    3221    276.81844   0.61392567    69.326565   -34.892471   -692.09567     12417.71 
    3222    270.09242     0.566365     72.18925   -34.933264   -608.41527     12417.71 
    3223    263.83215   0.54425722    75.017623    -34.95987   -465.54553     12417.71 
    3224    259.80454   0.54313919    77.015476   -34.987727   -266.78399     12417.71 
    3225     259.2994   0.55661493    77.587159   -35.028722   -18.617426     12417.71 
    3226    262.71963   0.57928016    76.522772   -35.087129    265.68296     12417.71 
    3227    269.45842   0.60786729     74.05672   -35.158386    566.97518     12417.71 
    3228    278.10548   0.64217361    70.779394   -35.229727    866.18792     12417.71 
    3229     286.8968   0.68453502    67.434217   -35.289072    1138.8058     12417.71 
    3230    294.26477   0.74233492     64.67543   -35.324902     1353.756     12417.71 
    3231    299.29217   0.81918043    62.872164   -35.334241    1491.1406     12417.71 
    3232    301.89014   0.91872816    62.029391   -35.322776    1538.2158     12417.71 
    3233    302.66561    1.0438315    61.852559    -35.30304    1490.0472     12417.71 
    3234    302.53259    1.1957747    61.927801   -35.289714    1349.0346     12417.71 
    3235    302.23121    1.3737236    61.942853   -35.293782    1123.6238     12417.71 
    3236    301.96074    1.5744452    61.854052   -35.317796    826.86206     12417.71 
    3237    301.29298    1.7922828    61.922727   -35.354326     475.3634     12417.71 
    3238    299.41757    2.0193487    62.596308   -35.388577    88.901793     12417.71 
    3239    295.62239    2.2463705    64.276881   -35.404884   -308.37407     12417.71 
    3240    289.80502    2.4646118    67.074002   -35.391685   -690.89976     12417.71 
    3241    282.77066    2.6609186    70.655568   -35.350152   -1032.6635     12417.71 
    3242    276.14024    2.8223139    74.276705   -35.292256   -1306.5857     12417.71 
    3243    271.87173    2.9365487    76.993467   -35.237227   -1487.4162     12417.71 
    3244    271.54735     2.997485    77.989713   -35.203695   -1559.9956     12417.71 
    3245    275.72466    3.0076876    76.889609   -35.199859   -1521.3082     12417.71 
    3246    283.62521    2.9700619    73.928597   -35.222352   -1379.4518     12417.71 
    3247    293.28554    2.8906674    69.909031   -35.255221   -1152.5032     12417.71 
    3248    302.15593    2.7780805    65.948751   -35.275966   -865.16922     12417.71 
    3249    307.94458    2.6391821    63.111181   -35.264807   -543.95356     12417.71 
    3250    309.39614    2.4763229    62.051146   -35.213204   -215.82587     12417.71 
    3251    306.71013    2.2971822    62.804002    -35.12349    91.416516     12417.71 
    3252    301.46741    2.1140264    64.790436   -35.011725    360.45759     12417.71 
    3253    296.09271    1.9427958    67.033982   -34.899936    577.68757     12417.71 
    3254    293.02309    1.7967545    68.514694   -34.810869    732.48019     12417.71 
    3255    293.86191    1.6812639    68.538478   -34.761689    818.03515     12417.71 
    3256    298.78852    1.6018922    66.996346   -34.754486    823.88971     12417.71 
    3257    306.45038    1.5634319    64.421729   -34.777896    743.68077     12417.71 
    3258    314.40103    1.5672543    61.818457   -34.808557    576.28078     12417.71 
    3259    319.94225     1.601831    60.309753   -34.824016    329.61738     12417.71 
    3260    321.06919    1.6607824    60.724507   -34.802994    11.088436     12417.71 
    3261    317.22313    1.7430322    63.265036   -34.738213   -355.33086     12417.71 
    3262    309.58173    1.8479385    67.383515   -34.638447   -735.73758     12417.71 
    3263    300.72085    1.9750672    71.925692   -34.526215   -1090.0473     12417.71 
    3264    293.76038    2.1238008    75.502279   -34.430134   -1377.8405     12417.71 
    3265    291.29109    2.2928692    76.959768   -34.374505   -1564.9188     12417.71 
    3266    294.46931    2.4799159    75.780595   -34.370284   -1628.8632     12417.71 
    3267     302.6051    2.6812181    72.267301   -34.411297   -1562.1623     12417.71 
    3268    313.38448    2.8916499    67.446954   -34.477233   -1372.2399     12417.71 
    3269    323.63261    3.1049248     62.73594   -34.541737   -1078.6681     12417.71 
    3270    330.33834    3.3140762    59.488495    -34.58182   -708.63919     12417.71 
    3271     331.5879    3.5120747    58.584181   -34.584933   -292.12219     12417.71 
    3272    327.11203    3.6924478    60.183797   -34.551762    142.02123     12417.71 
    3273    318.30034    3.8497781    63.717243   -34.494849     568.2186     12417.71 
    3274    307.71431    3.9800001    68.089877   -34.434263    964.59895     12417.71 
    3275    298.27439    4.0807583    72.031907    -34.39178    1313.1084     12417.71 
    3276    292.37703    4.1514179    74.482332   -34.384437    1595.6708     12417.71 
    3277    291.19963    4.1919581    74.896201    -34.41983    1795.4491     12417.71 
    3278    294.38747      4.20301    73.389298   -34.493326    1896.9986     12417.71 
    3279    300.21212    4.1857115    70.679363   -34.589158    1887.8677     12417.71 
    3280    306.15315    4.1417305    67.841449   -34.685108     1761.459     12417.71 
    3281     309.7235     4.073438    65.953082   -34.759509    1520.1846     12417.71 
    3282    309.27356    3.9841514    65.743629   -34.798192    1177.8449     12417.71 
    3283     304.5079    3.8783361    67.364585   -34.798944    760.21656     12417.71 
    3284    296.54273    3.7616655    70.357599    -34.77187    303.27205     12417.71 
    3285    287.49264    3.6408691    73.827292   -34.735519   -150.87142     12417.71 
    3286    279.74137    3.5233434     76.75303   -34.710106    -559.4849     12417.71 
    3287    275.16228    3.4147311    78.326876   -34.709687   -882.54179     12417.71 
    3288    274.54502    3.3164694    78.200876   -34.739443   -1093.7922     12417.71 
    3289    277.40363    3.2312435    76.568014   -34.791534   -1179.0633     12417.71 
    3290     282.2188    3.1603475    74.059971    -34.84993   -1136.8824     12417.71 
    3291    287.00309    3.1026319    71.508978   -34.895099   -975.51517     12417.71 
    3292    289.97621    3.0524873    69.662226   -34.913076   -714.62693     12417.71 
    3293    290.12048    3.0105583    68.944657   -34.896192   -378.15528     12417.71 
    3294    287.47921    2.9796912    69.343013   -34.845127    3.5779503     12417.71 
    3295    283.10132    2.9547758    70.442096    -34.77143    401.02459     12417.71 
    3296    278.64788    2.9276238    71.593971   -34.690446    788.29673     12417.71 
    3297    275.81386    2.8888649    72.158507   -34.617571    1136.7133     12417.71 
    3298    275.76415    2.8316746    71.732031   -34.562143    1418.2751     12417.71 
    3299    278.77351    2.7511415    70.285795   -34.524708    1609.2171     12417.71 
3300        0.54444036482379221109 11.21972681440418107 0.57936507936507930516 51 -163.25494470249000756
    3300    284.18226     2.644949    68.165573   -34.496757    1691.1355     12417.71 
    3301    290.67267    2.5133852    65.954095   -34.465307    1650.7262     12417.71 
    3302    296.75532    2.3639411    64.249007   -34.415421    1486.2336     12417.71 
    3303    301.28885     2.203854    63.442004    -34.33965     1200.783     12417.71 
    3304    303.81767    2.0406407    63.587028   -34.239455    812.71696     12417.71 
    3305    304.59882    1.8874275    64.409257   -34.123358    353.27949     12417.71 
    3306    304.35382    1.7571008     65.44741   -34.004232   -146.60152     12417.71 
    3307    303.86017    1.6566047    66.265031   -33.894216   -650.32346     12417.71 
    3308    303.56007    1.5900126    66.638567   -33.798406   -1121.1592     12417.71 
    3309    303.38048    1.5585395    66.640095   -33.713353   -1526.5568     12417.71 
    3310    302.83626     1.560775    66.581155   -33.629016   -1840.3433     12417.71 
    3311    301.35663    1.5932374    66.846549   -33.533575   -2043.7802     12417.71 
    3312    298.66967    1.6531649       67.695   -33.418893   -2122.5296     12417.71 
    3313    295.07432    1.7366564    69.115703   -33.283894   -2076.9105     12417.71 
    3314    291.45426    1.8366538    70.804365   -33.135486   -1911.8856     12417.71 
    3315    289.01247    1.9470537    72.267254   -32.984973   -1640.2921     12417.71 
    3316    288.84312    2.0630346    73.009368   -32.843446   -1283.1863     12417.71 
    3317    291.50353    2.1810102    72.730616   -32.717258   -869.18783     12417.71 
    3318    296.75126    2.2983039    71.454252   -32.605549   -432.70267     12417.71 
    3319    303.54714    2.4126826    69.540423   -32.500593    -10.90415     12417.71 
    3320    310.32815    2.5221159    67.580365   -32.391026     361.0707     12417.71 
    3321    315.46639    2.6270054    66.207184   -32.263816    653.76962     12417.71 
    3322    317.77494    2.7241002    65.885934   -32.111584    844.05532     12417.71 
    3323    316.88454    2.8086362    66.753799   -31.933124    923.05016     12417.71 
    3324    313.36495    2.8764357     68.56512   -31.734853    894.88505     12417.71 
    3325    308.54792    2.9246599     70.76526   -31.529323    775.54136     12417.71 
    3326    304.09271    2.9522764    72.674938   -31.331487    589.95877     12417.71 
    3327    301.43196    2.9600736    73.726128   -31.153653    368.09041     12417.71 
    3328    301.28839    2.9502068    73.666808   -31.000846    140.81346     12417.71 
    3329    303.43508    2.9267326    72.656829   -30.869395   -60.848135     12417.71 
    3330    306.80416    2.8988925    71.212934   -30.744582   -211.78866     12417.71 
    3331    309.91933    2.8691884     70.01818   -30.610965   -297.98057     12417.71 
    3332    311.47144    2.8369176    69.663957   -30.456093   -305.20188     12417.71 
    3333    310.81937    2.8076908    70.423983   -30.271702   -224.23203     12417.71 
    3334    308.25026    2.7812987    72.147524   -30.063274   -54.624958     12417.71 
    3335    304.87389    2.7560219     74.31183   -29.843462     200.0835     12417.71 
    3336    302.19527    2.7330153    76.211392   -29.627837    529.18394     12417.71 
    3337    301.55247    2.7168548    77.209019   -29.429473     915.4286     12417.71 
    3338    303.63471    2.7122605    76.954507    -29.25343    1336.1739     12417.71 
    3339    308.22294    2.7252337    75.496258   -29.097201    1751.5871     12417.71 
    3340    314.24593    2.7677955     73.25425   -28.950906    2124.0806     12417.71 
    3341    320.12727    2.8511598    70.875733   -28.802047    2416.8665     12417.71 
    3342    324.27271    2.9838399    69.028167   -28.639532    2598.7402     12417.71 
    3343    325.54866    3.1716806    68.195818   -28.456667    2649.7439     12417.71 
    3344    323.62647    3.4139358    68.537456    -28.25314    2557.1025     12417.71 
    3345     319.0843    3.7020115    69.844592    -28.03487    2324.4687     12417.71 
    3346    313.24899    4.0196556    71.608409   -27.810886     1971.784     12417.71 
    3347    307.79144     4.342937    73.180726   -27.598548    1526.3285     12417.71 
    3348    304.20558    4.6633616    73.982362   -27.406063    1017.0302     12417.71 
    3349    303.34664    4.9711713     73.69965   -27.240565    478.16907     12417.71 
    3350    305.14343    5.2611988    72.403237    -27.09936   -54.874397     12417.71 
    3351     308.6072    5.5307965    70.540101   -26.972739   -553.44017     12417.71 
    3352     312.1669     5.779608    68.790022   -26.844558   -993.23435     12417.71 
    3353    314.22065    6.0084719    67.827374   -26.699517   -1358.2289     12417.71 
    3354    313.71956    6.2226521    68.070536   -26.527148   -1635.1694     12417.71 
    3355    310.57732    6.4271885    69.513311   -26.327233   -1814.2332     12417.71 
    3356    305.73079     6.626688    71.708362   -26.108235   -1889.5851     12417.71 
    3357     300.8252    6.8160497    73.915983   -25.888799   -1863.3901     12417.71 
    3358    297.61078    6.9901157    75.369747   -25.685042   -1746.6859     12417.71 
    3359    297.28898    7.1437591    75.559811   -25.507972    -1555.739     12417.71 
    3360    300.06456    7.2705797    74.428024   -25.358362   -1314.2268     12417.71 
    3361    305.05045    7.3638696    72.401627   -25.226469   -1051.1559     12417.71 
    3362    310.56746    7.4176773    70.251588   -25.095652   -797.18154     12417.71 
    3363    314.73144    7.4279742    68.824525   -24.948663   -579.18144     12417.71 
    3364    316.12336     7.395003     68.74104   -24.772494   -416.62215     12417.71 
    3365    314.31087    7.3208689    70.164171   -24.565199   -319.87351     12417.71 
    3366    310.03518    7.2151282    72.718495   -24.332713    -284.7471     12417.71 
    3367    305.00331    7.0859903    75.592308    -24.09172   -300.63772     12417.71 
    3368    301.33301    6.9403148    77.795064   -23.861845   -347.26742     12417.71 
    3369    300.81689    6.7848136    78.491181   -23.659932   -401.20099     12417.71 
    3370    304.26637    6.6250424    77.300392   -23.493763    -439.1145     12417.71 
    3371    311.15385    6.4644221    74.460196   -23.360584   -444.81791     12417.71 
    3372    319.70056    6.3086305    70.784747   -23.245059   -409.21767     12417.71 
    3373    327.41171    6.1616668    67.423015   -23.126419   -328.19935     12417.71 
    3374      331.887    6.0251948    65.490381   -22.985117    -202.0312     12417.71 
    3375    331.63395    5.8985596    65.696316   -22.809808   -33.095495     12417.71 
    3376    326.60547    5.7780878    68.098349   -22.599721    177.56386     12417.71 
    3377    318.25931    5.6480191    72.071123    -22.37197    428.47986     12417.71 
    3378    309.08611    5.5027087    76.503144   -22.146607    713.89992     12417.71 
    3379     301.8214    5.3444954     80.14831    -21.94302    1024.5395     12417.71 
    3380    298.61543    5.1702092    82.009652   -21.776936    1343.8173     12417.71 
    3381    300.39544    4.9784216    81.626722    -21.65123    1651.2629     12417.71 
    3382    306.64291    4.7723473    79.176488   -21.556898    1923.5769     12417.71 
    3383     315.6386    4.5589763    75.370331   -21.476674    2131.1395     12417.71 
    3384    325.05086    4.3461261    71.198818   -21.392603    2247.9413     12417.71 
    3385    332.64448    4.1442663    67.620629   -21.291135    2253.6755     12417.71 
    3386    336.89483     3.964212    65.297947   -21.165884     2140.681     12417.71 
    3387    337.33157    3.8079507     64.45192   -21.023354    1912.3626     12417.71 
    3388    334.52339    3.6781189    64.868937   -20.873551    1583.6702     12417.71 
    3389     329.7622    3.5764079    66.036643   -20.729741    1177.4103     12417.71 
    3390    324.59463    3.4965131    67.350783   -20.605061    727.88602     12417.71 
    3391    320.32768    3.4272365     68.32005   -20.508816    264.41902     12417.71 
    3392     317.6379    3.3727348    68.707887   -20.442325     -177.874     12417.71 
    3393    316.49013    3.3376939    68.570434   -20.398149   -578.37987     12417.71 
    3394    316.28183    3.3073394    68.195401   -20.368762   -917.69203     12417.71 
    3395    316.09204    3.2705816    67.972125    -20.34331   -1178.8347     12417.71 
    3396    315.02592    3.2149951     68.24567   -20.314651   -1358.5236     12417.71 
    3397    312.48677    3.1305537    69.209033   -20.278652   -1454.9035     12417.71 
    3398    308.31277    3.0145934    70.857507   -20.233808   -1473.1015     12417.71 
    3399    302.78896    2.8679442    73.005078   -20.182006    -1422.003     12417.71 
3400        0.54380891773964490366 11.194069397758692475 0.58994708994708988659 46 -154.48773825714010854
    3400    296.55099    2.6970661    75.341237    -20.12549   -1313.1886     12417.71 
    3401    290.44225    2.5129277    77.500728   -20.066353   -1160.8545     12417.71 
    3402    285.36448    2.3289549    79.127232    -20.00643   -980.89943     12417.71 
    3403     282.1363     2.158658    79.925022   -19.947604   -789.90279     12417.71 
    3404     281.3663    2.0115945    79.701458   -19.891207   -599.10114     12417.71 
    3405    283.32735     1.889928    78.403751   -19.841015   -426.74109     12417.71 
    3406    287.84726    1.7978486    76.148126   -19.797105   -287.31636     12417.71 
    3407    294.27534    1.7368097    73.227387   -19.759045   -190.00016     12417.71 
    3408    301.54438    1.7067164    70.085084   -19.723252   -128.34603    13585.633 
    3409     308.3431    1.7031453    67.249625   -19.684692   -123.40156    13585.633 
    3410    313.36499     1.720875    65.235707   -19.638401   -152.12052    13585.633 
    3411    315.60127    1.7572161    64.432143   -19.578543   -212.63071    13585.633 
    3412    314.60839    1.8055451    65.004112   -19.502673   -292.26649    13585.633 
    3413    310.64905    1.8582848    66.840257   -19.411617   -374.76697    13585.633 
    3414    304.67038    1.9081365    69.563154   -19.310176   -441.90485    13585.633 
    3415    298.10891    1.9503133     72.60697   -19.205529   -476.72839    13585.633 
    3416    292.55984    1.9810669    75.348552   -19.106967   -467.30828    13585.633 
    3417    289.38759    1.9990624    77.260664   -19.022098   -406.04302    13585.633 
    3418    289.38457     2.003545    78.045345   -18.955453    -292.0054    13585.633 
    3419    292.57065    1.9977747    77.706903   -18.905939   -132.95302    13585.633 
    3420    298.20793    1.9893968     76.53979   -18.866617    54.099606    13585.633 
    3421     305.0373    1.9858274    75.029788   -18.827956    248.88269    13585.633 
    3422     311.6453    1.9935026    73.702391   -18.781032    427.27028    13585.633 
    3423    316.84478    2.0171174    72.970261   -18.720427    567.32058    13585.633 
    3424    319.95082    2.0589548    73.028609    -18.64595    650.72515    13585.633 
    3425    320.88069    2.1181059    73.827028   -18.562039    664.69079    13585.633 
    3426    320.07458    2.1907018    75.114245   -18.475901    604.28477    13585.633 
    3427    318.29723     2.272233    76.527606   -18.394091    470.08208    13585.633 
    3428     316.4054    2.3570444     77.69133   -18.322164    266.55668    13585.633 
    3429    315.14282    2.4400982    78.297994   -18.263632    4.4031508    13585.633 
    3430    314.98817    2.5180779    78.165832   -18.220555    -302.1168    13585.633 
    3431    316.06177    2.5897542    77.274128   -18.193808   -636.55718    13585.633 
    3432    318.09265     2.655727    75.777231   -18.182701   -981.66275    13585.633 
    3433    320.46185    2.7177717    73.988922   -18.184315   -1320.0993    13585.633 
    3434    322.33302    2.7807502    72.324891   -18.194944   -1632.5096    13585.633 
    3435    322.89403    2.8585348    71.199576   -18.202452   -1906.0156    13585.633 
    3436    321.66466    2.9484263    70.896993   -18.202739   -2132.5771    13585.633 
    3437    318.72311    3.0408627    71.460187   -18.193386    -2301.829    13585.633 
    3438    314.76215    3.1245404    72.646501   -18.177503   -2407.9391    13585.633 
    3439    310.93555    3.1883196    73.981006   -18.163991    -2446.971    13585.633 
    3440    308.50387    3.2230146    74.904509   -18.164913   -2418.8904    13585.633 
    3441    308.38552     3.224138    74.971382   -18.190513   -2328.2023    13585.633 
    3442    310.78001    3.1906763    74.026146    -18.24614   -2187.2917    13585.633 
    3443     315.0073     3.126037    72.290453   -18.329022   -2011.7525    13585.633 
    3444    319.64516    3.0385534    70.319888   -18.428894     -1819.97    13585.633 
    3445    322.94548    2.9403095    68.836513   -18.531073   -1630.3183    13585.633 
    3446     323.4018    2.8452777    68.488568    -18.62112   -1458.0454    13585.633 
    3447    320.28419    2.7660412    69.617425   -18.689072   -1310.7648    13585.633 
    3448    313.94812    2.7093525    72.114432   -18.734835   -1187.6221    13585.633 
    3449    305.79289    2.6796897     75.42334   -18.766395   -1088.5631    13585.633 
    3450     297.8646    2.6777315    78.699225   -18.798783   -1003.7114    13585.633 
    3451    292.21613    2.7007073    81.074819   -18.851467   -918.71082    13585.633 
    3452     290.2353    2.7547484    81.946306    -18.93326    -822.9064    13585.633 
    3453    292.20264    2.8360543     81.17524    -19.04879   -712.77172    13585.633 
    3454    297.21579    2.9347442    79.130414   -19.190043   -586.33684    13585.633 
    3455    303.53671      3.02838    76.550101   -19.339175   -439.12665    13585.633 
    3456    309.19709    3.0891628    74.272273   -19.481109   -281.17879    13585.633 
    3457    312.68397    3.1110441    72.927003   -19.599656   -120.73033    13585.633 
    3458    313.49831    3.0903876    72.709565   -19.691245    36.470493    13585.633 
    3459    312.30608    3.0261377     73.32146   -19.764719    187.54314    13585.633 
    3460    310.63639    2.9232318    74.102878   -19.838176    330.23477    13585.633 
    3461    310.21279    2.8092194    74.307581   -19.934572    468.94864    13585.633 
    3462    312.26407    2.7243491    73.418117   -20.066038    592.28887    13585.633 
    3463    317.03541    2.6783219     71.37991    -20.24214    694.98333    13585.633 
    3464    323.57981    2.6747004    68.666636   -20.458378     764.1669    13585.633 
    3465    330.02599    2.7158404     66.14432   -20.698775    790.36491    13585.633 
    3466    334.23694    2.7987117     64.77332   -20.942724    764.18332    13585.633 
    3467    334.60194    2.9171173    65.251017   -21.171382    682.27213    13585.633 
    3468     330.6868    3.0620604    67.722715   -21.374771    549.00618    13585.633 
    3469    323.49601    3.2226883    71.670576   -21.554982    377.76689    13585.633 
    3470     315.2315    3.3837694    76.031088   -21.728582    188.17877    13585.633 
    3471    308.60006    3.5336787    79.512447   -21.918378 0.0020951332    13585.633 
    3472    305.90622     3.665156    81.009388   -22.148368   -166.25957    13585.633 
    3473    308.24331    3.7794103      79.9742    -22.43319   -293.55639    13585.633 
    3474    315.07731    3.8786449    76.614794   -22.775285   -377.72622    13585.633 
    3475    324.36959    3.9629799    71.846786   -23.162493   -419.89801    13585.633 
    3476    333.19568    4.0327388     67.01166   -23.572559   -424.73881    13585.633 
    3477    338.69214    4.0852826    63.450592    -23.97997   -400.83752    13585.633 
    3478    338.99101    4.1144902    62.076484   -24.365357   -362.69997    13585.633 
    3479    333.82055    4.1159725    63.090405   -24.720857   -317.51413    13585.633 
    3480    324.57547    4.0868404    65.939224   -25.052905   -268.74337    13585.633 
    3481    313.81392    4.0273744    69.529932   -25.380139   -216.04578    13585.633 
    3482    304.35757    3.9437923    72.624797   -25.726746   -158.22247    13585.633 
    3483    298.32675     3.849601    74.275353   -26.110344   -98.566978    13585.633 
    3484    296.45657    3.7545963    74.138778   -26.539766   -44.530625    13585.633 
    3485    297.92545    3.6687192    72.563471   -27.006802   -4.9318756    13585.633 
    3486     300.7747    3.5926823    70.416373   -27.491155    14.420888    13585.633 
    3487    302.71238    3.5266022    68.722129   -27.966604    1.6787315    13585.633 
    3488    302.01092    3.4780307     68.25551   -28.410803   -46.243192    13585.633 
    3489    298.19624    3.4544121    69.238482    -28.81366   -124.98947    13585.633 
    3490     292.2254    3.4627436    71.256567   -29.180667   -222.52974    13585.633 
    3491    286.10917     3.509149    73.422365   -29.530807   -321.58359    13585.633 
    3492    282.12911    3.5984738    74.721497   -29.889623   -403.43376    13585.633 
    3493    281.94368    3.7338553    74.410814   -30.279942   -452.17601    13585.633 
    3494    285.91176     3.916203    72.322223   -30.713532    -458.1188    13585.633 
    3495    292.88105    4.1435725    68.960597   -31.186662   -419.34895    13585.633 
    3496    300.52474    4.4105048      65.3567    -31.68107   -341.09264    13585.633 
    3497    306.11912    4.7074992    62.721493   -32.169975   -233.21824    13585.633 
    3498    307.49701    5.0208469    62.019387   -32.627107   -106.81967    13585.633 
    3499    303.84021      5.33304    63.611356   -33.035824    28.906294    13585.633 
3500        0.54626237074871530908 11.218414451666092191 0.59788359788359790592 54 -167.51537324386720229
    3500    296.01658    5.6238777    67.100933   -33.395257    168.41856    13585.633 
    3501    286.32015    5.8722381    71.448651   -33.721059    309.68794    13585.633 
    3502    277.68798    6.0583225     75.32374   -34.039897    452.36063    13585.633 
    3503    272.66563    6.1670513    77.570146   -34.379703    597.27209    13585.633 
    3504    272.51288    6.1911268    77.614157   -34.756415    739.22007    13585.633 
    3505    276.78911    6.1263666     75.65723   -35.170408     868.7951    13585.633 
    3506    283.57265    5.9762515    72.577374   -35.603849    974.84397    13585.633 
    3507    290.24218    5.7515578    69.574863   -36.028935    1047.4512    13585.633 
    3508     294.5169    5.4688805    67.700256   -36.419314      1081.01    13585.633 
    3509    295.34354    5.1483701    67.450438   -36.760925    1076.9285    13585.633 
    3510    293.28059    4.8110133    68.591413   -37.057859    1044.2828    13585.633 
    3511    290.21227    4.4830155    70.275714   -37.332434    1002.3578    13585.633 
    3512     288.5568    4.1913814    71.405125   -37.611716    966.33448    13585.633 
    3513    290.25388    3.9465972    71.093079    -37.92604    949.92944    13585.633 
    3514    295.90888    3.7612581    69.044644   -38.286801    961.07384    13585.633 
    3515    304.45871    3.6429989    65.705258   -38.693117    1002.4528    13585.633 
    3516    313.50857    3.5995007     62.11974   -39.122258    1062.4407    13585.633 
    3517    320.20874    3.6230851    59.549436   -39.545682    1128.8157    13585.633 
    3518    322.30383    3.7031118    58.995866   -39.935909     1189.406    13585.633 
    3519    319.00261    3.8270236    60.809826   -40.277473    1234.8904    13585.633 
    3520    311.32059     3.981175    64.536265   -40.572673    1260.4055    13585.633 
    3521    301.75219    4.1515971    69.058377   -40.840884    1264.9277    13585.633 
    3522     293.3845    4.3247759    72.991348   -41.111349    1249.0373    13585.633 
    3523    288.78083    4.4883147    75.179793   -41.411889    1210.7623    13585.633 
    3524    289.05284    4.6317416    75.111256   -41.757768    1144.2578    13585.633 
    3525    293.47134    4.7473688    73.088734   -42.145795     1039.879    13585.633 
    3526     299.7626    4.8324488    70.097572   -42.554274     884.6335    13585.633 
    3527    304.98785    4.8809968    67.420309   -42.952809    667.44808    13585.633 
    3528    306.63322     4.887006    66.149935   -43.314384    377.47516    13585.633 
    3529    303.50992    4.8543366    66.787322   -43.622605    15.246812    13585.633 
    3530    296.16236    4.7904375    69.071127   -43.878813   -408.03795    13585.633 
    3531     286.6228    4.7056916    72.096102   -44.099619   -871.55819    13585.633 
    3532    277.64637    4.6057715    74.664135    -44.31161     -1345.66    13585.633 
    3533    271.70599    4.4984682    75.727427   -44.538783   -1805.8406    13585.633 
    3534    270.13778    4.3970571    74.758098   -44.795084    -2225.134    13585.633 
    3535    272.76254     4.315144    71.911569   -45.078693   -2584.6001    13585.633 
    3536     278.0601     4.262864    67.937329    -45.37477   -2870.8002    13585.633 
    3537    283.80474    4.2471498    63.883848   -45.661048   -3074.7829    13585.633 
    3538    287.91091    4.2707462    60.715184   -45.916835   -3190.8774    13585.633 
    3539    289.17229    4.3315265    58.982278   -46.130718   -3214.9554    13585.633 
    3540    287.63068     4.422448     58.66562   -46.304556   -3143.6296    13585.633 
    3541    284.45284    4.5327707    59.239391   -46.453234   -2973.6362    13585.633 
    3542    281.38479    4.6531536    59.924224   -46.595912   -2705.0343    13585.633 
    3543    280.01673    4.7674795    60.025369   -46.752997   -2342.9679    13585.633 
    3544    281.12504     4.860256    59.222759   -46.934552   -1902.6342    13585.633 
    3545    284.36158     4.920432    57.697515   -47.137751     -1402.45    13585.633 
    3546    288.41888    4.9408322    56.045966   -47.348099    -865.4931    13585.633 
    3547    291.58093    4.9187994     55.01907   -47.545791   -316.56803    13585.633 
    3548    292.42498    4.8570223    55.198249   -47.714843    222.90742    13585.633 
    3549    290.38621    4.7642476    56.745319   -47.847243    733.40703    13585.633 
    3550    285.95798      4.64532    59.331949   -47.947581    1202.8813    13585.633 
    3551    280.43969    4.4925961    62.276537   -48.034827    1625.4953    13585.633 
    3552     275.3382    4.3064746    64.826483    -48.12445    1992.7674    13585.633 
    3553     271.7307    4.0927804    66.459844   -48.227527    2301.5913    13585.633 
    3554    269.87358    3.8599119    67.075175   -48.345224    2549.6914    13585.633 
    3555    269.18513    3.6285243    66.992789   -48.463726    2736.9062    13585.633 
    3556    268.64315    3.4120606    66.772297   -48.567639    2856.0951    13585.633 
    3557    267.36007    3.2166217    66.934895   -48.642392    2907.6536    13585.633 
    3558    265.06663    3.0492651     67.71095   -48.680127    2897.0803    13585.633 
    3559    262.32936    2.9095509    68.922159   -48.687102    2831.8552    13585.633 
    3560    260.35681    2.7994528    70.049141   -48.676546     2719.172    13585.633 
    3561    260.48929    2.7197824    70.458195   -48.667659     2568.042    13585.633 
    3562    263.59708    2.6623096    69.695097   -48.674375    2392.0835    13585.633 
    3563    269.57387    2.6138095    67.726334   -48.703214    2195.6549    13585.633 
    3564    277.18471    2.5710542    65.022019   -48.746425    1979.9076    13585.633 
    3565    284.39084    2.5358053    62.435218   -48.785434    1744.2222    13585.633 
    3566     289.0309    2.5112395    60.909948    -48.79872    1488.7582    13585.633 
    3567    289.62295    2.5009828    61.121915   -48.769687    1216.0358    13585.633 
    3568    285.99548    2.5015558    63.190714   -48.693611    937.06516    13585.633 
    3569    279.44516    2.5078675    66.583519   -48.581434    659.17941    13585.633 
    3570    272.35879    2.5202499    70.263018   -48.451416    399.73769    13585.633 
    3571    267.42571    2.5205924    73.034386   -48.336687    170.05831    13585.633 
    3572    266.65293    2.5056328    73.969452   -48.254501   -24.225152    13585.633 
    3573    270.61268    2.4769425    72.747015   -48.210957   -181.03681    13585.633 
    3574     278.2065    2.4379761    69.778612   -48.195516   -304.15651    13585.633 
    3575    287.01616    2.3931015    66.071219   -48.184807   -405.19372    13585.633 
    3576    294.12584    2.3466347     62.87788   -48.152067   -495.42724    13585.633 
    3577    297.12155    2.3032809    61.265034   -48.076208   -586.71268    13585.633 
    3578    294.91502    2.2667661    61.751827   -47.949347   -684.44281    13585.633 
    3579    288.10732    2.2409997    64.144586     -47.7786   -787.06075    13585.633 
    3580    278.78858    2.2301988    67.614758    -47.58316   -886.80821    13585.633 
    3581    269.86108     2.238817    70.982612   -47.387593   -972.19677    13585.633 
    3582    264.12543     2.271171    73.103142   -47.213694   -1030.9885    13585.633 
    3583    263.43135    2.3302145    73.224937   -47.073445   -1054.8342    13585.633 
    3584    268.15131    2.4150378    71.211092   -46.966053   -1039.2841    13585.633 
    3585    277.11196    2.5227022    67.561251   -46.879504   -986.16924    13585.633 
    3586     287.9922    2.6542199    63.239206   -46.789966   -901.74553    13585.633 
    3587    298.05765    2.7974521    59.369669   -46.678519   -797.64553    13585.633 
    3588    304.95935    2.9347075    56.906021   -46.531044   -682.80851    13585.633 
    3589    307.36101    3.0479937    56.369878   -46.343801   -563.01871    13585.633 
    3590     305.2353    3.1219854    57.735872    -46.12381   -439.47572    13585.633 
    3591    299.75755    3.1469009    60.484099   -45.885688   -310.19458    13585.633 
    3592    292.86731    3.1198304     63.78761   -45.646785    -170.9975    13585.633 
    3593     286.6604    3.0443502     66.76511   -45.422406   -17.505421    13585.633 
    3594    282.79953     2.931684    68.719565   -45.221146    149.89612    13585.633 
    3595    282.10735    2.7980657    69.299859   -45.044213    328.60104    13585.633 
    3596    284.41875    2.6608024    68.558142    -44.88608    511.83197    13585.633 
    3597    288.68214    2.5355929    66.906298   -44.738066    690.28999    13585.633 
    3598    293.25435    2.4433983    64.995409   -44.585722    853.83102    13585.633 
    3599    296.34066    2.3937982    63.548911   -44.418881    986.16437    13585.633 
3600        0.54262223368426854009 11.235652092093861398 0.58730158730158721347 50 -178.5412933395160735
    3600    296.44191    2.3935359    63.181701   -44.228467    1081.0227    13585.633 
    3601    292.76392    2.4414232     64.23783   -44.009544    1126.5392    13585.633 
    3602    285.48193    2.5204406    66.686271   -43.762925    1119.2776    13585.633 
    3603     275.7418    2.6110101    70.102737   -43.495184    1061.6013    13585.633 
    3604    265.43414    2.6951169    73.752585   -43.217383    960.90219    13585.633 
    3605    256.75982    2.7584791    76.764066   -42.942437    827.65988    13585.633 
    3606    251.68596    2.7915019    78.352774   -42.681194    673.38761    13585.633 
    3607    251.43543    2.7888885    78.037776   -42.438444    510.01179    13585.633 
    3608    256.15058    2.7483561    75.787181   -42.211477    344.98937    13585.633 
    3609    264.83082    2.6718071    72.047707   -41.989235    182.53356    13585.633 
    3610    275.57781    2.5636621    67.642764   -41.755819    25.053104    13585.633 
    3611    286.09316    2.4296856    63.560213   -41.494687    -125.2344    13585.633 
    3612    294.29372    2.2790071    60.683227   -41.193656   -263.97695    13585.633 
    3613    298.89415    2.1217607    59.538425   -40.848169   -390.31819    13585.633 
    3614    299.77485    1.9651027    60.137402   -40.463787   -497.48841    13585.633 
    3615    297.98859    1.8158625    61.971459   -40.055494   -576.32611    13585.633 
    3616    295.39073    1.6807459    64.176081   -39.644262   -617.05907    13585.633 
    3617    293.97913    1.5664634    65.825967   -39.251023      -611.98    13585.633 
    3618    295.16344    1.4779741    66.267529    -38.88679   -556.05521    13585.633 
    3619    299.22191    1.4031565    65.367478   -38.558477   -451.49841    13585.633 
    3620    305.13806    1.3414705    63.574913   -38.251248   -312.90856    13585.633 
    3621    310.95712    1.2977632    61.756967   -37.944066   -155.33803    13585.633 
    3622    314.56361     1.279491    60.857022   -37.613811     3.313698    13585.633 
    3623    314.55705    1.2908501     61.50525   -37.247279    144.61739    13585.633 
    3624    310.87769    1.3321963    63.740388   -36.846082    256.86554    13585.633 
    3625    304.91194      1.40178     66.96359   -36.424858     335.9558    13585.633 
    3626    299.01953     1.488328    70.150945   -36.012241     386.0896    13585.633 
    3627    295.64313    1.5892863    72.243106   -35.629967    402.42475    13585.633 
    3628    296.38685    1.6982248    72.556313   -35.292673    382.52031    13585.633 
    3629    301.39935    1.8092519    71.052389   -34.996979    330.25314    13585.633 
    3630    309.30131    1.9170067     68.35903    -34.72627     238.7481    13585.633 
    3631    317.69546    2.0200516    65.533356   -34.455735     107.9592    13585.633 
    3632    324.05282    2.1233557     63.66184   -34.160895   -63.209571    13585.633 
    3633    326.64108     2.228379    63.453825   -33.831029   -270.39605    13585.633 
    3634    325.11853    2.3372904    64.984556   -33.470066    -500.8637    13585.633 
    3635    320.59272    2.4499669    67.683777   -33.096496   -728.47927    13585.633 
    3636    315.11757    2.5695165    70.571867   -32.734219   -934.67999    13585.633 
    3637    310.84797    2.6990465    72.648389   -32.406805   -1099.3463    13585.633 
    3638    309.19129    2.8397679    73.281222   -32.126638   -1204.7051    13585.633 
    3639    310.26722    2.9906993    72.446503   -31.890831   -1240.3984    13585.633 
    3640    312.89984    3.1479754    70.725211   -31.682207   -1204.4004    13585.633 
    3641    315.14523    3.3047619    69.055638   -31.475798   -1101.8212    13585.633 
    3642      315.153    3.4512812    68.336927   -31.247574    -940.4602    13585.633 
    3643    312.01607    3.5704956    69.040887   -30.987278   -729.56988    13585.633 
    3644    306.23723    3.6518151    70.991786   -30.697818   -483.11392    13585.633 
    3645    299.62722    3.6918874    73.409227   -30.397888   -210.18763    13585.633 
    3646     294.6506    3.6935268    75.207383    -30.11437    81.770126    13585.633 
    3647    293.44801    3.6678502    75.437983   -29.869652    381.79183    13585.633 
    3648    296.93309    3.6289774    73.700026   -29.674445    674.94137    13585.633 
    3649    304.32228    3.5972708    70.345531   -29.523117    946.90816    13585.633 
    3650    313.35654    3.5948569    66.387465   -29.387706    1182.6167    13585.633 
    3651    321.11082    3.6275963    63.133361   -29.241713    1356.9402    13585.633 
    3652    325.07031    3.7045796    61.689655   -29.060101    1460.4454    13585.633 
    3653    324.12234    3.8180309    62.528058   -28.836432    1487.9879    13585.633 
    3654    318.96824    3.9600729    65.293823   -28.580722    1440.6245    13585.633 
    3655    311.82083    4.1292294    68.938271    -28.32058    1335.0988    13585.633 
    3656    305.53128    4.3309283    72.127278   -28.084424    1192.0886    13585.633 
    3657    302.45949    4.5614863    73.764548   -27.898279    1028.9141    13585.633 
    3658    303.53674    4.8115342    73.420959   -27.769762    861.78533    13585.633 
    3659    307.88763    5.0709843    71.498357   -27.686426    703.67635    13585.633 
    3660    313.19506    5.3291414     69.06116   -27.620548    556.47539    13585.633 
    3661    316.65188    5.5747766    67.402344   -27.540092    422.09182    13585.633 
    3662    316.10831    5.8003223    67.518221   -27.420997    302.52089    13585.633 
    3663    310.97184    6.0032121    69.700016   -27.256186    202.18185    13585.633 
    3664    302.50341    6.1855693    73.402089   -27.057082     129.6349    13585.633 
    3665    293.39471    6.3483717    77.435484    -26.85256    95.645889    13585.633 
    3666    286.78574    6.5013257    80.408919   -26.670359    106.54745    13585.633 
    3667    285.12215    6.6479938    81.246461   -26.534715    160.44724    13585.633 
    3668    289.26703    6.7884286    79.585556   -26.451857     250.8693    13585.633 
    3669    298.18914    6.9210721    75.906694   -26.409593    363.60694    13585.633 
    3670    309.34566     7.041683    71.354639   -26.382646      479.145    13585.633 
    3671    319.59112    7.1431277    67.324541   -26.342701    576.89488    13585.633 
    3672    326.26925    7.2162737    64.969374    -26.26895     639.9387    13585.633 
    3673    328.09326    7.2510462    64.808315   -26.155023    660.75779    13585.633 
    3674    325.50115    7.2384967    66.573404   -26.011804    637.67901    13585.633 
    3675    320.38395    7.1748319    69.342382   -25.861176    580.47891    13585.633 
    3676    315.30222    7.0595261    71.901613   -25.731743    501.26867    13585.633 
    3677    312.48825    6.9021938    73.202504    -25.64499    413.69339    13585.633 
    3678    313.01229    6.7167114    72.745226   -25.610546    330.23237    13585.633 
    3679    316.40082    6.5206931    70.752662   -25.621373    261.67233    13585.633 
    3680      320.863    6.3223439    68.074455   -25.657957    214.36172    13585.633 
    3681    323.98786    6.1259845    65.860239   -25.693626    186.17495    13585.633 
    3682    323.67023    5.9391968    65.123983   -25.704594    177.44042    13585.633 
    3683    318.96216    5.7631716    66.359441   -25.678842    192.73705    13585.633 
    3684    310.47777    5.5961784    69.348535   -25.618871    235.35403    13585.633 
    3685    300.22149    5.4360191    73.232111   -25.541347    313.14078    13585.633 
    3686    290.91352    5.2795332    76.815063    -25.47037    433.47519    13585.633 
    3687    285.04787    5.1257035    78.991071   -25.427993    595.22813    13585.633 
    3688    284.04358    4.9764687    79.127924   -25.426001    793.35301    13585.633 
    3689    287.79769    4.8346174    77.274616   -25.461188    1015.5868    13585.633 
    3690    294.78612    4.7031215    74.117912   -25.516841    1243.8866    13585.633 
    3691    302.66381    4.5842832    70.711997   -25.569573    1457.6873    13585.633 
    3692     309.1268    4.4789891    68.088708   -25.598415    1638.1174    13585.633 
    3693    312.71109    4.3851418    66.895961   -25.592973    1772.9575    13585.633 
    3694     313.2328     4.300315    67.195153   -25.555953    1853.9082    13585.633 
    3695    311.73912    4.2216795    68.480332   -25.502341    1882.6273    13585.633 
    3696    310.01419    4.1449458    69.901409   -25.453475    1865.5286    13585.633 
    3697    309.83494    4.0649148    70.600726   -25.429555    1812.6697    13585.633 
    3698    312.25971    3.9748591    70.039303   -25.443391    1734.8719    13585.633 
    3699    317.19155    3.8693944    68.200662   -25.496032    1636.8613    13585.633 
3700        0.53701468780506300682 11.243429967773222344 0.59523809523809523281 51 -172.0874862081038259
    3700    323.36277    3.7471358    65.606635    -25.57727    1524.7823    13585.633 
    3701     328.7463    3.6096383    63.144652   -25.669309    1397.9845    13585.633 
    3702    331.24614    3.4627067    61.764122   -25.751504    1253.2863    13585.633 
    3703    329.44344       3.3146     62.14154   -25.807823    1091.0964    13585.633 
    3704    323.14654    3.1735555    64.427585   -25.831509    914.48736    13585.633 
    3705    313.54684    3.0467134    68.162538    -25.82767    729.80368    13585.633 
    3706    302.90735    2.9418353    72.395888   -25.812634    547.80062    13585.633 
    3707     293.8807    2.8681885    75.980089   -25.805888    373.64533    13585.633 
    3708    288.67252    2.8268697    77.944179   -25.827476    211.60377    13585.633 
    3709    288.32185     2.814927    77.820166    -25.88623    60.842058    13585.633 
    3710    292.37365    2.8200779    75.803451   -25.978556   -82.601776    13585.633 
    3711    299.05206    2.8298581    72.682917   -26.087016   -229.40121    13585.633 
    3712    305.90863    2.8353805    69.558107   -26.187202   -392.00531    13585.633 
    3713    310.72402    2.8274212    67.442933    -26.25804   -579.21247    13585.633 
    3714    312.29946    2.8001472    66.904797   -26.289358   -791.32227    13585.633 
    3715    310.85225    2.7523903     67.87618   -26.285517   -1021.7546    13585.633 
    3716    307.86688    2.6831904    69.710624   -26.265073   -1254.8163    13585.633 
    3717    305.44947     2.593224    71.458943   -26.253086   -1473.5584    13585.633 
    3718    305.44424    2.4865891    72.256871   -26.271629   -1658.5979    13585.633 
    3719    308.65919    2.3747668    71.669784   -26.331977   -1789.7695    13585.633 
    3720    314.51819    2.2731461     69.86424   -26.429595   -1859.3942    13585.633 
    3721    321.26298    2.1929889    67.541424   -26.547711   -1863.9067    13585.633 
    3722    326.59907    2.1455038    65.664556   -26.662733   -1805.1053    13585.633 
    3723    328.57205    2.1392065     65.08405   -26.753538    -1687.972    13585.633 
    3724    326.33837    2.1786019    66.200291   -26.808631   -1518.2047    13585.633 
    3725    320.54286    2.2630638    68.788575   -26.830971   -1301.3445    13585.633 
    3726    313.15426    2.3871447    72.054646   -26.836887   -1043.4496    13585.633 
    3727    306.79775    2.5415962    74.907028   -26.851283   -756.47104    13585.633 
    3728     303.8097    2.7157781    76.353999   -26.898697   -453.20207    13585.633 
    3729    305.35606    2.8985039    75.882053   -26.993862   -151.19615    13585.633 
    3730    310.94616    3.0792738    73.670052   -27.135244     127.5343    13585.633 
    3731    318.55308    3.2489979    70.545687   -27.304615    358.80515    13585.633 
    3732    325.33097    3.4001906    67.685364    -27.47337    520.27903    13585.633 
    3733    328.68222    3.5268217    66.162247   -27.613376    596.20086    13585.633 
    3734     327.2698    3.6240922    66.516863   -27.708135    581.37564    13585.633 
    3735    321.57421    3.6865076    68.526454   -27.758762    486.68354    13585.633 
    3736     313.7425    3.7049889    71.275851   -27.787741    329.11646    13585.633 
    3737    306.77022     3.676655    73.512537   -27.825092    134.24419    13585.633 
    3738    303.34154    3.5998481     74.14842   -27.901401   -70.589458    13585.633 
    3739    304.77661    3.4773901    72.707986   -28.033056   -257.42748    13585.633 
    3740    310.50212     3.316761    69.542593   -28.215412   -408.95361    13585.633 
    3741    318.25618    3.1246719    65.723593   -28.427078   -515.85391    13585.633 
    3742    324.93785    2.9071484    62.655263   -28.636677   -572.51705    13585.633 
    3743    327.75913    2.6713429    61.557268   -28.817257   -574.39094    13585.633 
    3744    325.27639    2.4359293    63.012895   -28.948263   -518.23188    13585.633 
    3745    317.93936    2.2094691    66.748758   -29.033229   -404.14035    13585.633 
    3746    307.93318    1.9954673    71.723296   -29.090386   -228.62321    13585.633 
    3747    298.38177    1.7940206    76.487015   -29.148999    9.3075972    13585.633 
    3748    292.23091    1.6058168    79.680864   -29.237198    302.76907    13585.633 
    3749    291.20789     1.432175    80.494954   -29.372913    637.89197    13585.633 
    3750    295.22319    1.2746627    78.928587   -29.557118    991.92267    13585.633 
    3751    302.41077    1.1350978    75.765401   -29.773983    1335.6849    13585.633 
    3752    309.78597     1.018619    72.277633   -29.994979    1638.1334    13585.633 
    3753     314.2957   0.92745966    69.768076   -30.191458     1866.902    13585.633 
    3754    313.87774   0.86010806    69.114797   -30.342793    2000.3413    13585.633 
    3755    308.14682   0.81244423    70.481408   -30.444231    2027.0615    13585.633 
    3756    298.49055   0.78033701    73.290567   -30.505495    1947.5893    13585.633 
    3757    287.56123   0.75316071     76.45938   -30.551277    1774.8587    13585.633 
    3758     278.3394   0.73126924    78.799523   -30.606246    1527.8243    13585.633 
    3759     273.1658   0.72173755    79.428545   -30.688972    1225.2303    13585.633 
    3760    273.07542   0.72898172    78.042467     -30.8057    884.82345    13585.633 
    3761    277.58971     0.756546     74.96962   -30.949661     524.4579    13585.633 
    3762    285.01431   0.80878907    71.007702   -31.103773    157.25243    13585.633 
    3763     293.0857   0.88845968    67.123342   -31.249091   -207.65327    13585.633 
    3764    299.71298   0.99483295    64.132665   -31.371177   -560.13179    13585.633 
    3765    303.55093    1.1245044    62.473871   -31.464991   -887.81587    13585.633 
    3766    304.25376    1.2748012    62.135337   -31.533064   -1178.3617    13585.633 
    3767    302.38966    1.4389673    62.739361    -31.58538   -1418.0749    13585.633 
    3768    299.08902    1.6078204    63.729767   -31.634965   -1596.3155    13585.633 
    3769      295.587    1.7757763    64.584828   -31.691355   -1705.1578    13585.633 
    3770    292.83652    1.9382212    64.980613    -31.75979    -1739.759    13585.633 
    3771    291.29078    2.0912446    64.859877   -31.840014   -1700.2666    13585.633 
    3772    290.88714    2.2313781    64.400493   -31.927453   -1591.7607    13585.633 
    3773    291.19465    2.3552029    63.912131   -32.015545   -1423.4509    13585.633 
    3774    291.64118    2.4590421    63.708544   -32.098206   -1206.9757    13585.633 
    3775    291.73046     2.538942    64.002096   -32.171344   -955.80603    13585.633 
    3776    291.18599    2.5885494    64.850673   -32.234378    -681.4599    13585.633 
    3777    289.98613    2.6046383    66.163018   -32.287496   -398.07459    13585.633 
    3778     288.3215    2.5844308     67.74785   -32.333352      -120.46    13585.633 
    3779    286.51334    2.5254772      69.3796   -32.373794     141.4268    13585.633 
    3780     284.9211    2.4276866    70.853138   -32.410227    376.58173    13585.633 
    3781    283.87763    2.2950273    72.014132   -32.443086    576.24784    13585.633 
    3782    283.65578    2.1348661    72.764031   -32.472645    733.31223    13585.633 
    3783    284.44654    1.9583016    73.051003   -32.499682    844.16018    13585.633 
    3784      286.341    1.7781486    72.860472   -32.525157     903.4065    13585.633 
    3785    289.30108    1.6055772    72.214791   -32.550853    908.92328    13585.633 
    3786    293.14127    1.4464419    71.179399   -32.577157    864.80131    13585.633 
    3787    297.51459    1.3014171    69.868232      -32.606    770.39005    13585.633 
    3788    301.93103    1.1772407    68.439857   -32.635867    629.45872    13585.633 
    3789    305.84772    1.0789855    67.077895   -32.664703    449.64607    13585.633 
    3790    308.77488    1.0094887    65.958773   -32.691653    242.65262    13585.633 
    3791    310.38193   0.97169125    65.215864   -32.715174     15.50049    13585.633 
    3792    310.57746   0.96435347    64.911392   -32.733609    -217.7587    13585.633 
    3793    309.52431   0.97353405    65.026302   -32.752485   -441.53515    13585.633 
    3794    307.56829   0.99554913    65.470519   -32.771805   -645.75096    13585.633 
    3795    305.14731    1.0323099    66.106048   -32.793535   -817.74868    13585.633 
    3796    302.71429    1.0864975    66.775212   -32.818975    -946.9514    13585.633 
    3797    300.66212    1.1611127    67.326177   -32.848616   -1025.8111    13585.633 
    3798    299.27607    1.2587922    67.632984   -32.882443   -1050.4839    13585.633 
    3799     298.7088     1.380992    67.612303   -32.920399   -1021.1845    13585.633 
3800        0.51879568720837043738 11.261970906506324042 0.57936507936507930516 52 -168.41944157174287966
    3800    298.96692    1.5272067    67.239875   -32.962573   -942.21228    13585.633 
    3801    299.90889    1.6924528    66.565277   -33.009034   -817.53038    13585.633 
    3802     301.2465    1.8699226    65.717535   -33.059589   -660.90415    13585.633 
    3803    302.57739    2.0567805    64.891643   -33.110873    -484.9062    13585.633 
    3804    303.48041    2.2460524    64.306825   -33.161293   -304.27874    13585.633 
    3805     303.6329    2.4355451    64.141984   -33.206925   -133.25831    13585.633 
    3806    302.94353    2.6245165    64.466018   -33.244582    11.402109    13585.633 
    3807    301.63908    2.8074147    65.191451   -33.275067    118.56325    13585.633 
    3808    300.23502    2.9797761    66.076113   -33.301839    181.42049    13585.633 
    3809     299.3973    3.1387693    66.783132   -33.331108    196.82208    13585.633 
    3810    299.71497    3.2840219    66.988848   -33.370099    166.45062    13585.633 
    3811    301.45501    3.4172042    66.505676    -33.42469    92.636472    13585.633 
    3812    304.38627    3.5472151    65.373247   -33.495072   -15.328117    13585.633 
    3813    307.78549    3.6806919    63.876231   -33.576972   -153.65805    13585.633 
    3814    310.63654    3.8141833    62.469755   -33.662992   -311.34289    13585.633 
    3815    311.93752    3.9419875     61.63502   -33.743263   -477.99098    13585.633 
    3816    311.05024    4.0567264    61.711606    -33.81048   -638.68222    13585.633 
    3817    307.95977    4.1498503    62.767793   -33.861615    -773.0581    13585.633 
    3818    303.33466    4.2097776    64.558786   -33.900548   -861.64309    13585.633 
    3819    298.34573     4.226229    66.591407   -33.937044   -888.92477    13585.633 
    3820    294.30362    4.1980938    68.275719   -33.980826   -842.64857    13585.633 
    3821    292.24499    4.1297187    69.113088   -34.040886    -715.5204    13585.633 
    3822     292.5936    4.0288752    68.859791   -34.121686   -508.16269    13585.633 
    3823    295.00266    3.9047287    67.613328   -34.221462   -229.70969    13585.633 
    3824    298.43795    3.7659623     65.79146   -34.332394    102.94597    13585.633 
    3825     301.4865    3.6195599    64.006289   -34.442676    467.13682    13585.633 
    3826    302.81425    3.4661337    62.868869   -34.539809    841.68921    13585.633 
    3827    301.60047    3.3050097    62.786112   -34.615509    1196.5001    13585.633 
    3828    297.83418    3.1427352    63.812049   -34.666496    1507.9531    13585.633 
    3829    292.37938    2.9870628    65.609443   -34.697696    1759.1913    13585.633 
    3830    286.74621     2.844395    67.542102   -34.720599    1934.2422    13585.633 
    3831    282.62388    2.7172276    68.876868   -34.750216    2023.6687    13585.633 
    3832    281.31278    2.6062885    69.033346   -34.799706    2022.0275    13585.633 
    3833    283.25836    2.5091778    67.798606    -34.87484    1930.0574    13585.633 
    3834    287.83152    2.4192966    65.431591   -34.974975    1747.0872    13585.633 
    3835    293.45249    2.3366958    62.613044   -35.087415    1475.5969    13585.633 
    3836    298.05167    2.2619042    60.249247   -35.195087    1124.8881    13585.633 
    3837      299.717    2.1951477     59.18818   -35.280338    711.18669    13585.633 
    3838     297.3254    2.1326219    59.937457   -35.331803    259.17496    13585.633 
    3839    290.94212    2.0706838    62.477196   -35.346444   -203.72266    13585.633 
    3840    281.85396    2.0077914    66.234378    -35.33164    -643.7377    13585.633 
    3841    272.22984    1.9419558    70.232211   -35.301868   -1024.0523    13585.633 
    3842    264.47931    1.8672931     73.37452    -35.27823   -1314.4397    13585.633 
    3843    260.50352    1.7851268    74.780732    -35.27576   -1493.4448    13585.633 
    3844    261.09086    1.6994544    74.066616   -35.301726   -1549.7877    13585.633 
    3845    265.64696    1.6160961    71.479333   -35.351581   -1485.1209    13585.633 
    3846     272.3496    1.5424034    67.839435   -35.409863   -1312.2861    13585.633 
    3847    278.69601    1.4861557    64.302156   -35.455949   -1054.3724    13585.633 
    3848    282.28163    1.4588463    62.008361   -35.466793    -738.8178    13585.633 
    3849    281.57934    1.4651842    61.731413   -35.429337   -395.15123    13585.633 
    3850    276.45971    1.5044028    63.631265     -35.3413   -49.513556    13585.633 
    3851    268.27918    1.5727314     67.19403   -35.212406    276.75202    13585.633 
    3852    259.51157    1.6637676    71.379234   -35.062107    569.40934    13585.633 
    3853    253.03942    1.7610837    74.933238   -34.913595    825.22084    13585.633 
    3854    251.25817    1.8481739    76.776181    -34.78667    1032.9861    13585.633 
    3855    255.31101    1.9192901    76.339583   -34.689727    1186.8486    13585.633 
    3856    264.71908    1.9698372    73.749198   -34.617637    1282.5813    13585.633 
    3857    277.47861    1.9981689    69.791067   -34.553065    1318.9216    13585.633 
    3858    290.63184     2.006555    65.667441   -34.471309    1293.4417    13585.633 
    3859    301.15016    1.9982773    62.614284   -34.349555    1209.5128    13585.633 
    3860    306.84375    1.9780774    61.504797    -34.17409    1076.9847    13585.633 
    3861    307.01072     1.951266    62.569771   -33.945043     912.6581    13585.633 
    3862    302.60903    1.9226985    65.330605   -33.676566     739.0169    13585.633 
    3863    295.89157    1.8958337    68.770127   -33.392413    581.08356    13585.633 
    3864     289.6294    1.8721073     71.68353   -33.118166     462.0298    13585.633 
    3865    286.19159    1.8507926    73.087081   -32.872632    398.66245    13585.633 
    3866    286.79634    1.8295153    72.541349   -32.662354    398.72964    13585.633 
    3867    291.17372    1.8149681    70.277742   -32.475793    464.21387    13585.633 
    3868    297.77731    1.8052769    67.089904     -32.2959    576.53368    13585.633 
    3869    304.40017    1.7958441    64.038758   -32.099118    712.86561    13585.633 
    3870     308.9412    1.7831239    62.085826   -31.868709    849.90436    13585.633 
    3871    310.08904    1.7648902    61.785874   -31.598312    965.11868    13585.633 
    3872    307.67553    1.7402987    63.139205   -31.293461    1041.5771    13585.633 
    3873    302.62172     1.709975    65.638309   -30.968135    1068.7534    13585.633 
    3874     296.5426    1.6760452     68.47228      -30.639    1042.5246    13585.633 
    3875    291.18634    1.6419528    70.802831   -30.319536    964.07481    13585.633 
    3876     287.9123    1.6121088    72.013354   -30.016046     838.3501    13585.633 
    3877    287.36532    1.5914093    71.856331   -29.726669    672.63387    13585.633 
    3878    289.41038    1.5846828    70.470228   -29.443413    475.86425    13585.633 
    3879    293.29547    1.5969627    68.284568   -29.155198    258.36894    13585.633 
    3880    297.94829    1.6307347    65.863733   -28.852726    28.859937    13585.633 
    3881    302.28531    1.6859968    63.748757    -28.53038   -201.65528    13585.633 
    3882    305.44533    1.7612447    62.341501   -28.186806   -422.01212    13585.633 
    3883    306.91367    1.8525481    61.850984   -27.824466     -622.475    13585.633 
    3884    306.54328    1.9538661    62.295942   -27.447496   -793.86664    13585.633 
    3885    304.51536    2.0555462    63.541926   -27.060045   -925.93326    13585.633 
    3886     301.2642    2.1484022    65.349051   -26.665329   -1017.8355    13585.633 
    3887    297.41268    2.2271857    67.411909   -26.265061   -1068.8652    13585.633 
    3888    293.71602    2.2867285    69.392785   -25.861033   -1081.4596    13585.633 
    3889    290.96885    2.3224902    70.958807   -25.455471   -1060.9592    13585.633 
    3890    289.86064     2.330688    71.834563   -25.051675   -1016.5219    13585.633 
    3891    290.78878    2.3107122    71.870222   -24.651952   -961.13184    13585.633 
    3892    293.68589    2.2651961    71.106258   -24.256337   -909.23997    13585.633 
    3893    297.94424    2.1998209    69.801887   -23.860952   -876.15587    13585.633 
    3894    302.50218    2.1249938    68.396452   -23.458424   -872.57152    13585.633 
    3895    306.12907     2.054265    67.394429   -23.038315   -911.86069    13585.633 
    3896    307.83108    1.9968246    67.202705   -22.593428   -1001.1707    13585.633 
    3897    307.23135    1.9607353    67.973759   -22.121584   -1138.2472    13585.633 
    3898    304.78629    1.9526465    69.519632   -21.627534   -1314.1125    13585.633 
    3899    301.72865    1.9757076    71.340924   -21.123282   -1513.0581    13585.633 
3900        0.49678680046920842273 11.301737407191616569 0.56878306878306872374 49 -156.42979078097971524
    3900    299.74172    2.0242984    72.773155   -20.621873   -1706.6001    13585.633 
    3901    300.41148     2.086199    73.206643   -20.138977    -1881.426    13585.633 
    3902    304.67125    2.1636895    72.300554   -19.679022   -2020.8782    13585.633 
    3903    312.46538    2.2630377    70.112833   -19.240923   -2108.8725    13585.633 
    3904    322.72587     2.396954    67.098497    -18.81159   -2139.8122    13585.633 
    3905    333.66958    2.5674501    63.977389   -18.380156    -2112.458    13585.633 
    3906    343.29435    2.7731333    61.520121   -17.936425   -2032.0715    13585.633 
    3907    349.91453    3.0078387    60.330539   -17.476873   -1904.1344    13585.633 
    3908    352.56249    3.2624929    60.696222   -17.005888   -1737.2745    13585.633 
    3909    351.15224     3.527002    62.547104   -16.533241   -1540.2988    13585.633 
    3910    346.39945     3.790113    65.515924   -16.070736   -1322.0983    13585.633 
    3911    339.57252    4.0400443    69.058278   -15.628306   -1092.0708    13585.633 
    3912    332.18778    4.2653022    72.578571    -15.21182    -860.3036    13585.633 
    3913    325.73425    4.4568457    75.523886      -14.824   -635.66328    13585.633 
    3914    321.46829    4.6128873    77.439077   -14.462876   -429.29459    13585.633 
    3915    320.26883    4.7319612    78.000247    -14.12827   -252.65101    13585.633 
    3916    322.50427    4.8149648    77.053235   -13.820173   -114.74893    13585.633 
    3917    327.90724    4.8644784    74.667727   -13.538335   -20.966709    13585.633 
    3918    335.50411    4.8829229    71.187544   -13.281757     24.57444    13585.633 
    3919    343.67739    4.8750918    67.235858   -13.044869    19.204185    13585.633 
    3920    350.43175     4.847362    63.634853     -12.8182   -31.997911    13585.633 
    3921    353.86678    4.8052348     61.22838   -12.590562   -121.99979    13585.633 
    3922    352.74384    4.7538067    60.642367   -12.353215   -235.65413    13585.633 
    3923    346.97148     4.703524     62.05935    -12.09922   -353.90968    13585.633 
    3924    337.82688    4.6536462    65.097631   -11.835917    -455.7262    13585.633 
    3925    327.74283    4.6003629    68.863031   -11.577992   -514.71743    13585.633 
    3926    319.67623    4.5406253    72.181117   -11.346005   -507.32482    13585.633 
    3927    316.23467    4.4712742    73.953523   -11.160775   -414.18661    13585.633 
    3928    318.81093    4.3929929    73.528127   -11.033932   -229.26472    13585.633 
    3929    327.02233    4.3063028    70.958337   -10.965807     38.73215    13585.633 
    3930    338.67239    4.2124769    67.049769    -10.94208    371.06325    13585.633 
    3931    350.29415    4.1146697    63.157095   -10.937892    739.39102    13585.633 
    3932    358.15543    4.0185202    60.776714    -10.92645    1112.2443    13585.633 
    3933     359.4382    3.9381999    61.055439    -10.88165    1458.2177    13585.633 
    3934    353.22526    3.8796234    64.375838   -10.794714    1748.6322    13585.633 
    3935    340.91869    3.8442426    70.168855   -10.672251    1967.9068    13585.633 
    3936    325.90838    3.8311559    77.035169   -10.537768     2110.154    13585.633 
    3937    312.57746    3.8392514    83.153398   -10.424182    2173.9326    13585.633 
    3938    304.94061    3.8667272    86.849695   -10.364428    2165.1591    13585.633 
    3939    305.35722    3.9142903    87.140642   -10.377922    2089.6582    13585.633 
    3940    313.75878    3.9808139    84.063068   -10.465683     1948.435    13585.633 
    3941    327.65086     4.064438    78.674054   -10.608263    1741.9168    13585.633 
    3942    342.89502    4.1630899    72.717477   -10.772966    1470.8834    13585.633 
    3943    355.01872    4.2720151    68.068061   -10.926475    1140.5278    13585.633 
    3944    360.60729    4.3876509    66.139428   -11.043895      758.861    13585.633 
    3945    358.32741    4.5072812    67.452002   -11.117184    345.24487    13585.633 
    3946    349.26006    4.6278865    71.498126   -11.156345   -72.529969    13585.633 
    3947    336.45219    4.7464272    76.937763   -11.185576   -461.56319    13585.633 
    3948    323.87335    4.8599092    82.046996   -11.234934   -788.21045    13585.633 
    3949    315.14048    4.9644352    85.262662   -11.332609   -1026.0253    13585.633 
    3950     312.4313    5.0608374     85.64384   -11.493282   -1161.2938    13585.633 
    3951    315.92602    5.1514095    83.109969   -11.716293   -1192.6175    13585.633 
    3952    323.90519    5.2378951    78.400254   -11.986525   -1131.0935    13585.633 
    3953    333.41145    5.3213609    72.791627   -12.280355      -1000.7    13585.633 
    3954    341.22641    5.4013665    67.684914   -12.573974   -829.49379    13585.633 
    3955    344.83456    5.4737643    64.201044   -12.849942   -644.24475    13585.633 
    3956    343.06936    5.5304156    62.908846   -13.103372   -471.79746    13585.633 
    3957     336.2863    5.5696797    63.748654    -13.33662   -331.54814    13585.633 
    3958    326.09424    5.5896481    66.145054   -13.560474   -236.58685    13585.633 
    3959    314.77883    5.5873191    69.242651   -13.788019   -191.46753    13585.633 
    3960    304.62747    5.5610883    72.171972   -14.030859   -193.92714    13585.633 
    3961    297.38251     5.514089    74.260478   -14.294119   -237.76622    13585.633 
    3962    293.95067    5.4485337    75.141853   -14.579506   -315.85357    13585.633 
    3963    294.36555     5.369987    74.762879   -14.886255    -414.8987    13585.633 
    3964    297.96316    5.2944028    73.318264   -15.205499   -522.72494    13585.633 
    3965    303.66993    5.2247832    71.158581   -15.535941   -628.35219    13585.633 
    3966    310.27263    5.1592468    68.705306   -15.874492   -713.72088    13585.633 
    3967    316.61309    5.0941313    66.384522   -16.221548   -768.11647    13585.633 
    3968    321.72722    5.0329805    64.577564   -16.575629   -780.08955    13585.633 
    3969    324.94899    4.9786074    63.579514   -16.935983   -739.72666    13585.633 
    3970    325.96896     4.930825    63.562455    -17.30048   -639.09151    13585.633 
    3971    324.84554    4.8809104    64.547922   -17.670413   -474.41291    13585.633 
    3972    321.96199    4.8226403    66.398189   -18.044175   -252.55096    13585.633 
    3973    317.93942    4.7519558    68.833545   -18.423268    20.240346    13585.633 
    3974    313.54084    4.6679644    71.475566   -18.805894    329.77815    13585.633 
    3975    309.53618    4.5615699    73.916246   -19.196225    656.67343    13585.633 
    3976    306.54605    4.4238989    75.801513   -19.597369    976.51164    13585.633 
    3977    304.90321    4.2478116    76.909761   -20.012284    1261.8655    13585.633 
    3978    304.56129    4.0357863    77.202351   -20.443403    1489.3668    13585.633 
    3979    305.10447    3.8071155    76.830888   -20.884939    1638.2384    13585.633 
    3980    305.87559    3.5760013    76.093637   -21.334259    1687.6901    13585.633 
    3981     306.1655     3.353902    75.351023   -21.785207    1625.7475    13585.633 
    3982    305.40366     3.150825    74.924533    -22.23155    1450.4954    13585.633 
    3983    303.32425    2.9753276    75.005624   -22.668923    1171.9902    13585.633 
    3984    300.05758    2.8360659    75.599697   -23.093536    807.66782    13585.633 
    3985    296.13129    2.7346221    76.516392   -23.506474     386.8341    13585.633 
    3986    292.35481    2.6723549    77.410798   -23.910608   -63.637781    13585.633 
    3987    289.63264    2.6508991    77.865141   -24.311705   -511.14161    13585.633 
    3988    288.74285     2.669057    77.496647   -24.717679   -921.55337    13585.633 
    3989     290.1087    2.7253949    76.068858   -25.135269   -1263.2946    13585.633 
    3990    293.63625    2.8153786    73.576712   -25.569716   -1516.2728    13585.633 
    3991    298.66878    2.9323362     70.27739   -26.021591    -1666.635    13585.633 
    3992    304.08628    3.0691464    66.650459   -26.486509    -1710.021    13585.633 
    3993    308.54168    3.2215299    63.291662   -26.956508    -1648.202    13585.633 
    3994     310.7926    3.3872327    60.767971   -27.420305   -1496.2303    13585.633 
    3995     310.0311    3.5586807    59.474729   -27.868665   -1272.7909    13585.633 
    3996    306.09198    3.7267611    59.540809   -28.294873   -998.89059    13585.633 
    3997    299.49767    3.8798823    60.808198   -28.697308   -697.57429    13585.633 
    3998      291.323    4.0084753    62.888048   -29.077745    -394.0899    13585.633 
    3999    282.93165    4.1063326    65.271401   -29.440718   -109.20526    13585.633 
4000        0.49043851723620335292 11.322425508042416098 0.57407407407407406996 51 -154.69250842641164922
    4000    275.66503    4.1689001    67.458371   -29.793333    138.81678    13585.633 
    4001    270.55243    4.1981651    69.070984   -30.140969    332.73648    13585.633 
    4002    268.11435    4.2008882    69.924874   -30.487547    461.72052    13585.633 
    4003    268.29326    4.1865031    70.048531   -30.834142    520.24844    13585.633 
    4004    270.51139    4.1653273    69.651288   -31.178652    508.69299    13585.633 
    4005    273.82666    4.1540294    69.050405    -31.51544    441.74613    13585.633 
    4006    277.22233    4.1527082    68.573357   -31.839116     329.6694    13585.633 
    4007    279.86208     4.149636    68.462465   -32.143786    184.59405    13585.633 
    4008    281.25169    4.1397018    68.807963   -32.426103    27.992014    13585.633 
    4009    281.35777    4.1174926    69.526127   -32.686097   -116.45781    13585.633 
    4010    280.57765    4.0795104    70.388893   -32.926248   -225.20136    13585.633 
    4011    279.60118    4.0184609    71.094096   -33.153787   -276.64443    13585.633 
    4012    279.18405    3.9341858    71.353557   -33.374509   -260.70462    13585.633 
    4013    279.91435    3.8349335    70.974653   -33.594149   -171.76434    13585.633 
    4014    282.04602    3.7322648    69.915528   -33.816727   -14.153769    13585.633 
    4015    285.40351    3.6387314    68.306404   -34.043846    199.51803    13585.633 
    4016    289.38345    3.5654726    66.435945   -34.274188    449.11194    13585.633 
    4017    293.05953    3.5204426    64.703317   -34.503485    710.08364    13585.633 
    4018    295.40345    3.5048771    63.536885   -34.720866    959.41927    13585.633 
    4019    295.56465    3.5014031    63.286682   -34.923108     1168.158    13585.633 
    4020    293.14236    3.5064881    64.109191   -35.098862    1310.5373    13585.633 
    4021    288.41976    3.5190316     65.87746   -35.243812    1371.6085    13585.633 
    4022    282.43465    3.5382935    68.159583   -35.360844    1345.0623    13585.633 
    4023    276.79374    3.5648352    70.295991   -35.460253    1232.4958    13585.633 
    4024    273.25344    3.6000644     71.57323   -35.557588    1043.8078    13585.633 
    4025    273.17308    3.6461865    71.450489   -35.668347    794.94958    13585.633 
    4026    277.02597    3.7050443     69.76212   -35.801656     503.9979    13585.633 
    4027    284.15606    3.7757103    66.815052   -35.956992    188.39631    13585.633 
    4028    292.90779    3.8516767    63.330388   -36.121861   -131.30034    13585.633 
    4029    301.08169    3.9209364    60.234857   -36.284359   -437.17362    13585.633 
    4030    306.60175    3.9914883    58.367778   -36.421005   -715.29403    13585.633 
    4031    308.20031    4.0593343    58.203995   -36.523325   -951.41095    13585.633 
    4032    305.80946    4.1186535    59.697648   -36.591207   -1131.4188    13585.633 
    4033    300.52683     4.164438    62.307471   -36.635066   -1240.6907    13585.633 
    4034    294.18581    4.1930987    65.195054   -36.672991   -1270.7871    13585.633 
    4035    288.68392    4.2064448    67.522778   -36.722196   -1220.2373    13585.633 
    4036    285.32246    4.2092056    68.742053   -36.793916   -1094.3792    13585.633 
    4037    284.39179    4.2080828    68.767413   -36.888684   -906.97662    13585.633 
    4038    285.14588    4.2107407    67.975048   -36.996174   -678.81982    13585.633 
    4039    286.16032    4.2264598    67.031259   -37.099004   -432.79083    13585.633 
    4040    285.93763    4.2628572    66.619619   -37.179446   -196.51811    13585.633 
    4041    283.51917    4.3226977    67.172241   -37.225881     7.871554    13585.633 
    4042     278.8638    4.4049483    68.706699   -37.237075    164.91007    13585.633 
    4043    272.86753    4.5067051    70.827034   -37.220959    267.99449    13585.633 
    4044    267.03259    4.6182534    72.883224   -37.193297    314.63979    13585.633 
    4045     262.9083    4.7269324    74.222767   -37.169859    308.61736    13585.633 
    4046    261.52714    4.8210426    74.435667   -37.160098     252.9935    13585.633 
    4047    263.06423    4.8883526    73.496631   -37.164421    155.47552    13585.633 
    4048    266.82278    4.9178909     71.75568   -37.174222    24.685175    13585.633 
    4049    271.54146    4.9011875    69.786502   -37.175782    -129.6857    13585.633 
    4050    275.89168     4.833204    68.156732   -37.156096   -295.92354    13585.633 
    4051    278.96615    4.7136529    67.211708   -37.108062   -458.83512    13585.633 
    4052    280.57723    4.5470047    66.954673   -37.032659   -604.08099    13585.633 
    4053    281.25787    4.3389603    67.067577   -36.939886   -716.74963    13585.633 
    4054    281.96587    4.0973483     67.06348   -36.844081   -782.43016    13585.633 
    4055    283.61794     3.832115    66.510079   -36.758842   -790.67769    13585.633 
    4056    286.63994    3.5562762    65.236038   -36.692285   -735.21574    13585.633 
    4057    290.72577    3.2856369     63.43615   -36.642542   -620.29133    13585.633 
    4058    294.90871    3.0334193    61.627638   -36.600505   -456.07123    13585.633 
    4059    297.92346    2.8117458    60.466294   -36.551988   -255.96033    13585.633 
    4060    298.72947    2.6303138    60.488552   -36.484414   -37.482133    13585.633 
    4061     296.9863    2.4946733    61.880263   -36.392098    184.03159    13585.633 
    4062    293.27042    2.4053619    64.369039   -36.279275    394.84972    13585.633 
    4063    288.92263    2.3594298    67.293109   -36.157589    583.62322    13585.633 
    4064    285.57543    2.3425969     69.82855   -36.046918    744.87051    13585.633 
    4065    284.50884    2.3442895    71.292649   -35.961179    866.29639    13585.633 
    4066    286.11705    2.3601526     71.40326   -35.904864    939.78857    13585.633 
    4067    289.71966    2.3866114    70.389838   -35.871529    958.95883    13585.633 
    4068    293.78029    2.4213256     68.91005   -35.844087    922.85468    13585.633 
    4069    296.47307    2.4541672    67.801394   -35.805919    829.86279    13585.633 
    4070    296.37151    2.4790002    67.759583   -35.740175    681.19146    13585.633 
    4071     293.0122    2.4914196     69.06685   -35.640713    487.73548    13585.633 
    4072    287.13512    2.4863747    71.469815   -35.512938    266.87225    13585.633 
    4073    280.48577    2.4590352    74.251927   -35.371975    40.493682    13585.633 
    4074    275.25114    2.4059584    76.475767   -35.237548   -168.35161    13585.633 
    4075     273.3187     2.326352    77.311765   -35.127316   -338.83061    13585.633 
    4076    275.61076    2.2229231    76.340252   -35.050227   -457.39551    13585.633 
    4077    281.72007    2.1007784    73.722166   -35.003952   -519.42206    13585.633 
    4078    289.97881    1.9684319    70.174962   -34.974676   -528.34148    13585.633 
    4079    297.95929    1.8371483    66.753138   -34.941762   -494.71378    13585.633 
    4080    303.25801    1.7186548    64.500556   -34.884485   -431.52226    13585.633 
    4081    304.30102    1.6226563    64.090056   -34.790041   -355.01611    13585.633 
    4082    300.88248    1.5572625    65.580966   -34.657804   -278.53636    13585.633 
    4083     294.2443    1.5261339     68.38718   -34.499802   -209.67546    13585.633 
    4084    286.63697    1.5271072    71.476865   -34.339183   -156.32787    13585.633 
    4085     280.5146    1.5594605    73.737705   -34.198127   -123.74154    13585.633 
    4086    277.67107     1.618513    74.374112   -34.092867   -115.96878    13585.633 
    4087    278.62692    1.7004159    73.186448   -34.024487   -141.42146    13585.633 
    4088    282.50883    1.8012929    70.624801   -33.979946   -207.42487    13585.633 
    4089    287.45989    1.9158705    67.600449   -33.936999   -320.15847    13585.633 
    4090    291.40023    2.0374523    65.132649   -33.873196   -481.82462    13585.633 
    4091      292.837     2.157045    63.971809   -33.774192   -686.35741    13585.633 
    4092    291.39898    2.2627265    64.344574    -33.64045   -922.41123    13585.633 
    4093    287.90121    2.3451424    65.912285   -33.483961   -1171.3093    13585.633 
    4094    283.94854    2.3961314    67.945172   -33.324349   -1409.1149    13585.633 
    4095    281.25555    2.4095995    69.630663   -33.180368   -1611.1906    13585.633 
    4096    280.96568    2.3824805    70.387781   -33.062652    -1756.188    13585.633 
    4097    283.23615    2.3154095    70.066218   -32.970055   -1829.1065    13585.633 
    4098    287.23357    2.2132566    68.961607    -32.89096   -1821.8119    13585.633 
    4099     291.5206    2.0850859    67.653678   -32.807931   -1734.9519    13585.633 
4100        0.48991087917203091084 11.354149943193656114 0.56878306878306872374 50 -166.21195810365898637
    4100    294.66149    1.9413783     66.74207    -32.70581   -1576.2402    13585.633 
    4101    295.80218     1.788704    66.591716   -32.577145   -1351.5627    13585.633 
    4102    294.95328    1.6370612    67.192611   -32.425931    -1075.338    13585.633 
    4103    292.91177    1.5009214     68.18735   -32.264602   -765.86956    13585.633 
    4104    290.85424    1.3876113    69.055517   -32.110676   -442.11828    13585.633 
    4105    289.74018    1.3024203    69.373651   -31.977607   -124.48433    13585.633 
    4106    289.82911     1.247083    69.032357   -31.869153    164.90872    13585.633 
    4107    290.53057     1.220183    68.306415   -31.776797    403.27628    13585.633 
    4108    290.67569    1.2184968    67.735772   -31.683246    571.29558    13585.633 
    4109    289.11017     1.239593    67.862559   -31.568714    653.28951    13585.633 
    4110    285.34705    1.2795276    68.941645    -31.42177    641.30961    13585.633 
    4111    279.96032    1.3343989    70.765092   -31.244212    538.65516    13585.633 
    4112    274.50561    1.4007072    72.696916    -31.05124     358.8387    13585.633 
    4113    270.96731    1.4735182    73.919949   -30.865482    124.33026    13585.633 
    4114    270.94327    1.5478329    73.795163    -30.70624   -141.76753    13585.633 
    4115    274.91851    1.6204912    72.175049   -30.581338   -412.46898    13585.633 
    4116    281.96056    1.6978626    69.523637   -30.479739   -661.69089    13585.633 
    4117    290.02247    1.7808288    66.776907   -30.380565   -878.06501    13585.633 
    4118    296.71018    1.8635132    64.994664   -30.258897   -1046.5291    13585.633 
    4119    300.18666    1.9411134    64.945338   -30.097343   -1153.8196    13585.633 
    4120     299.8765    2.0111013    66.797488   -29.893385   -1187.7274    13585.633 
    4121    296.66473    2.0743418    70.046336   -29.660305    -1136.474    13585.633 
    4122    292.52067    2.1348813    73.702774   -29.421575   -994.43683    13585.633 
    4123    289.68987    2.2077904    76.662299   -29.204094   -754.20311    13585.633 
    4124    289.86715    2.3157964    78.099707   -29.017057   -425.14043    13585.633 
    4125     293.6259    2.4570064    77.737002   -28.865363   -33.159126    13585.633 
    4126    300.25669    2.6305298    75.892739   -28.737508    393.83535    13585.633 
    4127    308.12028    2.8327282    73.310311   -28.614853    822.11751    13585.633 
    4128    315.30284    3.0573454    70.852166   -28.480601    1218.9326    13585.633 
    4129    320.29925     3.299629    69.188777    -28.32358    1553.4634    13585.633 
    4130    322.47389     3.549301    68.599412   -28.145909    1798.2849    13585.633 
    4131    322.14396    3.7947552    68.944853   -27.958184    1938.6278    13585.633 
    4132    320.29611     4.028196    69.799768   -27.775884    1972.1504    13585.633 
    4133     318.1132    4.2455195    70.673627   -27.611952    1901.0722    13585.633 
    4134    316.49777    4.4414086    71.225577   -27.474626    1736.5926    13585.633 
    4135    315.76575    4.6144729     71.38876   -27.363304    1496.0609    13585.633 
    4136    315.62422    4.7669669    71.363359   -27.270124    1200.8234    13585.633 
    4137    315.40711    4.9038802     71.49235   -27.184012    875.73954    13585.633 
    4138    314.44747    5.0347727    72.078806   -27.093692    548.04515    13585.633 
    4139    312.43264    5.1681676    73.222954   -26.993762    242.59947    13585.633 
    4140    309.59028    5.3092383    74.746584   -26.885504   -15.271879    13585.633 
    4141    306.62119    5.4596366    76.239073   -26.776238   -203.52172    13585.633 
    4142     304.4189    5.6174154    77.207384   -26.675921   -305.88765    13585.633 
    4143    303.69536    5.7778377    77.269198   -26.592571   -314.17037    13585.633 
    4144    304.67668    5.9350573    76.308176    -26.52848   -228.82058    13585.633 
    4145    307.00811    6.0832297    74.524042   -26.478883   -61.771917    13585.633 
    4146    309.90731    6.2175103    72.355874   -26.434413    167.60804    13585.633 
    4147    312.49646    6.3368042    70.310925   -26.385368    435.55917    13585.633 
    4148    314.16996    6.4451112    68.773288   -26.324846     716.8601    13585.633 
    4149    314.83493    6.5437329    67.875039   -26.254647    986.63278    13585.633 
    4150    314.89719    6.6341205    67.484347   -26.182609    1219.0798    13585.633 
    4151    315.01406    6.7201269     67.30815   -26.119393    1395.1651    13585.633 
    4152    315.74159    6.8049679    67.058733   -26.074428    1500.9972    13585.633 
    4153    317.22749    6.8871894    66.609804   -26.051855    1530.7318    13585.633 
    4154    319.05544    6.9664956    66.076848    -26.05003    1481.2325    13585.633 
    4155    320.33344    7.0461847    65.792474   -26.060654    1350.8048    13585.633 
    4156    319.99685    7.1257146    66.184917   -26.074768    1148.2265    13585.633 
    4157     317.1782     7.218986    67.604727   -26.077904    891.34032    13585.633 
    4158    311.59789    7.3316739    70.156115   -26.064013    591.83951    13585.633 
    4159    303.79216    7.4588549     73.59192   -26.031963    271.97879    13585.633 
    4160    295.05824     7.592716    77.317563   -25.987312   -43.085768    13585.633 
    4161    287.15676    7.7237193    80.515328    -25.94135   -328.34466    13585.633 
    4162    281.82413    7.8410271    82.364769   -25.906436   -560.03015    13585.633 
    4163    280.23133    7.9276601    82.296893   -25.895461   -721.97772    13585.633 
    4164    282.55352     7.974734    80.197472   -25.910874   -807.38089    13585.633 
    4165    287.85531    7.9788004    76.478466   -25.944813   -821.20775    13585.633 
    4166    294.36358     7.935427    71.975093   -25.982114   -774.78174    13585.633 
    4167    300.03529    7.8435597    67.692798   -26.004125   -684.44883    13585.633 
    4168    303.24882    7.7061336    64.488385   -25.996838   -567.48818    13585.633 
    4169    303.35163    7.5349934    62.803863   -25.955496   -437.09119    13585.633 
    4170    300.86998    7.3450767    62.556051   -25.886315   -308.54249    13585.633 
    4171    297.27532    7.1440546    63.224885   -25.807424   -194.08753    13585.633 
    4172    294.37903    6.9383512    64.102951   -25.738827   -99.201471    13585.633 
    4173     293.6211    6.7322013    64.601285   -25.695568   -26.874356    13585.633 
    4174    295.53246    6.5269496    64.485859   -25.681093    22.352693    13585.633 
    4175    299.57307    6.3160958    63.951716   -25.689902    48.792258    13585.633 
    4176    304.37841    6.0968375    63.513001   -25.705596    50.420159    13585.633 
    4177    308.31588    5.8704261    63.761748   -25.710981    29.698676    13585.633 
    4178    310.12151    5.6422644    65.099328   -25.694594   -4.7435673    13585.633 
    4179    309.36565    5.4182959     67.55255   -25.653512   -40.982441    13585.633 
    4180    306.55587    5.2045725    70.746174    -25.59562   -72.110068    13585.633 
    4181    302.87209    5.0118912    74.036155   -25.534703   -85.378155    13585.633 
    4182    299.68248    4.8495761    76.744535   -25.484798    -70.00375    13585.633 
    4183    298.02724     4.723879    78.396337   -25.454414   -19.598897    13585.633 
    4184    298.29096    4.6369983    78.861979   -25.443325    66.351434    13585.633 
    4185    300.18887    4.5851126    78.351639   -25.442755    184.60978    13585.633 
    4186    303.03042     4.559094    77.273616    -25.44216    323.16664    13585.633 
    4187    306.12573    4.5532748    76.025665   -25.431124     467.8848    13585.633 
    4188    309.14423    4.5609862    74.817516   -25.407282    604.75377    13585.633 
    4189    312.24109    4.5715408    73.608041   -25.376795    723.46678    13585.633 
    4190    315.86841    4.5723816    72.186316   -25.353627    809.45715    13585.633 
    4191    320.37999    4.5565837    70.354333   -25.350782    851.60728    13585.633 
    4192    325.64379    4.5172518    68.121063   -25.376128    840.59549    13585.633 
    4193    330.85495    4.4478743    65.805096   -25.427806    768.74705    13585.633 
    4194    334.69653    4.3387849    63.981077   -25.494409    635.64335    13585.633 
    4195    335.79371    4.1827307    63.277125   -25.559737    437.40296    13585.633 
    4196    333.31005    3.9786135    64.101155   -25.610653    181.69236    13585.633 
    4197    327.42779    3.7320167    66.416711   -25.641564   -121.20418    13585.633 
    4198    319.45705    3.4538029      69.6783   -25.659676   -451.47973    13585.633 
    4199     311.4936    3.1572761    72.972826   -25.682434    -785.2573    13585.633 
4200        0.49741129103233638897 11.349876024212584014 0.57407407407407406996 49 -164.24500097095716455
    4200    305.71462    2.8565744    75.325621   -25.730866    -1097.338    13585.633 
    4201    303.58001    2.5653882    76.055533   -25.820855   -1367.3278    13585.633 
    4202    305.25905    2.2963885    75.035903   -25.956196   -1582.5847    13585.633 
    4203    309.52771    2.0601654    72.752609   -26.125498    -1735.881    13585.633 
    4204    314.19333    1.8596635    70.130469   -26.308779   -1827.6193    13585.633 
    4205    316.88293    1.6973443    68.192082   -26.481301   -1865.6192    13585.633 
    4206    315.91117    1.5747567    67.679869   -26.624924   -1856.6945    13585.633 
    4207    310.90579    1.4914864    68.785131   -26.733805   -1806.2299    13585.633 
    4208      302.948    1.4455904    71.084813   -26.815992   -1717.0101    13585.633 
    4209    294.19504    1.4329487    73.704081   -26.889045   -1588.1265    13585.633 
    4210    287.13121    1.4439591    75.636954   -26.976704   -1420.0981    13585.633 
    4211    283.72531    1.4739152    76.101371   -27.095472   -1215.1203    13585.633 
    4212    284.81534    1.5186951    74.799861   -27.251917   -980.72329    13585.633 
    4213    289.90704    1.5712491    72.001456   -27.441576   -727.29815    13585.633 
    4214     297.4091    1.6248765     68.43023   -27.651109   -465.68729    13585.633 
    4215    305.20649    1.6732014    65.014042   -27.863392   -210.43863    13585.633 
    4216    311.34734     1.707981    62.589316   -28.064937    26.834073    13585.633 
    4217    314.61111    1.7226042    61.658811   -28.248958    238.91924    13585.633 
    4218    314.80092     1.712916    62.272143   -28.417182    423.44903    13585.633 
    4219    312.69522    1.6777323    64.053231   -28.578785    582.52151    13585.633 
    4220     309.7028    1.6189812    66.352904   -28.747504    721.16663    13585.633 
    4221    307.34663    1.5414025    68.471498   -28.937816    845.14523    13585.633 
    4222    306.73822    1.4530666    69.881471   -29.161114    960.36335    13585.633 
    4223    308.20394    1.3643826     70.38517   -29.422467    1066.9156    13585.633 
    4224    311.17413     1.285778     70.16194   -29.719049    1161.2055    13585.633 
    4225    314.35916    1.2260745    69.693728   -30.041316    1235.9817    13585.633 
    4226    316.16823    1.1907551    69.592299   -30.374231    1284.1957    13585.633 
    4227    315.23677    1.1770395    70.381944   -30.704755    1298.2905    13585.633 
    4228    310.87393    1.1857411    72.306682   -31.025535    1272.5287    13585.633 
    4229    303.32224    1.2395084    75.224646   -31.324094    1204.0662    13585.633 
    4230    293.78161    1.3406469    78.623035   -31.606912    1092.3541    13585.633 
    4231    284.10801    1.4803755    81.753897    -31.88427    942.26538    13585.633 
    4232    276.27816    1.6447625    83.851399   -32.169803    762.39391    13585.633 
    4233    271.83213    1.8158562    84.359971   -32.476273    562.63483    13585.633 
    4234    271.44775    1.9742757    83.101092   -32.811329    352.47873    13585.633 
    4235    274.77936    2.1016229    80.326118   -33.174861    141.60331    13585.633 
    4236    280.60129    2.1831136    76.638997   -33.560252   -64.332062    13585.633 
    4237    287.20623    2.2148139    72.813034   -33.955234   -257.87182    13585.633 
    4238    292.94305    2.2008053    69.560208     -34.3479   -433.38266    13585.633 
    4239    296.70873    2.1490846    67.329723   -34.730479   -585.93583    13585.633 
    4240    298.21995    2.0709827    66.202051   -35.102479   -707.33693    13585.633 
    4241    297.98079    1.9813526    65.914775   -35.471785     -788.014    13585.633 
    4242    296.97364     1.899236    66.009021   -35.849767   -814.16871    13585.633 
    4243    296.19634    1.8423954    66.039791   -36.248212   -786.63116    13585.633 
    4244    296.22818    1.8234635    65.766847   -36.674529   -710.62992    13585.633 
    4245    296.99896    1.8481649    65.249206   -37.128153   -596.28029    13585.633 
    4246    297.85164     1.915961    64.805759     -37.5999   -457.73016    13585.633 
    4247    297.86489    2.0211106    64.860681   -38.076143   -314.42911    13585.633 
    4248     296.2947    2.1561492    65.740247   -38.543336    -185.5493    13585.633 
    4249    292.94861    2.3115468     67.50858    -38.99339   -91.926704    13585.633 
    4250    288.32982    2.4756356    69.910894   -39.426391    -49.29184    13585.633 
    4251    283.49223    2.6376343    72.444438   -39.849807   -66.857144    13585.633 
    4252    279.68457     2.790343    74.522742   -40.273991    -150.3305    13585.633 
    4253    277.93991    2.9286898     75.66108   -40.708975   -299.84418    13585.633 
    4254    278.76367    3.0501133    75.612377   -41.160618   -510.13029    13585.633 
    4255    282.02082    3.1540353    74.410866   -41.629704   -771.09492    13585.633 
    4256    287.03226     3.241022     72.32309   -42.113097   -1068.0876    13585.633 
    4257     292.8126     3.311414    69.741007   -42.605592    -1274.895    14718.259 
    4258    298.34029    3.3631059    67.066126   -43.103824   -1558.4664    14718.259 
    4259    302.77865    3.3929163    64.624853   -43.603295   -1812.7009    14718.259 
    4260    305.58325    3.3920657    62.633624   -44.105425   -2016.6155    14718.259 
    4261    306.50036    3.3603629    61.209211    -44.60831    -2150.535    14718.259 
    4262    305.51814     3.298287     60.40336   -45.110608   -2195.8621    14718.259 
    4263    302.79321    3.2055106    60.237538   -45.610746   -2140.8916    14718.259 
    4264    298.58888    3.0846231    60.718444   -46.104635   -1981.2168    14718.259 
    4265    293.25589     2.939869     61.82649   -46.587504   -1718.7128    14718.259 
    4266    287.24664    2.7769345    63.484244   -47.054825   -1362.6272    14718.259 
    4267    281.12623    2.6042073    65.524534   -47.504392   -926.49484    14718.259 
    4268    275.55394    2.4329335    67.682118   -47.935597   -433.64043    14718.259 
    4269    271.20184    2.2698799    69.627417   -48.352898    86.892631    14718.259 
    4270    268.60267    2.1204647    71.041054   -48.762042    604.86323    14718.259 
    4271    267.98643    1.9889901    71.705424   -49.168084    1088.6453    14718.259 
    4272    269.18396    1.8780364    71.574536   -49.572791    1507.3983    14718.259 
    4273     271.6602     1.787249    70.786099   -49.973269    1834.9193    14718.259 
    4274    274.68287    1.7131758    69.603364   -50.364131    2048.5071    14718.259 
    4275    277.57168    1.6527027    68.308111   -50.739542    2134.5596    14718.259 
    4276    279.91497    1.6095186    67.093338   -51.096176    2093.0942    14718.259 
    4277    281.67041    1.5904322    66.007895   -51.436397    1929.1978    14718.259 
    4278     283.0998    1.6007363    64.976497    -51.76642    1658.3155    14718.259 
    4279    284.54438    1.6449507    63.884893   -52.094328     1302.505    14718.259 
    4280    286.17327    1.7270785     62.68348   -52.425163    892.02721    14718.259 
    4281    287.82424    1.8510379    61.453186   -52.758688    457.53143    14718.259 
    4282    289.03276    2.0132433    60.398118   -53.091119    33.045403    14718.259 
    4283    289.19848    2.2115558    59.770346   -53.413362   -357.94197    14718.259 
    4284    287.82687    2.4454007    59.765692   -53.717522   -689.42535    14718.259 
    4285    284.75403    2.7072177    60.440693   -53.999894   -940.15394    14718.259 
    4286    280.22015    2.9860597    61.687592   -54.260121   -1098.4867    14718.259 
    4287    274.79652    3.2687221      63.2729   -54.500753   -1157.6096    14718.259 
    4288    269.21438    3.5388379    64.916998   -54.726406   -1119.6387    14718.259 
    4289    264.17015    3.7802659    66.377664   -54.939539   -995.25927    14718.259 
    4290    260.18454    3.9759154    67.503852   -55.141741   -802.53124    14718.259 
    4291    257.53695    4.1143182    68.246881   -55.333177   -561.64236    14718.259 
    4292    256.29551     4.189459    68.635248   -55.511418   -301.19646    14718.259 
    4293      256.387    4.1928309    68.734805   -55.676438   -48.286949    14718.259 
    4294     257.6461    4.1211092    68.613665   -55.828225    173.02566    14718.259 
    4295    259.84485    3.9784246     68.32289   -55.968101    345.93857    14718.259 
    4296    262.70997    3.7769827    67.894659   -56.095677    456.25139    14718.259 
    4297    265.92819    3.5283863      67.3536   -56.212874    497.58377    14718.259 
    4298    269.13496    3.2486787    66.733769    -56.32046    473.29621    14718.259 
    4299    271.92608    2.9562615    66.091628   -56.417926    390.80155    14718.259 
4300        0.49853677571821758407 11.339176955606868447 0.57407407407407406996 51 -180.60426804575035931
    4300    273.90183    2.6678087     65.50533   -56.503969    264.56756    14718.259 
    4301    274.74044    2.3988298    65.054066   -56.576083    113.34205    14718.259 
    4302    274.29697    2.1626477    64.780611   -56.631733   -41.930309    14718.259 
    4303    272.68744    1.9691555    64.653785   -56.670083    -179.2838    14718.259 
    4304    270.30076    1.8249856    64.556202   -56.693194    -280.8802    14718.259 
    4305    267.70307    1.7333614    64.317107   -56.706148   -331.98977    14718.259 
    4306    265.44493    1.6933792    63.788898   -56.715125     -323.986    14718.259 
    4307    263.83807      1.70007    62.937757   -56.724246   -255.66013    14718.259 
    4308    262.79327    1.7516869    61.900989   -56.733089    -129.5667    14718.259 
    4309    261.86737    1.8415505    60.968769   -56.734517    39.508117    14718.259 
    4310    260.47882    1.9511784    60.485644   -56.719438    229.39421    14718.259 
    4311    258.20399    2.0634262    60.702421   -56.678745     420.0045    14718.259 
    4312    255.06529    2.1590595    61.645699   -56.609679     593.2139    14718.259 
    4313    251.62923     2.223661    63.070045   -56.515544    730.23204    14718.259 
    4314    248.86263    2.2487885    64.524363   -56.406073    819.26786    14718.259 
    4315    247.79008     2.231897    65.513399   -56.292726     853.4698    14718.259 
    4316    249.08486    2.1768575      65.6888   -56.183421    830.51686    14718.259 
    4317    252.77717    2.0925182    64.987912   -56.078607    753.45955    14718.259 
    4318    258.20024    1.9928647    63.659263   -55.972085    628.31317    14718.259 
    4319    264.21204    1.9003471    62.161998   -55.850835    462.82223    14718.259 
    4320    269.61633    1.8354667    60.980151   -55.703771    265.82185    14718.259 
    4321    273.59581    1.8149038    60.427485   -55.524839     50.91281    14718.259 
    4322    275.97981    1.8507193    60.524707   -55.316343   -165.62992    14718.259 
    4323    277.25421    1.9479787    60.999339     -55.0869   -365.02472    14718.259 
    4324    278.29248    2.1015379    61.410556   -54.851693   -536.49874    14718.259 
    4325     279.9148    2.3048064    61.350764   -54.622924    -671.3625    14718.259 
    4326    282.47218    2.5475148    60.642064   -54.407186   -765.69548    14718.259 
    4327    285.61893    2.8165431      59.4462    -54.20283   -823.09353    14718.259 
    4328     288.3831    3.0982761    58.236243   -53.999721   -853.55829    14718.259 
    4329    289.53119     3.378123    57.631269   -53.783876   -870.12315    14718.259 
    4330    288.09232    3.6423446    58.151151   -53.543302   -884.42561    14718.259 
    4331    283.84502    3.8796576    59.984383   -53.272026   -909.23141    14718.259 
    4332    277.56198    4.0783335    62.863391   -52.974877    -951.8511    14718.259 
    4333    270.88032    4.2290955    66.106512   -52.665356   -1012.6756    14718.259 
    4334    265.82247    4.3256494    68.822873   -52.361044    -1088.489    14718.259 
    4335     264.1241    4.3650217    70.211529   -52.076923   -1168.3302    14718.259 
    4336     266.6132    4.3481903    69.845941   -51.818529    -1245.405    14718.259 
    4337    272.87913    4.2781362    67.835664   -51.579836   -1311.0937    14718.259 
    4338    281.36145    4.1588055    64.802537   -51.344945   -1354.8584    14718.259 
    4339    289.83082    3.9986825    61.675585   -51.093998   -1365.6527    14718.259 
    4340    296.12604     3.808135    59.376229   -50.808877   -1333.8401    14718.259 
    4341    298.87536     3.591405    58.504692   -50.483005   -1249.2878    14718.259 
    4342    297.93496    3.3541553    59.139534   -50.120102   -1097.5532    14718.259 
    4343     294.4055    3.0994186    60.823597   -49.737735    -866.8493    14718.259 
    4344    290.20089    2.8364183    62.744063   -49.357058   -551.44043    14718.259 
    4345    287.32256      2.57761     64.04554   -48.999704   -148.27399    14718.259 
    4346    287.10257    2.3336385     64.16768   -48.677529    336.30446    14718.259 
    4347    289.66137    2.1096712    63.082174   -48.391153    878.91144    14718.259 
    4348    293.79535    1.9125959    61.336634   -48.126938    1449.2747    14718.259 
    4349    297.39225     1.747335    59.873207   -47.862322    2009.7331    14718.259 
    4350     298.2236    1.6163141    59.678694    -47.57407    2520.0166    14718.259 
    4351    294.82834    1.5226792    61.391105    -47.24771    2946.3608    14718.259 
    4352    287.16743    1.4704362    65.013618   -46.881723    3256.1458    14718.259 
    4353    276.78071     1.458451     69.85205   -46.491774    3430.7546    14718.259 
    4354    266.33925     1.489824    74.712945   -46.100906     3463.905    14718.259 
    4355    258.77139     1.562546    78.297887     -45.7358    3355.4943    14718.259 
    4356    256.25499    1.6716327    79.652411   -45.412981    3115.5964    14718.259 
    4357    259.44109    1.8123748    78.503191   -45.132705    2759.5515    14718.259 
    4358    267.21618    1.9794693    75.357252   -44.878325    2308.1495    14718.259 
    4359    277.07535    2.1686044    71.325775    -44.62248    1781.7512    14718.259 
    4360    285.97836    2.3779599    67.735287   -44.336977    1206.1248    14718.259 
    4361     291.3869    2.6058045    65.667683   -44.003132    611.40222    14718.259 
    4362     292.1061    2.8496752    65.593406   -43.618149    31.766599    14718.259 
    4363    288.63852    3.1056139    67.227527    -43.19596   -496.34207    14718.259 
    4364    282.92827    3.3681471    69.658582   -42.762946   -936.67489    14718.259 
    4365    277.59527    3.6321668    71.703009   -42.347252   -1259.9164    14718.259 
    4366    274.94277    3.8880772    72.356936   -41.971341   -1447.3366    14718.259 
    4367    276.08916    4.1241524    71.180345   -41.643419   -1494.9897    14718.259 
    4368    280.55139    4.3315992    68.469606   -41.353245   -1414.3007    14718.259 
    4369     286.4536    4.5027532    65.150285   -41.076127   -1228.1451    14718.259 
    4370    291.27337    4.6264876    62.426674   -40.786958   -969.64161    14718.259 
    4371    292.83794    4.7033122     61.31761    -40.46254   -678.67274    14718.259 
    4372    290.21276    4.7392017    62.255037   -40.095983   -390.94081    14718.259 
    4373    284.12419    4.7421298    64.904526   -39.697988   -136.02473    14718.259 
    4374    276.73107    4.7206652    68.280096   -39.292883    64.670084    14718.259 
    4375    270.83668    4.6826597    71.111354    -38.90935    197.79993    14718.259 
    4376    268.84325    4.6342908     72.32217   -38.569351    256.57362    14718.259 
    4377    271.84938    4.5796243    71.437332   -38.279648     238.9879    14718.259 
    4378    279.23157    4.5207411    68.762943    -38.02938    146.83381    14718.259 
    4379    288.86211    4.4583523    65.274662   -37.794605   -14.034653    14718.259 
    4380    297.87452    4.3927418    62.258851   -37.547709   -232.39444    14718.259 
    4381    303.68733    4.3248373    60.842445   -37.267745   -490.13763    14718.259 
    4382    304.91251    4.2565477    61.585298   -36.946766   -760.38325    14718.259 
    4383    301.81818    4.1854802    64.282533   -36.596356   -1010.1004    14718.259 
    4384    296.17161    4.1160684    68.046686   -36.237988   -1206.1044    14718.259 
    4385    290.54415    4.0571082    71.637764   -35.899263   -1314.8785    14718.259 
    4386    287.34592     4.017955    73.918673   -35.602996   -1307.8718    14718.259 
    4387     287.9331    4.0069586    74.268481   -35.357286   -1171.0849    14718.259 
    4388     292.1409    4.0152819    72.799174   -35.159802   -899.55603    14718.259 
    4389    298.37462    4.0347565    70.296228   -34.989253   -510.03937    14718.259 
    4390    304.22714    4.0681918    67.908524   -34.817423   -30.348095    14718.259 
    4391    307.44814    4.1193035    66.701411   -34.621889    503.56599    14718.259 
    4392    306.83784    4.1888378    67.247523   -34.392447    1055.5902    14718.259 
    4393    302.70077    4.2765647    69.415258   -34.135722    1592.2579    14718.259 
    4394    296.70857     4.383783    72.434557   -33.870492    2084.4918    14718.259 
    4395    291.23705    4.5079568    75.208568   -33.622553    2506.1104    14718.259 
    4396    288.44243    4.6436586    76.743058   -33.412701    2837.1823    14718.259 
    4397     289.4444    4.7836839    76.522407   -33.249125    3061.9054    14718.259 
    4398    293.93454    4.9194585    74.689263    -33.12494    3168.8706    14718.259 
    4399    300.33926    5.0429804    71.969326   -33.019558    3157.7601    14718.259 
4400        0.49297387845712725696 11.346348841354149783 0.56878306878306872374 50 -171.75599455631498813
    4400    306.43966    5.1408364    69.385186   -32.913355    3024.2994    14718.259 
    4401    310.18999    5.2080679    67.877153   -32.786555    2775.9463    14718.259 
    4402     310.4327    5.2421752    67.975715   -32.631457     2431.061    14718.259 
    4403    307.26386    5.2422658    69.636787   -32.452448    2016.8911    14718.259 
    4404    301.93946    5.2089043    72.283786    -32.26348    1567.1332    14718.259 
    4405    296.39224    5.1439423    75.026727   -32.082832    1118.0652    14718.259 
    4406    292.54576    5.0503365    76.973769   -31.926947    704.01301    14718.259 
    4407    291.66376    4.9319279    77.527644   -31.805063    353.11179    14718.259 
    4408    293.94902    4.7931485    76.570102   -31.716178    84.247686    14718.259 
    4409    298.51924    4.6386548     74.47636   -31.649384   -94.233457    14718.259 
    4410     303.7613     4.472944     71.95838   -31.587667   -183.92656    14718.259 
    4411    307.93517    4.3000419    69.794888    -31.51402   -194.24459    14718.259 
    4412    309.80726    4.1233443    68.547669   -31.417662   -139.51518    14718.259 
    4413    309.07835    3.9458968    68.369994   -31.297941   -35.381092    14718.259 
    4414    306.45136    3.7701221    68.977683   -31.164381    100.74706    14718.259 
    4415    303.32097    3.5978665    69.789112   -31.032721    253.30413    14718.259 
    4416    301.21843    3.4311109    70.172239   -30.918687    407.87563    14718.259 
    4417    301.23026    3.2733028    69.697605   -30.833621    553.72492    14718.259 
    4418    303.61418    3.1363494    68.300877   -30.775609    678.94323    14718.259 
    4419    307.74903    3.0252026    66.301408   -30.739046    768.65636    14718.259 
    4420    312.37571    2.9425973    64.285754   -30.712417    814.02659    14718.259 
    4421    316.01467    2.8910871    62.913227   -30.683909    811.16152    14718.259 
    4422    317.41672    2.8718582    62.716373   -30.645777    759.29012    14718.259 
    4423    315.89967    2.8901801    63.954747   -30.593655    664.99381    14718.259 
    4424    311.53017     2.948804    66.548717   -30.527834      534.856    14718.259 
    4425    305.11535    3.0449142    70.095144   -30.451672    382.41423    14718.259 
    4426    298.02055    3.1739953    73.948711   -30.371165    223.52434    14718.259 
    4427    291.87122    3.3296862    77.354363   -30.294544    74.271314    14718.259 
    4428    288.17274    3.5039253    79.613833   -30.230746   -50.832229    14718.259 
    4429    287.91794    3.6849707    80.258938    -30.18805     -140.346    14718.259 
    4430    291.27081    3.8630635    79.188845   -30.169235   -189.62488    14718.259 
    4431    297.45549    4.0304657    76.720526   -30.171311   -201.31265    14718.259 
    4432    304.92487    4.1868875    73.518434   -30.180887    -180.6761    14718.259 
    4433    311.80411    4.3270497    70.407101   -30.185163   -141.49237    14718.259 
    4434    316.46125    4.4443769    68.122591   -30.171732   -95.289959    14718.259 
    4435     318.0021    4.5361204    67.086722   -30.135013   -52.105504    14718.259 
    4436    316.52654    4.6037858    67.290024   -30.078869   -17.916295    14718.259 
    4437    313.03209    4.6522409    68.330106   -30.015268    3.0220144    14718.259 
    4438    308.99345     4.687976    69.592152   -29.960328    9.9075624    14718.259 
    4439    305.77985    4.7190279    70.500384   -29.928025    4.5754639    14718.259 
    4440    304.14136     4.754571    70.742068    -29.92347    -10.48884    14718.259 
    4441    303.96365    4.7976735    70.377628   -29.943716   -34.827707    14718.259 
    4442    304.36804     4.848329    69.796809   -29.976226   -69.348322    14718.259 
    4443     304.1147    4.9048696    69.540836   -30.004452   -114.57872    14718.259 
    4444    302.15696    4.9634209    70.061371   -30.014027   -169.93679    14718.259 
    4445    298.12363    5.0182032    71.510816    -29.99745   -231.07731    14718.259 
    4446    292.54023    5.0611728    73.645969   -29.957576   -291.51854    14718.259 
    4447    286.70104    5.0850441    75.883971   -29.905125    -344.1668    14718.259 
    4448    282.23751    5.0830255    77.493035   -29.855463   -381.27247    14718.259 
    4449    280.53859     5.048974    77.850086   -29.822509   -397.48087    14718.259 
    4450    282.23358    4.9778128    76.671665   -29.813173   -391.27965    14718.259 
    4451    286.93107    4.8654902    74.131902   -29.825101   -366.32226    14718.259 
    4452    293.31705    4.7116405    70.820231   -29.846398   -332.19983    14718.259 
    4453    299.58806    4.5196492    67.549135   -29.861284   -298.57821    14718.259 
    4454    304.06829    4.2985295    65.079852   -29.854103   -277.62728    14718.259 
    4455    305.78161    4.0573255    63.867619   -29.818437   -280.40523    14718.259 
    4456    304.74983    3.8068178    63.924923   -29.757953   -312.27101    14718.259 
    4457    301.89686    3.5593569    64.858328   -29.686319   -373.24786    14718.259 
    4458    298.59269    3.3293866    66.067788   -29.621105   -459.83662    14718.259 
    4459    296.01882    3.1285741    67.030149   -29.578118    -569.9573    14718.259 
    4460    294.61419    2.9642766    67.549142   -29.562839   -698.77795    14718.259 
    4461    293.84249     2.836784    67.860771   -29.569454   -842.24544    14718.259 
    4462    292.41043    2.7461607    68.535077   -29.578347   -999.27113    14718.259 
    4463    288.89042      2.68953    70.198999   -29.565832   -1165.9021    14718.259 
    4464     282.5058    2.6572337    73.189649   -29.513479   -1332.3494    14718.259 
    4465    273.71588    2.6391816    77.287884   -29.414622   -1489.3996    14718.259 
    4466    264.33007    2.6245199    81.663142    -29.28242    -1621.049    14718.259 
    4467    257.03738    2.6085338    85.083487   -29.141545   -1714.7213    14718.259 
    4468    254.47751    2.5911618    86.334115    -29.02062   -1757.2588    14718.259 
    4469    258.19848    2.5722774    84.693323   -28.939878   -1739.9385    14718.259 
    4470    267.90616    2.5506615    80.273539   -28.901866   -1663.1469    14718.259 
    4471    281.34703    2.5252932    74.075779   -28.888264     -1535.84    14718.259 
    4472    294.92595    2.4938976    67.713279   -28.867289   -1372.3257    14718.259 
    4473    304.86322    2.4530468    62.891715   -28.805832     -1188.78    14718.259 
    4474    308.47504    2.3987535     60.83419   -28.681859   -997.81037    14718.259 
    4475    305.09875    2.3249856    61.866301   -28.494368   -805.21455    14718.259 
    4476    296.31633    2.2247008    65.317798   -28.261478   -608.44523    14718.259 
    4477    285.37143     2.093457    69.776819   -28.016093    -407.3255    14718.259 
    4478    276.01644    1.9343784    73.599686    -27.79327   -194.71758    14718.259 
    4479    271.22467    1.7539636    75.486745   -27.617832    34.379772    14718.259 
    4480    272.20481    1.5615375    74.917614   -27.495609    279.51315    14718.259 
    4481    278.05805    1.3685257    72.298024   -27.412505    534.40066    14718.259 
    4482     286.1744    1.1909378     68.77822   -27.337443    786.97844    14718.259 
    4483    293.22107    1.0381385    65.818339   -27.236711    1022.5385    14718.259 
    4484    296.34209   0.91076562      64.6594   -27.085676    1225.9397    14718.259 
    4485    294.15086   0.80878328    65.884246   -26.874433     1386.059    14718.259 
    4486    287.20563   0.73182022    69.215265   -26.611379    1498.6235    14718.259 
    4487    277.81064   0.67808983    73.613321   -26.319988    1565.0893    14718.259 
    4488    269.22123    0.6421277    77.638727   -26.031311    1590.6048    14718.259 
    4489    264.52933   0.61727695    79.946325   -25.772138    1581.5101    14718.259 
    4490    265.62372   0.59726462    79.741735    -25.55543    1542.7348    14718.259 
    4491    272.58251   0.57732478    77.040752   -25.375755     1474.931    14718.259 
    4492    283.69584   0.55564821    72.645281   -25.211557    1373.0919    14718.259 
    4493    296.09486   0.53391237    67.850772   -25.033891    1233.8233    14718.259 
    4494    306.73676   0.51648455    64.000399   -24.817652    1053.9346    14718.259 
    4495    313.38647   0.50884437    62.049526   -24.550356    836.16984    14718.259 
    4496    315.24704   0.51325296    62.295034   -24.237466    589.85972    14718.259 
    4497    313.03875   0.53221306     64.35238   -23.896877    327.50464    14718.259 
    4498    308.55953   0.56730886    67.365127   -23.552988    66.819093    14718.259 
    4499    303.92785   0.62627181    70.345466    -23.22799   -168.68748    14718.259 
4500        0.48711465024436512161 11.418524531770213315 0.56349206349206348854 46 -159.24582781968757672
    4500     300.8584   0.71766945    72.508721   -22.931964   -370.59905    14718.259 
    4501    300.19575   0.83571471    73.485432   -22.666374   -530.05037    14718.259 
    4502    301.78144   0.97748748     73.35988    -22.42016   -642.60119    14718.259 
    4503    304.70369    1.1340863    72.552524   -22.179272   -713.55524    14718.259 
    4504    307.73711    1.2922818    71.616977   -21.930863   -753.92715    14718.259 
    4505     309.7891    1.4406295    71.034032   -21.667484   -776.99142    14718.259 
    4506    310.22779    1.5702548    71.070529   -21.387535   -797.25016    14718.259 
    4507    309.00372    1.6748437    71.732755   -21.095173    -827.7268    14718.259 
    4508    306.57311    1.7508063    72.809634   -20.797801   -879.54152    14718.259 
    4509    303.67687     1.797121    73.977992   -20.503457   -961.21715    14718.259 
    4510    301.06089    1.8148265    74.930638   -20.218431   -1078.3205    14718.259 
    4511    299.22715    1.8063539    75.486858   -19.945464   -1233.2519    14718.259 
    4512    298.29156    1.7749286    75.651633   -19.682882   -1425.0138    14718.259 
    4513    297.97941    1.7295619    75.604435   -19.425715   -1645.3508    14718.259 
    4514    297.80186    1.6811148    75.618224   -19.164144   -1888.7835    14718.259 
    4515    297.31895    1.6296172    75.938518   -18.892461   -2141.5476    14718.259 
    4516    296.36882    1.5787954    76.664379     -18.6056   -2385.1782    14718.259 
    4517    295.21201    1.5321628    77.678895   -18.304743   -2600.1524    14718.259 
    4518    294.50072    1.4937377    78.663257   -17.995888   -2763.9989    14718.259 
    4519    295.06018    1.4686424    79.198736   -17.687902   -2854.2433    14718.259 
    4520    297.55537    1.4622931    78.925827   -17.389172   -2851.7414    14718.259 
    4521    302.16546    1.4793137    77.702798   -17.104028   -2743.3188    14718.259 
    4522    308.40284    1.5226012    75.698975   -16.830525   -2523.6481    14718.259 
    4523    315.17264    1.5927524    73.376808   -16.560706   -2195.9293    14718.259 
    4524    321.08195     1.687923    71.356669   -16.283469   -1771.2619    14718.259 
    4525     324.9068    1.8040641    70.205367   -15.989056   -1266.9719    14718.259 
    4526    326.05071    1.9352234     70.22442   -15.673332   -703.78677    14718.259 
    4527    324.80705    2.0746301    71.321185   -15.342459   -104.29832    14718.259 
    4528    322.30826    2.2272541     73.01909   -15.004594    508.85063    14718.259 
    4529    320.18906    2.3889422    74.611654   -14.678108    1108.9053    14718.259 
    4530    320.02753    2.5507779    75.413504   -14.377662    1672.0631    14718.259 
    4531    322.74675    2.7002193     75.02233   -14.113233    2171.9884    14718.259 
    4532    328.22138    2.8242685    73.494875   -13.885175    2584.9221    14718.259 
    4533    335.22718    2.9128427    71.369357   -13.683963    2888.9003    14718.259 
    4534    341.77712    2.9593003    69.517576   -13.494025    3065.6497    14718.259 
    4535    345.74793    2.9610414    68.867901   -13.298736    3102.6907    14718.259 
    4536    345.59737      2.92161    70.085045   -13.085915    3000.1813    14718.259 
    4537    340.93231    2.8602461     73.30929   -12.850043      2773.33    14718.259 
    4538    332.77676    2.7978084     78.04598   -12.597039    2439.8002    14718.259 
    4539    323.39315    2.7450588    83.253823   -12.342853    2031.1095    14718.259 
    4540    315.64492    2.7092315    87.620301   -12.108804    1583.4289    14718.259 
    4541    312.11929    2.6947025    89.951103   -11.915412     1134.152    14718.259 
    4542    314.28025    2.7002214    89.553971   -11.773989    718.51855    14718.259 
    4543    321.90005    2.7201893    86.490277   -11.686974    362.55153    14718.259 
    4544    333.01604    2.7576392    81.595841   -11.638066    75.984603    14718.259 
    4545    344.47302    2.8129119    76.249285    -11.60341   -137.58738    14718.259 
    4546    352.87855    2.8887466    71.949324   -11.557068   -281.66413    14718.259 
    4547    355.68592    2.9905903    69.836666   -11.480168   -363.57344    14718.259 
    4548    352.03082    3.1261015    70.325353   -11.367592   -391.44118    14718.259 
    4549    343.01699    3.3039736    72.977436   -11.230121   -372.10035    14718.259 
    4550    331.33838    3.5309346    76.670915   -11.091155   -308.96977    14718.259 
    4551    320.35761    3.8097458     80.00361   -10.979426   -209.97225    14718.259 
    4552    312.96816    4.1401272    81.788501   -10.917788   -84.513403    14718.259 
    4553    310.66014    4.5149124    81.459455   -10.915204    56.111714    14718.259 
    4554    313.10262    4.9224175    79.240974   -10.964119    194.34481    14718.259 
    4555    318.39836    5.3518531    76.024077   -11.038836    313.34189    14718.259 
    4556    323.90953    5.7783962    73.001454   -11.111891    389.97428    14718.259 
    4557    327.28053     6.171611    71.209536    -11.16105    407.94508    14718.259 
    4558    327.29193    6.5062735    71.148762    -11.17542    358.77166    14718.259 
    4559    324.25077     6.761673    72.620261   -11.162306    243.84294    14718.259 
    4560    319.78148    6.9275616    74.830715   -11.140773    72.301897    14718.259 
    4561     316.1244    7.0014952    76.716533   -11.136495   -139.61137    14718.259 
    4562    315.21634    6.9877238    77.361969    -11.17197   -373.21937    14718.259 
    4563    317.89906    6.8957958    76.355217   -11.258724    -610.7422    14718.259 
    4564    323.54777    6.7387747    73.953906   -11.393551   -837.45911    14718.259 
    4565    330.25343     6.531496    71.001593   -11.559954   -1042.2208    14718.259 
    4566    335.49187    6.2894266    68.625338   -11.734793   -1215.2886    14718.259 
    4567     337.0402    6.0319728    67.821965   -11.894439   -1345.9712    14718.259 
    4568    333.82171    5.7772376    69.081351   -12.025083   -1427.7734    14718.259 
    4569    326.35885    5.5378341     72.18686   -12.127825   -1451.8028    14718.259 
    4570    316.64962    5.3210609    76.270485   -12.217521   -1410.2667    14718.259 
    4571    307.49394     5.129803    80.108473   -12.321013   -1293.8706    14718.259 
    4572    301.51211    4.9778799     82.55197   -12.458977   -1096.9138    14718.259 
    4573    300.25022    4.8657102    82.934636   -12.649625   -829.65206    14718.259 
    4574    303.64808    4.7852598    81.308604   -12.894351   -506.11091    14718.259 
    4575    310.06686    4.7255443    78.419172   -13.179935   -149.99346    14718.259 
    4576    316.89865     4.674438    75.429341   -13.482745    214.83232    14718.259 
    4577    321.49829    4.6247211    73.497665   -13.778982    564.16836    14718.259 
    4578    322.12482     4.578714    73.363142   -14.049648    873.43617    14718.259 
    4579    318.55753    4.5375132    75.085529   -14.290837    1131.6067    14718.259 
    4580    312.14067    4.5053883    78.029686   -14.514669    1328.8559    14718.259 
    4581    305.28251    4.4974315    81.089695   -14.741885    1471.2307    14718.259 
    4582    300.60865    4.5295017    83.072424   -14.997666     1555.885    14718.259 
    4583     300.0536    4.6028183    83.110313   -15.304782    1592.4056    14718.259 
    4584    304.13765     4.715204    80.965359   -15.675374    1578.1194    14718.259 
    4585    311.72176    4.8705367    77.122698   -16.107404    1514.3441    14718.259 
    4586    320.33856    5.0764733    72.644753   -16.583888    1405.1289    14718.259 
    4587    326.97376    5.3330737    68.834177   -17.081414    1245.2659    14718.259 
    4588    329.04465    5.6277418    66.814738   -17.574304    1038.6813    14718.259 
    4589     325.2273    5.9334921    67.171536   -18.046509    796.66299    14718.259 
    4590    315.87247    6.2261806    69.767068   -18.489571     530.4428    14718.259 
    4591    302.89984    6.4860726    73.789899   -18.909029    260.27193    14718.259 
    4592    289.22037    6.6951536    78.017821   -19.321063    7.7974723    14718.259 
    4593    277.85724    6.8399793    81.203096   -19.746341   -205.64731    14718.259 
    4594    271.07573    6.9108008     82.45129   -20.202785   -364.57499    14718.259 
    4595    269.79088    6.8974136    81.472276   -20.702392     -459.564    14718.259 
    4596    273.40839    6.7979271    78.631085   -21.243559    -491.6818    14718.259 
    4597    280.13052    6.6174847    74.793904   -21.816174   -467.60525    14718.259 
    4598    287.59049    6.3781895     71.02942   -22.401583   -394.36769    14718.259 
    4599    293.62622    6.1040285      68.2701    -22.98368   -290.56463    14718.259 
4600        0.48138789623697975095 11.463276471061215389 0.56613756613756605063 50 -158.08059054079842554
    4600    296.92023    5.8158163    67.039963   -23.551042   -166.94221    14718.259 
    4601    297.29711    5.5325321    67.330242   -24.101423   -36.601215    14718.259 
    4602    295.64399    5.2684519    68.652807   -24.641594    92.489706    14718.259 
    4603     293.4854    5.0346714    70.241981   -25.185813    215.13438    14718.259 
    4604    292.38518    4.8434895    71.332267   -25.747774    327.87093    14718.259 
    4605    293.39263    4.6973367     71.41781   -26.340773    422.59718    14718.259 
    4606    296.69149    4.5909652    70.411178   -26.969762    493.25906    14718.259 
    4607    301.55933    4.5151788    68.652573   -27.629539    534.88747    14718.259 
    4608    306.64386     4.453145    66.775155   -28.311278    543.10069    14718.259 
    4609     310.4227    4.3956227      65.4809   -28.998346    513.67811    14718.259 
    4610    311.69729    4.3371578    65.307775   -29.676951    448.04738    14718.259 
    4611    309.95077    4.2767805    66.466998   -30.336767    352.00335    14718.259 
    4612    305.46308    4.2157807    68.794749   -30.973257    238.11504    14718.259 
    4613    299.18242    4.1563469    71.818939   -31.587227    120.24889    14718.259 
    4614    292.42626    4.1016391    74.904931   -32.182725    14.972155    14718.259 
    4615    286.53428    4.0547993    77.423138    -32.76538   -62.031931    14718.259 
    4616    282.57398    4.0202813    78.888249   -33.339967   -95.664351    14718.259 
    4617    281.16314    4.0021519     79.04089   -33.911068    -78.18533    14718.259 
    4618    282.42361    4.0043629    77.864994   -34.481046   -6.1360603    14718.259 
    4619    286.02891    4.0305926    75.556019   -35.051011    118.34383    14718.259 
    4620    291.30982    4.0851022     72.46046   -35.621755    286.81062    14718.259 
    4621    297.38981    4.1735894    69.006198   -36.192066    485.67981    14718.259 
    4622    303.33079    4.3009115    65.633585   -36.759625    699.49967    14718.259 
    4623    308.27074     4.469264    62.736059   -37.321227    911.41688    14718.259 
    4624    311.53987     4.677167    60.614547   -37.872994    1102.6259    14718.259 
    4625    312.74819    4.9179775    59.447656   -38.410207    1257.8522    14718.259 
    4626    311.83425    5.1781357    59.275717   -38.929958    1362.1405    14718.259 
    4627    309.08352    5.4383314    59.997146   -39.428048    1409.4355    14718.259 
    4628    305.08997    5.6750286    61.376473   -39.903948    1391.2038    14718.259 
    4629    300.67087    5.8684793    63.069469   -40.357891    1308.3171    14718.259 
    4630    296.72559    6.0011666    64.673517   -40.795361    1161.7093    14718.259 
    4631     294.0197    6.0670537    65.810595   -41.223115     958.7491    14718.259 
    4632    292.96469    6.0664575    66.229043   -41.648403    709.56031    14718.259 
    4633    293.43644     6.005392    65.895081   -42.075172    425.49745    14718.259 
    4634    294.73038    5.8942492    65.031703    -42.50106    118.18472    14718.259 
    4635    295.69945    5.7554157    64.070586   -42.916737   -196.20901    14718.259 
    4636    295.13803    5.6112047     63.51254   -43.306824   -510.45932    14718.259 
    4637    292.25991    5.4641187    63.738901   -43.659602   -809.96309    14718.259 
    4638    287.03096    5.3210468    64.843361    -43.96673   -1082.9841    14718.259 
    4639    280.31186     5.192079    66.553585   -44.229471   -1317.3966    14718.259 
    4640    273.70152    5.0801832    68.287975   -44.460121    -1500.387    14718.259 
    4641    269.06917    4.9842628    69.337638   -44.676885   -1621.2253    14718.259 
    4642    267.95158    4.9002131    69.111621   -44.897995   -1673.6424    14718.259 
    4643    271.02236    4.8223284    67.357638   -45.135562   -1657.7431    14718.259 
    4644    277.81752    4.7446494    64.278927   -45.391907   -1580.3969    14718.259 
    4645    286.81197    4.6621178    60.505435   -45.659499   -1454.1474    14718.259 
    4646    295.82243     4.571335    56.928403   -45.924212   -1295.0878    14718.259 
    4647     302.6068    4.4709239    54.452508   -46.170343   -1119.9309    14718.259 
    4648    305.47309    4.3615708    53.744201   -46.385491   -943.08855    14718.259 
    4649    303.73055    4.2403006     55.05217   -46.563396   -768.57967    14718.259 
    4650    297.82594    4.1037029    58.149609   -46.706787   -605.56901    14718.259 
    4651    289.16226    3.9563833    62.407848   -46.823757   -453.83927    14718.259 
    4652    279.69487    3.8036698    66.973337   -46.926437   -309.26522    14718.259 
    4653    271.40285    3.6509957    70.991114   -47.026952   -165.98213    14718.259 
    4654    265.80241    3.5033313    73.809042   -47.133815   -18.726232    14718.259 
    4655    263.63365    3.3645918    75.108108    -47.24969    135.56565    14718.259 
    4656    264.78837    3.2370909    74.930641   -47.371266    296.98296    14718.259 
    4657    268.46767    3.1211843    73.611686   -47.491164    462.72928    14718.259 
    4658    273.49083    3.0152691    71.647246   -47.600996    627.85666    14718.259 
    4659    278.64369    2.9162632    69.547118   -47.694242    786.29281    14718.259 
    4660    282.96417    2.8198875     67.71602   -47.768143    933.48152    14718.259 
    4661    285.89672    2.7236905    66.389675   -47.822741    1062.9383    14718.259 
    4662    287.32188    2.6235754    65.626956   -47.861973     1171.002    14718.259 
    4663    287.46937    2.5184451    65.346127   -47.889968    1249.8661    14718.259 
    4664    286.76827    2.4129478    65.383507   -47.911452     1298.877    14718.259 
    4665    285.70479     2.316407    65.553924   -47.928951    1315.1351    14718.259 
    4666    284.71451    2.2374617    65.695663   -47.944524    1296.6147    14718.259 
    4667    284.10772    2.1845941    65.697607   -47.959271    1243.7776    14718.259 
    4668    284.03609    2.1650641    65.511007   -47.973022    1156.6876    14718.259 
    4669     284.4825    2.1812318    65.153386    -47.98587    1037.7662    14718.259 
    4670    285.25839    2.2304432    64.709259   -47.998146    889.83292    14718.259 
    4671    286.01944    2.3040587    64.327052   -48.008776    721.42473    14718.259 
    4672    286.29619    2.3903778    64.204531   -48.016348      538.012    14718.259 
    4673     285.5709    2.4833367    64.551916   -48.017237    350.32537    14718.259 
    4674    283.42226    2.5864189    65.529327   -48.004281    170.10847    14718.259 
    4675    279.72144    2.6999143    67.170089   -47.973105    2.7516629    14718.259 
    4676    274.78732    2.8223426    69.313995   -47.921365   -138.85329    14718.259 
    4677    269.42849    2.9532259    71.586095   -47.850572   -247.93803    14718.259 
    4678    264.83534    3.0892968    73.447282   -47.767601   -317.34411    14718.259 
    4679    262.30071    3.2268317    74.317679   -47.682258   -342.44313    14718.259 
    4680    262.84217    3.3607188    73.746327   -47.604471   -324.72109    14718.259 
    4681    266.83711    3.4847552     71.57477   -47.540141   -271.13486    14718.259 
    4682    273.80558    3.5914674    68.034203   -47.488667   -194.22204    14718.259 
    4683    282.43747    3.6727693     63.73216   -47.442574   -111.10315    14718.259 
    4684    290.88561    3.7206599    59.519947   -47.389587   -40.259335    14718.259 
    4685    297.24891    3.7278329    56.273946   -47.317545   -1.0958409    14718.259 
    4686    300.10564     3.687952    54.656917   -47.217599   -6.0939188    14718.259 
    4687    298.90657    3.5995973    54.936339   -47.087978   -68.488271    14718.259 
    4688    294.11606    3.4692037    56.917688   -46.934472   -190.67383    14718.259 
    4689    287.05476    3.3055027    60.017866   -46.769154   -367.61504    14718.259 
    4690    279.47407    3.1184163    63.454308   -46.606298   -588.28927    14718.259 
    4691     273.0145    2.9179395    66.485727   -46.457474   -837.72247    14718.259 
    4692    268.73329    2.7131893    68.622421   -46.327346   -1099.1877    14718.259 
    4693    266.85951     2.512079     69.73534   -46.211915    -1355.132    14718.259 
    4694    266.85328    2.3208531    70.031161   -46.099898   -1590.8155    14718.259 
    4695    267.72813    2.1437744     69.91136   -45.977117   -1792.2538    14718.259 
    4696    268.49912     1.984003    69.776295   -45.831722    -1946.938    14718.259 
    4697    268.57948    1.8440591     69.85449   -45.658408    -2044.012    14718.259 
    4698    267.97521    1.7262464    70.122929    -45.45979   -2074.7503    14718.259 
    4699    267.21701     1.632873    70.343913    -45.24458   -2033.5226    14718.259 
4700        0.47417534942080002969 11.514525742561545485 0.56878306878306872374 50 -166.03149043868108947
    4700    267.07684    1.5661616    70.195442   -45.023479   -1918.8669    14718.259 
    4701    268.19945    1.5278472     69.43535   -44.804658    -1734.934    14718.259 
    4702    270.80446    1.5186969    68.028997   -44.590545    -1491.941    14718.259 
    4703    274.57603    1.5378177    66.188774   -44.377353   -1205.1457    14718.259 
    4704    278.77385    1.5822348    64.311822   -44.157155   -893.65824    14718.259 
    4705    282.50721    1.6469828    62.843624   -43.922239   -577.40022    14718.259 
    4706    285.05024    1.7311356    62.123273    -43.66624   -273.89008    14718.259 
    4707    286.08992    1.8315924    62.270513   -43.389532   -3.2461986    14718.259 
    4708    285.80872    1.9415821    63.154311   -43.097214    222.43997    14718.259 
    4709    284.76215    2.0528325    64.453206     -42.7979    394.10737    14718.259 
    4710      283.626    2.1570796    65.780946   -42.500019    507.82319    14718.259 
    4711    282.92733     2.241107     66.82782   -42.208397    566.84761    14718.259 
    4712    282.83046     2.290294    67.465005    -41.92513    570.97233    14718.259 
    4713    283.07774    2.3017257    67.773131   -41.644972     525.3867    14718.259 
    4714    283.13751     2.277451    67.984343   -41.360311    437.20635    14718.259 
    4715     282.4451    2.2325138    68.364927   -41.064128    320.27501    14718.259 
    4716    280.70685    2.1826648    69.087696   -40.749735    185.85387    14718.259 
    4717    278.08095    2.1266724    70.147944   -40.422261    46.196927    14718.259 
    4718    275.12225    2.0727878    71.362985    -40.08527   -87.782725    14718.259 
    4719    272.59474    2.0257408     72.44969   -39.747052   -204.48914    14718.259 
    4720    271.18928    1.9894584    73.144228    -39.41355   -293.85125    14718.259 
    4721    271.27346    1.9673508    73.309517   -39.086007   -349.17404    14718.259 
    4722    272.78821    1.9623451    72.981177   -38.760224   -367.62679    14718.259 
    4723     275.3313    1.9767932    72.332354   -38.428434   -350.01238    14718.259 
    4724     278.3818    2.0122985    71.577023   -38.083024   -299.68484    14718.259 
    4725    281.55135    2.0697738    70.861787   -37.720117   -222.06846    14718.259 
    4726    284.73564    2.1489758    70.202521   -37.341801   -124.21847    14718.259 
    4727    288.08603    2.2485786    69.500914   -36.955312   -13.790336    14718.259 
    4728    291.81055    2.3664209    68.636515   -36.569916    100.56515    14718.259 
    4729    295.89858    2.5014439    67.590044   -36.193096    210.95204    14718.259 
    4730    299.93009    2.6532096    66.532386   -35.825465    304.77769    14718.259 
    4731    303.07962    2.8163308     65.82461   -35.463283      371.059    14718.259 
    4732    304.34899    2.9872959    65.909028   -35.096624     400.2367    14718.259 
    4733    302.97037    3.1642335    67.119986   -34.719591    386.30634    14718.259 
    4734    298.84583    3.3591536    69.485167     -34.3208    326.52815    14718.259 
    4735    292.83104    3.5648963    72.607108   -33.907382    221.13767    14718.259 
    4736     286.6506    3.7711019    75.696655   -33.491646      78.4538    14718.259 
    4737    282.43531    3.9686933    77.773114   -33.091197   -89.807592    14718.259 
    4738    282.02049    4.1506197    77.982437   -32.722673   -271.22056    14718.259 
    4739    286.22692     4.311269    75.928547   -32.394202   -453.84737    14718.259 
    4740    294.39468    4.4446211    71.891572   -32.103112   -631.55057    14718.259 
    4741    304.38673    4.5504485    66.833001   -31.831905   -802.22702    14718.259 
    4742     313.1417    4.6291252    62.155903   -31.556633   -964.08229    14718.259 
    4743    317.62454    4.6846765    59.279869   -31.252782     -1117.87    14718.259 
    4744    315.86294    4.7290522    59.166158   -30.906314   -1255.3291    14718.259 
    4745    307.74342    4.7762867    61.961035   -30.515522   -1369.4054    14718.259 
    4746    295.22214    4.8255631     66.89676    -30.09897   -1444.4086    14718.259 
    4747    281.79894    4.8710406    72.505276   -29.686338   -1460.1662    14718.259 
    4748    271.43846    4.9033654    77.084071   -29.309957   -1398.3558    14718.259 
    4749    267.28477    4.9124483     79.26011   -28.992836   -1247.5506    14718.259 
    4750    270.61107    4.8892152    78.456049   -28.739777   -1005.7182    14718.259 
    4751    280.37484    4.8271061    75.092918   -28.534595   -682.73607    14718.259 
    4752    293.54646     4.722967    70.452782   -28.345321   -299.21691    14718.259 
    4753    306.11227    4.5776779    66.243584   -28.135509    119.15213    14718.259 
    4754    314.41902    4.3958875    64.013817   -27.876692    542.52334    14718.259 
    4755    316.39859    4.1852729    64.619916   -27.557388    945.16108    14718.259 
    4756    312.24624     3.952722    67.933094   -27.188488    1307.0264    14718.259 
    4757    304.31136    3.7051407    72.889529   -26.797992    1617.8927    14718.259 
    4758    296.23737     3.447137    77.867127   -26.424231    1875.2596    14718.259 
    4759    291.64446     3.189281    81.257222   -26.099734    2075.4314    14718.259 
    4760    292.85738    2.9421705    82.024404   -25.840741    2221.4072    14718.259 
    4761    300.09875    2.7060234    80.059911   -25.647476    2308.7867    14718.259 
    4762    311.40589    2.4888464    76.205018    -25.49619    2329.2619    14718.259 
    4763    323.33562    2.3005328      71.9394   -25.352942    2275.3737    14718.259 
    4764    332.17796    2.1495482    68.851235   -25.187228    2146.1597    14718.259 
    4765    335.23493    2.0492118    68.081416   -24.977361    1944.9023    14718.259 
    4766    331.74116    2.0046732     69.93639   -24.722368    1684.3268    14718.259 
    4767     323.0897    2.0089986     73.80317   -24.441607    1385.9011    14718.259 
    4768    312.28967    2.0532015    78.389509   -24.163595    1075.4385    14718.259 
    4769    302.90025    2.1249806    82.191208   -23.919106    781.43123    14718.259 
    4770    297.83185    2.2100205    84.012293   -23.729702     528.5797    14718.259 
    4771    298.42757    2.2943974    83.353929   -23.600463    333.71761    14718.259 
    4772    304.12861    2.3667447    80.543272   -23.518878    204.06557    14718.259 
    4773    312.80332    2.4199762    76.571931   -23.459969     137.6287    14718.259 
    4774    321.58674     2.451342    72.716988   -23.395901     124.8499    14718.259 
    4775    327.90773    2.4622817    70.088392   -23.306311    154.32109    14718.259 
    4776    330.34146    2.4612923    69.262728   -23.182185     215.1486    14718.259 
    4777    329.01633    2.4565132    70.122985   -23.030815    296.24122    14718.259 
    4778    325.45968    2.4513771     71.94676   -22.871678    387.71638    14718.259 
    4779    321.95491    2.4452205    73.699936   -22.729103    483.13103    14718.259 
    4780    320.66329    2.4350569    74.424796   -22.624548    575.65599    14718.259 
    4781     322.8188    2.4204039    73.585454   -22.570698    659.35804    14718.259 
    4782     328.2918    2.4043058    71.254034   -22.564497    720.10781    14718.259 
    4783    335.64503    2.3830884    68.080482   -22.593935    743.49011    14718.259 
    4784    342.62346    2.3550022    65.064184   -22.639349    716.18542    14718.259 
    4785    346.91906    2.3207691    63.212622   -22.681256    627.99451    14718.259 
    4786    346.93531    2.2832312    63.207157     -22.7073    475.54012    14718.259 
    4787    342.28638    2.2536578     65.18761   -22.712676    265.20621    14718.259 
    4788    333.90739    2.2399278    68.720091    -22.70445    5.5999068    14718.259 
    4789      323.746    2.2425221    72.945757   -22.695979   -285.29361    14718.259 
    4790    314.14391    2.2576748    76.851126   -22.702487   -585.96369    14718.259 
    4791     307.1559    2.2779441    79.562911   -22.735934   -874.66758    14718.259 
    4792    304.01221    2.2938842    80.574212   -22.801479   -1132.3962    14718.259 
    4793    304.86668    2.2963823    79.843373   -22.896609   -1344.9032    14718.259 
    4794    308.86389    2.2790432    77.755826   -23.012909   -1503.5385    14718.259 
    4795    314.46266    2.2380433    74.982444   -23.139091   -1602.1977    14718.259 
    4796    319.87434    2.1746945    72.290654   -23.265203   -1644.5019    14718.259 
    4797    323.50454     2.099355    70.360327    -23.38275   -1634.8299    14718.259 
    4798    324.30964    2.0254122    69.642513   -23.486855    -1578.525    14718.259 
    4799     322.0005    1.9672121    70.276841   -23.575835   -1481.2599    14718.259 
4800        0.46670815827847633717 11.528133283804905318 0.56613756613756605063 50 -167.31545735904239791
    4800    317.08356    1.9383202    72.071108   -23.650246   -1346.5745    14718.259 
    4801    310.76212    1.9391341    74.542897   -23.713882   -1176.4996    14718.259 
    4802     304.6437    1.9589879    77.024131   -23.779649   -976.19117    14718.259 
    4803    300.32846    2.0011055     78.81809   -23.855095   -758.50356    14718.259 
    4804    299.01094    2.0648505    79.377413   -23.950272   -531.42709    14718.259 
    4805    301.13489    2.1489029    78.462665   -24.070298    -305.3909    14718.259 
    4806    306.22785    2.2468904     76.23031    -24.21521   -92.846927    14718.259 
    4807    312.98312    2.3494849    73.212314   -24.377828    91.622773    14718.259 
    4808    319.59116    2.4471731     70.18143   -24.546014    234.28207    14718.259 
    4809    324.24744    2.5303689    67.935531   -24.706709    325.50258    14718.259 
    4810    325.67887    2.5910238    67.065031   -24.849447    359.19444    14718.259 
    4811    323.52662    2.6235363    67.774942   -24.969888    336.55811    14718.259 
    4812    318.46819    2.6251133    69.816769   -25.071019    265.26206    14718.259 
    4813      312.036    2.5959091     72.55171   -25.162457    158.33535    14718.259 
    4814    306.18263    2.5387511    75.128337   -25.258073    32.016562    14718.259 
    4815    302.71099    2.4585885    76.727008    -25.37244   -96.964198    14718.259 
    4816    302.71777    2.3641783    76.805644   -25.517092   -211.05008    14718.259 
    4817    306.21468    2.2674259    75.279376   -25.696556   -301.44461    14718.259 
    4818    312.05034     2.181433    72.575968   -25.905123   -362.65235    14718.259 
    4819    318.17169    2.1158529    69.540642    -26.12973    -395.3479    14718.259 
    4820    322.18509    2.0770946    67.202419   -26.351572   -401.72857    14718.259 
    4821    322.07293     2.071338    66.459361   -26.550532   -387.00546    14718.259 
    4822     316.8672    2.1041362    67.774849   -26.711942   -354.20938    14718.259 
    4823    307.04679    2.1821504    70.986379   -26.832835   -300.78171    14718.259 
    4824    294.53787    2.3086147    75.300716   -26.918024   -222.01832    14718.259 
    4825    282.23387    2.4732861    79.494424    -26.98823   -121.69892    14718.259 
    4826     273.1551    2.6695386    82.270307   -27.067448     1.738426    14718.259 
    4827     269.5525    2.8890741    82.658856   -27.176532    146.39011    14718.259 
    4828     272.2023    3.1230847    80.335197   -27.325685    305.27083    14718.259 
    4829    280.13553    3.3635085    75.744134   -27.510612    466.17865    14718.259 
    4830    290.90056     3.604231    69.986705   -27.714191    613.72469    14718.259 
    4831    301.28533     3.843215    64.500354   -27.911248    733.91125    14718.259 
    4832    308.27653    4.0794885    60.633361   -28.078915    810.95748    14718.259 
    4833    309.94942    4.3143011    59.249489   -28.202047    837.23588    14718.259 
    4834    306.00597    4.5493426    60.489043   -28.278501    813.45033    14718.259 
    4835    297.80116    4.7854089     63.75864   -28.319205    748.14268    14718.259 
    4836    287.86007    5.0212471    67.947218   -28.344474    655.67984    14718.259 
    4837    279.05433    5.2528377    71.793263   -28.377404    552.96215    14718.259 
    4838    273.70931    5.4733339    74.281738   -28.436291    455.80743    14718.259 
    4839    272.91989    5.6752104    74.943001   -28.530614    377.86769    14718.259 
    4840     276.2966    5.8600607    73.961098   -28.650339     325.8396    14718.259 
    4841    282.21534    6.0180158    72.065033   -28.781419    297.77581    14718.259 
    4842     288.4295    6.1384394    70.249311   -28.902884    291.10581    14718.259 
    4843    292.83734    6.2149029    69.422359    -28.99616    301.13496    14718.259 
    4844    294.16436    6.2456888    70.102431   -29.051654    323.95437    14718.259 
    4845    292.33493    6.2349228    72.257756   -29.070061    356.90307    14718.259 
    4846    288.42633    6.1910642    75.334703   -29.063852    400.78111    14718.259 
    4847     284.2609    6.1275128    78.453056   -29.048318     453.9949    14718.259 
    4848    281.79403    6.0463889    80.696097     -29.0418    517.41478    14718.259 
    4849    282.46532    5.9451197    81.398635   -29.057705    585.11652    14718.259 
    4850    286.73797    5.8228571    80.344355   -29.100173    650.31147    14718.259 
    4851    293.97346    5.6769334    77.817588   -29.164769    703.57971    14718.259 
    4852    302.62514    5.5083778    74.504378   -29.240581    737.12519    14718.259 
    4853    310.70508    5.3191699    71.282532   -29.313925    737.28149    14718.259 
    4854    316.35584    5.1083713    68.969798   -29.373252    696.23987    14718.259 
    4855    318.34067    4.8782147     68.10528   -29.411751    610.91758    14718.259 
    4856    316.34812    4.6346742    68.822031   -29.428787    483.84463    14718.259 
    4857    311.03442    4.3870758    70.838161   -29.429272    323.62777    14718.259 
    4858    303.81248    4.1456417    73.558739    -29.42254    143.45857    14718.259 
    4859    296.45769    3.9216532    76.251809    -29.41936   -41.987519    14718.259 
    4860    290.65299    3.7270334    78.245693   -29.427842   -218.01979    14718.259 
    4861    287.59532    3.5675149    79.094378   -29.454089   -372.92286    14718.259 
    4862     287.7467    3.4444016    78.670847   -29.498814    -497.3004    14718.259 
    4863    290.78394    3.3547299    77.170653   -29.558146   -585.83763    14718.259 
    4864    295.74431    3.2922404    75.033408   -29.624634   -636.82772    14718.259 
    4865    301.31913    3.2463738    72.809227   -29.689566   -653.01253    14718.259 
    4866    306.20313    3.2042437    71.008298   -29.746004   -641.04589    14718.259 
    4867    309.42059    3.1570585     69.96971   -29.788498   -607.50204    14718.259 
    4868    310.56335    3.0974577    69.780818   -29.815447   -559.09761    14718.259 
    4869    309.86743    3.0183199    70.265583   -29.830955   -502.35634    14718.259 
    4870    308.10754    2.9180256    71.044381   -29.841609   -443.65151    14718.259 
    4871     306.3395    2.7986188    71.652426   -29.856971    -386.1066    14718.259 
    4872    305.55499    2.6643933    71.687726   -29.886548   -335.31743    14718.259 
    4873    306.33617    2.5208752    70.948622   -29.937637   -294.99378    14718.259 
    4874    308.61994    2.3779836    69.517024   -30.011586   -267.33177    14718.259 
    4875    311.67295     2.246427    67.755124   -30.103204   -258.29838    14718.259 
    4876     314.2891    2.1333596     66.20955    -30.20344   -270.82252    14718.259 
    4877    315.15815    2.0457551    65.445154   -30.300014   -306.19331    14718.259 
    4878    313.30863    1.9855924    65.860003    -30.38156   -357.85669    14718.259 
    4879    308.45924    1.9456776    67.544124   -30.443742   -419.12235    14718.259 
    4880    301.14286    1.9198836    70.232985   -30.487563   -483.28339    14718.259 
    4881    292.58254    1.9025817     73.37465   -30.519989    -537.0826    14718.259 
    4882    284.35719    1.8871835    76.286461   -30.550651   -567.55812    14718.259 
    4883    277.95106    1.8678765    78.349278   -30.590183   -565.87681    14718.259 
    4884    274.35307    1.8449351     79.17474   -30.642969   -525.58906    14718.259 
    4885    273.83307    1.8201984    78.692659   -30.708264   -446.09707    14718.259 
    4886    275.94376    1.7957551    77.137886   -30.780455   -332.21893    14718.259 
    4887    279.72789    1.7724722    74.949994   -30.850974   -192.16324    14718.259 
    4888    284.03803    1.7524977    72.625508   -30.911178   -37.417534    14718.259 
    4889    287.86988    1.7393172    70.573607   -30.954896    117.66667    14718.259 
    4890    290.60754    1.7334662     69.02035   -30.981132    259.96874    14718.259 
    4891    292.10404    1.7336268     67.98623   -30.992871    378.83452    14718.259 
    4892    292.60676    1.7320673    67.335214    -30.99709    468.83041    14718.259 
    4893    292.54973    1.7221523    66.870802   -31.000325    521.79742    14718.259 
    4894    292.31708    1.7013841    66.439521   -31.007735    536.02214    14718.259 
    4895     292.0786     1.668304    66.003886   -31.020601    513.67958    14718.259 
    4896     291.7334    1.6208528    65.658158   -31.037336    460.21006    14718.259 
    4897    290.98505    1.5607236    65.581284   -31.051436    380.90848    14718.259 
    4898    289.52314    1.4901971    65.945199   -31.056655    284.05093    14718.259 
    4899    287.23225    1.4132226    66.814282   -31.048844    183.78728    14718.259 
4900        0.46590393314919792411 11.578093792529562833 0.57407407407407406996 48 -159.85247323807027442
    4900    284.33584    1.3392821    68.078752   -31.024701     93.99847    14718.259 
    4901    281.41027    1.2720304    69.456224   -30.989549    26.994967    14718.259 
    4902    279.22184    1.2149903    70.572026   -30.950452   -3.3529059    14718.259 
    4903    278.43676    1.1732926     71.09371   -30.915244    11.195835    14718.259 
    4904    279.33191    1.1525127    70.869535   -30.888569    78.188324    14718.259 
    4905     281.6225    1.1575634    70.012137   -30.869279    195.84117    14718.259 
    4906    284.49651    1.1933319    68.885197    -30.84978    358.50755    14718.259 
    4907     286.8717    1.2666425    67.985882   -30.818061    559.84173    14718.259 
    4908    287.82295    1.3726498    67.761001   -30.763885    787.47524    14718.259 
    4909    286.95592    1.5008737    68.428702   -30.681279    1021.9165    14718.259 
    4910    284.58346    1.6469242    69.879094   -30.571916    1249.6459    14718.259 
    4911    281.67576    1.8064799    71.694527   -30.444599    1457.2019    14718.259 
    4912     279.5415    1.9760503    73.285593   -30.311693    1633.5198    14718.259 
    4913    279.36262     2.157438    74.092499   -30.184007    1771.9307    14718.259 
    4914    281.77912     2.352452    73.776804    -30.06741    1861.3676    14718.259 
    4915    286.65291     2.556082    72.340311   -29.960352    1896.7306    14718.259 
    4916    293.06061    2.7622976    70.132006   -29.855076    1870.3896    14718.259 
    4917    299.53571    2.9673915    67.748997   -29.740073    1779.9434    14718.259 
    4918    304.48722    3.1671696    65.864632   -29.603752    1626.9349    14718.259 
    4919    306.64922    3.3577245     65.03609    -29.43838    1419.6396    14718.259 
    4920    305.44988    3.5381458    65.544371   -29.238974    1168.9886    14718.259 
    4921    301.20105     3.702264    67.309205   -29.009177    889.13402    14718.259 
    4922    295.03715    3.8429769    69.903656   -28.757342    599.00029    14718.259 
    4923    288.61659    3.9538416    72.667648   -28.495246    318.48015    14718.259 
    4924    283.66346      4.02993     74.89278   -28.234653    65.887322    14718.259 
    4925     281.4698    4.0687551    76.027966   -27.983667   -143.69911    14718.259 
    4926    282.50961    4.0717916    75.844499    -27.74206   -301.78775    14718.259 
    4927     286.2887    4.0404124    74.508115   -27.502773   -407.68849    14718.259 
    4928    291.47906    3.9780234    72.532776    -27.25182   -465.24336    14718.259 
    4929    296.30982    3.8898175    70.626818   -26.973225   -484.57257    14718.259 
    4930    299.09926    3.7827941    69.479055   -26.653366   -475.84691    14718.259 
    4931     298.7697    3.6640828    69.548434   -26.285467   -450.04554    14718.259 
    4932    295.19122    3.5401926    70.919783   -25.870839   -417.19344    14718.259 
    4933    289.25421    3.4170873    73.265731   -25.418239   -382.50733    14718.259 
    4934    282.66477    3.2984791    75.921972   -24.940947   -351.62989    14718.259 
    4935    277.51186    3.1847093    78.055851   -24.453106   -326.65288    14718.259 
    4936    275.71045    3.0747416    78.887353   -23.965724   -308.83762    14718.259 
    4937    278.45646    2.9668854    77.913193    -23.48363   -299.96155    14718.259 
    4938    285.82026    2.8595391    75.081846   -23.003705   -303.44632    14718.259 
    4939    296.59316     2.751741    70.870082   -22.514928   -324.29758    14718.259 
    4940    308.46443    2.6434112    66.223706   -22.000614   -368.31259    14718.259 
    4941     318.5387    2.5352431     62.35205   -21.442751   -440.60355    14718.259 
    4942    324.10529    2.4282849    60.408104   -20.827602   -543.07983    14718.259 
    4943    323.46573    2.3233627    61.133868   -20.151142   -672.26221    14718.259 
    4944    316.56004    2.2205323    64.582544   -19.422503   -817.96295    14718.259 
    4945    305.15148    2.1186805    70.025088    -18.66366   -963.14776    14718.259 
    4946    292.44563    2.0150084    76.100364   -17.905314   -1086.8633    14718.259 
    4947    282.20581    1.9069977    81.187785   -17.177544   -1168.7859    14718.259 
    4948    277.61471    1.7930523    83.897915   -16.501318   -1191.1093    14718.259 
    4949     280.2467    1.6776574    83.524372   -15.876997   -1143.7691    14718.259 
    4950    289.51174    1.5597375    80.302191   -15.288411   -1028.2672    14718.259 
    4951    302.75005     1.436763    75.376024   -14.705141   -856.92521    14718.259 
    4952    315.99028     1.311825     70.47004   -14.092157   -647.83628    14718.259 
    4953     325.1757    1.1899817    67.354534   -13.423329   -420.47268    14718.259 
    4954    327.46061    1.0770541     67.27475    -12.68987   -191.56294    14718.259 
    4955     322.1587   0.97859933     70.52659   -11.903594    28.529408    14718.259 
    4956    311.02153   0.89921144    76.324099   -11.094138    237.07622    14718.259 
    4957    297.73212   0.84178124     83.01505   -10.300527    438.96313    14718.259 
    4958      286.745     0.805729    88.589449   -9.5621185    640.30647    14718.259 
    4959    281.81575   0.80077955    91.324521   -8.9034486    846.51094    14718.259 
    4960    284.76535   0.83754482    90.353436   -8.3258938    1050.5306    14718.259 
    4961    294.87296     0.911225    85.963688   -7.8091181    1243.4468    14718.259 
    4962    309.08332    1.0150192     79.51021    -7.314877    1404.9683    14718.259 
    4963    323.03777    1.1429597     72.96338   -6.8015117    1513.0488    14718.259 
    4964    332.58221    1.2893119    68.241609   -6.2385605     1548.808    14718.259 
    4965    335.20313    1.4490056    66.565245    -5.617635    1501.2311    14718.259 
    4966    330.87278    1.6176072    68.065293   -4.9552491    1370.4449    14718.259 
    4967    321.99296     1.791101    71.787264   -4.2870721    1167.8374    14718.259 
    4968    312.46531    1.9655958    76.082458   -3.6557401    913.04682    14718.259 
    4969    306.23999    2.1378285    79.234934   -3.0967957      630.477    14718.259 
    4970    305.89234    2.3055824     80.08852   -2.6247239    340.23203    14718.259 
    4971    311.73377    2.4619486    78.448477   -2.2317994    55.918783    14718.259 
    4972     321.7518     2.600574    75.120454   -1.8892555   -214.19283    14718.259 
    4973    332.38534    2.7166386    71.585084   -1.5591368   -467.05343    14718.259 
    4974    339.82948    2.8081904    69.438051   -1.2086591   -699.32509    14718.259 
    4975    341.40142    2.8785034    69.802096  -0.81769348    -908.1515    14718.259 
    4976    336.48711    2.9268123    72.919809  -0.38894964   -1088.4056    14718.259 
    4977    326.73881    2.9522426    78.063957  0.057029631   -1229.0462    14718.259 
    4978    315.48647    2.9550899    83.786562   0.48869636   -1316.6317    14718.259 
    4979    306.59122    2.9376023    88.411211   0.87373376   -1338.1433    14718.259 
    4980    303.15217    2.9051157    90.592613    1.1917236   -1288.0977    14718.259 
    4981    306.51159    2.8614173    89.749495    1.4387862    -1171.993    14718.259 
    4982    315.87832    2.8108877    86.227333    1.6303077   -1003.8451    14718.259 
    4983    328.67995    2.7584685    81.144441    1.7944109   -805.51101    14718.259 
    4984    341.49176    2.7093058    75.988476     1.961234    -602.6736    14718.259 
    4985    351.18982    2.6681861    72.117119    2.1520111    -419.8927    14718.259 
    4986    355.91286    2.6388549    70.343828    2.3722452    -276.2684    14718.259 
    4987    355.51199    2.6233894    70.746643    2.6112206   -182.89798    14718.259 
    4988     351.3799    2.6218176     72.74419    2.8473541   -142.60998    14718.259 
    4989    345.79007    2.6321334    75.379574     3.056732   -151.64928    14718.259 
    4990    341.04039    2.6507411    77.683571    3.2213017   -202.39487    14718.259 
    4991    338.72524    2.6732341    78.979103    3.3337567   -286.02356    14718.259 
    4992     339.3594    2.6953046    79.034853    3.3978146   -394.29252    14718.259 
    4993    342.41084    2.7134516     78.04884    3.4247128   -519.65153    14718.259 
    4994    346.64645    2.7244406    76.507286    3.4278736   -654.51835    14718.259 
    4995     350.6048    2.7254186    74.995498    3.4173448   -793.53197    14718.259 
    4996    353.01504    2.7205162    74.030916    3.3985799   -926.42693    14718.259 
    4997    353.08348    2.7192994     73.95824    3.3753888   -1047.7602    14718.259 
    4998    350.60593    2.7238769    74.910031    3.3448268   -1147.9183    14718.259 
    4999    345.91505    2.7403079    76.814334     3.306492   -1215.6952    14718.259 
5000        0.45323347605877539745 11.66779798378389188 0.56878306878306872374 48 -150.68274649478257743
    5000    339.76347    2.7707778    79.424006    3.2583501   -1243.8858    14718.259 
    5001    333.18212    2.8124426    82.352965    3.1995257    -1223.444    14718.259 
    5002    327.31048    2.8600227    85.121236     3.127828   -1151.4242    14718.259 
    5003    323.22503    2.9104111    87.215499    3.0408296   -1027.4147    14718.259 
    5004    321.75986     2.959906    88.174555    2.9339332   -854.42039    14718.259 
    5005    323.30745    3.0074972    87.697011     2.801899   -636.34513    14718.259 
    5006    327.65628     3.052204    85.748697    2.6404686   -388.08266    14718.259 
    5007    333.93254    3.0847164     82.63376    2.4508326    -120.8243    14718.259 
    5008    340.67104    3.0875507     78.98257    2.2340099     146.4881    14718.259 
    5009    346.08628    3.0588739    75.630564    2.0027346    394.26355    14718.259 
    5010    348.56404    3.0027548    73.394364    1.7717738    608.00539    14718.259 
    5011    347.21611    2.9288006    72.802361    1.5545067    778.28162    14718.259 
    5012    342.29566    2.8506361    73.877344    1.3568119    902.40514    14718.259 
    5013    335.27774    2.7821453    76.071657    1.1733172    986.95626    14718.259 
    5014    328.49084    2.7320876    78.411289   0.98511748    1042.1162    14718.259 
    5015    324.35839    2.7075666    79.825631   0.76762639    1078.8198    14718.259 
    5016    324.50828    2.7137322    79.553194   0.49953145    1108.4189    14718.259 
    5017    329.09329     2.751328    77.465894   0.17128116    1139.5961    14718.259 
    5018    336.61871    2.8125581    74.172234  -0.21014389    1178.1761    14718.259 
    5019    344.36704    2.8883313    70.839789  -0.62177397    1219.2777    14718.259 
    5020    349.32201    2.9724604    68.786692   -1.0333857    1259.5835    14718.259 
    5021    349.27535    3.0583643    68.990565    -1.418073    1296.6169    14718.259 
    5022      343.674     3.139946    71.702273   -1.7616217    1331.1164    14718.259 
    5023    333.89438    3.2083783    76.315651     -2.06851    1369.7124    14718.259 
    5024    322.81423    3.2574869    81.547545   -2.3581596     1418.241    14718.259 
    5025    313.84849    3.2841418    85.861628   -2.6608639    1481.4075    14718.259 
    5026    309.80826    3.2893154    87.982372   -3.0040708    1558.5987    14718.259 
    5027    311.98091    3.2751949    87.312892   -3.4043613    1645.0032    14718.259 
    5028    319.74888    3.2444374    84.112118    -3.861944    1729.1722    14718.259 
    5029    330.85593    3.1996222    79.378917   -4.3619699    1794.7275    14718.259 
    5030    342.19813    3.1430519    74.496785   -4.8812558    1823.7463    14718.259 
    5031    350.83894    3.0769427    70.774195   -5.3972913    1800.7834    14718.259 
    5032    354.88608    3.0039072     69.04468   -5.8959333    1716.2979    14718.259 
    5033    353.93966    2.9275093    69.459757   -6.3752079    1568.5008    14718.259 
    5034    348.99265    2.8526275    71.530667   -6.8442978    1363.2109    14718.259 
    5035     341.8715    2.7853999     74.38184   -7.3184207    1111.9912    14718.259 
    5036    334.46711    2.7326561    77.104553   -7.8115927    829.38033    14718.259 
    5037    328.06545    2.7009043    79.070586   -8.3300295     530.2377    14718.259 
    5038     323.0246    2.6951014    80.091762   -8.8688193    228.03486    14718.259 
    5039    318.89344    2.7164032     80.37999   -9.4128489   -63.936545    14718.259 
    5040    314.86831    2.7611073    80.345998   -9.9445413   -336.36889    14718.259 
    5041    310.36706    2.8266627    80.336604   -10.447868   -580.01925    14718.259 
    5042    305.46551    2.9075362    80.431072   -10.917264   -784.35989    14718.259 
    5043    300.98927    2.9953389    80.386565    -11.35945   -938.84792    14718.259 
    5044     298.2192    3.0798129    79.754009    -11.79092   -1034.3738    14718.259 
    5045    298.33891    3.1501587    78.110911   -12.231435   -1065.2924    14718.259 
    5046    301.86125    3.1964564     75.30706     -12.6962   -1031.2397    14718.259 
    5047    308.28247    3.2109339    71.613052   -13.189932   -937.93455    14718.259 
    5048    316.12107    3.1888873     67.70135   -13.705162   -796.50587    14718.259 
    5049    323.34507    3.1291303    64.457936   -14.225293    -621.4141    14718.259 
    5050    328.03592    3.0339361    62.691581   -14.731019   -427.56821    14718.259 
    5051    329.04121    2.9085179    62.850245   -15.207563   -227.54766    14718.259 
    5052    326.36828     2.760233    64.853687   -15.650086   -29.293624    14718.259 
    5053    321.16065    2.5985707    68.108344   -16.067709    164.84264    14718.259 
    5054    315.26293    2.4496289    71.701736   -16.470898    356.71484    14718.259 
    5055    310.57869    2.3280948    74.705033   -16.879994    540.95872    14718.259 
    5056     308.4167    2.2394407    76.472379   -17.308791    715.88749    14718.259 
    5057    309.04364    2.1853996     76.83267   -17.761604    876.94742    14718.259 
    5058    311.64255    2.1636986    76.108619    -18.23161    1017.4008    14718.259 
    5059    314.65666    2.1685166    74.964094   -18.703954    1127.2345    14718.259 
    5060    316.37969    2.1942978     74.14107    -19.16093    1198.4538    14718.259 
    5061    315.59201    2.2370531    74.182584   -19.585695    1224.8869    14718.259 
    5062    312.01693    2.2870637    75.237125   -19.971932    1202.0285    14718.259 
    5063    306.43381     2.335364    77.007616   -20.322373    1131.5989    14718.259 
    5064    300.43286    2.3748952     78.85567   -20.648864    1019.4408    14718.259 
    5065    295.90048    2.4011627    80.021401   -20.968548    873.60036    14718.259 
    5066    294.40304      2.41233    79.884158   -21.298483    702.23216    14718.259 
    5067    296.66713    2.4087707    78.179107   -21.650322    511.79937    14718.259 
    5068    302.30818    2.3963457    75.100328   -22.028405    309.21584    14718.259 
    5069    309.92407    2.3886755    71.257094    -22.42241    93.915831    14718.259 
    5070    317.52375    2.3872802    67.494689   -22.819939   -135.35567    14718.259 
    5071    323.12409     2.390199    64.637131   -23.204752   -378.04525    14718.259 
    5072    325.35067    2.3928666    63.233352   -23.563829   -631.29106    14718.259 
    5073    323.84766    2.3890094    63.390857   -23.891881   -888.91683    14718.259 
    5074    319.35086    2.3719628    64.755492   -24.193267   -1141.5747    14718.259 
    5075    313.39478    2.3360597     66.64749   -24.480373   -1377.8496    14718.259 
    5076     307.7521    2.2783141    68.307917   -24.769467    -1584.923    14718.259 
    5077    303.81415    2.1997796    69.166722   -25.073025   -1756.7893    14718.259 
    5078    302.12919    2.1050142    69.034253    -25.39628   -1885.4467    14718.259 
    5079    302.27364    1.9998983    68.148147   -25.734156   -1975.0633    14718.259 
    5080    303.08799     1.887794    67.059271   -26.073513   -2029.1448    14718.259 
    5081    303.16617    1.7720443    66.405816   -26.397411   -2051.7216    14718.259 
    5082    301.42294    1.6537858    66.661093   -26.693948   -2045.1564    14718.259 
    5083    297.52319    1.5420174    67.947624   -26.953519   -2011.5393    14718.259 
    5084    292.04324    1.4393165    69.981845    -27.18005   -1952.4323    14718.259 
    5085    286.29711    1.3458272    72.164474   -27.384194   -1864.7234    14718.259 
    5086    281.89329    1.2628735    73.780868   -27.580975   -1744.5828    14718.259 
    5087    280.19726    1.1930142    74.242053     -27.7851   -1588.0894    14718.259 
    5088    281.86006    1.1419739    73.288527   -28.006291   -1396.2859    14718.259 
    5089    286.56702    1.1189626    71.092634   -28.246352   -1174.1127    14718.259 
    5090    293.08544     1.133702     68.22831   -28.499148   -929.96988    14718.259 
    5091     299.6019     1.191024    65.516555   -28.751376   -670.24687    14718.259 
    5092    304.22696    1.2881413    63.792437   -28.990874   -406.68316    14718.259 
    5093    305.52661    1.4252273     63.66261   -29.203759   -150.14258    14718.259 
    5094    302.94776    1.5936923    65.324888   -29.384145    95.487101    14718.259 
    5095    296.97411    1.7810034     68.50503   -29.533744    324.69528    14718.259 
    5096    288.97531    1.9784645    72.529472   -29.659872    539.69005    14718.259 
    5097    280.82437    2.1780621    76.509783   -29.774433    741.86016    14718.259 
    5098    274.39202    2.3698447    79.580806   -29.890113    934.54438    14718.259 
    5099    271.05394    2.5445812    81.123834   -30.016509     1118.485    14718.259 
5100        0.44801718007325408433 11.783165505537548157 0.56878306878306872374 49 -153.10581818361464457
    5100    271.35872    2.6968775    80.912192   -30.157759    1293.8749    14718.259 
    5101    274.94504    2.8269262    79.144115   -30.309913    1455.6988    14718.259 
    5102    280.70772    2.9345526    76.363084   -30.465858    1596.5454    14718.259 
    5103    287.14068     3.022324     73.29567   -30.614229    1713.3711    14718.259 
    5104    292.77388    3.0822049    70.654348   -30.748304    1801.0482    14718.259 
    5105    296.53982    3.1107438    68.957931   -30.861158    1849.1352    14718.259 
    5106    298.00501    3.1123143     68.41475   -30.951717    1856.0758    14718.259 
    5107    297.44144    3.0928392    68.894818   -31.024242     1823.756    14718.259 
    5108    295.67491    3.0589225    69.998698   -31.087395    1756.8441    14718.259 
    5109    293.76864    3.0168495    71.203679   -31.151791     1661.475    14718.259 
    5110    292.64115    2.9716515    72.042703   -31.226512    1543.6734    14718.259 
    5111    292.74798    2.9264226    72.256812    -31.31576    1408.0058    14718.259 
    5112    293.94389    2.8820391    71.867011   -31.417102     1256.889    14718.259 
    5113    295.58039    2.8373772    71.138628   -31.522283      1090.76    14718.259 
    5114    296.80265    2.7900345    70.452412   -31.620514    908.99475    14718.259 
    5115    296.92671    2.7374277    70.134706   -31.702899     711.1816    14718.259 
    5116    295.74131    2.6779895    70.316678    -31.76613    498.22151    14718.259 
    5117    293.60757    2.6121828    70.880453   -31.814012    273.27207    14718.259 
    5118    291.31522    2.5440421      71.5129   -31.855143    41.137474    14718.259 
    5119    289.76008    2.4788767    71.842028   -31.900145   -194.36195    14718.259 
    5120    289.57587    2.4221977    71.597035   -31.956737   -429.01219    14718.259 
    5121    290.86901    2.3785913    70.726072   -32.026855   -659.92182    14718.259 
    5122    293.16236    2.3505736    69.425438   -32.106635   -885.04168    14718.259 
    5123    295.56419    2.3418701    68.071151   -32.185896   -1102.2357    14718.259 
    5124    297.10844    2.3500443    67.081155   -32.255148   -1312.8326    14718.259 
    5125    297.12531    2.3674422    66.761017   -32.306759   -1513.4191    14718.259 
    5126    295.50456    2.3852176    67.187979   -32.337751   -1699.3834    14718.259 
    5127      292.778    2.3934253    68.172435   -32.351837   -1861.8067    14718.259 
    5128    289.98018    2.3848952    69.310446   -32.357049   -1991.6905    14718.259 
    5129    288.33128    2.3560903    70.111466   -32.364262   -2077.8413    14718.259 
    5130    288.84397    2.3068432    70.161229   -32.383549   -2109.9464    14718.259 
    5131    291.97429    2.2411972    69.266472   -32.421077   -2078.2723    14718.259 
    5132    297.44476    2.1669243    67.530895    -32.47625   -1979.6113    14718.259 
    5133    304.30803    2.0912271    65.332614   -32.542753   -1815.6113    14718.259 
    5134    311.22505    2.0191779     63.20891   -32.611456   -1591.4975    14718.259 
    5135    316.86245    1.9542179    61.689279   -32.673782   -1315.1959    14718.259 
    5136    320.26469    1.8978006    61.139574   -32.725502   -996.89153    14718.259 
    5137      321.066    1.8494898    61.674901   -32.768164   -648.27574    14718.259 
    5138    319.48011    1.8075417    63.167081   -32.807726   -282.19097    14718.259 
    5139    316.10703    1.7697515    65.329092   -32.851162    87.427779    14718.259 
    5140    311.67096     1.734357    67.826416   -32.902951    446.13613    14718.259 
    5141    306.81674    1.7008308    70.360925   -32.963063    778.23564    14718.259 
    5142    302.03365    1.6703952    72.698155   -33.028658    1070.2866    14718.259 
    5143    297.69798    1.6482188    74.647299   -33.094053    1308.8676    14718.259 
    5144    294.15216    1.6353326    76.031696   -33.159617    1484.9888    14718.259 
    5145    291.72677    1.6396837    76.686819   -33.222454    1588.1451    14718.259 
    5146    290.67557    1.6583599    76.503366   -33.288774    1611.5828    14718.259 
    5147    291.03522    1.6872964    75.496548   -33.362066    1555.8677    14718.259 
    5148    292.50537    1.7245862    73.854808   -33.442692    1425.6218    14718.259 
    5149    294.45715    1.7703657     71.92906   -33.526699    1229.3464    14718.259 
    5150    296.09178    1.8260271    70.149084   -33.606854     979.3386    14718.259 
    5151    296.70515     1.893288    68.889872   -33.675849    692.38396    14718.259 
    5152    295.95745    1.9749266    68.338259   -33.728134    388.07438    14718.259 
    5153    294.03722     2.070189    68.415168   -33.764283    86.730916    14718.259 
    5154    291.63456    2.1747589     68.79056   -33.790122   -189.91938    14718.259 
    5155    289.71559    2.2812053    68.993534   -33.814917   -420.84587    14718.259 
    5156    289.17304    2.3787748    68.582504   -33.849076   -590.30092    14718.259 
    5157    290.47032    2.4570925    67.317461   -33.899365   -690.20166    14718.259 
    5158    293.41283    2.5075705    65.272281   -33.967084   -720.13659    14718.259 
    5159    297.13453    2.5271505    62.843762   -34.046553   -689.96021    14718.259 
    5160    300.32093    2.5181989    60.648698   -34.128289   -612.79188    14718.259 
    5161    301.60775    2.4941877    59.336175   -34.197938   -504.47719    14718.259 
    5162    300.04861     2.468296    59.372284   -34.245963   -385.84734    14718.259 
    5163    295.48213    2.4522732    60.868583   -34.267333    -274.5569    14718.259 
    5164    288.64501    2.4565659    63.520263   -34.265447   -183.53325    14718.259 
    5165    280.99051    2.4893378    66.684905   -34.250697   -121.99774    14718.259 
    5166    274.24786    2.5554032    69.582044   -34.236922   -93.562491    14718.259 
    5167    269.87371    2.6549822    71.545065   -34.236161   -100.39915    14718.259 
    5168    268.60131    2.7813251    72.232873   -34.252689   -137.58877    14718.259 
    5169    270.23694     2.923494    71.721196   -34.283069   -205.30589    14718.259 
    5170    273.79505    3.0754111    70.438913   -34.314332   -300.21865    14718.259 
    5171    277.92434    3.2306376    68.979628   -34.331745   -415.81021    14718.259 
    5172    281.42496    3.3824278     67.86939   -34.324273   -542.59367    14718.259 
    5173    283.65378    3.5231047    67.385601   -34.288429   -666.12135    14718.259 
    5174    284.66163    3.6434465    67.494946   -34.230526   -771.77962    14718.259 
    5175     285.0326    3.7377151    67.923904   -34.161245   -845.18517    14718.259 
    5176    285.53347    3.8023494    68.316535   -34.091804   -871.66448    14718.259 
    5177    286.73591    3.8353145    68.403287   -34.029768   -840.88723    14718.259 
    5178    288.76801    3.8375208    68.109999   -33.975943   -748.37961    14718.259 
    5179    291.28124    3.8128406    67.570678   -33.925429   -596.72441    14718.259 
    5180    293.61865    3.7672354    67.052532   -33.870611   -393.37221    14718.259 
    5181    295.08994    3.7074239    66.835992   -33.804528   -150.18167    14718.259 
    5182    295.23293    3.6398391    67.102601   -33.723362    118.59597    14718.259 
    5183    293.96997    3.5696556    67.870881    -33.62714    396.95284    14718.259 
    5184    291.62011    3.4999173    68.995819   -33.519204    669.22044    14718.259 
    5185    288.78392    3.4317584    70.222487   -33.404391    921.27894    14718.259 
    5186    286.15714    3.3645411    71.268482   -33.287299     1140.831    14718.259 
    5187    284.33856    3.2962075    71.905809   -33.170884    1317.6894    14718.259 
    5188    283.68762    3.2238215    72.017907   -33.055732    1444.1391    14718.259 
    5189    284.26408    3.1443342    71.618201   -32.940067    1514.3484    14718.259 
    5190    285.85637     3.055381    70.828913    -32.82039    1525.2206    14718.259 
    5191    288.06478     2.961084    69.830587   -32.693911    1480.4209    14718.259 
    5192    290.43429    2.8738388    68.802662   -32.555293     1380.115    14718.259 
    5193    292.58987    2.8005654    67.872626   -32.403825    1229.0428    14718.259 
    5194    294.29692    2.7494499    67.093626   -32.240046    1036.3939    14718.259 
    5195    295.46657    2.7284036    66.454814   -32.065788     810.8699    14718.259 
    5196    296.11399    2.7423337    65.915259   -31.883536    563.21291    14718.259 
    5197    296.29364    2.7929111    65.443889   -31.695119    304.62789    14718.259 
    5198    296.04956    2.8784063    65.046853   -31.501021    46.182557    14718.259 
    5199    295.39798    2.9944243    64.771512   -31.301197   -201.82605    14718.259 
5200        0.43835680179140146251 11.825364577758637807 0.56349206349206348854 45 -164.45766177018742837
    5200    294.34716    3.1373155    64.686997   -31.093931   -430.71955    14718.259 
    5201    292.95046    3.3037534    64.849538   -30.874923   -633.77307    14718.259 
    5202    291.37433    3.4745916    65.266349   -30.645807   -805.61771    14718.259 
    5203    289.89886    3.6319143    65.875039   -30.405979   -945.74432    14718.259 
    5204    288.87112    3.7652674    66.546955   -30.156754   -1051.5831    14718.259 
    5205    288.63709    3.8684187    67.119745   -29.900335   -1121.5123    14718.259 
    5206    289.42529    3.9358942    67.455815   -29.640236   -1153.1068    14718.259 
    5207    291.20036    3.9705226    67.511306   -29.378756    -1149.204    14718.259 
    5208    293.57527     3.990143    67.385267   -29.112149   -1113.3476    14718.259 
    5209    295.86404    4.0098622    67.320828   -28.836597   -1053.0576    14718.259 
    5210    297.26075    4.0427262    67.639344   -28.544498   -974.52777    14718.259 
    5211    297.12054    4.1005341    68.616209   -28.227942   -883.17162    14718.259 
    5212    295.27247    4.1931864    70.336737   -27.881886   -784.65202    14718.259 
    5213    292.24413    4.3231005    72.591294    -27.50498   -677.16141    14718.259 
    5214    289.25555    4.4691425    74.868721   -27.111064    -561.7412    14718.259 
    5215    287.88508    4.6197555    76.475906   -26.711109   -444.60711    14718.259 
    5216    289.53755    4.7690099    76.763529   -26.318133   -327.66077    14718.259 
    5217    294.90462     4.905527     75.38074   -25.941163   -212.13652    14718.259 
    5218    303.55418    5.0205197    72.463194   -25.578065   -106.30413    14718.259 
    5219     313.8695    5.1091782    68.669954   -25.217161   -17.928564    14718.259 
    5220    323.42097    5.1679411    65.033471   -24.840525    45.093432    14718.259 
    5221    329.66799    5.1941716     62.65598   -24.430326    77.416132    14718.259 
    5222    330.78504     5.185931    62.345086   -23.975742    79.223168    14718.259 
    5223    326.32577    5.1475247    64.311928   -23.476835    60.781467    14718.259 
    5224    317.50427     5.083997    68.045088   -22.947152    33.744237    14718.259 
    5225      306.943    4.9973264    72.421077   -22.410491    18.121179    14718.259 
    5226    297.90172    4.8908982    76.038722   -21.894404    35.541167    14718.259 
    5227     293.2334    4.7695186    77.682701   -21.421206    104.86072    14718.259 
    5228    294.39746    4.6392402    76.764593   -20.999205    237.57433    14718.259 
    5229    300.88887    4.5069288    73.579133   -20.617934    435.04517    14718.259 
    5230    310.33061    4.3796181    69.261897   -20.250183    688.25873    14718.259 
    5231    319.25505    4.2637676    65.434458   -19.860939    980.19924    14718.259 
    5232    324.34093    4.1629435    63.642626   -19.420147    1292.0196    14718.259 
    5233    323.65307    4.0795253    64.786461   -18.914967    1361.2471    17322.177 
    5234    317.42042    4.0172657    68.759285   -18.354678    1608.8903    17322.177 
    5235    308.02763    3.9770682    74.448832   -17.769239    1831.3622    17322.177 
    5236    299.17476    3.9568687    80.116689   -17.198402    2022.2855    17322.177 
    5237    294.51285    3.9518437    84.020908   -16.676549    2175.6163    17322.177 
    5238    296.27776    3.9550051    85.045145   -16.219131    2283.4231    17322.177 
    5239    304.45635    3.9592176    83.090407    -15.81544    2334.4261    17322.177 
    5240    316.81535    3.9557499    79.077758   -15.434174    2313.4774    17322.177 
    5241    329.77671    3.9355084    74.564844   -15.035433    2207.8623    17322.177 
    5242    339.78662    3.8891772    71.132545   -14.588409    2009.5643    17322.177 
    5243    344.63327    3.8117582    69.787057   -14.082529    1720.0791    17322.177 
    5244    344.20537    3.7038366    70.610762   -13.530829    1350.7444    17322.177 
    5245    340.41158    3.5674549    72.789814   -12.966516    922.75995    17322.177 
    5246    336.30852    3.4076633    74.994323   -12.429181    464.85724    17322.177 
    5247     334.8076    3.2322129    75.949595   -11.950894    7.5836299    17322.177 
    5248    337.48047    3.0506007    74.968294   -11.545179   -421.64545    17322.177 
    5249    343.92652    2.8727783    72.235662   -11.203148   -802.04781    17322.177 
    5250    351.94064    2.7077213    68.739699   -10.898064   -1120.6922    17322.177 
    5251    358.41883    2.5594235     65.87608   -10.594859   -1369.2965    17322.177 
    5252    360.62313    2.4226029    64.883502   -10.269517    -1547.179    17322.177 
    5253    357.31437    2.2992597    66.330108   -9.9098667   -1655.7903    17322.177 
    5254    349.32574    2.1895664    69.855751   -9.5264816   -1695.6312    17322.177 
    5255    339.31641    2.0914894    74.278816   -9.1474175   -1667.8496    17322.177 
    5256    330.78203    2.0020121    78.033324   -8.8078884   -1575.8911    17322.177 
    5257    326.70735    1.9188512    79.769911   -8.5362455   -1428.5946    17322.177 
    5258    328.38949    1.8409491    78.885672   -8.3428585   -1242.4684    17322.177 
    5259    334.90234    1.7699445    75.771289   -8.2144253   -1039.2488    17322.177 
    5260     343.4256    1.7087862    71.672387   -8.1202633   -845.49942    17322.177 
    5261    350.32651    1.6623262    68.214412       -8.022   -689.29809    17322.177 
    5262    352.56896    1.6382222    66.773957   -7.8892217   -595.64353    17322.177 
    5263    348.90197    1.6463809    67.945439   -7.7109131   -577.73424    17322.177 
    5264    340.36624    1.6938748    71.311981   -7.4993838   -636.70153    17322.177 
    5265    329.90394    1.7848363    75.609521   -7.2844575   -762.64456    17322.177 
    5266    321.25973    1.9066541    79.218219   -7.1028956   -936.15766    17322.177 
    5267    317.52694    2.0380648    80.790756   -6.9874644   -1138.8055    17322.177 
    5268    319.93281    2.1713703    79.774849   -6.9483886    -1353.021    17322.177 
    5269    327.37703    2.2996523    76.629295   -6.9732515    -1562.903    17322.177 
    5270    336.82692    2.4167257    72.654771   -7.0314483    -1756.881    17322.177 
    5271    344.43906    2.5198761    69.503199   -7.0846015   -1924.3993    17322.177 
    5272    347.00469    2.6083622    68.547936   -7.1004917   -2054.4617    17322.177 
    5273    343.17668    2.6834753    70.349095   -7.0642194   -2137.3271    17322.177 
    5274    334.01317    2.7492456    74.416689   -6.9842578   -2160.1149    17322.177 
    5275    322.64062    2.8122283    79.361978   -6.8889647   -2108.5673    17322.177 
    5276    313.14069    2.8817434    83.386277   -6.8170365    -1970.034    17322.177 
    5277     309.0729     2.967263    84.930125    -6.803749   -1742.1071    17322.177 
    5278     312.1699    3.0758976    83.243951   -6.8678572   -1431.2538    17322.177 
    5279    321.69024     3.206916    78.670715    -7.004294   -1052.3156    17322.177 
    5280    334.64105     3.353203    72.536843   -7.1881695   -635.12596    17322.177 
    5281    346.78891    3.5094052    66.698247    -7.381782   -211.94203    17322.177 
    5282    354.13216    3.6515021    62.908992   -7.5538064    189.57384    17322.177 
    5283    354.18998    3.7618362    62.246302   -7.6832175    538.47872    17322.177 
    5284    346.73024    3.8382229    64.790472   -7.7693789    818.13345    17322.177 
    5285    333.74971    3.8810742     69.65865   -7.8302392     1023.711    17322.177 
    5286    318.68771    3.8998854    75.355639    -7.890324    1160.9372    17322.177 
    5287    305.26155    3.8962588    80.293575   -7.9783556    1238.9402    17322.177 
    5288     296.3176    3.8693014    83.287957   -8.1120165     1268.404    17322.177 
    5289    293.07245    3.8198011    83.870583   -8.2947086    1262.0109    17322.177 
    5290    294.97829    3.7476572    82.336651   -8.5154261    1230.8377    17322.177 
    5291    300.15282    3.6520961    79.545015    -8.753841    1184.1175    17322.177 
    5292    306.16781     3.532239    76.567883   -8.9880309    1129.9251    17322.177 
    5293    310.89703     3.387882    74.322069   -9.2018711    1076.0994    17322.177 
    5294    313.14274     3.220273    73.303108   -9.3896853    1030.7382    17322.177 
    5295    312.86403    3.0326575    73.495814   -9.5570113    1001.8676    17322.177 
    5296    310.97996    2.8304227    74.468953   -9.7176643    996.28089    17322.177 
    5297    308.86498    2.6207756    75.599605   -9.8883276    1017.9115    17322.177 
    5298    307.74909     2.411854    76.333888   -10.082299     1066.849    17322.177 
    5299    308.24826    2.2100038    76.386927   -10.305957    1138.5859    17322.177 
5300        0.43007267336151605575 11.883120887931447385 0.55555555555555558023 50 -151.09225787214467118
    5300    310.17585    2.0217119    75.816037   -10.556812    1223.6395    17322.177 
    5301    312.68546    1.8544554    74.954107   -10.824328     1306.389    17322.177 
    5302    314.66153    1.7121872    74.243127   -11.096303    1371.6296    17322.177 
    5303    315.17628     1.596748    74.043242   -11.362607    1405.8902    17322.177 
    5304    313.84688    1.5066339     74.49328   -11.616971    1401.5523    17322.177 
    5305     310.9555    1.4313725    75.470667   -11.865261    1353.2299    17322.177 
    5306     307.3097    1.3720593    76.652783   -12.112131    1257.7732    17322.177 
    5307    303.95525    1.3328413    77.641958   -12.366238    1119.5153    17322.177 
    5308    301.84117    1.3227668    78.100226   -12.635493    949.44388    17322.177 
    5309    301.56827    1.3544878    77.843712   -12.921946    755.16403    17322.177 
    5310    303.28445     1.430391    76.872594   -13.227853    547.29072    17322.177 
    5311    306.70049    1.5496735    75.342356   -13.552261    338.17536    17322.177 
    5312    311.20646    1.7083555    73.502157   -13.893588    140.03597    17322.177 
    5313    316.04243    1.8950793    71.629371   -14.248362   -32.508751    17322.177 
    5314    320.44296    2.0854422    69.978498   -14.619755   -171.33358    17322.177 
    5315    323.73919    2.2657901    68.747981   -15.004271   -271.22031    17322.177 
    5316     325.4682    2.4249054    68.055724    -15.39963   -327.71152    17322.177 
    5317    325.46538    2.5532352    67.919129   -15.803725   -341.16021    17322.177 
    5318    323.90514    2.6440115      68.2458    -16.21553   -314.35455    17322.177 
    5319    321.26773     2.694272    68.846276   -16.636253   -253.16958    17322.177 
    5320    318.21856    2.7048393    69.477648   -17.069464   -166.19165    17322.177 
    5321    315.41755    2.6797007    69.913183    -17.51994   -64.219591    17322.177 
    5322    313.31445    2.6249463    70.017093   -17.991594    40.391919    17322.177 
    5323    312.00549    2.5475393    69.794848   -18.485375    134.61628    17322.177 
    5324    311.21639     2.453543     69.39438   -18.997497    206.98113    17322.177 
    5325    310.42503    2.3447552     69.05122   -19.522448     246.7739    17322.177 
    5326    309.07928    2.2258875     68.99402   -20.051648    246.70842    17322.177 
    5327    306.85173    2.1037332    69.343769   -20.576101    204.05554    17322.177 
    5328    303.83226    1.9784572    70.045913   -21.092979    120.90521    17322.177 
    5329    300.55859    1.8510931    70.864025   -21.603065    2.2264857    17322.177 
    5330    297.88318     1.724461     71.44065   -22.112485   -140.53442    17322.177 
    5331    296.71468    1.6017384    71.410379    -22.63089   -292.96312    17322.177 
    5332     297.6997    1.4863125    70.530888   -23.168665   -439.50991    17322.177 
    5333     300.9512    1.3814737     68.78962    -23.73359   -565.38949    17322.177 
    5334    305.92067    1.2900243    66.447303   -24.327941   -658.20084    17322.177 
    5335    311.47487    1.2139037    63.995386   -24.947085   -709.00182    17322.177 
    5336    316.17578    1.1539463    62.030715   -25.580279   -712.73234    17322.177 
    5337    318.68952    1.1098651    61.080859    -26.21363   -668.07472    17322.177 
    5338    318.19318    1.0806434    61.436454   -26.834399   -576.49209    17322.177 
    5339    314.63777    1.0649911    63.050961   -27.434474   -443.16214    17322.177 
    5340    308.75313    1.0655564    65.548931   -28.013124   -272.92057    17322.177 
    5341    301.81495    1.0845778    68.344066   -28.576003   -78.205797    17322.177 
    5342    295.23356    1.1212874    70.824262   -29.133457    128.43703    17322.177 
    5343    290.10761    1.1877963    72.534805   -29.688283    333.71647    17322.177 
    5344    286.95804    1.2886788     73.28909    -30.24585    521.30525    17322.177 
    5345     285.7001    1.4265824    73.171158   -30.800548     671.1371    17322.177 
    5346    285.82313    1.5948606    72.440229    -31.34605    766.63354    17322.177 
    5347    286.69319    1.7851699      71.3869   -31.873707    797.79272    17322.177 
    5348    287.83831    1.9798203    70.210718   -32.382613    761.94752    17322.177 
    5349    289.06388    2.1685579     68.97339   -32.873009    657.78506    17322.177 
    5350    290.38988    2.3479134    67.640294   -33.350311    494.32888    17322.177 
    5351    291.88033    2.5168733    66.179324   -33.820454    286.56734    17322.177 
    5352     293.4511    2.6762013    64.657117    -34.28608    53.833305    17322.177 
    5353    294.79007    2.8276088    63.273468   -34.744497   -181.44588    17322.177 
    5354    295.45032    2.9743928    62.306407   -35.187005   -394.14237    17322.177 
    5355    295.09054    3.1123469    61.987853    -35.60619   -563.03289    17322.177 
    5356    293.71569    3.2371677    62.370274   -35.995833   -669.98642    17322.177 
    5357    291.77714    3.3467508     63.25936   -36.357892   -700.06602    17322.177 
    5358    290.07096    3.4413754    64.257561   -36.700669   -643.80787    17322.177 
    5359    289.42355    3.5211667    64.916729   -37.036717   -498.28501    17322.177 
    5360    290.30077    3.5820376    64.940541   -37.376041   -266.46671    17322.177 
    5361    292.50242    3.6170795    64.344056   -37.723001      35.3787    17322.177 
    5362    295.12798    3.6260227    63.485575   -38.069613    384.83739    17322.177 
    5363    296.89074    3.6086428    62.938699   -38.400547    754.66719    17322.177 
    5364    296.64932    3.5665663    63.245963   -38.699155    1117.8414    17322.177 
    5365    293.95342    3.5040627    64.655692   -38.953294    1444.9699    17322.177 
    5366    289.34234    3.4255962    66.961288   -39.165399    1715.1584    17322.177 
    5367    284.24328    3.3424527    69.526707   -39.345701    1910.9035    17322.177 
    5368    280.47851    3.2577519    71.503354   -39.516745    2016.7801    17322.177 
    5369    279.54119    3.1742987    72.157388   -39.699149    2027.0246    17322.177 
    5370    281.95019    3.0943828    71.174747   -39.904278    1939.5745    17322.177 
    5371    286.96177    3.0200042    68.812861   -40.129107    1757.1817    17322.177 
    5372    292.77832    2.9526814    65.827241   -40.357455    1486.8228    17322.177 
    5373    297.19035    2.8935511    63.195653   -40.566484    1140.0348    17322.177 
    5374     298.4042    2.8435686    61.748001   -40.736155    734.41613    17322.177 
    5375    295.72904    2.8036401    61.850244   -40.857359    293.57654    17322.177 
    5376     289.8486    2.7739085    63.269937   -40.935464   -152.90019    17322.177 
    5377     282.5644    2.7540297    65.276794   -40.988284   -575.02762    17322.177 
    5378    276.11381    2.7435303    66.936218    -41.03962   -943.94426    17322.177 
    5379    272.33345    2.7437946    67.477739   -41.108452    -1237.542    17322.177 
    5380      271.993    2.7561089    66.592605   -41.202815   -1441.3896    17322.177 
    5381    274.54876    2.7808294    64.547101    -41.31649   -1551.2546    17322.177 
    5382    278.39835    2.8172928    62.071585    -41.43185   -1572.6505    17322.177 
    5383    281.52823    2.8638235    60.073549   -41.527152   -1518.7256    17322.177 
    5384    282.29591    2.9178375    59.289823   -41.585164   -1407.2228    17322.177 
    5385    280.04446    2.9760401    60.013347   -41.599678   -1257.4194    17322.177 
    5386    275.32081     3.034714    61.996674   -41.577488   -1087.7982    17322.177 
    5387    269.63123    3.0900809    64.562102    -41.53526   -914.80715    17322.177 
    5388    264.84869    3.1386983    66.866785   -41.492698   -752.58308    17322.177 
    5389    262.51257    3.1789223    68.213482   -41.465405   -611.80604    17322.177 
    5390    263.28725    3.2182095    68.285874   -41.457429   -499.55456    17322.177 
    5391    266.80765    3.2635204    67.223091   -41.462024   -426.05558    17322.177 
    5392    271.91201    3.3131483    65.521247   -41.465882   -397.92663    17322.177 
    5393    277.12177    3.3641337    63.813389   -41.454027   -414.77072    17322.177 
    5394    281.19011    3.4137824    62.626276   -41.416296   -471.49828    17322.177 
    5395    283.49549    3.4586209    62.211541   -41.351596   -557.80041    17322.177 
    5396    284.14271    3.4952811    62.508428   -41.266574   -657.95515    17322.177 
    5397    283.77544    3.5186098    63.233815   -41.173276   -753.60005    17322.177 
    5398     283.2144    3.5253283     64.04263   -41.082118   -828.23913    17322.177 
    5399     283.1011    3.5140375    64.679659   -40.998782   -866.20838    17322.177 
5400        0.42917528860813441982 11.944165990770070351 0.55291005291005290712 50 -169.46052587917495202
    5400    283.69459    3.4839559     65.05895   -40.923293   -856.65714    17322.177 
    5401    284.86435    3.4362813    65.252053   -40.850953   -794.35241    17322.177 
    5402    286.23673    3.3739007    65.411573   -40.776109   -678.99129    17322.177 
    5403       287.39     3.300988    65.682079   -40.695029   -515.06775    17322.177 
    5404    287.99645    3.2224454     66.14528   -40.607033   -311.07113    17322.177 
    5405    287.86824    3.1431796    66.817062   -40.513551   -78.560951    17322.177 
    5406    286.92758    3.0674611    67.680581   -40.416994    169.48952    17322.177 
    5407    285.16388    3.0036354    68.721208    -40.31469    423.55763    17322.177 
    5408    282.64474     2.949546     69.93369   -40.207374    663.76647    17322.177 
    5409    279.56011    2.9003583    71.296542   -40.092017    876.27917    17322.177 
    5410    276.26711    2.8492212     72.73041   -39.967427    1050.4442    17322.177 
    5411    273.30212    2.7882482     74.07001   -39.834711    1178.9593    17322.177 
    5412    271.30906    2.7099493    75.074202   -39.697284    1258.1702    17322.177 
    5413    270.88725    2.6086053     75.48025    -39.55968    1287.8987    17322.177 
    5414    272.40187    2.4813028    75.087039   -39.425735    1270.9194    17322.177 
    5415    275.82358    2.3284439    73.837716   -39.296921    1212.2795    17322.177 
    5416    280.66202    2.1536604    71.869491   -39.171452    1118.6629    17322.177 
    5417    286.03167    1.9632915    69.507391   -39.044638    998.34787    17322.177 
    5418    290.85095    1.7656436    67.196003   -38.909495    860.01916    17322.177 
    5419    294.13434     1.563401    65.385653    -38.76026    715.17306    17322.177 
    5420     295.2487    1.3621234    64.408397   -38.594964     573.1109    17322.177 
    5421    294.08784    1.1788647    64.385441   -38.412176    443.12987    17322.177 
    5422    291.11305    1.0251937    65.200631   -38.218148    336.03347    17322.177 
    5423    287.19577   0.90760371    66.553787   -38.021478    257.95455    17322.177 
    5424    283.32775   0.82775762    68.072534   -37.830492    214.28527    17322.177 
    5425    280.31457   0.78760255    69.434869   -37.649252    207.08945    17322.177 
    5426    278.58613   0.79030551    70.451717   -37.474884    232.99555    17322.177 
    5427    278.18862   0.83239056    71.078925    -37.30255    284.35763    17322.177 
    5428     278.9227   0.90636252    71.364314   -37.126453     353.1088    17322.177 
    5429    280.52837     1.011199    71.369637   -36.939504    431.62288    17322.177 
    5430    282.84298    1.1414049    71.114144   -36.742271    507.63727    17322.177 
    5431     285.8362    1.2909725    70.567064   -36.538047    570.60563    17322.177 
    5432    289.50229    1.4634949    69.689036   -36.330323    616.60774    17322.177 
    5433    293.74257    1.6601301    68.492536   -36.123153    637.03582    17322.177 
    5434    298.28595    1.8748415    67.080516   -35.917654    627.25317    17322.177 
    5435    302.67104    2.1031888    65.641342   -35.712807    587.25171    17322.177 
    5436    306.35753    2.3422454    64.400054   -35.504276    515.37127    17322.177 
    5437    308.89442    2.5812158    63.550021   -35.290291     413.9885    17322.177 
    5438    310.04833      2.80393    63.197586   -35.072432    288.17657    17322.177 
    5439    309.84647    2.9965638    63.342406    -34.85296    142.67557    17322.177 
    5440    308.52786    3.1488238    63.898354   -34.635942   -15.347277    17322.177 
    5441    306.43366     3.254652    64.740852   -34.425307   -178.38927    17322.177 
    5442    303.87426    3.3134273    65.759708   -34.223545   -339.41969    17322.177 
    5443    301.02661    3.3304373    66.896974   -34.030863   -492.52176    17322.177 
    5444    297.89634    3.3172426    68.155865   -33.845464   -631.77579    17322.177 
    5445    294.36004    3.2947074    69.575805   -33.662571   -750.30706    17322.177 
    5446    290.30481     3.284054     71.17953   -33.474606   -848.69656    17322.177 
    5447     285.7874    3.2940122    72.911684    -33.27974    -928.0146    17322.177 
    5448    281.13534    3.3347461    74.595952   -33.074495   -987.79097    17322.177 
    5449    276.96608    3.4098834    75.936738   -32.861188   -1029.1229    17322.177 
    5450    274.07308    3.5182201     76.57949   -32.644712   -1051.8191    17322.177 
    5451    273.19509    3.6537943    76.219008   -32.431093   -1056.0038    17322.177 
    5452    274.74853    3.8067169    74.719582   -32.224398   -1042.3784    17322.177 
    5453    278.62951    3.9643296     72.19751   -32.024346   -1013.3222    17322.177 
    5454    284.17799    4.1126735    69.025495   -31.825726   -972.17829    17322.177 
    5455    290.33496    4.2378599    65.747803   -31.620336   -922.41966    17322.177 
    5456    295.94437     4.327313    62.933078   -31.399478   -866.52762    17322.177 
    5457    300.08744    4.3658977    61.019168   -31.160245    -806.1299    17322.177 
    5458    302.31081    4.3435774    60.207974   -30.903421   -742.86904    17322.177 
    5459    302.68354    4.2566487    60.444308   -30.634764   -675.12656    17322.177 
    5460    301.69566    4.1070542    61.473598   -30.362013    -599.9247    17322.177 
    5461    300.05192    3.9021657    62.944676   -30.092194   -513.28564    17322.177 
    5462    298.45549    3.6547966    64.512629     -29.8296    -411.6335    17322.177 
    5463    297.45322    3.3847789    65.908222   -29.573587   -292.53664    17322.177 
    5464     297.3811    3.1071806    66.964012   -29.324132   -158.80849    17322.177 
    5465    298.36263    2.8334127    67.609401    -29.07942   -12.806032    17322.177 
    5466    300.32885    2.5742074    67.850025   -28.837865    141.10496    17322.177 
    5467    303.05658    2.3391608    67.746399   -28.598471    296.87491    17322.177 
    5468    306.20093    2.1367411    67.397827   -28.361869    447.96058    17322.177 
    5469    309.32128    1.9825953    66.931279   -28.125623    588.69841    17322.177 
    5470    311.94309    1.8835947    66.491511   -27.890387     710.3864    17322.177 
    5471    313.61768    1.8361139    66.230101   -27.656787     805.5128    17322.177 
    5472    313.96873    1.8354414    66.288595   -27.423622     868.6092    17322.177 
    5473    312.77802    1.8744372    66.769277   -27.189288    897.14044    17322.177 
    5474    310.08462     1.943521    67.694955   -26.951741    893.15963    17322.177 
    5475    306.26417     2.027943    68.970956    -26.71113    860.79194    17322.177 
    5476    302.02115    2.1150267    70.372352     -26.4694    802.28533    17322.177 
    5477    298.27126    2.1952485    71.579021   -26.232045    725.46602    17322.177 
    5478    295.91008    2.2629501    72.263253   -26.006286    636.27128    17322.177 
    5479    295.50873    2.3234603    72.207958   -25.796552    543.06299    17322.177 
    5480    297.08084    2.3865551    71.408292   -25.603046    449.35619    17322.177 
    5481    300.02331    2.4543585    70.106696   -25.421988    354.06271    17322.177 
    5482    303.24959    2.5257185    68.736221   -25.243728    256.98388    17322.177 
    5483    305.51428    2.6007358    67.779278   -25.057122    156.98185    17322.177 
    5484    305.84313    2.6760312    67.594046   -24.853159    56.016115    17322.177 
    5485    303.87152    2.7451434    68.276126   -24.630442   -47.696038    17322.177 
    5486    299.96854    2.8074924     69.61263   -24.392622   -152.34001    17322.177 
    5487    295.13801    2.8639872    71.140624   -24.148247   -254.45783    17322.177 
    5488    290.71787    2.9169317    72.286353   -23.907303   -350.00748    17322.177 
    5489    287.98699    2.9697791    72.536776   -23.678279   -435.44926    17322.177 
    5490    287.79327    3.0267067    71.593735   -23.466265    -508.7251    17322.177 
    5491    290.29127    3.0920073     69.47476   -23.272062    -569.8479    17322.177 
    5492    294.84871     3.168784    66.540057   -23.091226   -619.38826    17322.177 
    5493    300.14695    3.2555363     63.43617   -22.917101   -660.82772    17322.177 
    5494      304.478     3.352965    60.955999   -22.737329   -700.50085    17322.177 
    5495     306.2097    3.4595815    59.833738   -22.539672    -741.5873    17322.177 
    5496    304.30272    3.5702202    60.522758   -22.315129   -784.91991    17322.177 
    5497    298.71174     3.675851    63.027023   -22.060488   -827.05065    17322.177 
    5498    290.50801    3.7553109    66.857618   -21.786547   -860.16146    17322.177 
    5499    281.60822    3.7965986    71.150655   -21.506417   -880.97708    17322.177 
5500        0.42847302123814895447 12.057428520054347842 0.55820105820105814232 47 -145.47814405550468564
    5500    274.21227    3.7967931    74.917099    -21.23719   -880.79875    17322.177 
    5501     270.1477    3.7574763    77.342946   -20.991071   -855.75354    17322.177 
    5502    270.32682    3.6834858    78.027928   -20.770628   -804.47138    17322.177 
    5503    274.51359    3.5837382    77.079511   -20.567789   -729.85543    17322.177 
    5504    281.46505    3.4717452    75.037821   -20.367798   -637.04459    17322.177 
    5505    289.37046    3.3645406    72.674169    -20.15378   -535.75319    17322.177 
    5506    296.40652    3.2765629    70.746304   -19.914491   -435.28408    17322.177 
    5507    301.21697    3.2206342    69.792608   -19.645515   -342.84142    17322.177 
    5508     303.2069    3.2062512    70.016191   -19.348607    -262.2389    17322.177 
    5509    302.61648    3.2310893     71.27089   -19.032988   -192.60176    17322.177 
    5510    300.36961    3.2903561     73.13338   -18.708251   -134.70033    17322.177 
    5511    297.77426    3.3775653     75.03426    -18.38535   -84.857612    17322.177 
    5512    296.17124    3.4778235    76.417573   -18.072506   -35.339648    17322.177 
    5513    296.54377    3.5684582     76.89715   -17.779592    15.540376    17322.177 
    5514    299.21809    3.6398531    76.369611   -17.505646    68.527481    17322.177 
    5515     303.7766     3.683757    75.049231   -17.245896    123.99307    17322.177 
    5516    309.19028    3.6935093    73.407046      -16.991      180.519    17322.177 
    5517    314.14645    3.6649411    72.025009   -16.730024    235.83249    17322.177 
    5518    317.47894    3.5963905    71.408199   -16.454768     287.8753    17322.177 
    5519    318.55648    3.4904628    71.816398   -16.161917    333.92959    17322.177 
    5520    317.48345    3.3580538    73.171352   -15.857504    377.01479    17322.177 
    5521    315.06907    3.2247855    75.073979   -15.546354     417.5291    17322.177 
    5522    312.58131     3.102961    76.925234   -15.243052    453.79908    17322.177 
    5523    311.30427    2.9988166    78.119779   -14.960119    486.25283    17322.177 
    5524    312.05335    2.9147206    78.255194   -14.705842    514.00517    17322.177 
    5525    314.82629    2.8487482    77.288527   -14.481613    532.62783    17322.177 
    5526    318.71413    2.7956222     75.58123   -14.280448    536.39294    17322.177 
    5527     322.1365    2.7487707     73.80222   -14.088287    518.83085    17322.177 
    5528    323.36697     2.702246    72.703104   -13.888018    474.60216    17322.177 
    5529    321.19665     2.651774    72.831193    -13.66492    402.44284    17322.177 
    5530    315.49269    2.5936354    74.284212   -13.414999     304.8588    17322.177 
    5531    307.40978    2.5307283    76.613042   -13.144824    188.17873    17322.177 
    5532    299.12582    2.4687058    78.935342     -12.8729    63.761768    17322.177 
    5533    293.13955    2.4139309    80.242301   -12.622511   -55.556761    17322.177 
    5534    291.36388    2.3721712    79.792837   -12.411755   -158.10691    17322.177 
    5535    294.37086    2.3440651    77.439222   -12.246656   -234.83275    17322.177 
    5536    301.09076    2.3311577    73.742995     -12.1152   -285.63877    17322.177 
    5537    309.12862    2.3361233    69.818187   -11.993126   -312.73987    17322.177 
    5538    315.60173    2.3608764    66.951383   -11.853021   -320.26789    17322.177 
    5539    318.17513    2.4101418    66.137965   -11.673026   -311.65306    17322.177 
    5540    315.92065    2.4865242    67.709201   -11.447429   -290.48424    17322.177 
    5541     309.6602    2.5930171     71.19179   -11.188119   -253.73016    17322.177 
    5542    301.66945    2.7406081     75.45368   -10.916241   -197.16009    17322.177 
    5543    294.87053    2.9339722    79.086137   -10.661816   -118.14895    17322.177 
    5544    291.76802    3.1763907    80.891574   -10.447946   -14.502981    17322.177 
    5545     293.5199    3.4664178    80.307216   -10.284404    107.82844    17322.177 
    5546    299.49267     3.795123    77.610513    -10.16288    239.20784    17322.177 
    5547    307.45397    4.1487779    73.828441   -10.060641    366.50613    17322.177 
    5548     314.3685    4.5153683    70.374999   -9.9450121    474.75915    17322.177 
    5549    317.52382    4.8764241     68.54366   -9.7908267    548.76159    17322.177 
    5550    315.55484    5.2132509    69.040255   -9.5860101     580.8153    17322.177 
    5551    308.98014    5.5118631    71.730208   -9.3371556    570.87483    17322.177 
    5552    300.05368    5.7653641    75.695333   -9.0672508    526.85558    17322.177 
    5553    291.97702    5.9754754    79.577468   -8.8069943    461.62236    17322.177 
    5554    287.76758    6.1511194    82.077715    -8.583363    388.66902    17322.177 
    5555    289.20549    6.3022248    82.422938   -8.4104977    322.05904    17322.177 
    5556    296.21987    6.4423736       80.629   -8.2832772    267.33788    17322.177 
    5557    306.93708    6.5883719    77.470053   -8.1806005    227.08584    17322.177 
    5558    318.37192    6.7543029    74.172669   -8.0734568    201.15619    17322.177 
    5559    327.47919    6.9487923    71.954257   -7.9363161    185.81844    17322.177 
    5560     332.1773    7.1755169    71.580162   -7.7583811    179.84677    17322.177 
    5561    331.98403    7.4477238    73.100217   -7.5385385    184.80559    17322.177 
    5562    328.08844    7.7612689    75.857496   -7.2981252    198.66117    17322.177 
    5563    322.80359    8.0979007    78.762885   -7.0649715    223.09691    17322.177 
    5564    318.59959    8.4335002     80.73047   -6.8656029    257.88313    17322.177 
    5565    317.13835    8.7406397    81.105615   -6.7155152     298.7498    17322.177 
    5566    318.66392    8.9913265    79.919819   -6.6133645    336.46518    17322.177 
    5567    321.98271    9.1596101    77.871744   -6.5415959    357.71992    17322.177 
    5568    325.03612    9.2234459    76.040397   -6.4733336    348.58659    17322.177 
    5569    325.82354    9.1664431    75.444185   -6.3839832    295.82829    17322.177 
    5570    323.29601    8.9816258    76.622335   -6.2598226      191.812    17322.177 
    5571    317.85212    8.6703502    79.408293   -6.1041936    37.080668    17322.177 
    5572    311.22884    8.2424096    82.984914   -5.9353185   -160.06444    17322.177 
    5573    305.84275    7.7156967    86.193139   -5.7782656   -385.38763    17322.177 
    5574     303.8666     7.115216    87.962005   -5.6543102   -621.72966    17322.177 
    5575     306.4251    6.4714563    87.683633   -5.5724255   -852.13431    17322.177 
    5576    313.22344    5.8181907    85.389907   -5.5266221   -1062.1383    17322.177 
    5577    322.72417     5.189847    81.679414   -5.5000011   -1240.7523    17322.177 
    5578    332.75592    4.6186604    77.449352   -5.4731724   -1380.2588    17322.177 
    5579    341.27126    4.1326091    73.560395   -5.4340272   -1473.6079    17322.177 
    5580    346.94138    3.7628814    70.574268   -5.3781111   -1515.3422    17322.177 
    5581    349.43319    3.5249599    68.654767   -5.3105358   -1504.9454    17322.177 
    5582    349.28991    3.3899082    67.642751   -5.2553682   -1439.0879    17322.177 
    5583    347.44916    3.3415921    67.242097   -5.2222243   -1327.1261    17322.177 
    5584    344.77403    3.3700554    67.208764   -5.2189105   -1175.8278    17322.177 
    5585    341.81055    3.4619489    67.453245   -5.2450915   -995.24346    17322.177 
    5586    338.76331    3.6030012     68.02256   -5.2943207    -796.4491    17322.177 
    5587    335.66742    3.7845762     68.99051   -5.3587473   -590.01216    17322.177 
    5588    332.64792    3.9986536    70.329652    -5.431918   -392.47103    17322.177 
    5589    330.07163    4.2288009    71.842324   -5.5157853   -214.75682    17322.177 
    5590    328.47511    4.4615853    73.193853    -5.617014   -64.212895    17322.177 
    5591    328.33426     4.687872    74.035274   -5.7445655    54.921878    17322.177 
    5592    329.78559    4.9030009    74.157178   -5.9049903    141.66849    17322.177 
    5593     332.4496    5.1041243    73.599172   -6.1003596    197.70762    17322.177 
    5594    335.46976    5.2910149    72.657613   -6.3237938    227.61984    17322.177 
    5595     337.7823    5.4568738    71.778061   -6.5685944     236.2586    17322.177 
    5596    338.51636    5.5990872    71.371655   -6.8240845     230.5027    17322.177 
    5597    337.37411    5.7154608    71.630261   -7.0851271    219.29657    17322.177 
    5598    334.81916    5.8024163    72.423529    -7.354902    214.55459    17322.177 
    5599    331.94602    5.8534881    73.335812   -7.6460867     228.2894    17322.177 
5600        0.42562622618799955676 12.09161429104760721 0.55820105820105814232 45 -157.51324022782634415
    5600    330.04305    5.8621758    73.842866   -7.9763039    269.06597    17322.177 
    5601    330.01205    5.8227887    73.562354   -8.3622093    341.97905    17322.177 
    5602    331.89442    5.7312691    72.467903   -8.8121263    446.30816    17322.177 
    5603    334.73494    5.5862535    70.959444   -9.3217155    575.28254    17322.177 
    5604    336.88771    5.3897633      69.7393   -9.8749024    717.36234    17322.177 
    5605    336.66968    5.1473982    69.531944   -10.449991    858.70671    17322.177 
    5606    333.08123    4.8728521    70.763153   -11.030115     988.8783    17322.177 
    5607    326.31888    4.5888094    73.339016   -11.603024    1095.3886    17322.177 
    5608    317.83087    4.3027065    76.629107    -12.17696    1172.2378    17322.177 
    5609    309.82462    4.0300897    79.667347   -12.767492    1222.2764    17322.177 
    5610    304.51756    3.7808976    81.486181   -13.396709    1236.8528    17322.177 
    5611    303.39075    3.5532258    81.451025   -14.082954    1216.1429    17322.177 
    5612     306.6902    3.3440769    79.466053   -14.835362    1160.5169    17322.177 
    5613    313.39762    3.1511934    75.982379   -15.652038     1070.589    17322.177 
    5614    321.62477    2.9729001    71.823356   -16.521544    950.06025    17322.177 
    5615    329.23833    2.8062228    67.908649   -17.430668    802.24674    17322.177 
    5616    334.47687    2.6549103    64.983331   -18.364027    633.45785    17322.177 
    5617    336.38678    2.5210802    63.439874   -19.307745    456.96555    17322.177 
    5618    334.94302    2.3928231    63.274595   -20.260287    286.62297    17322.177 
    5619    330.85607     2.270429    64.168008   -21.215732    135.18789    17322.177 
    5620    325.22633    2.1557678    65.638663    -22.17263    16.368247    17322.177 
    5621    319.17325    2.0496223     67.20897   -23.129574   -59.358407    17322.177 
    5622    313.53788    1.9518014    68.530632   -24.083456   -85.540604    17322.177 
    5623    308.73844    1.8618441    69.440246   -25.029338   -62.722018    17322.177 
    5624    304.78898    1.7817678    69.943617   -25.959769    3.1722482    17322.177 
    5625    301.43571    1.7155331    70.152647   -26.866824    101.90961    17322.177 
    5626    298.32833    1.6689322    70.211368   -27.743608    219.94926    17322.177 
    5627    295.15262    1.6483688    70.244825   -28.584786    342.79094    17322.177 
    5628    291.68702     1.656184    70.345594   -29.388187    455.51882    17322.177 
    5629     287.7859    1.6949597    70.588139   -30.151096    544.65633    17322.177 
    5630    283.36433    1.7648518    71.042632   -30.869645    597.04807    17322.177 
    5631      278.438    1.8608578    71.759444   -31.537373    605.51217    17322.177 
    5632    273.21409    1.9676118    72.719874   -32.151704    565.62217    17322.177 
    5633     268.1752     2.070327    73.778976   -32.711005    476.54124    17322.177 
    5634    264.08126    2.1560577       74.644   -33.220849    344.30269    17322.177 
    5635    261.83177    2.2141261    74.925443   -33.693366    179.24845    17322.177 
    5636    262.17134    2.2399458    74.263004   -34.144326   -3.6151106    17322.177 
    5637    265.35026    2.2342967     72.48669   -34.587504   -191.78995    17322.177 
    5638    270.87862    2.2009207    69.744406   -35.029835   -371.74413    17322.177 
    5639    277.50617    2.1481483    66.528341   -35.468076   -531.74079    17322.177 
    5640    283.49856    2.0875715    63.568192   -35.890113   -661.44351    17322.177 
    5641    287.15172    2.0324304    61.612402   -36.278417   -754.12862    17322.177 
    5642    287.37571     1.992567    61.168623   -36.619107   -804.11874    17322.177 
    5643    284.13478    1.9767979    62.300049   -36.902985   -803.07649    17322.177 
    5644    278.56832    1.9762782    64.562683   -37.138905   -747.93931    17322.177 
    5645    272.66939     1.980854    67.124777   -37.344309    -642.3787    17322.177 
    5646    268.63177    1.9862389    69.036729   -37.541599   -489.14609    17322.177 
    5647    268.09701    1.9888183    69.563371   -37.752335   -297.95293    17322.177 
    5648    271.53438    1.9875139    68.460314    -37.98789   -82.682456    17322.177 
    5649    278.00285    1.9834184    66.086165   -38.245199    138.71239    17322.177 
    5650     285.4074    1.9792376    63.297774   -38.508282    344.58713    17322.177 
    5651    291.18069    1.9827321    61.156299   -38.752087    518.83289    17322.177 
    5652    293.17217    2.0007823    60.544031   -38.954953    642.02101    17322.177 
    5653     290.4198    2.0382268    61.833635    -39.10437    700.78097    17322.177 
    5654    283.50851    2.0958383    64.736722   -39.202932    692.77304    17322.177 
    5655    274.38012    2.1705869    68.393028   -39.267173    623.92019    17322.177 
    5656    265.66435    2.2571735    71.668477   -39.321272    507.88931    17322.177 
    5657    259.79126    2.3474844    73.549406   -39.387711     358.6092    17322.177 
    5658    258.21664    2.4266608    73.485541   -39.478477    194.17541    17322.177 
    5659     261.0003    2.4779727     71.55912   -39.594185     26.47298    17322.177 
    5660    266.89025    2.4970531    68.424146   -39.719911   -134.18142    17322.177 
    5661    273.86496    2.4848878    65.051644   -39.835805   -279.23575    17322.177 
    5662    279.87717    2.4471736    62.387307   -39.923587   -400.95655    17322.177 
    5663    283.51503    2.3885868    61.052366   -39.976329   -491.37454    17322.177 
    5664    284.33913    2.3212872    61.191664   -39.995526   -546.19373    17322.177 
    5665    282.82757    2.2631012    62.506024   -39.992304   -557.41282    17322.177 
    5666    280.01954    2.2284685    64.435527   -39.981501   -523.01552    17322.177 
    5667     277.0123    2.2240946    66.405073   -39.974987   -440.53446    17322.177 
    5668    274.53054    2.2533676    68.026545   -39.976877   -314.05383    17322.177 
    5669     272.7543    2.3173891    69.182666   -39.982969   -150.00452    17322.177 
    5670    271.43899    2.4143154    69.976014   -39.983453    41.142996    17322.177 
    5671    270.22606    2.5389863    70.587084   -39.967672    248.00378    17322.177 
    5672    268.96765    2.6807045    71.121734   -39.931631    458.78217    17322.177 
    5673    267.89286     2.830993    71.525896   -39.876105    661.34335    17322.177 
    5674    267.54149    2.9814693    71.607379    -39.80926    845.55158    17322.177 
    5675    268.50076     3.124894     71.15054   -39.740651    1002.7576    17322.177 
    5676    271.07287     3.253206    70.063607   -39.677027     1127.073    17322.177 
    5677      275.039    3.3567699     68.48191   -39.619609    1212.8705    17322.177 
    5678    279.64569    3.4281087    66.769389   -39.561618     1255.996    17322.177 
    5679     283.8443    3.4610611    65.407472   -39.492589    1254.2568    17322.177 
    5680    286.69204    3.4517882    64.812607   -39.402261    1206.2783    17322.177 
    5681    287.74695    3.3994723    65.157561   -39.285431    1115.0853    17322.177 
    5682    287.29194    3.3075246    66.272275   -39.144423    986.97306    17322.177 
    5683    286.28706    3.1835927    67.670486    -38.98883    830.77265    17322.177 
    5684    286.04912    3.0392429    68.700559   -38.833028    660.34826    17322.177 
    5685    287.77619    2.8887118    68.770633   -38.688707    485.67253    17322.177 
    5686    292.07355     2.740049    67.571195    -38.56557    310.74886    17322.177 
    5687    298.65286    2.6021998    65.211859   -38.463327    138.55981    17322.177 
    5688    306.32871    2.4877522    62.216215   -38.375613   -27.384881    17322.177 
    5689    313.36342     2.415646    59.368703    -38.28502   -190.23851    17322.177 
    5690    318.03102    2.3889659    57.465669   -38.180578   -353.30047    17322.177 
    5691    319.16279    2.4075692    57.060484   -38.054726   -517.46735    17322.177 
    5692      316.502    2.4694014    58.297165    -37.90841   -681.32567    17322.177 
    5693    310.73934    2.5709306    60.892758   -37.750522   -840.87625    17322.177 
    5694    303.22408    2.7075262     64.26699   -37.593926   -990.19566    17322.177 
    5695     295.4818    2.8750475    67.756275   -37.450639    -1120.779    17322.177 
    5696    288.75508    3.0734428     70.81678   -37.323695   -1226.6075    17322.177 
    5697    283.75899    3.2976177    73.132857   -37.209965   -1305.2875    17322.177 
    5698    280.70075    3.5359032    74.603444   -37.100793   -1353.1925    17322.177 
    5699    279.47905    3.7739405    75.242134   -36.987275   -1372.2882    17322.177 
5700        0.42757671374973410527 12.18901193053501153 0.55291005291005290712 41 -163.68805746487095121
    5700    279.91341    4.0025895    75.068629   -36.864014    -1361.178    17322.177 
    5701    281.87486     4.210839    74.066314   -36.732923   -1325.7985    17322.177 
    5702    285.22412    4.3850316    72.231099   -36.600059   -1270.4053    17322.177 
    5703    289.60703    4.5142048    69.681307   -36.471049   -1200.6984    17322.177 
    5704    294.29179    4.5926747    66.748239   -36.346315   -1122.7224    17322.177 
    5705    298.19973    4.6217648    63.970218   -36.218792   -1044.1959    17322.177 
    5706    300.18565    4.6081139    61.961939   -36.076768   -972.71609    17322.177 
    5707    299.48713    4.5579366    61.196692   -35.910816   -914.89797    17322.177 
    5708    296.12764    4.4802438    61.795075    -35.71709    -874.0284    17322.177 
    5709    291.07116     4.387257    63.423668   -35.500864   -846.62611    17322.177 
    5710    286.02807    4.2853441    65.364575   -35.278011   -821.87719    17322.177 
    5711     282.9037    4.1796102    66.749648    -35.06807   -796.24921    17322.177 
    5712    283.07748    4.0815827    66.883692   -34.885261   -764.53863    17322.177 
    5713    286.81933    4.0036636    65.530282   -34.734301   -721.52727    17322.177 
    5714    293.06144    3.9570787    63.046231   -34.607053   -663.75476    17322.177 
    5715    299.66102     3.950978    60.296636   -34.482838   -592.89394    17322.177 
    5716    304.10701    3.9868542    58.363249   -34.337733   -511.74045    17322.177 
    5717    304.43011    4.0629534    58.142033   -34.152128   -420.11424    17322.177 
    5718     299.9985    4.1751355    59.979197    -33.91792   -317.78922    17322.177 
    5719    291.86348    4.3139936    63.496897   -33.645621   -202.71761    17322.177 
    5720    282.47121    4.4715623    67.693863   -33.359059   -70.728732    17322.177 
    5721    274.81362    4.6398544    71.303773   -33.088595    82.613387    17322.177 
    5722    271.30155    4.8149027    73.284896   -32.858207    260.89157    17322.177 
    5723    272.82456    4.9911843    73.245822   -32.675368    456.71785    17322.177 
    5724    278.37529    5.1594393    71.625982   -32.525011     660.0227    17322.177 
    5725    285.42068    5.3100358     69.53588   -32.376055    856.12446    17322.177 
    5726    290.93934    5.4339609    68.303589   -32.191081    1028.4195    17322.177 
    5727    292.70989    5.5199869    68.901291   -31.944593    1162.8966    17322.177 
    5728    290.31765    5.5605906    71.489936   -31.631395    1252.8415    17322.177 
    5729    285.44765    5.5506019    75.282113   -31.271887    1298.7157    17322.177 
    5730    281.29637    5.4906137    78.799519   -30.903017    1306.2133    17322.177 
    5731    281.30577    5.3861174    80.438627    -30.56488    1284.3506    17322.177 
    5732    287.70084    5.2505529    79.126811   -30.284337    1243.2174    17322.177 
    5733    300.42672    5.1049236    74.807983   -30.062859    1185.8458    17322.177 
    5734    316.94277    4.9703684    68.549984   -29.877631    1111.9212    17322.177 
    5735    332.96926    4.8680933    62.221117   -29.689525    1017.2435    17322.177 
    5736      343.952    4.8151417    57.844853   -29.459491    899.06099    17322.177 
    5737    346.70938    4.8206717    56.869617   -29.163612    759.15201    17322.177 
    5738    340.63686    4.8837964    59.629145   -28.802584    606.20132    17322.177 
    5739    328.00061    4.9932771    65.201847   -28.402505    455.57935    17322.177 
    5740    313.18714    5.1292451    71.729587   -28.006657    326.29209    17322.177 
    5741    301.17182     5.266658    77.082237   -27.660509    235.95753    17322.177 
    5742     295.7705    5.3797811    79.620633   -27.394788    195.47095    17322.177 
    5743    298.32664    5.4467429    78.770189    -27.21324    205.22331    17322.177 
    5744    307.32426    5.4532151    75.188316   -27.090706    254.24186    17322.177 
    5745    319.06416    5.3944883    70.465471   -26.982891     322.6054    17322.177 
    5746    329.13847    5.2747276    66.481227   -26.842007    388.45311    17322.177 
    5747    334.12812    5.0941589    64.670419   -26.641121    431.70704    17322.177 
    5748    332.83872    4.8654046    65.485823   -26.374802    431.59314    17322.177 
    5749    326.63489    4.6136377    68.259614   -26.066406    383.05113    17322.177 
    5750    318.83108    4.3644298    71.501825   -25.753776     284.8007    17322.177 
    5751    313.34937    4.1285568    73.506303   -25.480807    140.53306    17322.177 
    5752    313.17443    3.9166337    73.019547   -25.275464   -44.437711    17322.177 
    5753    319.22315    3.7378119    69.720014   -25.145108   -262.59558    17322.177 
    5754    330.01771    3.6018278    64.342008    -25.07105   -508.57321    17322.177 
    5755    342.22539    3.5092893    58.418513   -25.021997    -781.0947    17322.177 
    5756    351.81391    3.4554177    53.754295   -24.964892   -1078.0554    17322.177 
    5757    355.40356    3.4346823    51.825013   -24.874583   -1390.8204    17322.177 
    5758    351.35254    3.4415701    53.308118   -24.742496   -1703.2608    17322.177 
    5759    340.22471    3.4738561    57.894923   -24.576762   -1989.3125    17322.177 
    5760    324.52603    3.5301873     64.43028   -24.398332   -2227.1626    17322.177 
    5761    307.83788    3.6032386    71.314594   -24.235597   -2391.5181    17322.177 
    5762     293.6567    3.6859086    77.018566   -24.111622   -2463.2235    17322.177 
    5763    284.35797    3.7730625    80.532237   -24.037648   -2428.8985    17322.177 
    5764    280.62994    3.8610833    81.604305   -24.007603   -2288.1456    17322.177 
    5765    281.51618    3.9461674    80.707318   -24.001985   -2048.7102    17322.177 
    5766    284.99953    4.0242011    78.767147   -23.994459   -1729.8282    17322.177 
    5767      288.868    4.0902506    76.774332   -23.961506   -1355.7531    17322.177 
    5768    291.52154    4.1405488    75.428077   -23.890343   -951.50451    17322.177 
    5769    292.44864    4.1727493    74.934801   -23.782494   -539.73335    17322.177 
    5770    292.23827    4.1886463    75.014325   -23.649753   -140.06365    17322.177 
    5771    292.18477    4.1897402    75.084622   -23.511998     230.2938    17322.177 
    5772     293.6682     4.185118    74.536195   -23.384211    559.66833    17322.177 
    5773    297.58344    4.1779212    72.987188   -23.275722    837.41983    17322.177 
    5774    303.98577    4.1573887    70.431804   -23.192117    1055.6838    17322.177 
    5775    312.02242    4.1232075    67.245286   -23.124789    1206.0986    17322.177 
    5776    320.19868    4.0774363     64.05784   -23.062999    1286.0757    17322.177 
    5777    326.84181    4.0217785    61.553623   -22.996285    1296.9723    17322.177 
    5778    330.57903    3.9573303    60.268092   -22.917988    1244.6468    17322.177 
    5779    330.69224    3.8843323    60.446691   -22.826815    1139.4208    17322.177 
    5780    327.26154    3.8019654    61.999106   -22.726381    995.27356    17322.177 
    5781     321.0853     3.708265    64.548764   -22.623413    828.33477    17322.177 
    5782    313.42908    3.6002503     67.55019   -22.525549    654.94101    17322.177 
    5783    305.69325    3.4729095    70.434222   -22.439077    491.20157    17322.177 
    5784    299.07779    3.3203002    72.743008    -22.36889    346.87446    17322.177 
    5785    294.32704     3.140998    74.224899   -22.315353    228.00889    17322.177 
    5786    291.61375    2.9355349    74.872686   -22.275534    136.32056    17322.177 
    5787    290.57156    2.7067413    74.899883   -22.243086    69.343648    17322.177 
    5788    290.46815     2.459874    74.660665    -22.20935    21.693633    17322.177 
    5789     290.4781      2.20233    74.531321   -22.165271    -13.24492    17322.177 
    5790    289.98238    1.9429493    74.783067   -22.103796   -41.564516    17322.177 
    5791    288.81002    1.6893532    75.483319   -22.021139   -65.702168    17322.177 
    5792    287.32195    1.4448723    76.460641   -21.921879   -87.273314    17322.177 
    5793    286.30021    1.2184919    77.349917   -21.812512   -106.45989    17322.177 
    5794    286.68102    1.0187143    77.710619   -21.702884   -120.35172    17322.177 
    5795    289.19704   0.85117233    77.184556   -21.602311   -124.70351    17322.177 
    5796    294.04536   0.71851299    75.639818   -21.516049   -115.65383    17322.177 
    5797    300.70841   0.62099406    73.247719    -21.44329    -90.72669    17322.177 
    5798     308.0066   0.55744918    70.459832   -21.377362   -49.288109    17322.177 
    5799    314.37879   0.52749084     67.88663    -21.30879    9.0035091    17322.177 
5800        0.42498027073492322669 12.27519152652610579 0.550264550264550234 44 -165.45097686280990956
    5800    318.31894   0.53411067    66.115174   -21.226037     81.24349    17322.177 
    5801    318.82827   0.57597937    65.526915    -21.12352    163.67629    17322.177 
    5802    315.72014   0.65045605    66.179595   -21.000394    254.39046    17322.177 
    5803     309.6809   0.75092283    67.794171   -20.863531    350.90188    17322.177 
    5804    302.07021   0.87117623    69.849913   -20.721498    449.26405    17322.177 
    5805    294.52969     1.003635    71.751211   -20.585781     544.4436    17322.177 
    5806    288.54519    1.1427111      73.0074   -20.463189    626.66386    17322.177 
    5807    285.10104    1.2807013    73.363185   -20.355813    687.80981    17322.177 
    5808    284.51461    1.4103023    72.840896     -20.2597    717.41745    17322.177 
    5809    286.48469     1.524269    71.690777   -20.167517    705.11506    17322.177 
    5810    290.29603     1.617784    70.279319   -20.070873    643.57158    17322.177 
    5811    295.08497    1.6899296    68.963589   -19.963428    529.45611    17322.177 
    5812    300.06887    1.7439965    67.997516   -19.842582    364.68176    17322.177 
    5813    304.67474     1.786867      67.4959   -19.709458    156.89979    17322.177 
    5814    308.54742    1.8309578    67.454601   -19.568779   -78.478819    17322.177 
    5815      311.511    1.8921159    67.802233   -19.420727   -324.07191    17322.177 
    5816    313.51048    1.9703491    68.453098   -19.271028    -561.7131    17322.177 
    5817    314.55116    2.0676068    69.335667   -19.119898   -771.23185    17322.177 
    5818    314.70488     2.185766    70.385245   -18.966795    -932.8086    17322.177 
    5819    314.15642    2.3267499    71.512941   -18.811171   -1029.4972    17322.177 
    5820    313.23566    2.4928098    72.576914   -18.653872   -1048.9518    17322.177 
    5821    312.38514    2.6886086    73.382625   -18.497911   -778.65079    21869.833 
    5822    312.05854    2.9186752    73.725488   -18.347533   -661.28653    21869.833 
    5823    312.55738    3.1832708    73.469624   -18.207304   -485.81971    21869.833 
    5824    313.86336    3.4781022    72.631977   -18.079962   -263.64419    21869.833 
    5825    315.55024    3.7978818    71.429983   -17.964059   -14.259436    21869.833 
    5826    316.85389    4.1370371    70.259237   -17.851817    238.50949    21869.833 
    5827    316.91828    4.4802251    69.588721   -17.735061    469.72952    21869.833 
    5828    315.13208    4.8098248    69.797677   -17.604621     656.0538    21869.833 
    5829     311.4555    5.1088426    71.009367    -17.45524    778.14553    21869.833 
    5830    306.59564    5.3632555    72.991676     -17.2886    822.62381    21869.833 
    5831    301.91796    5.5639288    75.179639   -17.113895    783.26602    21869.833 
    5832    299.08492    5.7066029    76.831871   -16.943289    662.22436    21869.833 
    5833    299.51749    5.7815353    77.277083    -16.79416    468.09604    21869.833 
    5834    303.84613    5.7918741    76.163419   -16.672375    211.91428    21869.833 
    5835    311.59916    5.7481532    73.611475   -16.575791   -89.453895    21869.833 
    5836    321.27848    5.6630914    70.202057   -16.492935   -414.92639    21869.833 
    5837    330.80053    5.5475802    66.794151   -16.407069    -741.4053    21869.833 
    5838    338.15167    5.4093309    64.236446   -16.305116   -1047.0541    21869.833 
    5839    342.02457    5.2591636    63.081754    -16.17933   -1307.3267    21869.833 
    5840    342.19525    5.1053869    63.416311   -16.035712   -1499.4479    21869.833 
    5841    339.49089    4.9605689    64.868966   -15.887423   -1603.9011    21869.833 
    5842    335.38224    4.8354568    66.792736    -15.75287   -1605.8058    21869.833 
    5843    331.36597      4.73777    68.540637   -15.647599   -1498.2377    21869.833 
    5844    328.39915    4.6719359    69.717077   -15.578192   -1283.9049    21869.833 
    5845    326.62181    4.6390632    70.299681    -15.53992   -975.46558    21869.833 
    5846    325.46446    4.6380147    70.585613   -15.520042   -593.31399    21869.833 
    5847    324.06802     4.671147    70.995526   -15.500999   -163.39664    21869.833 
    5848    321.82577    4.7361398    71.829239    -15.47116    281.57739    21869.833 
    5849    318.76949    4.8240435    73.089978   -15.428833    711.01747    21869.833 
    5850     315.6071    4.9230724    74.460797   -15.382502    1097.5198    21869.833 
    5851    313.40519    5.0199103    75.445581   -15.347145    1418.2302    21869.833 
    5852    313.05343    5.1013461    75.612005   -15.337279    1655.6943    21869.833 
    5853    314.75673    5.1564974    74.825133   -15.359889    1798.9936    21869.833 
    5854    317.80579    5.1769344    73.359831   -15.410578    1841.9971    21869.833 
    5855    320.75316    5.1561703    71.831042   -15.475061    1786.4433    21869.833 
    5856     321.9513    5.0933178    70.956914   -15.533515    1640.8153    21869.833 
    5857    320.25391    4.9920184    71.247799   -15.569552    1420.9404    21869.833 
    5858    315.58207    4.8592562     72.75353   -15.577099    1150.6812    21869.833 
    5859    309.09382    4.7039622    74.985293   -15.563858    860.09181    21869.833 
    5860     302.8471    4.5352614    77.062851   -15.549529    580.65542    21869.833 
    5861    299.05362    4.3619254    78.044129   -15.558102    342.95427    21869.833 
    5862    299.20502     4.191026    77.312342   -15.608429     171.4339    21869.833 
    5863    303.41885    4.0279132    74.863934   -15.706073    82.663771    21869.833 
    5864    310.28567    3.8754945    71.372774   -15.840491    81.486392    21869.833 
    5865    317.30367    3.7338186    67.991701   -15.988743    163.09627    21869.833 
    5866    321.75268    3.6007649    65.957988   -16.124085    314.35801    21869.833 
    5867    321.68768    3.4726565    66.148165   -16.225795     516.6782    21869.833 
    5868    316.67912    3.3450054    68.748467   -16.286464    748.96888    21869.833 
    5869    308.02592    3.2132925    73.162034   -16.314365    990.18385    21869.833 
    5870    298.36822    3.0738808    78.183756   -16.330112    1221.7835    21869.833 
    5871    290.84664      2.92395    82.376016   -16.359747    1423.5204    21869.833 
    5872    288.10514    2.7616098    84.512505   -16.426125    1578.1918    21869.833 
    5873    291.47154    2.5867573    83.941517   -16.541461    1669.7576    21869.833 
    5874    300.57093    2.4019754    80.755853    -16.70525    1685.3579    21869.833 
    5875    313.47153    2.2160578    75.728965   -16.903974    1614.8333    21869.833 
    5876    327.28272    2.0406633    70.056332   -17.119301    1452.5989    21869.833 
    5877    338.98485    1.8871199    65.001041    -17.33475    1198.2618    21869.833 
    5878    346.21247    1.7651435    61.562049   -17.540098    860.52811    21869.833 
    5879    347.76841    1.6821005    60.260949   -17.732615    456.34198    21869.833 
    5880    343.77275    1.6399519    61.086335   -17.916888    8.2754762    21869.833 
    5881     335.4701     1.637547    63.578331   -18.099777   -456.35213    21869.833 
    5882    324.82521    1.6697532    66.995718   -18.288591   -907.92156    21869.833 
    5883    314.05344    1.7283206    70.501492   -18.489506   -1317.8016    21869.833 
    5884    305.19707    1.8028201    73.323016   -18.707763   -1660.2498    21869.833 
    5885    299.79368    1.8835576    74.871937   -18.948339   -1917.3126    21869.833 
    5886    298.64786    1.9639986    74.827974   -19.216217   -2077.6766    21869.833 
    5887    301.69879     2.041974    73.193194   -19.517056    -2137.046    21869.833 
    5888    308.00103    2.1283399    70.310362   -19.848496    -2099.423    21869.833 
    5889    315.87503    2.2278957    66.825829   -20.208543   -1980.1307    21869.833 
    5890    323.21694    2.3435805     63.57906    -20.58768   -1797.0702    21869.833 
    5891    327.94831    2.4799124    61.418004   -20.971939   -1569.9154    21869.833 
    5892    328.55673    2.6390553    60.973969   -21.346502   -1321.1935    21869.833 
    5893    324.55014    2.8184477    62.462733   -21.700404   -1069.9191    21869.833 
    5894    316.66514    3.0130696    65.581924   -22.030357   -831.06765    21869.833 
    5895    306.73487    3.2154785    69.556639   -22.342881   -615.01679    21869.833 
    5896    297.20777    3.4183832    73.337429   -22.653461   -426.10257    21869.833 
    5897    290.46053    3.6152217    75.898802   -22.979515   -268.86374    21869.833 
    5898    288.10522    3.7945056    76.545542   -23.337882   -145.37773    21869.833 
    5899    290.50531    3.9470686    75.125165   -23.736325   -56.471224    21869.833 
5900        0.4274617137680420953 12.322549452451854179 0.55820105820105814232 50 -158.59135634621543431
    5900    296.67784    4.0677382    72.073656   -24.171632   -2.8252648    21869.833 
    5901    304.61805    4.1537229    68.278331   -24.630488    16.988413    21869.833 
    5902    311.91191    4.2064566    64.803947   -25.098083    4.3705128    21869.833 
    5903    316.44909    4.2465869    62.573647   -25.552838   -37.129595    21869.833 
    5904    317.04393    4.2880307    62.104249   -25.985135   -102.36384    21869.833 
    5905    313.71712    4.3439688    63.376389   -26.395677   -176.77369    21869.833 
    5906    307.59314    4.4414343    65.873398   -26.783134   -250.77894    21869.833 
    5907    300.51203    4.5838828    68.764531   -27.163008    -313.3323    21869.833 
    5908    294.42929    4.7622436    71.170391   -27.550558   -353.28353    21869.833 
    5909    290.80863    4.9621804    72.425362   -27.957134   -362.16439    21869.833 
    5910     290.2202    5.1684929    72.255646   -28.387802   -338.58229    21869.833 
    5911    292.24673    5.3690022    70.824849   -28.839704    -283.1087    21869.833 
    5912      295.707    5.5538893    68.644163    -29.30343   -199.81522    21869.833 
    5913    299.08129    5.7172001    66.389494   -29.766636   -94.968045    21869.833 
    5914    300.98268     5.858439    64.694756    -30.21878    28.007313    21869.833 
    5915    300.53089    5.9836506    63.988784   -30.651004     160.3976    21869.833 
    5916    297.52996    6.0965974    64.417268    -31.06134    295.70893    21869.833 
    5917    292.43366    6.2020953    65.849896    -31.45033    429.99789    21869.833 
    5918    286.17272    6.3055605     67.94455   -31.820277    560.43629    21869.833 
    5919    279.93207    6.4120857    70.233081   -32.174463    684.82704    21869.833 
    5920    274.93436    6.5241256    72.207419   -32.517307    802.39719    21869.833 
    5921    272.22753    6.6420243    73.405622   -32.856104    909.55218    21869.833 
    5922    272.46751    6.7695296    73.505949   -33.199073    1004.4474    21869.833 
    5923    275.73339    6.9072994    72.424114   -33.554007    1081.3549    21869.833 
    5924    281.39424    7.0498975    70.389627   -33.925476    1136.1272    21869.833 
    5925    288.12017    7.1924593    67.951299   -34.309453    1164.0336    21869.833 
    5926    294.13944    7.3275628    65.873487   -34.694383    1159.1475    21869.833 
    5927    297.71669    7.4464962    64.923407   -35.063075    1118.7612    21869.833 
    5928    297.72412    7.5418119    65.605359   -35.399251    1044.2815    21869.833 
    5929    294.10718    7.6076046    67.939771    -35.69399    939.34282    21869.833 
    5930    288.02438    7.6381112    71.388019   -35.951411    812.11848    21869.833 
    5931    281.54537    7.6299428     74.97862   -36.188035     673.7144    21869.833 
    5932    276.98251    7.5791372    77.611956   -36.426913    538.78175    21869.833 
    5933    276.06086    7.4814597    78.441296   -36.690751    415.30768    21869.833 
    5934     279.2421    7.3405003    77.188162   -36.989795    308.75302    21869.833 
    5935    285.50607    7.1628699    74.260865   -37.318749    221.04805    21869.833 
    5936     292.6892    6.9557499    70.617776   -37.657772     151.1497    21869.833 
    5937    298.27163    6.7271064    67.416776   -37.980401    93.335079    21869.833 
    5938    300.33347     6.486939    65.579302   -38.263443    42.547766    21869.833 
    5939     298.3142     6.244192     65.43933    -38.49648   -3.8344184    21869.833 
    5940    293.25738    6.0044367    66.618916   -38.687408   -47.697603    21869.833 
    5941     287.4234    5.7725129    68.187083   -38.858545   -89.694034    21869.833 
    5942    283.41441    5.5500778    69.044487   -39.040161   -128.65619    21869.833 
    5943    283.13482     5.339038    68.386155   -39.257051   -166.65899    21869.833 
    5944    286.98631    5.1446166    66.059961   -39.520358   -205.68178    21869.833 
    5945    293.64761    4.9748211    62.674067   -39.818607   -251.03425    21869.833 
    5946    300.52538    4.8263093     59.40261   -40.128664   -307.40379    21869.833 
    5947    304.70646    4.6928845    57.556121   -40.418169   -384.33451    21869.833 
    5948    304.07018    4.5644146    58.077635   -40.660493   -484.11632    21869.833 
    5949    298.14335    4.4306129    61.154358   -40.843336    -603.5942    21869.833 
    5950    288.36653    4.2817297    66.096851   -40.974084   -733.40249    21869.833 
    5951    277.66059    4.1095056    71.537997   -41.076264   -857.05614    21869.833 
    5952     269.4396    3.9055305    75.883484    -41.18378   -961.85644    21869.833 
    5953    266.43132    3.6693004    77.849847   -41.324233   -1035.1571    21869.833 
    5954    269.75378     3.404118    76.892497   -41.510796   -1066.5885    21869.833 
    5955    278.56256    3.1177445    73.369507   -41.739318   -1054.0838    21869.833 
    5956    290.38726    2.8315514    68.388013   -41.986091   -1001.0482    21869.833 
    5957    302.04317    2.5683897    63.395741    -42.22298   -915.66602    21869.833 
    5958    310.74828    2.3504785    59.673989   -42.426114   -806.03802    21869.833 
    5959    315.03558    2.1938195    57.919976   -42.585549   -679.43659    21869.833 
    5960    315.13419    2.1077383    58.064065   -42.708259   -544.48113    21869.833 
    5961    312.71026    2.0960721    59.375076   -42.815211   -405.63279    21869.833 
    5962     310.1073    2.1550536    60.798424    -42.93351   -266.07332    21869.833 
    5963    309.39214    2.2719798    61.390689   -43.082581   -127.38016    21869.833 
    5964    311.55348    2.4087453     60.68624   -43.282647    7.0578693    21869.833 
    5965    316.10824    2.5495055    58.863601   -43.525254    128.75576    21869.833 
    5966    321.31281    2.6911557    56.655898   -43.792484     233.1478    21869.833 
    5967    324.89269    2.8299954    55.052607   -44.059297    315.61064    21869.833 
    5968    324.91726    2.9579811     54.91432    -44.30594    372.69353    21869.833 
    5969    320.51495    3.0766192     56.64633   -44.518851    405.58082    21869.833 
    5970    312.21227    3.1851445    60.050019   -44.697753    422.94469    21869.833 
    5971    301.74557    3.2776083    64.397287   -44.856862     434.2052    21869.833 
    5972    291.45036     3.353753    68.686139   -45.013301      450.559    21869.833 
    5973    283.48758    3.4164118    71.972021   -45.184434    484.73348    21869.833 
    5974    279.19855    3.4689059    73.652478   -45.378394    542.70234    21869.833 
    5975    278.77869    3.5058418    73.614152   -45.596153    626.92622    21869.833 
    5976    281.32801    3.5257128    72.208088   -45.827438    733.68168    21869.833 
    5977    285.25279    3.5298334     70.08208   -46.057636    855.92751    21869.833 
    5978    288.84032     3.524518     67.94247   -46.271699    984.86894    21869.833 
    5979    290.81843    3.5171091    66.327455   -46.459551     1107.532    21869.833 
    5980    290.72803    3.5131845     65.45804   -46.618274    1212.6666    21869.833 
    5981    289.00344    3.5181572    65.203146   -46.752827    1290.7719    21869.833 
    5982    286.77124    3.5382127    65.157989    -46.87383    1334.3262    21869.833 
    5983    285.43641    3.5781116     64.80683   -46.995803    1336.8817    21869.833 
    5984     286.1762    3.6413794    63.721067   -47.132423    1294.4888    21869.833 
    5985    289.49179    3.7300106     61.73416   -47.292642    1204.8039    21869.833 
    5986    294.96484    3.8427517    59.038358   -47.476638    1068.0819    21869.833 
    5987    301.30903    3.9660098    56.166727   -47.679334    887.64404    21869.833 
    5988    306.68974     4.088511    53.857359   -47.885708    664.52689    21869.833 
    5989    309.26975    4.2016009    52.831379   -48.077894     407.3703    21869.833 
    5990    307.82704    4.2884563    53.551476   -48.243706    128.02219    21869.833 
    5991    302.19366    4.3354133    56.041829   -48.375318   -158.73885    21869.833 
    5992    293.39268    4.3325084    59.832351   -48.475303   -433.40538    21869.833 
    5993    283.41667    4.2733372    64.054395   -48.555516   -674.96982    21869.833 
    5994    274.68205    4.1561404    67.668241   -48.633746   -863.63735    21869.833 
    5995    269.31981    3.9842998    69.759355   -48.728215   -983.82063    21869.833 
    5996    268.51412    3.7661054    69.816323   -48.851484   -1026.7323    21869.833 
    5997     272.0963    3.5126142    67.904756   -49.005913   -991.18364    21869.833 
    5998     278.5277     3.236701    64.677477   -49.182154    -886.6528    21869.833 
    5999    285.30152    2.9526548    61.207131   -49.361081   -729.45475    21869.833 
6000        0.43338448705911936099 12.421932288746825535 0.56878306878306872374 48 -180.76636537180223741
    6000    289.67402    2.6746841    58.677115   -49.519955   -540.26605    21869.833 
    6001    289.52345     2.419909    58.014543   -49.635665   -342.19768    21869.833 
    6002    284.08525    2.1975844    59.575528   -49.697252   -158.73208    21869.833 
    6003    274.30027    2.0110757    62.990885   -49.705491   -7.2765723    21869.833 
    6004    262.62814     1.851121    67.238141   -49.679828    100.56205    21869.833 
    6005    252.33344    1.7091198    70.937213   -49.646617     156.1891    21869.833 
    6006    246.44867    1.5807556    72.790964   -49.633893    154.33068    21869.833 
    6007    246.76799    1.4626776    72.028462   -49.660827    94.866146    21869.833 
    6008     253.1903    1.3511776    68.698131   -49.730214   -22.560051    21869.833 
    6009    263.66614      1.24637    63.695739   -49.824769   -195.23419    21869.833 
    6010    274.81719    1.1500032    58.499691    -49.91434   -416.52249    21869.833 
    6011    283.04298    1.0657061    54.691498   -49.964478   -676.29399    21869.833 
    6012    285.74355   0.99327904    53.422514   -49.951563    -959.8989    21869.833 
    6013    282.22066   0.93173607    55.015177    -49.86933   -1245.5478    21869.833 
    6014    273.93305   0.87992395    58.845026   -49.732128   -1506.5774    21869.833 
    6015    263.99932   0.83671156    63.553551   -49.570366   -1714.4121    21869.833 
    6016    256.11234    0.8001335    67.522587   -49.419494   -1841.5409    21869.833 
    6017     253.2393   0.76596446    69.444303   -49.308376   -1866.7851    21869.833 
    6018    256.56743   0.73245514    68.782581   -49.247056   -1782.7881    21869.833 
    6019    265.08801   0.70123719     65.95703   -49.222341   -1592.5441    21869.833 
    6020    275.96967   0.67404386    62.181972   -49.203788   -1309.2623    21869.833 
    6021    285.58723   0.65272696    59.016154    -49.15404   -954.82029    21869.833 
    6022    290.84144   0.63721424    57.785455   -49.043589    -556.1005    21869.833 
    6023     290.2907    0.6264018    59.089059   -48.860832   -139.86808    21869.833 
    6024    284.68274   0.61902075    62.570193   -48.616373    269.78071    21869.833 
    6025    276.69452   0.61343627    67.036426   -48.338872    653.90171    21869.833 
    6026    269.96655   0.60740295    70.886326   -48.066106    995.92306    21869.833 
    6027    267.78041   0.60245385    72.688108   -47.829356    1282.3524    21869.833 
    6028    271.86346   0.60203784     71.70027   -47.643067    1501.7399    21869.833 
    6029    281.74219   0.61078032    68.147392    -47.49931    1643.9263    21869.833 
    6030    294.88782   0.62689618    63.153802   -47.369689    1703.5276    21869.833 
    6031    307.56407   0.64003355    58.359513   -47.221195    1674.5745    21869.833 
    6032    316.07618   0.64869905    55.359949   -47.021617    1558.8431    21869.833 
    6033      318.036   0.65122462    55.160698   -46.754892    1368.2635    21869.833 
    6034    313.15873   0.64659459    57.839068    -46.42622     1120.442    21869.833 
    6035    303.31985   0.63818651    62.530767   -46.059063    840.90685    21869.833 
    6036    291.87119   0.63093621    67.743748   -45.687878    560.09754    21869.833 
    6037     282.4533   0.63043879    71.886217     -45.3462     306.4718    21869.833 
    6038     277.7179   0.64869375    73.818568   -45.056634    106.78269    21869.833 
    6039    278.48458   0.70253525    73.228956    -44.81037    -22.74294    21869.833 
    6040    283.57907   0.77994487    70.700626   -44.591178   -80.509572    21869.833 
    6041    290.35464   0.87512528    67.453652   -44.363335   -71.259831    21869.833 
    6042    295.76536   0.98213258    64.860561    -44.09291   -6.2516659    21869.833 
    6043     297.5481    1.0951979    63.924826   -43.759272      99.4195    21869.833 
    6044    295.05842    1.2091302    64.919598   -43.362039    229.73316    21869.833 
    6045    289.46204     1.319549    67.316243    -42.91999    369.62629    21869.833 
    6046    283.23736    1.4229693    70.016502   -42.462788    505.58773    21869.833 
    6047    279.20712    1.5167897    71.786495   -42.019027    625.26374    21869.833 
    6048    279.47951    1.5992445    71.721431   -41.605344    716.74492    21869.833 
    6049    284.68659    1.6693081    69.570595   -41.220631    768.56669    21869.833 
    6050    293.77107    1.7261354    65.816042   -40.847921    769.93049    21869.833 
    6051    304.35913    1.7701803     61.49463     -40.4612    711.34256    21869.833 
    6052    313.55598    1.8029361     57.84221   -40.036276     588.4792    21869.833 
    6053    318.87458    1.8295654    55.890583   -39.557397      403.822    21869.833 
    6054    318.99411    1.8538316    56.150634   -39.025965     166.1993    21869.833 
    6055    314.11819    1.8846132    58.476106   -38.451935   -108.19888    21869.833 
    6056    305.84777     1.924305    62.136702   -37.860551   -398.03107    21869.833 
    6057    296.63954    1.9813363     66.06518     -37.2721   -678.80431    21869.833 
    6058    289.04685     2.053404    69.191761   -36.707406   -927.76105    21869.833 
    6059    284.97011    2.1358835    70.759467   -36.174747   -1124.4522    21869.833 
    6060    285.14768    2.2245489      70.5242    -35.66943   -1254.7054    21869.833 
    6061    289.02939    2.3208435    68.783357    -35.17771   -1309.7907    21869.833 
    6062    295.07399    2.4371645    66.233231   -34.674108   -1292.0594    21869.833 
    6063     301.3521    2.5739933    63.708721   -34.141025   -1210.1041    21869.833 
    6064    306.18912    2.7334109     61.90161   -33.566964   -1073.5928    21869.833 
    6065     308.6814    2.9109705    61.154237   -32.953377   -897.86804    21869.833 
    6066     308.8823    3.0992414    61.395331   -32.313831   -697.65584    21869.833 
    6067    307.62632    3.3016464    62.230616   -31.661862   -487.98339    21869.833 
    6068     306.1298    3.5095943    63.139561   -31.017158   -283.42285    21869.833 
    6069    305.47994    3.7128631    63.696942    -30.39141   -95.727933    21869.833 
    6070    306.22963    3.9026566    63.732434   -29.787348    65.146454    21869.833 
    6071    308.25009    4.0728906    63.372385   -29.199437    191.44394    21869.833 
    6072    310.86196    4.2208516    62.958916   -28.617615    278.20452    21869.833 
    6073    313.16494    4.3470747    62.889316    -28.03224    323.90487    21869.833 
    6074    314.41014    4.4577071    63.445108   -27.439686    333.85281    21869.833 
    6075    314.29054    4.5672914    64.677217   -26.838144    312.67709    21869.833 
    6076    313.05048     4.679716    66.386193   -26.236969     269.0643    21869.833 
    6077    311.36153    4.7972759    68.199932    -25.64481    213.69141    21869.833 
    6078    310.04614    4.9152102    69.713962   -25.071968    156.68832    21869.833 
    6079    309.76189    5.0253342    70.639231   -24.524371    108.16754    21869.833 
    6080    310.76529    5.1161609    70.903679   -24.001997    77.065542    21869.833 
    6081    312.83024    5.1728925    70.672347    -23.50224    67.004906    21869.833 
    6082    315.34342    5.1884725    70.279922   -23.017412    79.216544    21869.833 
    6083    317.55702    5.1609599     70.10103   -22.539125    111.53519    21869.833 
    6084    318.89491    5.0852561    70.405955   -22.064453    161.41417    21869.833 
    6085    319.17047    4.9632071    71.254825   -21.592652    221.88711    21869.833 
    6086    318.65954    4.8027789    72.469177    -21.12853    286.50278    21869.833 
    6087    318.00914    4.6143797    73.691734   -20.679823    349.55333    21869.833 
    6088    317.99325    4.4100623    74.513535   -20.254782    405.79617    21869.833 
    6089     319.2129    4.2023173    74.623838   -19.859527    450.66607    21869.833 
    6090    321.84633    4.0028152    73.930503   -19.496164    480.50107    21869.833 
    6091    325.53598    3.8220035    72.608615   -19.162543    493.77012    21869.833 
    6092    329.46367    3.6684545    71.058623   -18.851744    489.11995    21869.833 
    6093    332.59184     3.544364    69.786058   -18.556378    467.51521    21869.833 
    6094    333.99159    3.4484332    69.239728   -18.269436    432.95806    21869.833 
    6095    333.16708    3.3739637    69.660186    -17.98636     394.1806    21869.833 
    6096    330.23603    3.3123924    70.990421   -17.710449    359.76444    21869.833 
    6097    325.93103    3.2654285    72.879887   -17.443825    338.01596    21869.833 
    6098     321.4185    3.2275318    74.786185   -17.195741    336.39151    21869.833 
    6099    317.94865    3.1928804    76.143956   -16.974494    361.71169    21869.833 
6100        0.42950347342333555778 12.482448832300502062 0.56613756613756605063 54 -160.1741227360018911
    6100    316.47332    3.1566831    76.543468   -16.785401    417.22181    21869.833 
    6101    317.36436    3.1161143    75.857606   -16.628813    502.07725    21869.833 
    6102    320.32391     3.071241    74.274151   -16.499582     610.4296    21869.833 
    6103      324.509    3.0241894    72.225413   -16.389497    732.36105    21869.833 
    6104      328.812     2.979014    70.245415   -16.289922     856.0007    21869.833 
    6105     332.1874    2.9410386    68.808886   -16.195039    968.09374    21869.833 
    6106    333.91404      2.91729    68.206706   -16.103069    1056.2006    21869.833 
    6107    333.71689    2.9208086    68.492012   -16.014687    1112.1879    21869.833 
    6108    331.76277     2.963075     69.50074   -15.933475    1126.1865    21869.833 
    6109    328.55478    3.0491153    70.925598   -15.863101    1094.6007    21869.833 
    6110    324.76085     3.180362    72.410671   -15.806095    1016.7309    21869.833 
    6111    321.05822    3.3541877    73.637079   -15.763631    895.27796    21869.833 
    6112    318.02069    3.5613349    74.382661   -15.735506    738.76275    21869.833 
    6113    316.03456    3.7879607    74.551827   -15.721943    555.31023    21869.833 
    6114    315.25028    4.0228066    74.178384   -15.721538    356.10733    21869.833 
    6115    315.57943    4.2541972    73.407841   -15.733132     154.1921    21869.833 
    6116    316.72114    4.4708357    72.463977   -15.755074   -37.231008    21869.833 
    6117    318.21631    4.6631128    71.605675   -15.785202   -205.09212    21869.833 
    6118    319.53209    4.8241828    71.078605   -15.820758   -337.53223    21869.833 
    6119    320.16853    4.9495783    71.067975   -15.858936   -425.51505    21869.833 
    6120    319.75748    5.0386911    71.659559   -15.900472   -462.57034    21869.833 
    6121     318.1403    5.1149909    72.815493   -15.936087   -445.64504    21869.833 
    6122    315.46706    5.1844518    74.369219   -15.968148   -379.99527    21869.833 
    6123     312.2061    5.2396774    76.046814   -15.998366   -273.11192    21869.833 
    6124    309.03349    5.2725471    77.514359   -16.029076   -136.56059    21869.833 
    6125    306.69388    5.2738645    78.443413   -16.064059    15.814211    21869.833 
    6126    305.83258    5.2347991    78.581619   -16.107266    168.24462    21869.833 
    6127    306.83801    5.1486157    77.811843   -16.161742    304.26893    21869.833 
    6128    309.73852    5.0120922    76.183821   -16.228771    408.11163    21869.833 
    6129    314.18399    4.8263947    73.907903   -16.307645    466.30339    21869.833 
    6130    319.52133    4.5977096    71.310381   -16.395647    469.01869    21869.833 
    6131    324.94509    4.3352964    68.761796   -16.489881    410.09721    21869.833 
    6132    329.67429    4.0511073    66.599851   -16.587968    289.50977    21869.833 
    6133    333.10376    3.7591269    65.069236   -16.689045    113.04624    21869.833 
    6134    334.90004    3.4735658    64.293943   -16.790928   -106.26788    21869.833 
    6135    335.03055    3.1883483    64.283414    -16.90089   -350.93148    21869.833 
    6136     333.6859    2.9075228    64.960273   -17.017626   -604.55846    21869.833 
    6137    331.19522     2.642248    66.189839   -17.141401   -847.31193    21869.833 
    6138    327.99076    2.4025087     67.79865    -17.27162    -1059.251    21869.833 
    6139    324.57199    2.1949628    69.580961   -17.406582   -1221.0467    21869.833 
    6140    321.45319    2.0197411    71.307639    -17.54931   -1319.0038    21869.833 
    6141    319.07287    1.8828465    72.753735   -17.700711   -1344.9269    21869.833 
    6142    317.68682    1.7900691    73.748731   -17.863443   -1295.2142    21869.833 
    6143    317.27165    1.7441813    74.234662    -18.03832   -1172.7583    21869.833 
    6144    317.48587    1.7416514    74.301656   -18.224369   -987.24108    21869.833 
    6145    317.73708    1.7781716     74.17238   -18.415948    -755.5863    21869.833 
    6146    317.38037    1.8489078    74.124753   -18.604659   -497.73399    21869.833 
    6147    315.99023    1.9465964     74.37426   -18.782721   -234.97188    21869.833 
    6148    313.59513    2.0614399    74.960583   -18.946368    12.030104    21869.833 
    6149    310.76793    2.1838219    75.688313    -19.09737    223.40081    21869.833 
    6150    308.51339    2.3055744    76.155226   -19.243728    384.06387    21869.833 
    6151    307.95832    2.4233723    75.869332   -19.398574       484.29    21869.833 
    6152    309.95094    2.5393113    74.423887   -19.571517    518.99171    21869.833 
    6153    314.68704    2.6487672    71.671315   -19.773894    483.47521    21869.833 
    6154     321.4763    2.7551671    67.836524   -20.008289    380.43252    21869.833 
    6155     328.7921    2.8688697    63.520972   -20.266182    217.19055    21869.833 
    6156    334.61995    2.9935485     59.58015   -20.534948      3.55004    21869.833 
    6157    337.00887    3.1273197    56.898507   -20.797801   -245.33459    21869.833 
    6158    334.67391    3.2649215    56.124191   -21.038911   -509.51358    21869.833 
    6159     327.4659    3.3986114     57.44929   -21.248741   -765.48994    21869.833 
    6160    316.52839    3.5200987    60.515739   -21.428278   -986.90237    21869.833 
    6161    304.06248    3.6249108    64.490867   -21.586646   -1148.8305    21869.833 
    6162    292.75183    3.7065007    68.299073   -21.742089   -1231.1057    21869.833 
    6163    285.00632    3.7594826    70.940065   -21.913158   -1218.9045    21869.833 
    6164    282.26725    3.7799426     71.79036   -22.112909   -1105.9128    21869.833 
    6165    284.60224    3.7659139    70.787809   -22.344009   -896.84805    21869.833 
    6166    290.71469    3.7175469    68.440055   -22.597995   -605.66481    21869.833 
    6167    298.36093    3.6369461    65.656031   -22.858632   -253.65838    21869.833 
    6168    305.03676    3.5288654    63.458275   -23.106473    132.30116    21869.833 
    6169    308.70849    3.4015191    62.669162   -23.326613    525.88567    21869.833 
    6170    308.39109    3.2641997     63.66702   -23.510452    897.57053    21869.833 
    6171     304.3936     3.118683    66.283364   -23.660682    1223.7221    21869.833 
    6172    298.14812    2.9649117    69.869599   -23.788535    1486.4222    21869.833 
    6173    291.71327    2.8024497    73.506633   -23.910671    1673.5236    21869.833 
    6174    287.10899    2.6322966    76.289155   -24.043944    1778.2795    21869.833 
    6175    285.69345    2.4585205    77.594256   -24.199962    1798.5932    21869.833 
    6176    287.77834    2.2891181    77.249524   -24.381208    1736.4039    21869.833 
    6177    292.59272    2.1366316    75.549292   -24.582111    1599.6758    21869.833 
    6178    298.60531    2.0209482    73.119701    -24.78675    1394.8382    21869.833 
    6179    304.10632    1.9439934    70.686733     -24.9798    1138.8424    21869.833 
    6180    307.75158    1.8910178    68.836824   -25.155783    847.46689    21869.833 
    6181    308.87231     1.862757    67.861724   -25.313023    534.75259    21869.833 
    6182    307.56864    1.8726921    67.722622   -25.452754    217.91309    21869.833 
    6183    304.54421    1.9250598    68.133789   -25.585688   -86.762729    21869.833 
    6184    300.75666    2.0185523    68.715043   -25.720708   -363.25272    21869.833 
    6185     297.0565    2.1475899      69.1414   -25.861786   -600.20606    21869.833 
    6186    293.96566    2.2975171    69.232245   -26.011021   -790.48426    21869.833 
    6187    291.62849    2.4563973    68.960504   -26.163242   -933.89236    21869.833 
    6188     289.9191      2.61289    68.400391    -26.31309   -1033.1868    21869.833 
    6189    288.61265    2.7555693    67.657145   -26.456615   -1094.4915    21869.833 
    6190    287.51018    2.8743559    66.820016   -26.592799   -1125.9901    21869.833 
    6191    286.47189    2.9651017    65.957077   -26.722149   -1135.6723    21869.833 
    6192    285.38932    3.0263799    65.141505   -26.846263   -1134.6456    21869.833 
    6193    284.13946    3.0584467     64.47996   -26.965138   -1131.5599    21869.833 
    6194    282.57077    3.0656222    64.113861   -27.076459   -1133.3437    21869.833 
    6195    280.56625    3.0556676    64.180554   -27.176217   -1144.4455    21869.833 
    6196    278.15462    3.0400921     64.74644   -27.260158   -1163.0199    21869.833 
    6197    275.62239    3.0280859    65.743147   -27.327221   -1189.1548    21869.833 
    6198    273.53888    3.0253992    66.944457   -27.379589   -1219.1919    21869.833 
    6199     272.6429    3.0363528    68.006907   -27.424645   -1244.8182    21869.833 
6200        0.42735624028314173062 12.598842362495096481 0.56084656084656081543 48 -151.44295971185428584
    6200    273.62488    3.0677773    68.572208   -27.468143   -1257.7482    21869.833 
    6201    276.85578    3.1202879    68.401979   -27.518973   -1249.0258    21869.833 
    6202    282.17793    3.1887902    67.493574   -27.580174   -1214.4398    21869.833 
    6203    288.83589    3.2592006    66.126536   -27.650975   -1148.9887    21869.833 
    6204    295.61079     3.324383     64.80314   -27.720454   -1051.1166    21869.833 
    6205    301.19461    3.3708099    64.087244   -27.777855   -923.13382    21869.833 
    6206    304.64239    3.3807164     64.39307   -27.815467   -767.32285    21869.833 
    6207    305.72377    3.3452802    65.804743   -27.830114   -589.65456    21869.833 
    6208    305.04566    3.2642198    68.007832   -27.827442   -396.24435    21869.833 
    6209    303.85325    3.1421929    70.375432    -27.82155   -193.38164    21869.833 
    6210    303.54904    2.9874828    72.189237   -27.829454     12.22283    21869.833 
    6211     305.1111    2.8108929    72.913388   -27.864597    212.74774    21869.833 
    6212    308.65192     2.624932    72.410402   -27.930952    399.53355    21869.833 
    6213     313.3136    2.4410992    71.006618   -28.021674    562.10722    21869.833 
    6214    317.55689    2.2690331    69.374356   -28.121339    690.78107    21869.833 
    6215    319.73895     2.117148    68.272947   -28.212899    779.50999    21869.833 
    6216    318.75945    1.9980769    68.248926   -28.281564    828.35037    21869.833 
    6217    314.54045    1.9185981    69.412362   -28.323702     836.0751    21869.833 
    6218    308.12204    1.8770626    71.380194   -28.346845    809.98862    21869.833 
    6219    301.32391    1.8654357    73.409338    -28.36777    762.19423    21869.833 
    6220    296.10279    1.8751213    74.671181   -28.404828    703.76183    21869.833 
    6221    293.84427    1.8976004    74.566332   -28.471908    647.46208    21869.833 
    6222    294.85032    1.9249542    72.961042   -28.572636    602.37495    21869.833 
    6223    298.20553    1.9495665    70.257691   -28.700387    571.04142    21869.833 
    6224    302.08221    1.9685609    67.270094   -28.836977    552.42264    21869.833 
    6225     304.3808    1.9819133    64.944788    -28.96135     543.1318    21869.833 
    6226    303.49635     1.986842    64.026659   -29.056175    540.80511    21869.833 
    6227    298.90204    1.9830591    64.788878   -29.113453    537.64286    21869.833 
    6228    291.35912    1.9763653    66.926566   -29.137795    528.42464    21869.833 
    6229    282.68548    1.9732677    69.656746   -29.144593    509.12896    21869.833 
    6230    275.11733    1.9846098     71.99316   -29.155618    478.17002    21869.833 
    6231    270.53412    2.0248042    73.097962   -29.186327    429.77113    21869.833 
    6232    269.81363    2.0962659    72.582919   -29.246174    358.30877    21869.833 
    6233     272.5328    2.1988162    70.646486   -29.329833     258.3235    21869.833 
    6234    277.15731    2.3303867    67.993361   -29.420334    126.00701    21869.833 
    6235    281.64844    2.4865373    65.566145   -29.495489   -41.040317    21869.833 
    6236    284.25038    2.6603914    64.190655   -29.536526   -240.97483    21869.833 
    6237    284.15783    2.8439779    64.269265   -29.535154   -465.45877    21869.833 
    6238    281.81424    3.0289104    65.637619   -29.496639   -700.19512    21869.833 
    6239    278.72712    3.2075395    67.636674   -29.438359   -925.71185    21869.833 
    6240    276.87193    3.3780196    69.370625    -29.38129   -1119.7642    21869.833 
    6241    277.92164    3.5384991    70.052853    -29.34522   -1264.0639    21869.833 
    6242    282.57782    3.6871883    69.311212   -29.339752   -1343.3687    21869.833 
    6243    290.23962    3.8241672    67.342118   -29.361487   -1348.3197    21869.833 
    6244    299.14993    3.9509394    64.855943   -29.395452   -1276.1308    21869.833 
    6245    306.97421    4.0674612    62.830847   -29.420416   -1129.7241    21869.833 
    6246    311.59999    4.1717917    62.160457   -29.417861   -919.81698    21869.833 
    6247    311.88582    4.2643099    63.318306   -29.376767   -659.62726    21869.833 
    6248    308.10045    4.3440383    66.160369   -29.299158   -363.30435    21869.833 
    6249    301.86039    4.4117711    69.942375   -29.201336   -41.340863    21869.833 
    6250    295.59209    4.4735964    73.555546   -29.104058    286.16968    21869.833 
    6251    291.69945    4.5275927    75.901834   -29.031683    602.40529    21869.833 
    6252     291.6939    4.5699354    76.282319   -28.999489    890.15437    21869.833 
    6253     295.6261    4.5961289    74.655214   -29.008333    1131.7452    21869.833 
    6254    302.04429    4.6023319    71.661635   -29.043613    1310.3943    21869.833 
    6255    308.52059    4.5846533    68.398975   -29.080155    1413.9334    21869.833 
    6256     312.5592    4.5421563    66.016171   -29.091536    1433.1201    21869.833 
    6257    312.56296    4.4795582    65.277723   -29.059999    1368.1813    21869.833 
    6258    308.50526    4.4022364    66.262516   -28.981722    1231.1599    21869.833 
    6259    301.99408    4.3100211    68.320574   -28.876715    1038.5747    21869.833 
    6260    295.68905    4.2191761    70.311713   -28.769614    812.78214    21869.833 
    6261    292.31228    4.1439922    71.043755   -28.690721    578.52034    21869.833 
    6262    293.57913    4.0946642    69.751844   -28.660485    357.46051    21869.833 
    6263    299.46002    4.0731201    66.436011   -28.680389    169.01952    21869.833 
    6264    308.07051    4.0619122     61.92323   -28.738632    23.480142    21869.833 
    6265    316.22288     4.054629     57.61667    -28.80303   -80.366279    21869.833 
    6266    320.52945    4.0521652    55.012135   -28.839964   -145.78174    21869.833 
    6267     318.6759    4.0545162    55.150321    -28.82415   -178.87816    21869.833 
    6268    310.35286    4.0611347    58.205018   -28.747781    -186.2355    21869.833 
    6269    297.51935    4.0691428    63.364821   -28.623214   -171.45433    21869.833 
    6270    283.85835    4.0719554    69.064464   -28.482279   -140.66616    21869.833 
    6271    273.58639    4.0681199    73.496493   -28.362938   -99.462479    21869.833 
    6272     270.0238    4.0718529    75.227209   -28.293104   -52.576609    21869.833 
    6273    274.47157    4.0929005    73.698473   -28.286185   -13.358762    21869.833 
    6274    285.75147    4.1354141    69.431997   -28.330016    6.5330692    21869.833 
    6275      300.566    4.2001922    63.860401   -28.393867   -9.0485797    21869.833 
    6276    314.60651    4.2810871    58.839224   -28.439217   -72.397686    21869.833 
    6277    323.98521    4.3682075    56.012654   -28.434033   -190.27617    21869.833 
    6278    326.50881    4.4491034    56.256614   -28.364028   -361.28066    21869.833 
    6279    322.33941    4.5105303    59.396468   -28.237327   -574.95914    21869.833 
    6280    313.81646     4.540447    64.297495   -28.081385   -813.11323    21869.833 
    6281    304.51863    4.5298453    69.291508   -27.933327   -1053.0206    21869.833 
    6282    297.91937    4.4740544    72.781572   -27.826787   -1271.6848    21869.833 
    6283    296.11807    4.3792489    73.803354   -27.780845    -1446.677    21869.833 
    6284    299.14248    4.2623178    72.340439    -27.78912   -1567.3373    21869.833 
    6285     305.0705    4.1343541    69.277666   -27.826374   -1628.0739    21869.833 
    6286    310.86562    4.0007771    66.020868   -27.858889   -1629.8954    21869.833 
    6287    313.61888    3.8690108    63.931877   -27.853199   -1578.3937    21869.833 
    6288    311.71851    3.7447029    63.797346   -27.793151   -1478.3406    21869.833 
    6289    305.49446    3.6369023    65.534863     -27.6802   -1333.3719    21869.833 
    6290    297.10113    3.5432136    68.246779   -27.539747   -1149.8351    21869.833 
    6291    289.66312    3.4577894    70.597311   -27.405118   -930.09062    21869.833 
    6292    286.04382    3.3725255    71.357776   -27.306956   -680.91199    21869.833 
    6293    287.72238    3.2788835    69.905291   -27.262004   -408.77397    21869.833 
    6294    294.20215    3.1801617    66.479857   -27.261292   -125.80146    21869.833 
    6295    303.19536    3.0786707    62.103863   -27.281745    153.63756    21869.833 
    6296    311.47241    2.9789535    58.203043   -27.290973    415.26838    21869.833 
    6297      316.036    2.8883041    56.081205   -27.261092     648.3487    21869.833 
    6298    315.19731    2.8099265    56.452575   -27.178209    849.87011    21869.833 
    6299    309.12259    2.7434418     59.20482    -27.04894    1018.2734    21869.833 
6300        0.4256281511108153115 12.689169707040528934 0.55291005291005290712 50 -162.675007631205915
    6300    299.68247     2.691757    63.474673   -26.893938    1163.1153    21869.833 
    6301    289.70456     2.657578    67.992604   -26.741969    1290.0097    21869.833 
    6302    281.92477    2.6482735    71.553193   -26.616868    1406.3605    21869.833 
    6303    278.06467    2.6686607     73.43185   -26.527725    1519.1185    21869.833 
    6304    278.34052    2.7088186    73.596901   -26.473146    1630.4114    21869.833 
    6305    281.53707    2.7647361    72.651722   -26.431568     1734.938    21869.833 
    6306    285.61227    2.8342047    71.543697    -26.37675    1825.6871    21869.833 
    6307    288.58694     2.914233    71.158774   -26.285978    1894.6792    21869.833 
    6308    289.34737    3.0016582    71.959389   -26.148063    1933.7374    21869.833 
    6309    288.07355      3.09328     73.79975    -25.96706    1937.4157    21869.833 
    6310    286.14327    3.1857406    75.983382    -25.76024    1902.9367    21869.833 
    6311    285.56028    3.2753114    77.537201   -25.550608    1830.5851    21869.833 
    6312    288.12759    3.3534259    77.597589   -25.360994    1721.8868    21869.833 
    6313    294.66943     3.414658    75.763071   -25.201675    1575.0531    21869.833 
    6314    304.60919     3.455752    72.280009   -25.069372    1389.6706    21869.833 
    6315    316.07409    3.4744053    67.988411   -24.948341    1165.1654    21869.833 
    6316    326.48434    3.4694962    64.044341   -24.817134    902.07953    21869.833 
    6317    333.41588    3.4412213    61.521111   -24.657486    603.69397    21869.833 
    6318    335.41409     3.391149    61.038984   -24.461704    277.30808    21869.833 
    6319    332.45192    3.3230863    62.562187   -24.236261   -64.475841    21869.833 
    6320    325.87557    3.2449485    65.435753   -23.997374   -406.90896    21869.833 
    6321    317.88093    3.1634259    68.639651   -23.767467   -734.06044    21869.833 
    6322    310.73076    3.0868559    71.154836   -23.565162   -1029.5125    21869.833 
    6323    306.02595    3.0247775    72.299467   -23.398892   -1282.0973    21869.833 
    6324    304.29446    2.9857025    71.913709   -23.264871   -1484.6048    21869.833 
    6325    305.00537    2.9769208    70.341371   -23.149415   -1634.7919    21869.833 
    6326    306.95598    3.0035744    68.237052   -23.034953   -1734.5437    21869.833 
    6327    308.84433    3.0671234    66.290376   -22.905357   -1787.4821    21869.833 
    6328    309.78113    3.1573877    64.980116   -22.757406    -1798.415    21869.833 
    6329    309.53832    3.2711022    64.446151   -22.591724   -1774.9804    21869.833 
    6330    308.50684    3.4062852    64.509109   -22.417653    -1722.322    21869.833 
    6331    307.43433    3.5521243    64.812091   -22.245927   -1642.4296    21869.833 
    6332     307.0167    3.6918544    65.013244   -22.087679   -1542.1362    21869.833 
    6333    307.55072    3.8186261    64.947162   -21.945157   -1426.7753    21869.833 
    6334    308.82679    3.9254695    64.691593   -21.812528   -1300.4432    21869.833 
    6335    310.24927    3.9926041    64.520077   -21.686154   -1166.6621    21869.833 
    6336    311.10133    4.0121843    64.767856   -21.553746   -1031.5804    21869.833 
    6337    310.87666    3.9808316    65.669887   -21.409052   -899.31687    21869.833 
    6338    309.54634    3.8983014    67.235529   -21.250594    -770.9905    21869.833 
    6339    307.62207    3.7684783    69.210894   -21.082813   -645.77177    21869.833 
    6340    306.00969    3.5973433    71.144698   -20.914255   -519.83384    21869.833 
    6341    305.67335    3.3996462    72.533828   -20.757175   -388.17739    21869.833 
    6342    307.29736    3.2016983    72.991983   -20.613489   -251.91229    21869.833 
    6343    311.06215    3.0036009    72.383292   -20.488411   -109.33855    21869.833 
    6344    316.52623    2.8027874    70.873085   -20.378753    35.169015    21869.833 
    6345    322.73358    2.6011269    68.875415   -20.277494    178.49454    21869.833 
    6346    328.51602     2.399441    66.922305    -20.17698    317.27981    21869.833 
    6347    332.83185    2.1975672    65.504846   -20.072717    446.92986    21869.833 
    6348    335.03288    1.9969462    64.941766   -19.963927     563.5757    21869.833 
    6349    334.98243    1.7995509     65.31531   -19.854294    664.80728    21869.833 
    6350    333.00172     1.607825    66.486094   -19.750004    749.45658    21869.833 
    6351    329.69153     1.424653    68.168727    -19.65718    817.38716    21869.833 
    6352    325.71697    1.2522209    70.031433   -19.579865    870.36306    21869.833 
    6353    321.63228    1.0938992     71.78238   -19.518027     907.5964    21869.833 
    6354    317.80659   0.95071111    73.217445   -19.470711    931.74471    21869.833 
    6355     314.4294    0.8281114    74.230387   -19.433014      942.201    21869.833 
    6356    311.57296   0.73232677    74.797024   -19.401926    938.95913    21869.833 
    6357    309.27417   0.66843023    74.949686   -19.374502    921.99464    21869.833 
    6358     307.5818   0.63803355    74.754464   -19.349565    890.85281    21869.833 
    6359    306.57464   0.63997046    74.291166   -19.326442    845.42184    21869.833 
    6360    306.36118   0.67067813    73.632371   -19.304954    785.52804    21869.833 
    6361    307.05369   0.73052388    72.822068    -19.28744    714.11013    21869.833 
    6362    308.75577   0.82824995    71.861058   -19.271443    630.19759    21869.833 
    6363    311.54437   0.95610673    70.712297   -19.262219    533.14172    21869.833 
    6364    315.39232    1.1041159    69.328913   -19.262887    423.42337    21869.833 
    6365    320.07319    1.2684247    67.697947    -19.27617    301.14437    21869.833 
    6366     325.1254    1.4483356    65.883744   -19.303757    164.55506    21869.833 
    6367    329.87774    1.6419347    64.051858   -19.345451    14.955174    21869.833 
    6368    333.52753    1.8481175    62.460881   -19.399326   -145.41588    21869.833 
    6369    335.28244    2.0659254    61.419898   -19.462089   -313.01961    21869.833 
    6370     334.5334    2.2939112    61.218766   -19.529582   -482.71093    21869.833 
    6371    331.02369    2.5296449      62.0455   -19.597481   -647.58118    21869.833 
    6372    324.97532    2.7694057    63.910695   -19.662368   -799.04596    21869.833 
    6373    317.13134    3.0083292    66.602755   -19.723131   -926.71064    21869.833 
    6374    308.67688    3.2413149    69.696775   -19.782649   -1019.6831    21869.833 
    6375    301.03217    3.4654647     72.62966   -19.845237   -1068.4828    21869.833 
    6376    295.54739    3.6734509    74.832639   -19.919173   -1066.0868    21869.833 
    6377    293.16113    3.8561064    75.888638   -20.011428   -1007.6289    21869.833 
    6378    294.12059    4.0079275    75.663883   -20.125225   -890.40961    21869.833 
    6379    297.89501    4.1260755    74.362676   -20.257525   -721.05042    21869.833 
    6380    303.32694    4.2068352    72.472593   -20.400748   -506.75701    21869.833 
    6381    308.97134    4.2493903    70.614539   -20.543569   -259.71654    21869.833 
    6382    313.53236     4.251899    69.344779   -20.677436    6.4658727    21869.833 
    6383    316.23359    4.2151141    68.979452   -20.798352    278.24288    21869.833 
    6384    316.99829    4.1428763    69.505691   -20.908957    542.81268    21869.833 
    6385    316.37819    4.0418778    70.611145    -21.01766    788.75021    21869.833 
    6386    315.26235    3.9211838    71.819002   -21.135669    1006.7734    21869.833 
    6387    314.48196    3.7906924    72.676991   -21.273024    1187.8793    21869.833 
    6388    314.46939    3.6562774    72.930928   -21.433031    1326.7684    21869.833 
    6389    315.07093    3.5114582    72.621558   -21.619143    1417.5647    21869.833 
    6390     315.5755    3.3600346    72.071348   -21.821705    1455.4568    21869.833 
    6391    314.98957    3.2068547    71.763135   -22.028595    1439.9899    21869.833 
    6392    312.45346    3.0550916     72.15076   -22.226742    1374.9099    21869.833 
    6393    307.63169    2.9063931    73.467288    -22.40797    1266.2331    21869.833 
    6394    300.94508     2.767871    75.599251   -22.568547    1123.5357    21869.833 
    6395    293.55537    2.6473334    78.078033   -22.713868    960.58723    21869.833 
    6396    287.07187    2.5536355    80.202682    -22.85505    793.33396    21869.833 
    6397    283.06971    2.4915036    81.258495   -23.006745    634.64455    21869.833 
    6398    282.57288    2.4618434    80.758935   -23.180261    496.06967    21869.833 
    6399    285.68719     2.465114    78.621251   -23.379833    386.03584    21869.833 
6400        0.42713409522983081246 12.783833971960824272 0.55291005291005290712 49 -155.69116059861931944
    6400    291.53829    2.5025638    75.210226   -23.600079    306.05613    21869.833 
    6401    298.54321    2.5730137    71.230513    -23.82933    254.27466    21869.833 
    6402    304.90659    2.6730758    67.509156   -24.054008      224.977    21869.833 
    6403    309.16001    2.7983148    64.748323   -24.264735    209.75753    21869.833 
    6404    310.55836    2.9477946    63.336192   -24.456832    200.90687    21869.833 
    6405    309.21996    3.1153736    63.275915   -24.634303    189.41157    21869.833 
    6406    305.96108    3.2894247    64.247232   -24.807056    167.60502    21869.833 
    6407    301.91312    3.4608741    65.762311   -24.984958    129.51614    21869.833 
    6408    298.10654    3.6224485    67.347844   -25.175426    61.838041     24459.38 
    6409    295.16387    3.7687436    68.686111   -25.380529   -15.914226     24459.38 
    6410    293.19614    3.8939546    69.673444   -25.596063    -118.4294     24459.38 
    6411    291.90217    3.9888534    70.388976   -25.816082   -248.37531     24459.38 
    6412    290.79641    4.0483173    71.002245   -26.031949   -405.44333     24459.38 
    6413    289.48285    4.0709634    71.660302   -26.236556   -584.58184     24459.38 
    6414    287.87296    4.0568661    72.397014   -26.426981   -781.40823     24459.38 
    6415    286.26618    4.0081148    73.094746   -26.605172   -986.28919     24459.38 
    6416    285.27209    3.9306332     73.51039   -26.775937   -1189.1872     24459.38 
    6417     285.6114    3.8291724    73.354485   -26.947713   -1378.5565     24459.38 
    6418    287.85204    3.7083983    72.398023   -27.127843   -1542.0838     24459.38 
    6419    292.17401    3.5675472     70.57042   -27.323871   -1668.7317     24459.38 
    6420    298.22877    3.4094449    68.014567   -27.538046   -1751.3447     24459.38 
    6421    305.15634    3.2469772    65.078198   -27.765288   -1782.1067     24459.38 
    6422    311.78654    3.0869149    62.240596   -28.002652    -1760.684     24459.38 
    6423    316.92351     2.936055    59.998354   -28.243145   -1690.0991     24459.38 
    6424    319.62368    2.8019847     58.74674   -28.481467   -1573.5325     24459.38 
    6425    319.41914    2.6914276    58.690911   -28.711548   -1414.6873     24459.38 
    6426     316.4114    2.5924889    59.808926   -28.939082   -1218.1282     24459.38 
    6427     311.1857    2.5073938    61.869528   -29.162253   -993.33606     24459.38 
    6428    304.64921     2.444906    64.489176   -29.383107   -747.89995     24459.38 
    6429    297.85517     2.412981    67.208714   -29.604328   -489.54202     24459.38 
    6430    291.80234    2.4195149    69.574545   -29.827899   -226.11476     24459.38 
    6431     287.2678    2.4665723    71.214515   -30.056772    34.292408     24459.38 
    6432    284.66974    2.5527977    71.902764    -30.29306    281.95896     24459.38 
    6433    283.98986     2.675902    71.603238   -30.537296    508.84619     24459.38 
    6434    284.78889    2.8303959     70.47996   -30.787661    707.79022     24459.38 
    6435    286.30921    3.0088706    68.863753   -31.040407    876.37459     24459.38 
    6436     287.6648    3.2059894    67.175464   -31.287815    1007.9496     24459.38 
    6437    288.09022    3.4125693     65.81894   -31.523663    1099.5216     24459.38 
    6438    287.16395    3.6173376    65.074503   -31.743277    1151.7945     24459.38 
    6439    284.93458    3.8081323    65.025901   -31.945567    1167.9663     24459.38 
    6440    281.90957    3.9731539    65.544308   -32.133544    1153.3737     24459.38 
    6441    278.89797    4.1062344      66.3341   -32.312942    1116.6689     24459.38 
    6442    276.77665    4.2040855    67.024929   -32.490684    1062.7086     24459.38 
    6443    276.24698    4.2599736    67.280847   -32.673124     999.1681     24459.38 
    6444    277.62045    4.2696278    66.895945   -32.864307    929.36775     24459.38 
    6445    280.70711    4.2345575    65.856893   -33.065127    856.22551     24459.38 
    6446    284.83776     4.159134    64.358041   -33.273856    780.66472     24459.38 
    6447     288.9915    4.0514318    62.768079   -33.485747    700.97083     24459.38 
    6448    292.01096    3.9221056    61.552742   -33.694118    614.88603     24459.38 
    6449    292.87018    3.7829258    61.164381   -33.891122    519.90773     24459.38 
    6450    290.94593     3.645651    61.916573    -34.06913    414.18749     24459.38 
    6451    286.23447     3.521253     63.87098   -34.223004    297.93621     24459.38 
    6452    279.45217    3.4202861    66.770167   -34.350886    172.67412     24459.38 
    6453    271.96626    3.3485644    70.048281   -34.457757    40.993295     24459.38 
    6454    265.52743    3.3079587     72.93651   -34.553937   -92.328783     24459.38 
    6455    261.84093     3.296646    74.652065   -34.653069   -221.94846     24459.38 
    6456    262.07941    3.3093269    74.626715     -34.7679   -343.00023     24459.38 
    6457     266.4808    3.3378286    72.706063   -34.905591    -451.9987     24459.38 
    6458    274.17783    3.3720657    69.247085   -35.064483   -547.29178     24459.38 
    6459     283.3504    3.4012682    65.065503   -35.233852    -628.8826     24459.38 
    6460    291.69334    3.4151593    61.231504   -35.396586   -697.26778     24459.38 
    6461    297.07908     3.402522    58.766137   -35.536104   -752.44888     24459.38 
    6462     298.2044    3.3563778    58.331288   -35.640018   -794.61568     24459.38 
    6463    295.01315    3.2749483    60.015585   -35.705692   -821.20009     24459.38 
    6464    288.74652    3.1613443    63.291536   -35.741451   -827.36131     24459.38 
    6465    281.57975    3.0230227     67.16644   -35.764226   -808.40926     24459.38 
    6466    275.94925    2.8698271    70.485136   -35.794778   -760.10956     24459.38 
    6467    273.77851    2.7132583    72.290208   -35.850743   -680.23832     24459.38 
    6468    275.85743    2.5655007    72.123184   -35.940095   -570.34475     24459.38 
    6469    281.58339    2.4366301    70.166777    -36.05896   -436.47633     24459.38 
    6470    289.15565    2.3342835    67.179353   -36.191391   -287.19375     24459.38 
    6471    296.18207    2.2515217    64.241275   -36.318149   -130.53456     24459.38 
    6472    300.44915    2.1826569    62.396882   -36.418625    20.802085     24459.38 
    6473    300.63901    2.1265271    62.312686   -36.481083    160.03306     24459.38 
    6474    296.77436    2.0798205    64.065026   -36.505615    281.66538     24459.38 
    6475    290.18242    2.0395525    67.132746   -36.504066    384.83371     24459.38 
    6476    283.02495    2.0024338     70.59276   -36.495966    471.51274     24459.38 
    6477    277.53199    1.9700511    73.448584   -36.505503    547.84394     24459.38 
    6478    275.24176    1.9639612    74.974724     -36.5398    616.22149     24459.38 
    6479    276.52236    1.9969685    74.952256   -36.603083    679.00096     24459.38 
    6480    280.52446    2.0751908    73.714135   -36.683958    732.89069     24459.38 
    6481    285.56106    2.1905825    71.988417   -36.764808    775.31294     24459.38 
    6482    289.76407     2.333145    70.600171    -36.82554    804.16698     24459.38 
    6483    291.80286    2.4924996    70.144554   -36.852447    818.38241     24459.38 
    6484    291.38049     2.658755    70.756389   -36.843476    818.73561     24459.38 
    6485    289.31592    2.8231149    72.064561   -36.809039    807.89179     24459.38 
    6486    287.18375    2.9782271    73.347908   -36.768016    789.62065     24459.38 
    6487    286.65654    3.1183385    73.830098   -36.740422    767.47086     24459.38 
    6488    288.81165    3.2393495    72.996021   -36.739644     743.4167     24459.38 
    6489    293.67778    3.3387907    70.804505   -36.767217    717.24511     24459.38 
    6490    300.19853    3.4141435    67.715161     -36.8132    687.16105     24459.38 
    6491     306.6155    3.4634528    64.522764   -36.860837    648.79153     24459.38 
    6492    311.11318    3.4888638    62.068351   -36.892738    596.54373     24459.38 
    6493    312.47542    3.4953962    60.942853   -36.898467    527.16491     24459.38 
    6494    310.49835    3.4896553    61.296021   -36.878326    440.33259     24459.38 
    6495    306.01385     3.480219    62.816402   -36.841686    337.74079     24459.38 
    6496    300.54056    3.4746597     64.87822   -36.804099    222.57077     24459.38 
    6497    295.71321    3.4798941    66.788322    -36.78045    99.615984     24459.38 
    6498    292.70996    3.5058145    68.033993   -36.779587    -24.91182     24459.38 
    6499    291.90661    3.5633429    68.440923   -36.800334   -149.79338     24459.38 
6500        0.43065575358298258113 12.888567257362145924 0.54761904761904756089 46 -169.52530776970314719
    6500    292.86192    3.6554704    68.190772   -36.834511   -274.69625     24459.38 
    6501     294.5929    3.7800201    67.704044   -36.868741   -399.38542     24459.38 
    6502    296.03612    3.9296833    67.441951   -36.888311   -521.86354     24459.38 
    6503    296.50901    4.0857558    67.704818   -36.888446   -642.18195     24459.38 
    6504    295.98675    4.2349342    68.502941   -36.866672   -760.24854     24459.38 
    6505    295.12148    4.3634303    69.543386   -36.830593   -872.93769     24459.38 
    6506    294.98771    4.4583056    70.339612   -36.793044   -975.84843     24459.38 
    6507    296.63221    4.5092504    70.404523   -36.768902   -1062.1647     24459.38 
    6508    300.58549    4.5201231    69.456937   -36.767799   -1126.8098     24459.38 
    6509    306.55833    4.5033392    67.563567   -36.790179   -1169.4834     24459.38 
    6510    313.42679    4.4692307    65.154134   -36.833069   -1186.5553     24459.38 
    6511    319.51428     4.442515    62.899665   -36.879703   -1178.0095     24459.38 
    6512    323.13071    4.4409201     61.48903   -36.918521   -1144.8046     24459.38 
    6513    323.14764    4.4855222    61.384503   -36.936657   -1085.6182     24459.38 
    6514    319.41783    4.5872056    62.648384   -36.932326    -999.4558     24459.38 
    6515    312.87524    4.7473185    64.906423   -36.911625   -883.27568     24459.38 
    6516    305.27051    4.9583514    67.462067   -36.887257   -733.99107     24459.38 
    6517    298.65197    5.2048092    69.517506   -36.873986    -549.8142     24459.38 
    6518    294.76984    5.4655066    70.420913    -36.88369   -331.63529     24459.38 
    6519     294.5956    5.7170538    69.856703   -36.922783   -82.509892     24459.38 
    6520    298.08588    5.9431014    67.925839    -36.98853    188.95256     24459.38 
    6521     304.2461    6.1312278    65.104398   -37.074278    469.11019     24459.38 
    6522    311.43193    6.2741037    62.107914   -37.170169    743.70397     24459.38 
    6523    317.77278    6.3711723    59.709558   -37.266151    997.86281     24459.38 
    6524      321.624    6.4282212    58.556662   -37.353713     1217.834     24459.38 
    6525    321.95519    6.4557206    59.020022   -37.426742    1393.1524     24459.38 
    6526    318.60124    6.4645951    61.101305   -37.484256    1518.6037     24459.38 
    6527     312.3179    6.4670448    64.419514   -37.527489    1591.9228     24459.38 
    6528    304.59985    6.4727773    68.288283   -37.566056    1611.4478     24459.38 
    6529    297.28754    6.4939543    71.881732    -37.61131    1582.1166     24459.38 
    6530    292.05042    6.5363596    74.456612   -37.676879    1510.7145     24459.38 
    6531    289.87158     6.602353    75.570284     -37.7713    1404.6849     24459.38 
    6532    290.71868    6.6904531    75.220068   -37.895395    1271.9168     24459.38 
    6533    293.53706    6.7983151    73.845418     -38.0394    1119.9108     24459.38 
    6534    296.59993    6.9205523    72.179223   -38.187105    953.85848     24459.38 
    6535    298.11022    7.0508983    70.990255   -38.319813    780.17192     24459.38 
    6536    296.85559    7.1835478    70.802382   -38.423156    604.31512     24459.38 
    6537    292.68869    7.3133339    71.691059   -38.491979    433.99717     24459.38 
    6538    286.63551    7.4438689    73.231721   -38.532461    278.93134     24459.38 
    6539    280.62378    7.5823036    74.623487   -38.559898    142.33107     24459.38 
    6540    276.88882    7.7280231    74.953818   -38.595218    30.009856     24459.38 
    6541    277.19785    7.8772985    73.524764   -38.657782   -56.390582     24459.38 
    6542    282.17688    8.0222856    70.136691   -38.759603   -119.62203     24459.38 
    6543    290.95607    8.1521966    65.232327   -38.900277   -165.72335     24459.38 
    6544    301.27702    8.2552094     59.83957   -39.066416   -203.78195     24459.38 
    6545    310.07687    8.3196497    55.310666    -39.23472   -243.41582     24459.38 
    6546    314.40673    8.3322649    52.921697    -39.37913   -292.57379     24459.38 
    6547    312.38905    8.2802321    53.454576   -39.480899   -357.80925     24459.38 
    6548    303.90054    8.1587594    56.904282    -39.53107   -438.68076     24459.38 
    6549    290.72073    7.9644968    62.426541   -39.540396    -531.1321     24459.38 
    6550    276.03641    7.7037599    68.567096   -39.531466   -627.20976     24459.38 
    6551    263.45166    7.3875848    73.711528   -39.534084   -716.04726     24459.38 
    6552    255.83065     7.030173    76.605262   -39.572994   -787.43405     24459.38 
    6553    254.38546    6.6477692    76.756801    -39.65753   -834.02448     24459.38 
    6554    258.34914    6.2575363    74.573118   -39.777129   -852.43766     24459.38 
    6555    265.35707    5.8763909    71.174337   -39.904718   -842.70767     24459.38 
    6556    272.38945    5.5172932    67.957642   -40.008659   -806.64435     24459.38 
    6557    276.90322    5.1927924    66.077486   -40.063168   -748.46754     24459.38 
    6558    277.72928     4.913725    66.040209   -40.059374   -670.19427     24459.38 
    6559    275.40485     4.687497    67.563327   -40.007493   -571.62649     24459.38 
    6560    271.84021    4.5136995    69.742456    -39.93154   -450.99029     24459.38 
    6561     269.4607    4.3828337    71.449704   -39.861877   -309.20466     24459.38 
    6562    270.18626    4.2823761    71.800487   -39.820736   -147.21702     24459.38 
    6563    274.65102    4.1988151    70.506274   -39.814738    28.570705     24459.38 
    6564    281.94746    4.1202454    67.983083   -39.833804    210.32381     24459.38 
    6565    289.98707    4.0348697    65.182027   -39.855442    388.30256     24459.38 
    6566    296.30785    3.9324748    63.213509   -39.853845    552.76235     24459.38 
    6567    299.02457    3.8054437    62.910294   -39.809583     696.4652     24459.38 
    6568    297.56137    3.6486669    64.493996   -39.717675    815.25402     24459.38 
    6569    292.88929    3.4621481    67.470412   -39.588495    908.52723     24459.38 
    6570    287.17895    3.2502768    70.794877   -39.445001    979.25688     24459.38 
    6571    282.98999    3.0208059    73.250599   -39.314374       1031.9     24459.38 
    6572    282.29169    2.7835529    73.903287   -39.217812    1070.3507     24459.38 
    6573    285.68404     2.548976    72.462535   -39.162095    1096.3073     24459.38 
    6574    292.12411    2.3269436    69.409788     -39.1365    1108.6522     24459.38 
    6575    299.27857    2.1259274    65.837106   -39.116608    1104.0719     24459.38 
    6576    304.38488    1.9526926    63.050824   -39.073621     1078.671     24459.38 
    6577    305.30195    1.8123803    62.086593   -38.985381      1029.95     24459.38 
    6578    301.35129    1.7087507    63.318751   -38.844709    958.36575     24459.38 
    6579    293.62295     1.645539    66.311372   -38.662424    868.86806     24459.38 
    6580    284.63419    1.6282128    69.965286   -38.462051    768.49264     24459.38 
    6581    277.47268    1.6586638    72.905127   -38.272223    663.97285     24459.38 
    6582     274.7247    1.7330516    73.963567   -38.116735    561.19734     24459.38 
    6583    277.56223    1.8441232    72.593188   -38.005242    463.60956     24459.38 
    6584    285.31444    1.9769949    69.067425   -37.930279    372.96701     24459.38 
    6585    295.62945    2.1133549    64.408186   -37.871277    284.09424     24459.38 
    6586     305.1841    2.2401751    60.067964   -37.799862    191.67968     24459.38 
    6587    310.73306    2.3459534    57.469835   -37.690207    91.005499     24459.38 
    6588    310.14408    2.4223998    57.550381   -37.526442   -20.121574     24459.38 
    6589     303.1064    2.4656498    60.447481   -37.307267   -140.00743     24459.38 
    6590    291.28998     2.476692    65.431138   -37.046519   -262.87275     24459.38 
    6591    277.89538    2.4609675    71.102918   -36.769866   -379.68206     24459.38 
    6592     266.7148    2.4316604    75.807976   -36.506077   -478.76636     24459.38 
    6593    261.00275     2.403026    78.136594   -36.279111   -553.66836     24459.38 
    6594    262.49283    2.3854119    77.359884   -36.099206   -599.76296     24459.38 
    6595    270.85347    2.3864473    73.663122   -35.958652   -616.92606     24459.38 
    6596    283.78372    2.4077967    68.100566    -35.83256   -608.15459     24459.38 
    6597     297.6982    2.4397918    62.284233   -35.693481   -581.20769     24459.38 
    6598    308.78987    2.4800619    57.902114   -35.511008    -545.5565     24459.38 
    6599    314.17329    2.5257793    56.213187   -35.267858   -508.08212     24459.38 
6600        0.43735177011000592184 12.985333997157876951 0.54232804232804232569 45 -176.66121672824809252
    6600    312.74231    2.5727492    57.674376   -34.962952   -472.45101     24459.38 
    6601    305.47361     2.616055    61.811009   -34.611373   -438.49841     24459.38 
    6602    295.09601     2.650747    67.367661   -34.239962   -402.88276     24459.38 
    6603    285.22945    2.6725162    72.692932   -33.879732    -360.7815     24459.38 
    6604    279.25532    2.6782958    76.243126   -33.556775   -308.08221     24459.38 
    6605    279.26157    2.6667154    77.053691   -33.284035   -243.36736     24459.38 
    6606     285.3935    2.6377571    75.033552   -33.055666   -168.13629     24459.38 
    6607    295.82105    2.5871532    70.986396   -32.852054   -87.711199     24459.38 
    6608    307.33816    2.5159198    66.345108   -32.641009   -11.974489     24459.38 
    6609    316.43074    2.4278921    62.698546   -32.391996    50.687243     24459.38 
    6610    320.47352    2.3278018    61.261491   -32.085722    94.299043     24459.38 
    6611    318.63494    2.2209679     62.46713   -31.721076    117.08417     24459.38 
    6612    312.17002    2.1128724    65.827033   -31.315881    122.28402     24459.38 
    6613    303.97547    2.0088013    70.114351   -30.902462    117.79215     24459.38 
    6614     297.5492    1.9173593     73.81088    -30.51494    111.29549     24459.38 
    6615    295.73243    1.8452427    75.658525    -30.17885    108.40921     24459.38 
    6616    299.67404    1.7964646    75.116107   -29.900887    112.81276     24459.38 
    6617     308.3989    1.7738979    72.551235   -29.666523    124.00135     24459.38 
    6618    319.14866    1.7793507    69.095445   -29.447129    138.38215     24459.38 
    6619    328.36461    1.8234101    66.216712   -29.206039    151.44253     24459.38 
    6620    332.98274    1.9085347    65.169469   -28.919614    155.58163     24459.38 
    6621    331.53399    2.0307506     66.52748   -28.580678    148.60839     24459.38 
    6622      324.644    2.1853476     69.97063   -28.201251    130.84691     24459.38 
    6623    314.79352    2.3641154    74.400913   -27.809524    106.30094     24459.38 
    6624     305.4196     2.558753     78.34007   -27.438441     79.38261     24459.38 
    6625    299.69817     2.762711    80.459413   -27.115382     56.20068     24459.38 
    6626    299.46685    2.9703767    80.047786   -26.849635    36.977693     24459.38 
    6627    304.65364     3.167716    77.251698   -26.633285    19.859588     24459.38 
    6628    313.38406    3.3409454    73.003409   -26.441899    -0.891858     24459.38 
    6629      322.738    3.4812344    68.665494   -26.243478   -32.199129     24459.38 
    6630    329.86239    3.5820214    65.529135    -26.01216   -79.890135     24459.38 
    6631    332.98311    3.6448241    64.357002   -25.740463    -143.3475     24459.38 
    6632    331.97267    3.6883974    65.143435   -25.430446    -222.5847     24459.38 
    6633    328.26883    3.7142733    67.180035    -25.10969   -314.39189     24459.38 
    6634    324.14497    3.7223199    69.394649   -24.807758   -410.31771     24459.38 
    6635     321.6802    3.7103613    70.817209   -24.549918   -501.82799     24459.38 
    6636    321.88781    3.6802634    70.975939   -24.339852   -583.16158     24459.38 
    6637    324.35643    3.6142202    70.060818   -24.175777    -649.5416     24459.38 
    6638    327.48546    3.5188258    68.793424   -24.029816   -703.07074     24459.38 
    6639    329.25171    3.4172518    68.066571   -23.875031    -742.8193     24459.38 
    6640    328.18835    3.3341632      68.5181   -23.693031    -769.6713     24459.38 
    6641    324.07981    3.2885812    70.224734   -23.481038   -782.82702     24459.38 
    6642    318.09271    3.2920829      72.6469   -23.252774   -779.17294     24459.38 
    6643    312.31006    3.3486108    74.842738   -23.032026   -754.50351     24459.38 
    6644    308.86824    3.4584173    75.856426   -22.842122   -701.57272     24459.38 
    6645    309.06424    3.6185294    75.119404   -22.697339   -623.16984     24459.38 
    6646    312.80668    3.8242531    72.695931    -22.59562   -521.99289     24459.38 
    6647    318.60646    4.0686812     69.28238   -22.521127   -403.42438     24459.38 
    6648    324.11072     4.343414    65.963779   -22.450042    -274.7168     24459.38 
    6649    326.96921    4.6388896    63.823742   -22.359484   -143.09977     24459.38 
    6650    325.70526    4.9436484    63.556094   -22.236584   -12.039032     24459.38 
    6651    320.26503     5.248925    65.221909   -22.080151     114.7842     24459.38 
    6652    312.05623    5.5433024    68.238065   -21.904217    237.05926     24459.38 
    6653    303.46137    5.8131153    71.598275   -21.730838    357.03012     24459.38 
    6654    296.99809    6.0436494    74.243524   -21.582397    477.26786     24459.38 
    6655    294.44527    6.2207056    75.442636    -21.47309    598.92205     24459.38 
    6656    296.25336    6.3325297    75.041478   -21.403399    720.54844     24459.38 
    6657    301.44987    6.3716771    73.490065   -21.360034    838.01528     24459.38 
    6658    308.05861    6.3378011    71.643009   -21.320954    946.09273     24459.38 
    6659     313.8627    6.2356996    70.417024   -21.265019    1037.2144     24459.38 
    6660    317.19685    6.0747593    70.444402   -21.179636    1106.2377     24459.38 
    6661    317.46245    5.8693825    71.857037   -21.065355    1150.5389     24459.38 
    6662    315.19035    5.6409953     74.27664   -20.934013    1171.7794     24459.38 
    6663    311.68685    5.4121482    76.997342   -20.803458    1170.9166     24459.38 
    6664    308.44075    5.2009725    79.269459   -20.689619    1150.0394     24459.38 
    6665    306.54662    5.0223651    80.560423    -20.60038     1111.974     24459.38 
    6666    306.38642    4.8874376    80.692481    -20.53368    1057.9357     24459.38 
    6667    307.64801    4.8029665     79.82291   -20.480886    988.80727     24459.38 
    6668    309.60545    4.7751789    78.305211   -20.429565    905.44721     24459.38 
    6669    311.49862     4.801517    76.515211   -20.372939    806.47026     24459.38 
    6670    312.81234    4.8723732    74.726413    -20.30955    692.73859     24459.38 
    6671    313.35399    4.9745292    73.076598   -20.243103    566.18487     24459.38 
    6672    313.16273    5.0928575    71.614492   -20.179262    430.25187     24459.38 
    6673    312.33491    5.2184091    70.375044   -20.122052    290.70036     24459.38 
    6674    310.92706    5.3469768    69.425331   -20.069056    149.83397     24459.38 
    6675    308.98298    5.4666383    68.849923   -20.017374    12.429147     24459.38 
    6676    306.63835    5.5611326     68.68848   -19.963142    -114.5103     24459.38 
    6677    304.22485    5.6118554    68.870604   -19.904862   -226.02881     24459.38 
    6678    302.24781    5.6103017    69.200333   -19.846203   -319.61194     24459.38 
    6679    301.23589    5.5614313    69.417797   -19.794319   -390.45133     24459.38 
    6680    301.50425    5.4768782    69.319953   -19.755345   -434.74642     24459.38 
    6681    302.90922    5.3703782    68.886601   -19.732966   -452.99675     24459.38 
    6682    304.75154    5.2612138    68.340856   -19.722157   -446.59978     24459.38 
    6683    305.94102    5.1658288    68.095063   -19.712477   -420.48884     24459.38 
    6684    305.38558      5.09605    68.587215   -19.690285   -379.84757     24459.38 
    6685      302.462    5.0592356    70.069253   -19.644843   -330.06712     24459.38 
    6686     297.3841    5.0540786    72.440521   -19.573027   -273.94314     24459.38 
    6687    291.25561     5.074448    75.210753   -19.482904   -216.88619     24459.38 
    6688    285.76503    5.1187578    77.624566   -19.388682   -161.95264     24459.38 
    6689    282.63543    5.1847475    78.910556   -19.306762   -111.80604     24459.38 
    6690    283.00773    5.2696961    78.562091   -19.248335     -69.1482     24459.38 
    6691     287.0038    5.3702671    76.538971   -19.215155    -38.58441     24459.38 
    6692    293.64851    5.4838109    73.307157   -19.197728    -25.67754     24459.38 
    6693    301.18926    5.6062271    69.697382   -19.179819   -35.352189     24459.38 
    6694      307.693    5.7313329    66.633339   -19.144492   -71.054733     24459.38 
    6695     311.7023     5.850847    64.827883   -19.080439   -133.40254     24459.38 
    6696    312.71549    5.9548957    64.555557   -18.986009   -219.30048     24459.38 
    6697    311.32382    6.0329906    65.579618   -18.869769   -321.85788     24459.38 
    6698    308.96445     6.074895    67.255884   -18.747445    -430.2923     24459.38 
    6699    307.37762    6.0709494    68.775037   -18.637792   -533.50576     24459.38 
6700        0.44279151193512733542 13.094354701319545597 0.53439153439153441738 44 -158.08521209865210722
    6700    307.95666    6.0156352    69.459287   -18.555247   -621.19421     24459.38 
    6701    311.22114    5.9074094    69.010754    -18.50596   -684.32624     24459.38 
    6702    316.60115    5.7489558    67.622877   -18.485363   -716.87278     24459.38 
    6703    322.61994    5.5470505    65.910566   -18.479701   -716.07302     24459.38 
    6704    327.42448    5.3118822    64.678455   -18.470998   -681.66863     24459.38 
    6705    329.47236    5.0560587    64.609665   -18.445685   -614.21368     24459.38 
    6706    328.11515    4.8002116    65.995056   -18.395492   -516.66934     24459.38 
    6707    323.85465    4.5599829      68.6131   -18.327442   -393.47711     24459.38 
    6708     318.1471    4.3476534    71.812038   -18.257084    -248.5504     24459.38 
    6709    312.83004    4.1724819    74.762343   -18.203129   -87.007401     24459.38 
    6710    309.42606    4.0399332    76.772396   -18.179396    84.215435     24459.38 
    6711     308.6226    3.9448085    77.534095   -18.189313    259.63517     24459.38 
    6712    310.09465    3.8785316    77.199932    -18.22563    426.06848     24459.38 
    6713    312.74767    3.8380674    76.269261   -18.272063    571.23378     24459.38 
    6714    315.26009    3.8154433    75.348884   -18.313898    684.70139     24459.38 
    6715    316.62891    3.8022462    74.899923   -18.342261    759.34767     24459.38 
    6716    316.50945    3.7911418    75.077334   -18.357511    791.89732     24459.38 
    6717    315.23565    3.7766825    75.716806   -18.367766    783.13157     24459.38 
    6718    313.55842    3.7556125    76.453498   -18.384325    737.35491     24459.38 
    6719    312.25661     3.726761    76.903671   -18.416494    661.41169     24459.38 
    6720     311.8047    3.6906975    76.825106   -18.468143    563.61843     24459.38 
    6721    312.22675    3.6493244     76.19543   -18.537124    452.89178     24459.38 
    6722    313.16633    3.6055102    75.191358   -18.617222    338.17685     24459.38 
    6723    314.10909     3.562772    74.093662   -18.701374    228.10975     24459.38 
    6724    314.64488    3.5243164    73.166359    -18.78466    131.48783     24459.38 
    6725    314.65293    3.4928584     72.55997   -18.866397     54.80794     24459.38 
    6726    314.33948    3.4710538    72.273239   -18.950158    3.6935456     24459.38 
    6727    314.12189    3.4603699    72.182292   -19.042567   -18.339197     24459.38 
    6728    314.40749    3.4607305    72.120249   -19.150745   -10.602762     24459.38 
    6729    315.36417    3.4703052    71.970698   -19.278976    24.590628     24459.38 
    6730    316.78595    3.4827871    71.732329   -19.428485    82.075009     24459.38 
    6731    318.11442    3.4942687    71.522934   -19.593753    151.65543     24459.38 
    6732    318.63802    3.5021838     71.51589   -19.766695    222.57887     24459.38 
    6733    317.79357    3.5038694     71.83775   -19.939246    283.62976     24459.38 
    6734    315.43306    3.4965565    72.474944   -20.107249    324.83445     24459.38 
    6735    311.93499    3.4790195    73.239215   -20.271942    337.16542     24459.38 
    6736    308.10163    3.4482432    73.817922   -20.441006    316.12137     24459.38 
    6737    304.85635    3.4040511    73.895225   -20.623709    257.19041     24459.38 
    6738    302.87596    3.3500021    73.292444   -20.827623     160.3088     24459.38 
    6739    302.32939    3.2897236    72.061348   -21.054583      28.2224     24459.38 
    6740    302.82674    3.2259756    70.481423   -21.299644   -133.52351     24459.38 
    6741    303.60825    3.1598943     68.95692   -21.553313    -316.5038     24459.38 
    6742    303.88282    3.0906333     67.85879   -21.805908   -509.41713     24459.38 
    6743    303.15705    3.0158351    67.383894   -22.051922   -697.86936     24459.38 
    6744    301.42028    2.9297096    67.494048   -22.290681   -864.55603     24459.38 
    6745    299.10323    2.8220526    67.956858   -22.528441   -995.41204     24459.38 
    6746    296.85245     2.688115    68.462029   -22.771718   -1077.4548     24459.38 
    6747     295.2668    2.5261932    68.751998   -23.025873   -1100.1203     24459.38 
    6748    294.69955    2.3373565    68.709865   -23.292781   -1057.6452     24459.38 
    6749    295.19445    2.1255051     68.37399    -23.57133   -949.61978     24459.38 
    6750    296.55054    1.9018916    67.885754   -23.857443    -780.2135     24459.38 
    6751    298.47649     1.678872    67.404543   -24.148285   -561.66498     24459.38 
    6752    300.74243    1.4661394    67.031014   -24.443003   -308.97123     24459.38 
    6753    303.24372    1.2719007    66.773974   -24.743619   -40.056417     24459.38 
    6754    305.96409    1.1036798    66.570988   -25.056658    228.78142     24459.38 
    6755    308.87674   0.97537948      66.3491   -25.382289     476.8929     24459.38 
    6756    311.83956   0.88237246    66.098371   -25.727198     683.5758     24459.38 
    6757    314.50661   0.81467618    65.923084   -26.091965    833.13543     24459.38 
    6758    316.34085   0.76215786    66.035644   -26.472629     913.9766     24459.38 
    6759    316.77067   0.71649483    66.683167    -26.86141    919.85842     24459.38 
    6760    315.43505   0.67251887    68.027097   -27.249553    851.10499     24459.38 
    6761    312.41777   0.62905604    70.024886   -27.630447    714.91547     24459.38 
    6762    308.35037   0.58398247    72.374581    -28.00503    525.19436     24459.38 
    6763    304.28113   0.53773276    74.566682   -28.380318    299.75272     24459.38 
    6764    301.32835   0.49141357    76.043516   -28.768604    63.313816     24459.38 
    6765    300.23651    0.4464273    76.411791   -29.181598    -164.0905     24459.38 
    6766    301.02318   0.40674192    75.617518   -29.623339   -362.08639     24459.38 
    6767    302.90001   0.37645917    73.997617   -30.088945   -511.81995     24459.38 
    6768    304.53964   0.36133228    72.170308   -30.562215   -601.29807     24459.38 
    6769    304.59894   0.36271795    70.798004   -31.027233   -622.29911     24459.38 
    6770    302.29561    0.3870316    70.317767   -31.465753   -572.48824     24459.38 
    6771    297.79976    0.4288636    70.754433   -31.874581   -455.00959     24459.38 
    6772    292.23974   0.48100842    71.699187   -32.260349   -276.36242     24459.38 
    6773    287.31311   0.53985791    72.465591   -32.639268   -46.216931     24459.38 
    6774     284.6716   0.60685544    72.362444   -33.029176    218.68768     24459.38 
    6775    285.30752   0.68316099     70.97497   -33.444627    498.82154     24459.38 
    6776    289.16061    0.7716857    68.345278   -33.891365    770.92033     24459.38 
    6777    295.11103   0.87545907    64.984214   -34.362488    1012.4039     24459.38 
    6778    301.33535   0.99541817    61.710347   -34.844808    1198.0724     24459.38 
    6779    305.90168    1.1382037    59.375722   -35.319709    1308.1637     24459.38 
    6780    307.41653    1.3102074    58.572217   -35.771647    1331.2932     24459.38 
    6781    305.49192    1.5122228    59.421361   -36.192557    1263.1994     24459.38 
    6782    300.85467    1.7376262    61.523921   -36.585465    1106.1155     24459.38 
    6783    295.05234    1.9776822    64.093013   -36.962612    872.02859     24459.38 
    6784    289.87534    2.2214232    66.227462    -37.34126    579.22438     24459.38 
    6785    286.68364    2.4574518    67.232677   -37.736983    250.23576     24459.38 
    6786    285.89192    2.6759804    66.872397   -38.156157    -91.89288     24459.38 
    6787    286.81525    2.8683907     65.45383   -38.593291   -425.06071     24459.38 
    6788    287.94699    3.0292292    63.707373   -39.031461   -729.01279     24459.38 
    6789    287.57447    3.1565649     62.50234   -39.448509   -986.30276     24459.38 
    6790    284.49497    3.2516812    62.507585    -39.82542   -1182.5092     24459.38 
    6791    278.54522    3.3183616    63.930481   -40.153567    -1306.462     24459.38 
    6792    270.72765    3.3623673    66.436674   -40.438361   -1350.1911     24459.38 
    6793    262.88575    3.3929253    69.278768    -40.69473   -1310.8774     24459.38 
    6794    257.06442    3.4159494    71.577399   -40.943909   -1192.4388     24459.38 
    6795    254.78096    3.4401992    72.641039   -41.205641   -1001.7258     24459.38 
    6796    256.51604    3.4839615    72.201883   -41.482755    -755.8886     24459.38 
    6797    261.60593    3.5486505     70.48552   -41.773759   -477.07065     24459.38 
    6798    268.50257    3.6310919    68.102509   -42.066078   -189.15122     24459.38 
    6799    275.31243    3.7253915    65.814037   -42.343826    83.753989     24459.38 
6800        0.4420670893249341038 13.215017800671391868 0.53174603174603174427 44 -169.6463312887745758
    6800    280.41636    3.8240628    64.263452   -42.594409    320.38292     24459.38 
    6801    282.94741    3.9236466    63.768429   -42.810644    505.29596     24459.38 
    6802      282.998    4.0166603     64.23942   -42.995857    627.24613     24459.38 
    6803    281.48232    4.0907447    65.245775   -43.161698     683.2859     24459.38 
    6804    279.71174    4.1381291    66.197674    -43.32219    674.73862     24459.38 
    6805    278.86886    4.1550312    66.576204   -43.490554    609.23398     24459.38 
    6806    279.55515    4.1413121    66.129794   -43.674875    498.36632     24459.38 
    6807    281.56332    4.1045331    64.968278   -43.872575    355.94481     24459.38 
    6808    283.95992     4.051665    63.522858   -44.076151    195.76919     24459.38 
    6809    285.42561    3.9953669    62.389297   -44.270722    33.519784     24459.38 
    6810    284.73683    3.9466515    62.113986   -44.443477   -118.74613     24459.38 
    6811    281.20945    3.9133091    63.001924   -44.585884    -247.7331     24459.38 
    6812    274.93402    3.9021637    65.014387   -44.696292   -341.11506     24459.38 
    6813    266.75416    3.9187738    67.785428   -44.779508   -388.68344     24459.38 
    6814     258.0144    3.9672601    70.740024   -44.844087   -383.42071     24459.38 
    6815    250.18767    4.0502741    73.261997     -44.8988   -322.50596     24459.38 
    6816    244.51624    4.1690155    74.850592   -44.949809    -207.9785     24459.38 
    6817    241.76708     4.323202    75.221072   -44.999478   -46.855423     24459.38 
    6818    242.14614    4.5080776    74.334671   -45.046683    150.93836     24459.38 
    6819    245.33207     4.716431    72.370465   -45.088682    368.99084     24459.38 
    6820    250.59165    4.9424373    69.664114   -45.121579    590.65043     24459.38 
    6821    256.94672    5.1779946    66.635951    -45.14153    798.25893     24459.38 
    6822    263.34464    5.4124306    63.720715   -45.145076     975.7157     24459.38 
    6823    268.82594    5.6333811    61.302142   -45.129201    1109.9523     24459.38 
    6824    272.67932    5.8277164    59.654652   -45.091865    1192.0233     24459.38 
    6825    274.56173    5.9827338    58.899368   -45.032674    1218.0986     24459.38 
    6826    274.55244    6.0869845    58.986406   -44.953705    1189.7036     24459.38 
    6827    273.11338    6.1319431    59.714281   -44.859295    1112.4009     24459.38 
    6828    270.95245    6.1131728    60.788338   -44.755316    995.98374     24459.38 
    6829    268.82079    6.0307967    61.905621   -44.647579    852.75143     24459.38 
    6830    267.29967    5.8894977    62.842072   -44.540003    695.94627     24459.38 
    6831    266.64456    5.6979678    63.513553   -44.433209    538.23983     24459.38 
    6832    266.74006    5.4679086    63.988607   -44.324125    390.49499     24459.38 
    6833    267.18356    5.2129737    64.446338   -44.207038    261.38404     24459.38 
    6834    267.47395    4.9480396    65.092107   -44.074827    156.05287     24459.38 
    6835    267.24163    4.6862077     66.05974   -43.922323    76.417584     24459.38 
    6836     266.4349    4.4383926     67.33565   -43.747583    21.992928     24459.38 
    6837    265.39165    4.2125079    68.734963   -43.552875   -10.090906     24459.38 
    6838     264.7629    4.0128304    69.942601   -43.344101   -24.643718     24459.38 
    6839    265.29607    3.8450477    70.609033   -43.128445   -25.764179     24459.38 
    6840    267.57578    3.7130233    70.469752   -42.911386     -23.5615     24459.38 
    6841    271.81226    3.6127102    69.442292   -42.695152   -26.707961     24459.38 
    6842    277.72677    3.5356687    67.669283   -42.477691   -43.806875     24459.38 
    6843     284.6027     3.470197    65.489185    -42.25366   -82.390418     24459.38 
    6844    291.48308    3.4008882    63.344586    -42.01633   -146.38364     24459.38 
    6845    297.42665    3.3114507    61.661371   -41.761735   -238.86387     24459.38 
    6846    301.73814    3.1897507    60.741636   -41.489979   -357.72095     24459.38 
    6847    304.09656    3.0325739     60.70613   -41.203784   -499.08955     24459.38 
    6848    304.55288    2.8450194    61.497996   -40.909212   -654.28421     24459.38 
    6849    303.43047     2.637793    62.935392   -40.612459   -812.16838     24459.38 
    6850    301.18488    2.4254289    64.779892   -40.317094   -959.69745     24459.38 
    6851     298.2998    2.2212747    66.787356    -40.02497   -1084.0768     24459.38 
    6852    295.24745    2.0395945    68.725072   -39.734266   -1175.1706     24459.38 
    6853    292.51689    1.8880014    70.363224   -39.442374    -1222.041     24459.38 
    6854    290.62342    1.7667654    71.466548   -39.150537   -1220.3103     24459.38 
    6855    290.04767    1.6777742    71.817223   -38.859878   -1166.9051     24459.38 
    6856    291.10568     1.616834    71.277946    -38.57545   -1063.7493     24459.38 
    6857    293.76429    1.5802121    69.876616    -38.29961    -916.9698     24459.38 
    6858    297.50613    1.5621776    67.870748   -38.032457   -735.39078     24459.38 
    6859    301.34025    1.5596933    65.744435   -37.766692   -529.17755     24459.38 
    6860    304.01683    1.5646086    64.111671   -37.495297   -314.38953     24459.38 
    6861    304.41067    1.5725599    63.538709   -37.206487   -105.48689     24459.38 
    6862    301.96042    1.5766042    64.339523   -36.894357    85.555283     24459.38 
    6863    296.98785     1.572027    66.422795   -36.558477    248.59856     24459.38 
    6864     290.7532    1.5555652    69.258384    -36.20712    378.79893     24459.38 
    6865    285.18351    1.5243497    71.996321   -35.854981    475.30958     24459.38 
    6866    282.31502    1.4768502    73.715591   -35.518533    540.38204     24459.38 
    6867    283.61689    1.4143302    73.728261   -35.210869     578.8285     24459.38 
    6868    289.42459    1.3469208    71.835584   -34.933454    595.81842     24459.38 
    6869    298.71109    1.2864957    68.438832   -34.678556    594.12837     24459.38 
    6870    309.30249    1.2478348    64.450896   -34.427762    577.56128     24459.38 
    6871    318.50173    1.2436241    61.023132   -34.160529     547.1929     24459.38 
    6872    323.93523    1.2834731    59.171257   -33.860467    506.42256     24459.38 
    6873    324.33574     1.374902    59.426815   -33.520874    459.58579     24459.38 
    6874    319.98535     1.518486    61.643549    -33.14916    411.92733     24459.38 
    6875    312.63092    1.6988698    65.039966   -32.769735    373.66544     24459.38 
    6876    304.82886    1.9150941    68.475602   -32.404047    347.26251     24459.38 
    6877    299.01873      2.16723    70.862248   -32.076638    333.66166     24459.38 
    6878    296.65874    2.4521464     71.56087   -31.798297    331.44134     24459.38 
    6879    297.69441    2.7661274    70.612254   -31.563174    334.61419     24459.38 
    6880    300.61854    3.1040936    68.708249     -31.3504     333.4579     24459.38 
    6881    303.10168    3.4581537    66.910011   -31.131475    317.46495     24459.38 
    6882    302.95041    3.8170105    66.220294   -30.882068    275.89475     24459.38 
    6883    299.01602    4.1719642    67.178103   -30.589207    203.91823     24459.38 
    6884    291.71403    4.5111618    69.635955   -30.258564     98.81091     24459.38 
    6885    282.92807    4.8211895    72.809266   -29.909915   -35.483992     24459.38 
    6886    275.31608    5.0924773    75.578588   -29.573587    -188.0817     24459.38 
    6887    271.32827    5.3351491    76.922984   -29.264777   -346.72425     24459.38 
    6888    272.33888    5.5431006    76.311159   -28.995801   -500.95778     24459.38 
    6889    278.17513    5.7076895    73.896564   -28.758035   -639.58405     24459.38 
    6890     287.2221    5.8241668    70.442791    -28.52947   -752.43672     24459.38 
    6891    297.07753    5.8923361    67.017389   -28.283434   -833.12103     24459.38 
    6892    305.45122    5.9145097    64.585801   -28.001021   -876.24938     24459.38 
    6893    310.93689    5.8976162     63.67233   -27.677495    -877.0778     24459.38 
    6894    313.36755    5.8523552    64.218948   -27.323719   -832.06226     24459.38 
    6895    313.64824    5.7916736    65.683636   -26.960952   -739.71789     24459.38 
    6896    313.17794    5.7316016    67.318511   -26.611932   -600.41733     24459.38 
    6897    313.15403    5.6865814    68.498289   -26.292507   -421.84797     24459.38 
    6898    314.04875    5.6668119    68.960845   -26.005855   -214.84107     24459.38 
    6899    315.45564    5.6776345    68.869602   -25.743977    4.0467368     24459.38 
6900        0.44265673169211255944 13.324304045069041535 0.53703703703703697947 45 -168.82411025201227517
    6900    316.34912    5.7193407    68.688301   -25.491661    216.30613     24459.38 
    6901    315.61008    5.7882688    68.934955   -25.233551    403.03267     24459.38 
    6902    312.58923    5.8775863    69.923954   -24.960298    547.41109     24459.38 
    6903    307.47332    5.9782942      71.6019   -24.671894    636.78743     24459.38 
    6904    301.30975    6.0803121    73.540407   -24.377322    663.92376     24459.38 
    6905    295.67979    6.1735271    75.087101   -24.090924    627.29346     24459.38 
    6906    292.14182    6.2486589    75.617011   -23.826776    530.84188     24459.38 
    6907    291.65027    6.2980302    74.789715   -23.593069     382.0806     24459.38 
    6908    294.16984    6.3162664    72.713594   -23.388338    191.75369     24459.38 
    6909    298.63932    6.3003585    69.950069   -23.201322   -27.162148     24459.38 
    6910    303.31667    6.2497025    67.346497   -23.014464   -260.10256     24459.38 
    6911    306.39751    6.1659401    65.749779    -22.81004   -491.21753     24459.38 
    6912    306.68918    6.0526029       65.701   -22.576727   -703.70549     24459.38 
    6913    304.09079    5.9130136    67.225363    -22.31423   -879.40418     24459.38 
    6914    299.67959    5.7499452    69.802351   -22.033546   -1002.1299     24459.38 
    6915    295.34859    5.5667389    72.536606   -21.754638   -1060.0757     24459.38 
    6916    293.12992    5.3699174    74.471595   -21.495886   -1043.1483     24459.38 
    6917    294.45103    5.1593249    74.931432   -21.273077   -952.54594     24459.38 
    6918      299.584    4.9379176    73.764609   -21.086875   -795.81215     24459.38 
    6919    307.50878    4.7087993    71.397752   -20.927105   -587.23307     24459.38 
    6920    316.23842    4.4747261    68.683647    -20.77612   -346.85649     24459.38 
    6921    323.47088    4.2382667    66.604043   -20.615692   -97.839555     24459.38 
    6922    327.33479    4.0019979    65.936667   -20.433409    136.61683     24459.38 
    6923    326.97649    3.7686658    67.000446   -20.226339    336.10927     24459.38 
    6924    322.80799    3.5412711    69.557179   -20.001256    485.13369     24459.38 
    6925     316.3588    3.3230796     72.89063   -19.772049    574.17554     24459.38 
    6926    309.80132    3.1172166    76.028179   -19.555149    600.34834     24459.38 
    6927    305.30285    2.9248854    78.032598   -19.366462    565.61417     24459.38 
    6928    304.39071    2.7487672    78.279089   -19.215363    475.50272     24459.38 
    6929    307.50827    2.5916189    76.642754   -19.103676    339.02856     24459.38 
    6930    313.87799    2.4556168    73.547241   -19.024897    167.10875     24459.38 
    6931    321.70681    2.3419407    69.860592   -18.965845   -28.095537     24459.38 
    6932    328.68718    2.2502965    66.662465   -18.910051   -233.46149     24459.38 
    6933    332.66488    2.1784958    64.941734   -18.842095   -434.97237     24459.38 
    6934    332.29844     2.119633    65.306696   -18.750286   -616.33401     24459.38 
    6935    327.49047     2.058207    67.793805    -18.63638   -763.00832     24459.38 
    6936    319.44126    1.9925316    71.837091   -18.506901   -857.66311     24459.38 
    6937    310.34506    1.9242729    76.415106   -18.376577   -891.53675     24459.38 
    6938    302.76318    1.8536709    80.340856   -18.264476   -857.13335     24459.38 
    6939    298.84733    1.7823566    82.611356   -18.187078   -753.66127     24459.38 
    6940    299.67244    1.7101589    82.712151   -18.152861   -586.79493     24459.38 
    6941    304.87591    1.6371082    80.778945   -18.158896    -368.8712     24459.38 
    6942    312.74508     1.563611    77.559595   -18.191266   -118.12757     24459.38 
    6943    320.73567    1.4908536    74.182447   -18.229359    143.72766     24459.38 
    6944    326.26644    1.4213485    71.800934   -18.252264    394.38122     24459.38 
    6945    327.53365    1.3604984    71.227343   -18.245937     614.8295     24459.38 
    6946     324.0909    1.3161715    72.674782   -18.206197    788.93972     24459.38 
    6947    316.99731    1.2937721    75.691451   -18.141836    907.63689     24459.38 
    6948    308.47463    1.2985936     79.30865   -18.070664    968.37214     24459.38 
    6949    301.19422    1.3357472    82.352901   -18.014781     974.5799     24459.38 
    6950    297.43337    1.4105843      83.8191   -17.990935     933.6325     24459.38 
    6951     298.3678    1.5217281    83.183428   -18.009359     851.6436     24459.38 
    6952     303.7142    1.6662627    80.558804   -18.067001    736.31132     24459.38 
    6953    311.82325    1.8420452    76.647767   -18.152031    597.09862     24459.38 
    6954    320.20403    2.0516609    72.514639   -18.242025    440.32735     24459.38 
    6955    326.30423    2.2860445    69.252466    -18.31915    272.97312     24459.38 
    6956    328.26956    2.5331912    67.652743   -18.369834    103.65833     24459.38 
    6957    325.47755    2.7799156    67.976944   -18.389506   -57.769982     24459.38 
    6958    318.69892    3.0131801    69.893903   -18.383466   -200.62496     24459.38 
    6959    309.84484    3.2213408    72.596979   -18.365262   -314.44604     24459.38 
    6960    301.38123    3.3951853    75.063287   -18.352888    -390.5506     24459.38 
    6961    295.58518    3.5287029    76.376959   -18.363478   -423.69057     24459.38 
    6962    293.86526    3.6195649    76.019043   -18.407827   -413.35171     24459.38 
    6963    296.35205    3.6693043    74.034142   -18.486552   -364.28416     24459.38 
    6964     301.8874     3.683212    71.018855   -18.589743   -285.79342     24459.38 
    6965    308.41765    3.6719309    67.931971   -18.699214   -189.69733     24459.38 
    6966    313.67283    3.6471415    65.785492    -18.79594    -91.54586     24459.38 
    6967    315.89779    3.6200688    65.319086   -18.865645   -4.5539179     24459.38 
    6968     314.3864    3.6011605    66.768338   -18.902801    61.435781     24459.38 
    6969    309.65366    3.5929496    69.804022   -18.914857    100.61421     24459.38 
    6970    303.18365    3.5967677    73.658245   -18.915203    108.93196     24459.38 
    6971    296.87604     3.613128    77.385606   -18.920025    86.468148     24459.38 
    6972     292.4182    3.6407188    80.158477   -18.941972    35.229785     24459.38 
    6973    290.78697    3.6770197    81.496474   -18.986295   -41.872824     24459.38 
    6974    292.02964    3.7189906    81.364353   -19.050139   -141.65306     24459.38 
    6975    295.35462    3.7637123    80.126115    -19.12462   -260.77245     24459.38 
    6976    299.45334    3.8104647    78.389959   -19.199663   -394.30397     24459.38 
    6977    302.94349    3.8658223    76.802987   -19.261467   -537.32871     24459.38 
    6978    304.80057    3.9302351    75.855606   -19.304297    -683.2084     24459.38 
    6979     304.6599    4.0024751    75.743673   -19.325693   -826.99907     24459.38 
    6980    302.91407    4.0781154    76.322535   -19.328655    -959.0534     24459.38 
    6981    300.57602    4.1510565    77.165052   -19.322888   -1070.9804     24459.38 
    6982    298.93506    4.2169305    77.715857   -19.320895   -1154.8882     24459.38 
    6983    299.09495    4.2716527    77.501783   -19.335226    -1204.229     24459.38 
    6984    301.54535    4.3114543    76.328385   -19.372541   -1214.7929     24459.38 
    6985    305.93434    4.3298271    74.383272   -19.433269   -1185.4021     24459.38 
    6986    311.15143    4.3287233    72.191471   -19.505666   -1120.2322     24459.38 
    6987     315.7467     4.314094    70.421652   -19.574187   -1023.3685     24459.38 
    6988    318.51925    4.2925598    69.618231   -19.625401   -900.69284     24459.38 
    6989    319.01306    4.2712099    69.971764   -19.654246   -757.12048     24459.38 
    6990    317.70386    4.2562231    71.232454   -19.667029   -596.41473     24459.38 
    6991    315.77835    4.2522507    72.811125   -19.679091   -421.43305     24459.38 
    6992    314.58623    4.2650029      74.0277   -19.709261    -233.3853     24459.38 
    6993    315.01764    4.3034743    74.401006   -19.768496   -36.949412     24459.38 
    6994    317.08305     4.369175    73.851995   -19.859645    162.05044     24459.38 
    6995     319.8501    4.4595441    72.739267   -19.973563    356.64223     24459.38 
    6996    321.77423    4.5706533    71.713313   -20.093154    540.44128     24459.38 
    6997    321.30839    4.6952669     71.44873   -20.199863     704.8041     24459.38 
    6998    317.53653    4.8231606    72.362864   -20.280273    845.25645     24459.38 
    6999     310.5866    4.9463044    74.427648   -20.330817     959.5572     24459.38 
7000        0.43965501672893003704 13.422024377292487429 0.53703703703703697947 45 -157.04253194280153139
    7000    301.67705    5.0609138    77.148957   -20.357751    1048.2095     24459.38 
    7001    292.75873    5.1637404    79.727345   -20.377381    1113.4951     24459.38 
    7002    285.86487     5.253551    81.346584   -20.408338    1159.2643     24459.38 
    7003    282.39947    5.3308069    81.486116   -20.464478    1188.9004     24459.38 
    7004    282.63763    5.3966615    80.135716   -20.548641    1204.5446     24459.38 
    7005    285.64624    5.4520929    77.818659   -20.649887    1206.3203     24459.38 
    7006    289.68048    5.4952396    75.399781   -20.748031    1192.7612     24459.38 
    7007    292.92437    5.5184565    73.743112   -20.820779    1165.4424     24459.38 
    7008    294.26401     5.510586    73.352699   -20.854692    1123.4283     24459.38 
    7009    293.77478    5.4628071    74.151035    -20.84967    1070.9452     24459.38 
    7010    292.71035    5.3646683    75.495387   -20.822779    1013.5432     24459.38 
    7011    292.95267    5.2126972     76.43738     -20.7994    959.52983     24459.38 
    7012    296.16902    5.0093722    76.124103   -20.802724    913.25996     24459.38 
    7013    303.01322    4.7560649    74.177755   -20.847699    877.59788     24459.38 
    7014    312.69882    4.4588732    70.894167    -20.93249    852.57036     24459.38 
    7015       323.15    4.1299396    67.172199   -21.040772    835.61043     24459.38 
    7016    331.69348    3.7880674    64.195306    -21.14715    820.89782     24459.38 
    7017    336.03175    3.4525847    62.986154   -21.228831    802.98295     24459.38 
    7018    335.11272    3.1401281    64.006751   -21.275193     777.3696     24459.38 
    7019    329.53501    2.8745551    66.962185   -21.289566    743.29277     24459.38 
    7020    321.36911    2.6733649    70.889999   -21.291054    697.88845     24459.38 
    7021    313.41313    2.5370239    74.509547   -21.307461    642.46654     24459.38 
    7022    308.11191    2.4615373    76.703319   -21.364542    576.66901     24459.38 
    7023    306.62413    2.4409612     76.94513   -21.472826    498.87801     24459.38 
    7024    308.38454    2.4591872    75.505672   -21.627203    402.21994     24459.38 
    7025    311.32282    2.5021808    73.348341   -21.803618    282.39727     24459.38 
    7026    312.71689    2.5548538    71.742539   -21.970353     133.8677     24459.38 
    7027    310.33232    2.6080336    71.742814    -22.09562    -49.73626     24459.38 
    7028    303.41176    2.6563482     73.73354   -22.164643   -266.89962     24459.38 
    7029    293.10996    2.6977362    77.230947   -22.183241   -509.64373     24459.38 
    7030    282.15983    2.7328032    81.031315   -22.176553   -764.66636     24459.38 
    7031    273.88201    2.7663921    83.656549   -22.179496    -1014.035     24459.38 
    7032    270.93052    2.8055727    83.925796   -22.221793   -1242.0985     24459.38 
    7033    274.26875    2.8544572    81.424936   -22.316212   -1435.0808     24459.38 
    7034    282.75908    2.9157272    76.689113   -22.455213   -1582.1604     24459.38 
    7035    293.53768    3.0036747     71.02501   -22.608487   -1675.5781     24459.38 
    7036    303.06332     3.127151    66.041558   -22.743363   -1716.3397     24459.38 
    7037    308.40793    3.2902929    63.070356   -22.830858   -1704.3864     24459.38 
    7038    308.27337    3.4914743    62.700855   -22.861116   -1640.7728     24459.38 
    7039    303.38691    3.7268067    64.601865   -22.844132   -1525.7247     24459.38 
    7040    296.13299    3.9911399    67.689023   -22.806351   -1360.2288     24459.38 
    7041    289.58569    4.2780121    70.566097   -22.780116   -1147.2528     24459.38 
    7042    286.32024    4.5758156    72.066662   -22.793469   -892.82982     24459.38 
    7043      287.444    4.8754889    71.688946   -22.856407   -610.96786     24459.38 
    7044    292.21683    5.1716894    69.761068    -22.96034   -318.89114     24459.38 
    7045    298.41149    5.4599148    67.280376   -23.078494   -38.823101     24459.38 
    7046    303.23349    5.7280337    65.497038   -23.180842    207.64605     24459.38 
    7047    304.42009    5.9676067     65.40862   -23.241992    404.01337     24459.38 
    7048     301.1296    6.1699426    67.362725   -23.252699    536.34291     24459.38 
    7049     294.2659    6.3237855    70.921038   -23.221749    600.69068     24459.38 
    7050    286.10323    6.4186545    75.032132    -23.17379    598.92782     24459.38 
    7051    279.40115    6.4499795    78.436465   -23.136408    538.74123     24459.38 
    7052    276.36713    6.4155473    80.137905   -23.131923    431.22996     24459.38 
    7053    277.86845    6.3179994    79.755822   -23.166689    288.49667     24459.38 
    7054    283.18888    6.1629276     77.62768   -23.229882    123.37952     24459.38 
    7055    290.39927    5.9515988    74.637528   -23.300575   -50.254344     24459.38 
    7056    297.13306    5.6893702    71.854327    -23.35423    -222.1494     24459.38 
    7057    301.46316    5.3888005    70.132099   -23.373827   -379.13451     24459.38 
    7058    302.55871    5.0666079    69.823669    -23.35566   -509.30376     24459.38 
    7059    300.88911    4.7358319    70.707783   -23.308794   -597.65738     24459.38 
    7060     297.9011    4.4072567    72.139374   -23.253505   -635.82301     24459.38 
    7061    295.34854    4.1013106    73.348212   -23.209246   -617.01619     24459.38 
    7062     294.5985    3.8361055    73.757033   -23.189829   -539.50876     24459.38 
    7063    296.13522    3.6249593    73.196734   -23.198253   -407.73361     24459.38 
    7064    299.43981    3.4757111     71.94462   -23.227212   -230.81191     24459.38 
    7065    303.26472    3.3917736    70.585282    -23.26101   -24.424473     24459.38 
    7066    306.16817    3.3669553    69.762145   -23.284077    193.32839     24459.38 
    7067    307.08977    3.3751913    69.925383   -23.288253    408.38689     24459.38 
    7068    305.66825    3.3919797    71.178507   -23.273502    600.62086     24459.38 
    7069    302.26914    3.4129625    73.266432    -23.24516    754.38577     24459.38 
    7070    297.77874    3.4357584    75.702771   -23.214163    859.65681     24459.38 
    7071    293.21332    3.4578767    77.968468   -23.189517    911.07081     24459.38 
    7072    289.35802    3.4714683    79.688644    -23.17576    908.09662     24459.38 
    7073    286.56835    3.4723686    80.715367    -23.16982    849.88412     24459.38 
    7074    284.82317    3.4649095    81.090417   -23.163047     741.3581     24459.38 
    7075    283.96803    3.4545071    80.927676   -23.147201    591.40131     24459.38 
    7076    283.96267     3.447058    80.289352   -23.118436    412.30008     24459.38 
    7077    284.99294    3.4489842    79.127784   -23.079167     220.1625     24459.38 
    7078    287.38387    3.4650437    77.325512   -23.037507    29.811982     24459.38 
    7079    291.34963    3.4989935    74.813266   -23.002354   -143.43779     24459.38 
    7080    296.71204    3.5562567    71.700676   -22.979144   -284.96143     24459.38 
    7081     302.7622    3.6416759    68.345205   -22.966741   -386.19214     24459.38 
    7082    308.37585    3.7517169    65.308041   -22.955855   -439.56707     24459.38 
    7083    312.32252    3.8753192    63.199504   -22.939194   -444.48972     24459.38 
    7084    313.69793    4.0141956    62.465064   -22.903871   -404.53671     24459.38 
    7085    312.32768    4.1633326    63.200196   -22.847349   -324.72447     24459.38 
    7086    308.90819    4.3160819      65.0792   -22.774716   -212.99346     24459.38 
    7087    304.81113    4.4640899    67.440803   -22.699072   -78.424244     24459.38 
    7088    301.60325    4.5969294    69.511203   -22.637303    68.395488     24459.38 
    7089    300.44417     4.705843    70.685901   -22.602557    215.35362     24459.38 
    7090    301.60873    4.7856635    70.759841   -22.598308     349.8331     24459.38 
    7091    304.34225    4.8326709    70.009142   -22.617442    457.71449     24459.38 
    7092    307.12087    4.8461742    69.084266     -22.6434    526.95681     24459.38 
    7093    308.23445    4.8294642    68.749216   -22.656668    548.54756     24459.38 
    7094    306.47427    4.7893457    69.566824   -22.642437    518.42862     24459.38 
    7095    301.64971    4.7353965    71.655371   -22.596005    437.98334     24459.38 
    7096     294.7258     4.675435    74.615908   -22.525413    316.29665     24459.38 
    7097     287.5086    4.6172723    77.661817   -22.446839    163.44373     24459.38 
    7098    282.00099    4.5668071     79.90328   -22.379644   -7.5438646     24459.38 
    7099    279.68545    4.5265433    80.674517   -22.337588   -183.06592     24459.38 
7100        0.43822835244773428176 13.543505261821383812 0.53703703703703697947 43 -149.63824140307474408
    7100    280.99672    4.4962274    79.778163   -22.323368   -351.13242     24459.38 
    7101    285.19076    4.4734471     77.55339   -22.327567   -502.76142     24459.38 
    7102    290.65825     4.452585    74.744168   -22.331591   -629.96888     24459.38 
    7103    295.54048    4.4242199    72.221522   -22.318067   -730.76382     24459.38 
    7104     298.4109    4.3865822    70.666629   -22.272838   -805.07763     24459.38 
    7105     298.7693     4.345084    70.335219   -22.194254   -850.44567     24459.38 
    7106    297.18497    4.3085821    70.989386   -22.089859   -868.46223     24459.38 
    7107    295.01948    4.2777083    72.019058   -21.977647   -859.97709     24459.38 
    7108    293.83118    4.2532602    72.700562   -21.875978   -826.57042     24459.38 
    7109    294.72742    4.2359902    72.490278   -21.797577   -771.53022     24459.38 
    7110    297.90835     4.226229    71.240545   -21.744816   -700.04581     24459.38 
    7111    302.57174    4.2247401    69.256128   -21.709418   -617.50513     24459.38 
    7112    307.22429    4.2330565    67.170901   -21.674246   -531.73856     24459.38 
    7113    310.27556    4.2487016    65.694081   -21.622546   -449.16921     24459.38 
    7114    310.67501    4.2685991     65.32595   -21.543026   -373.23352     24459.38 
    7115    308.34624    4.2892152    66.157027    -21.43483   -303.62952     24459.38 
    7116    304.23346    4.3061465    67.833742   -21.309279   -237.69271     24459.38 
    7117    299.93203    4.3174005    69.706542   -21.183924   -171.13296     24459.38 
    7118    297.04927    4.3213431     71.10169   -21.076764   -98.784878     24459.38 
    7119    296.55248    4.3146457    71.605412    -20.99817    -15.67382     24459.38 
    7120     298.3587    4.2937617    71.241562   -20.947116    78.245347     24459.38 
    7121    301.34927    4.2585899    70.466015   -20.910061    180.99339     24459.38 
    7122    303.81479     4.209191    69.978501   -20.867213    288.47704     24459.38 
    7123    304.14344    4.1456092    70.427547   -20.799928     395.4978     24459.38 
    7124     301.4841     4.067772    72.127203   -20.697724    497.06484     24459.38 
    7125    296.12663    3.9754718    74.898297   -20.561947    589.31386     24459.38 
    7126    289.45444    3.8684752    78.096657   -20.404889    669.73597     24459.38 
    7127    283.49026    3.7467648    80.817909   -20.244869    736.72639     24459.38 
    7128    280.20654    3.6108652    82.202509   -20.099208    788.74548     24459.38 
    7129    280.85218     3.462158    81.729909   -19.977755    823.53491     24459.38 
    7130    285.53177    3.3030824    79.398094   -19.879374    837.80157     24459.38 
    7131    293.17559    3.1371487     75.72857   -19.792647    827.59049     24459.38 
    7132    301.89371    2.9704537    71.599428   -19.700667    790.49508     24459.38 
    7133    309.58148    2.8150618    67.967497   -19.586982    725.41891     24459.38 
    7134    314.59227    2.6832039    65.574192   -19.439248    631.58521     24459.38 
    7135    316.22497    2.5753844    64.734422   -19.258113    416.29106    30133.708 
    7136    314.85282    2.4891222    65.276236   -19.052868    306.07067    30133.708 
    7137    311.69169    2.4203588    66.643943   -18.839212    190.25049    30133.708 
    7138    308.30527    2.3637145    68.122043   -18.632931    78.752143    30133.708 
    7139    306.01836    2.3112326    69.097408   -18.448179   -19.378385    30133.708 
    7140    305.45469    2.2620696    69.266346   -18.286669   -99.868838    30133.708 
    7141    306.36117    2.2139191    68.719468   -18.143405   -161.36225    30133.708 
    7142    307.75039    2.1665345    67.882658   -18.005986   -204.43206    30133.708 
    7143        308.3    2.1218629    67.342337   -17.859882   -232.08834    30133.708 
    7144    306.86607    2.0815925     67.62359   -17.691024    -247.9537    30133.708 
    7145    302.92064    2.0320522    69.000067   -17.498763   -256.25292    30133.708 
    7146    296.73412    1.9675403    71.399188   -17.283237   -263.30076    30133.708 
    7147    289.29341    1.8876883    74.425562   -17.052932   -272.76028    30133.708 
    7148     282.0249    1.7964508    77.483022   -16.816025   -287.93493    30133.708 
    7149    276.38755    1.6922749     79.95202   -16.583625   -312.16598    30133.708 
    7150    273.46518    1.5790588    81.364869   -16.358073   -347.23971    30133.708 
    7151    273.70774    1.4574555    81.521922   -16.138587   -396.23469    30133.708 
    7152    276.88108    1.3284401     80.51698   -15.917447   -460.34384    30133.708 
    7153    282.22041    1.1963875    78.669045   -15.683556   -539.81752    30133.708 
    7154    288.73738    1.0690281    76.390378   -15.426357   -632.96055    30133.708 
    7155    295.55456   0.95684377    74.043187   -15.139535   -736.01954    30133.708 
    7156    302.14688   0.87133478    71.839709   -14.822219   -842.50328    30133.708 
    7157    308.40635   0.81688625    69.821494   -14.482688   -943.52809    30133.708 
    7158    314.50303   0.80004385    67.920343   -14.129288    -1031.511    30133.708 
    7159    320.63467   0.82468916    66.066403   -13.772483   -1097.1451    30133.708 
    7160     326.7856   0.89257287    64.290503   -13.418751   -1132.5857    30133.708 
    7161    332.59598    1.0030388    62.771352   -13.069192   -1134.2729    30133.708 
    7162    337.41034    1.1506372    61.803485   -12.721051   -1099.6073    30133.708 
    7163    340.48167    1.3257306    61.696991   -12.370132   -1028.6952    30133.708 
    7164     341.2421    1.5198228    62.650793   -12.012783   -923.01622    30133.708 
    7165    339.55129    1.7213083    64.651591    -11.64943   -788.99984    30133.708 
    7166    335.80987    1.9145649    67.439138   -11.284115   -633.34421    30133.708 
    7167    330.88299    2.0855092    70.552845   -10.923657   -464.00888    30133.708 
    7168    325.88377    2.2230091    73.445046   -10.575155   -289.30353    30133.708 
    7169     321.8751    2.3171896    75.626154   -10.245931   -118.13038    30133.708 
    7170    319.57404    2.3652832    76.798754    -9.938479    39.175607    30133.708 
    7171    319.14738    2.3735671     76.94096    -9.651656     175.5627    30133.708 
    7172    320.18726    2.3533609    76.311453   -9.3790678    281.72685    30133.708 
    7173    321.87461    2.3142908    75.365644   -9.1115795    352.10882    30133.708 
    7174    323.27628    2.2675888    74.602916   -8.8386593    384.51972    30133.708 
    7175    323.71137    2.2222254    74.389185   -8.5532599    378.97819    30133.708 
    7176    323.03724    2.1846396    74.818967   -8.2541311     340.1556    30133.708 
    7177    321.72813    2.1600676    75.674638   -7.9472128    276.30061    30133.708 
    7178    320.69344    2.1548081    76.508775    -7.644044    199.28464    30133.708 
    7179    320.89537    2.1758602    76.825564   -7.3567306    120.30244    30133.708 
    7180    322.91058    2.2279209    76.291466   -7.0938013    50.877459    30133.708 
    7181    326.61137    2.3151337    74.889522   -6.8560772   0.69061462    30133.708 
    7182    331.12083    2.4401626    72.951603   -6.6360508   -23.078435    30133.708 
    7183    335.07051    2.6006566    71.053065    -6.422554   -16.694652    30133.708 
    7184    337.06189    2.7921856    69.810599   -6.2032976    19.576724    30133.708 
    7185    336.16462    3.0072559    69.660752    -5.970767    83.345474    30133.708 
    7186    332.27185    3.2347173    70.700414   -5.7245442    170.16035    30133.708 
    7187    326.18073    3.4603559    72.645626   -5.4713405    273.98608    30133.708 
    7188     319.3726    3.6682426    74.921278   -5.2227462    387.49383    30133.708 
    7189    313.56534    3.8426996    76.850463   -4.9915481    502.22318    30133.708 
    7190    310.18048    3.9705559    77.881517   -4.7876517    608.76649    30133.708 
    7191    309.89286    4.0432439    77.779437   -4.6146644    697.15302    30133.708 
    7192    312.40983    4.0582726    76.717495   -4.4681355    757.56501    30133.708 
    7193    316.56357    4.0197269    75.232215   -4.3362078    781.41113    30133.708 
    7194     320.7066    3.9376412     74.04606   -4.2028903    762.63749    30133.708 
    7195    323.29576    3.8263431    73.808481   -4.0533058    699.01106    30133.708 
    7196    323.46675    3.7020909    74.842997   -3.8793237     593.0169    30133.708 
    7197    321.37732    3.5808889     76.99832   -3.6837035    452.50506    30133.708 
    7198     318.1669    3.4771565    79.673262   -3.4789397    288.83588    30133.708 
    7199     315.5176    3.3988446    82.022118     -3.28485    115.63505    30133.708 
7200        0.43792261529793979902 13.595988301544144505 0.53439153439153441738 42 -145.8242307743948345
    7200    314.96299    3.3482973    83.272102   -3.1198147   -52.725912    30133.708 
    7201    317.22613    3.3222889    83.030167   -2.9909873   -202.67175    30133.708 
    7202    321.86677    3.2973647    81.452437   -2.9007057   -323.21436    30133.708 
    7203    327.35293     3.265652    79.200041   -2.8296031   -411.54998    30133.708 
    7204    331.62255    3.2271581    77.184111   -2.7567682   -466.04224    30133.708 
    7205     332.9165    3.1832183    76.204524   -2.6631099   -488.39113    30133.708 
    7206    330.50569    3.1332741    76.624851   -2.5395652   -480.14032    30133.708 
    7207    325.03827    3.0724443    78.213767   -2.3926368   -445.90366    30133.708 
    7208    318.35375    2.9982745    80.220329   -2.2392355    -390.6773    30133.708 
    7209    312.84749    2.9092314     81.65246   -2.1020737   -320.32206    30133.708 
    7210    310.61655    2.8054544    81.651597   -2.0009329   -242.37169    30133.708 
    7211    312.70561    2.6888189    79.822221   -1.9444276   -165.69558    30133.708 
    7212    318.72669     2.556047    76.394875   -1.9309983   -100.60765    30133.708 
    7213    326.96652    2.4082797    72.165915   -1.9448726   -59.473139    30133.708 
    7214    334.94943    2.2498034    68.239236   -1.9651679   -52.323973    30133.708 
    7215    340.27025    2.0858376    65.659376    -1.972312   -85.907651    30133.708 
    7216    341.39676    1.9219973    65.062392   -1.9545316   -162.06909    30133.708 
    7217    338.17665     1.763766    66.462856   -1.9117104   -276.93779    30133.708 
    7218    331.86776    1.6174497    69.249597   -1.8582807   -419.59187    30133.708 
    7219    324.67537    1.5089464    72.393253   -1.8091429   -573.56643    30133.708 
    7220     319.0144    1.4501028    74.797305   -1.7884666   -728.08759    30133.708 
    7221    316.68075    1.4378877    75.674356   -1.8131746   -868.72402    30133.708 
    7222    318.20103    1.4652144    74.816635   -1.8886844   -981.25123    30133.708 
    7223    322.64784    1.5304123    72.661688   -2.0048568    -1056.749    30133.708 
    7224    327.99959    1.6336412    70.124374   -2.1421692    -1091.796    30133.708 
    7225    331.91715    1.7721959    68.252176   -2.2761814   -1085.4785    30133.708 
    7226    332.61949    1.9384719    67.833017    -2.388922   -1039.3279    30133.708 
    7227     329.5438    2.1224101    69.103428   -2.4741403   -956.03356    30133.708 
    7228    323.53607    2.3126756    71.668904   -2.5398313   -839.33654    30133.708 
    7229    316.50482    2.4979875    74.665146   -2.6047985   -694.19137    30133.708 
    7230    310.68376    2.6684833    77.092506   -2.6909765   -527.32772    30133.708 
    7231    307.80414    2.8168164    78.187828   -2.8147094   -347.78328    30133.708 
    7232    308.50247    2.9383869    77.687847   -2.9806059   -166.47619    30133.708 
    7233    312.17457    3.0312108    75.889533   -3.1810636     3.258316    30133.708 
    7234    317.30135    3.0950931    73.500581   -3.3989739     149.0316    30133.708 
    7235    322.06824    3.1274165    71.356508   -3.6197348    258.94548    30133.708 
    7236    325.02076    3.1338025    70.122601   -3.8295839    324.94675    30133.708 
    7237    325.52882    3.1172968    70.089361   -4.0269584    343.33369    30133.708 
    7238     323.9029    3.0831241    71.121741   -4.2172401    315.19905    30133.708 
    7239    321.17601    3.0376077    72.755914   -4.4110471    246.70093    30133.708 
    7240    318.68104    2.9849891    74.387397   -4.6211475    146.47935    30133.708 
    7241    317.57986    2.9281713    75.476882   -4.8579911    25.755899    30133.708 
    7242    318.49208    2.8696263    75.710297   -5.1277194   -103.72747    30133.708 
    7243    321.31936    2.8120065     75.07526    -5.431229   -230.91456    30133.708 
    7244     325.2897    2.7589884    73.843347   -5.7653382   -345.84178    30133.708 
    7245    329.19264    2.7235448    72.470256   -6.1199564   -439.86452    30133.708 
    7246    331.76362    2.7169637    71.443036   -6.4854862   -508.75348    30133.708 
    7247    332.09513    2.7466413    71.115608   -6.8524986   -548.84043    30133.708 
    7248    329.93294    2.8175536    71.585352   -7.2154011   -558.14911    30133.708 
    7249     325.7845    2.9307889    72.651655   -7.5744259   -536.33718    30133.708 
    7250    320.79024    3.0816395    73.874425    -7.935024   -483.94491    30133.708 
    7251     316.3873    3.2552196    74.716704   -8.3091254    -404.2192    30133.708 
    7252    313.85475    3.4349299    74.727605   -8.7089455   -302.96724    30133.708 
    7253     313.8989    3.6094373    73.705564   -9.1407351   -186.83791    30133.708 
    7254     316.4254    3.7610557    71.786909   -9.6096874   -66.650694    30133.708 
    7255    320.53947    3.8734177    69.431251   -10.112365    46.542741    30133.708 
    7256    324.77859    3.9347304    67.305691   -10.639309     142.7077    30133.708 
    7257    327.53362    3.9386635    66.096679   -11.177241    213.81683    30133.708 
    7258    327.53226    3.8860767    66.300539   -11.711666    253.89621    30133.708 
    7259    324.24995    3.7842641    68.052162   -12.231022    261.03802    30133.708 
    7260    318.12163    3.6449945    71.046126   -12.730112    237.42041    30133.708 
    7261    310.45601    3.4884753    74.583419   -13.213221    190.59982    30133.708 
    7262    303.09786    3.3393669    77.742322   -13.689109    127.24458    30133.708 
    7263    297.89879    3.2096983    79.633534   -14.174657    56.241888    30133.708 
    7264    296.12469    3.1093231     79.66413   -14.684828   -13.579452    30133.708 
    7265    298.03201    3.0471636    77.725662   -15.227471   -74.232433    30133.708 
    7266    302.75426    3.0282528    74.239244   -15.803936    -120.1851    30133.708 
    7267    308.54079    3.0700029    70.035036   -16.398236   -148.62843    30133.708 
    7268    313.31774    3.1782549    66.101293   -16.994715   -160.87973    30133.708 
    7269    315.35961    3.3464418    63.284213   -17.575044   -159.26138    30133.708 
    7270    313.80767    3.5603712    62.042048   -18.126636   -145.07458    30133.708 
    7271    308.90268    3.8029464    62.334685   -18.645876   -118.74647    30133.708 
    7272    301.85276    4.0570359    63.682524   -19.137879   -80.780762    30133.708 
    7273    294.39079    4.3050604    65.368134   -19.614852   -32.031335    30133.708 
    7274    288.18356    4.5311253    66.704117   -20.089976    26.395471    30133.708 
    7275     284.3096    4.7210164    67.268518     -20.5723    92.882581    30133.708 
    7276    282.98411    4.8639885    67.023916   -21.062814    163.41389    30133.708 
    7277    283.61575    4.9542255    66.282376   -21.554264    233.80809    30133.708 
    7278    285.15594    4.9902754    65.537393   -22.034533    299.91108    30133.708 
    7279    286.57927    4.9746611    65.236416   -22.492118    358.45757    30133.708 
    7280    287.28775    4.9154957    65.589462   -22.921563    408.85146    30133.708 
    7281    287.29407    4.8228222    66.492001   -23.324689    450.18347    30133.708 
    7282    287.09595    4.7016327    67.595059   -23.712645    483.55518    30133.708 
    7283    287.30349    4.5595701    68.487148   -24.097793    510.42298    30133.708 
    7284     288.2213    4.4049832     68.90535   -24.489261    532.48062    30133.708 
    7285     289.5804    4.2459033    68.878614   -24.887621    550.88074    30133.708 
    7286    290.55881    4.0893906     68.73271   -25.283855    565.44657    30133.708 
    7287    290.10716    3.9423243    68.946379   -25.661892    575.10305    30133.708 
    7288    287.44974    3.8124069    69.915754   -26.005898    579.86696    30133.708 
    7289    282.55555    3.7075181    71.728931   -26.305085    578.78632    30133.708 
    7290    276.33281    3.6291077    74.060897   -26.563041    571.98283    30133.708 
    7291    270.41527    3.5806549    76.247384   -26.794484    561.35083    30133.708 
    7292    266.61275    3.5681549    77.521489   -27.019535    548.49248    30133.708 
    7293    266.21689    3.5951223     77.32561   -27.258211    532.97342    30133.708 
    7294    269.43983    3.6656303    75.569029   -27.518776    513.83974    30133.708 
    7295    275.24977     3.777545    72.714774   -27.796393      489.607    30133.708 
    7296    281.68817    3.9263881    69.645175   -28.072498     456.4347    30133.708 
    7297    286.59884    4.1006068    67.346294   -28.321494     414.6591    30133.708 
    7298    288.47022    4.2798248    66.526699   -28.527315    362.52336    30133.708 
    7299    287.05272    4.4568016    67.324799   -28.681825    302.43387    30133.708 
7300        0.43643868150425413344 13.678081823049870636 0.53703703703703697947 44 -157.25912639852401753
    7300    283.53334    4.6266794    69.227892   -28.794954    240.40984    30133.708 
    7301    280.14322    4.7834012    71.246564    -28.88989     185.9035    30133.708 
    7302    279.31805    4.9206642    72.284359   -28.995563    146.28009    30133.708 
    7303    282.73071    5.0360952    71.566881    -29.13516     128.6849    30133.708 
    7304    290.59233    5.1295697    68.959145   -29.317133    135.26433    30133.708 
    7305    301.48272    5.2012248    65.046342   -29.533386    165.56778    30133.708 
    7306    312.78267    5.2532818    60.943968   -29.762059    213.41564    30133.708 
    7307    321.55482     5.289459    57.907583   -29.977146    271.62086    30133.708 
    7308    325.54806     5.313251    56.890136   -30.158103    332.33773    30133.708 
    7309    323.95139    5.3276217    58.210806   -30.296893    388.48126    30133.708 
    7310    317.63598    5.3350003     61.45265     -30.4002    434.54192    30133.708 
    7311    308.81748    5.3376845    65.617935   -30.486322    466.71182    30133.708 
    7312    300.28061    5.3372818    69.476461   -30.578794    481.39264    30133.708 
    7313    294.44804    5.3350645     71.97866   -30.697908     475.4955    30133.708 
    7314    292.61665    5.3322862    72.589199   -30.853811    445.59696    30133.708 
    7315     294.6116    5.3297633     71.43162   -31.043042    387.71416    30133.708 
    7316    298.95292    5.3266032    69.203962   -31.250297    298.81213    30133.708 
    7317    303.45514    5.3202378    66.903139   -31.453818    176.90624    30133.708 
    7318    306.03532    5.3066406     65.46132   -31.633158    23.224678    30133.708 
    7319    305.44314    5.2805263    65.423694   -31.776269   -156.85544    30133.708 
    7320    301.65811    5.2360133    66.780013    -31.88337   -353.67827    30133.708 
    7321     295.8245    5.1675411    69.004764   -31.966302   -554.09662    30133.708 
    7322    289.76826    5.0708602    71.282815    -32.04356   -743.11546    30133.708 
    7323    285.29532    4.9438893    72.828114   -32.132858   -905.99601    30133.708 
    7324    283.54623     4.787358    73.170062   -32.244681   -1030.0456    30133.708 
    7325    284.64531    4.6092458    72.299631   -32.376932   -1105.6969    30133.708 
    7326    287.77465    4.4184556    70.627795   -32.518167   -1129.4042    30133.708 
    7327    291.60108    4.2196727    68.785323   -32.653766   -1101.0774    30133.708 
    7328    294.84592     4.018473    67.357789   -32.768493   -1024.5001    30133.708 
    7329    296.77212    3.8118494    66.666791   -32.859883   -905.94737    30133.708 
    7330    297.38678    3.6028737    66.679954   -32.930109   -755.34096    30133.708 
    7331    297.32972    3.3959916    67.069883   -32.989785   -582.91381    30133.708 
    7332    297.52752     3.195643    67.382088    -33.05225   -399.03319    30133.708 
    7333    298.76561    3.0078329    67.233863   -33.126628    -216.3592    30133.708 
    7334    301.35802    2.8349337    66.463877   -33.218504   -47.133833    30133.708 
    7335    305.01889    2.6832634    65.181459   -33.324858    99.249948    30133.708 
    7336    308.97767    2.5570014    63.709846    -33.43939    209.86905    30133.708 
    7337    312.25683    2.4578579    62.458013   -33.554186    277.63999    30133.708 
    7338    313.98224    2.3877886    61.778691   -33.663021    299.38048    30133.708 
    7339    313.62604    2.3479137    61.867954   -33.763009    276.64705    30133.708 
    7340    311.10139    2.3364648    62.736837   -33.855629    214.85688    30133.708 
    7341    306.70763    2.3510364    64.250466    -33.94318    122.74127    30133.708 
    7342    300.99274    2.3872003    66.201007   -34.027624    12.155571    30133.708 
    7343    294.61696    2.4384588    68.371027   -34.108764   -103.25111    30133.708 
    7344    288.27418    2.4970604    70.557756   -34.184615   -209.92962    30133.708 
    7345    282.67952    2.5549344    72.557801   -34.252611    -294.4609    30133.708 
    7346    278.56895    2.6036308    74.140172    -34.31342   -346.08554    30133.708 
    7347    276.64246    2.6385112    75.046602   -34.370183   -356.32334    30133.708 
    7348    277.41982    2.6562229    75.043506    -34.42975   -321.52122    30133.708 
    7349     281.0282    2.6562513    74.017631   -34.498581   -241.18855    30133.708 
    7350    287.02271    2.6404934     72.07121   -34.579254   -119.44362    30133.708 
    7351    294.35137    2.6106361    69.562079   -34.669286    35.139423    30133.708 
    7352    301.53261    2.5701582      67.0483   -34.759744    209.83285    30133.708 
    7353    307.03463    2.5233593    65.137173   -34.839289    390.02637    30133.708 
    7354    309.74029    2.4749644    64.286511   -34.898489    561.02416    30133.708 
    7355    309.32263    2.4286091    64.635605   -34.933979    710.25421    30133.708 
    7356    306.37052    2.3859921    65.937875   -34.951031    826.58199    30133.708 
    7357    302.19524    2.3487456    67.631068   -34.961459      902.664    30133.708 
    7358    298.38315    2.3179199    69.024009   -34.979742    934.86252    30133.708 
    7359    296.24801    2.2924695    69.534823   -35.018496    923.16157    30133.708 
    7360    296.37413    2.2701994    68.895627   -35.083508    869.65717    30133.708 
    7361    298.40604    2.2525523    67.250697   -35.171189    777.26135    30133.708 
    7362     301.1763    2.2448477    65.111987   -35.270141    651.83013    30133.708 
    7363    303.12969    2.2539178    63.185426   -35.364562    501.05475    30133.708 
    7364    302.89453     2.287207    62.125594    -35.43899    334.74468    30133.708 
    7365    299.81532    2.3491948    62.300598   -35.484544    165.02099    30133.708 
    7366    294.25486    2.4446461    63.647943   -35.499584     3.965961    30133.708 
    7367    287.56003    2.5727295    65.676185   -35.493694   -137.38281    30133.708 
    7368    281.69482    2.7212755    67.618498   -35.481241    -245.5204    30133.708 
    7369    278.60399       2.8678    68.690824   -35.483262   -314.69614    30133.708 
    7370    279.53125    3.0032941    68.368433   -35.512178    -341.0526    30133.708 
    7371    284.58817    3.1234678    66.580437   -35.568721   -324.44955    30133.708 
    7372    292.68106    3.2182418    63.749049   -35.648024   -273.24482    30133.708 
    7373    301.82197    3.2860494    60.656917   -35.732697   -198.44366    30133.708 
    7374    309.74875    3.3243255    58.188248   -35.806175    -112.9603    30133.708 
    7375    314.61563    3.3328749    57.039079    -35.85585   -29.234333    30133.708 
    7376    315.51887    3.3121261    57.501969   -35.878198    43.113815    30133.708 
    7377    312.67809    3.2644942    59.399345   -35.878822    95.868298    30133.708 
    7378    307.23602    3.1951441    62.179373   -35.871021    124.07634    30133.708 
    7379    300.79108    3.1127821    65.126976   -35.868393    126.14523    30133.708 
    7380      294.853      3.02637    67.601981   -35.880923    103.34264    30133.708 
    7381    290.42331     2.943712    69.215443   -35.911338    58.873569    30133.708 
    7382    287.83083    2.8704587    69.888479   -35.954921   -2.6713541    30133.708 
    7383    286.83875    2.8095696    69.790301   -36.002309    -75.67506    30133.708 
    7384    286.93023     2.761258    69.200367    -36.04389     -153.737    30133.708 
    7385    287.62089    2.7233441    68.364538   -36.073839   -229.95584    30133.708 
    7386    288.65764    2.6918851    67.408552   -36.092117   -297.39041    30133.708 
    7387    290.03123    2.6619483     66.33968   -36.103757   -349.73824    30133.708 
    7388    291.82386    2.6284202     65.12434   -36.115883   -382.13775    30133.708 
    7389    293.99071    2.5867769    63.794103   -36.133842    -391.8956    30133.708 
    7390    296.20443     2.534094    62.519087   -36.158187   -378.48059    30133.708 
    7391    297.86749    2.4691793    61.601582   -36.183611   -344.79746    30133.708 
    7392    298.31101    2.3920836    61.379566   -36.201306   -295.44844    30133.708 
    7393    297.09981    2.3075185    62.073447   -36.204352   -234.49665    30133.708 
    7394    294.30683    2.2398611    63.642001   -36.185352   -165.79953    30133.708 
    7395    290.66575    2.2067113    65.721037   -36.148453   -97.793532    30133.708 
    7396    287.44238    2.2116444    67.688593   -36.105068   -35.320356    30133.708 
    7397    286.00042    2.2557252    68.853643   -36.069827      18.3855    30133.708 
    7398    287.29266    2.3300625    68.705699   -36.053913    63.149574    30133.708 
    7399    291.40228    2.4173047    67.131341   -36.065662     95.33941    30133.708 
7400        0.43698884347166516706 13.774161626674954917 0.52910052910052907116 41 -170.82339160159125413
    7400    297.35072    2.5135868    64.506153   -36.098796    113.42551    30133.708 
    7401    303.33122    2.6162395    61.611991   -36.138307    116.40315    30133.708 
    7402    307.26768    2.7226102    59.394698   -36.164707    105.66733    30133.708 
    7403    307.53864    2.8254196    58.640195   -36.161748    82.653577    30133.708 
    7404    303.59935    2.9127616    59.684773   -36.121358    52.620151    30133.708 
    7405    296.25133    2.9748318    62.269174   -36.047463    24.036579    30133.708 
    7406    287.47054    3.0006486    65.599138   -35.955681    5.5599109    30133.708 
    7407    279.78371    2.9803648     68.60582   -35.869076    4.0139508    30133.708 
    7408    275.40891    2.9146307    70.316173   -35.807636    23.291958    30133.708 
    7409    275.47491    2.8090549    70.206218   -35.782667    63.879854    30133.708 
    7410    279.58428    2.6741352    68.405466   -35.791059    121.63091    30133.708 
    7411    285.89893    2.5281495    65.669235     -35.8141     189.2591    30133.708 
    7412    291.76298     2.388073    63.118769   -35.825877    253.12775    30133.708 
    7413    294.62796     2.270677    61.835856   -35.802557    301.50102    30133.708 
    7414    292.97157    2.1954498    62.459977   -35.725881    321.71616    30133.708 
    7415    286.88906    2.1655477    64.934914   -35.597588    305.42432    30133.708 
    7416    278.08526    2.1776151    68.505325   -35.433898    250.10808    30133.708 
    7417    269.29686    2.2231835    71.968488    -35.26007    156.76771    30133.708 
    7418    263.34716    2.2864084    74.092188   -35.102931    31.365439    30133.708 
    7419    262.15652    2.3519882    74.048694   -34.977531   -119.31737    30133.708 
    7420    266.06968    2.4054914    71.708335   -34.885954   -286.96565    30133.708 
    7421    273.73792     2.441756    67.689944   -34.810762   -463.23558    30133.708 
    7422    282.58972    2.4601035    63.151874   -34.725755   -637.65368    30133.708 
    7423    289.72189    2.4639124    59.399755   -34.602725   -800.31824    30133.708 
    7424      292.895    2.4566778    57.448012   -34.422049   -940.37592    30133.708 
    7425    291.28459    2.4397787    57.688216   -34.180035   -1046.4388    30133.708 
    7426    285.72625    2.4116669    59.780109   -33.891259   -1105.3582    30133.708 
    7427    278.35947    2.3795181    62.804636   -33.577116   -1107.0027    30133.708 
    7428    271.82297    2.3490642    65.620777   -33.266384   -1046.4796    30133.708 
    7429    268.28284    2.3295111    67.296256   -32.978131   -923.04755    30133.708 
    7430    268.64412    2.3331394    67.451722    -32.71566   -742.26589    30133.708 
    7431    272.26143    2.3700765    66.386896   -32.465437   -518.67328    30133.708 
    7432    277.24391    2.4463037    64.939823    -32.20122   -270.85184    30133.708 
    7433    281.24377    2.5587067    64.134612   -31.894144   -18.513647    30133.708 
    7434     282.3965    2.7000097    64.754532   -31.525995    219.12361    30133.708 
    7435    280.06856    2.8705014     67.00937   -31.089902    420.17657    30133.708 
    7436     275.1436    3.0600203     70.42703   -30.601438    570.38912    30133.708 
    7437    269.68486    3.2584761    74.016736   -30.085129    661.70078    30133.708 
    7438    266.12812    3.4546337    76.642421   -29.567604    691.24204    30133.708 
    7439    266.32172     3.639102    77.462024   -29.064433    661.84155    30133.708 
    7440    270.78471    3.8044076    76.260634   -28.575334    582.16816    30133.708 
    7441    278.49158    3.9464149    73.543116   -28.081406      460.166    30133.708 
    7442    287.25418    4.0605868    70.353023   -27.553941    307.97766    30133.708 
    7443    294.56247    4.1428192    67.877736   -26.967198    141.07586    30133.708 
    7444    298.57553    4.1901312     66.99021   -26.307535    -19.56721    30133.708 
    7445    298.85988    4.2058329    67.904471   -25.577491   -155.79626    30133.708 
    7446    296.58645    4.1926174    70.083532   -24.800975   -248.48875    30133.708 
    7447    294.09245    4.1530499    72.442543   -24.010598   -280.14591    30133.708 
    7448    293.94598    4.0889322    73.776752   -23.235858   -237.82483    30133.708 
    7449    297.87073    3.9969476    73.254224   -22.496142   -117.24906    30133.708 
    7450    305.93742    3.8776876     70.78487   -21.789187     76.73802    30133.708 
    7451    316.37429    3.7319207    67.113495   -21.095904    330.45082    30133.708 
    7452    326.08884    3.5644995    63.587298   -20.388477    620.68573    30133.708 
    7453    331.75397    3.3866121    61.670676   -19.641504    922.13816    30133.708 
    7454    331.07045    3.2075711    62.386341    -18.84615    1207.0894    30133.708 
    7455    323.70783     3.037337    65.895782   -18.012493    1450.6147    30133.708 
    7456     311.5574    2.8832752    71.387365   -17.169504    1633.5262    30133.708 
    7457    298.17822    2.7485359    77.324806   -16.355485    1742.8597    30133.708 
    7458    287.62068    2.6317254    81.969732   -15.604865     1771.609    30133.708 
    7459    283.06179    2.5275067    83.984212   -14.935595     1717.736    30133.708 
    7460    285.75665    2.4280058    82.887414   -14.342238    1583.1525    30133.708 
    7461    294.68576    2.3247403    79.197809   -13.797974    1373.2283    30133.708 
    7462    307.00928    2.2107095    74.214706   -13.264954    1096.9974    30133.708 
    7463    319.13534    2.0822655    69.530496   -12.708498    767.90315    30133.708 
    7464    327.98741    1.9391269    66.463237    -12.11082    405.87743    30133.708 
    7465     331.9884    1.7926035     65.62103   -11.475174    34.485993    30133.708 
    7466    331.44348    1.6670769    66.752211   -10.819419   -321.29964    30133.708 
    7467     328.2239    1.5762034    68.918944   -10.180036    -635.5954    30133.708 
    7468     324.8731    1.5384985    70.913695   -9.5859327   -882.94853    30133.708 
    7469    323.53811    1.5614705    71.751189   -9.0605327   -1045.7284    30133.708 
    7470    325.12576    1.6485989    71.049288   -8.6070184   -1114.3211    30133.708 
    7471    328.98008    1.7989911    69.162936   -8.2120017   -1087.6517    30133.708 
    7472    333.20437    2.0065688    67.028098   -7.8506811   -973.47558    30133.708 
    7473    335.48283    2.2573422     65.78067   -7.4956616   -785.15933    30133.708 
    7474    334.05483    2.5332015    66.298303   -7.1286267   -542.74891    30133.708 
    7475    328.47712    2.8234192    68.836931   -6.7447083   -268.46685    30133.708 
    7476    319.89667    3.1229938    72.902803   -6.3539009    15.953315    30133.708 
    7477    310.69518    3.4280662    77.413406   -5.9785839    290.79074    30133.708 
    7478    303.62966    3.7352306    81.089497   -5.6437676    538.37773    30133.708 
    7479     300.8037    4.0410343     82.92737    -5.366496    743.20757    30133.708 
    7480    302.86862    4.3463097    82.565834   -5.1478415    894.54188    30133.708 
    7481    308.80773    4.6489028    80.401609   -4.9720588    980.31502    30133.708 
    7482    316.36976    4.9391758    77.408508   -4.8118905    993.81717    30133.708 
    7483    322.95733    5.2054915    74.737177   -4.6396797    934.38039    30133.708 
    7484    326.63826    5.4345844    73.260821   -4.4382437    807.82391    30133.708 
    7485    326.85268    5.6129521     73.25304    -4.207356    626.56599    30133.708 
    7486    324.53752     5.728665    74.324383   -3.9632426    408.50336    30133.708 
    7487    321.63839    5.7732305    75.632708   -3.7315591    174.74134    30133.708 
    7488    320.23246    5.7430831    76.268224   -3.5369053   -53.339663    30133.708 
    7489     321.6375    5.6403514    75.646473   -3.3932382   -256.96497    30133.708 
    7490    325.86892    5.4727471    73.747996   -3.2990542   -422.11038    30133.708 
    7491    331.64565     5.252868     71.11564   -3.2392674   -540.13988    30133.708 
    7492    336.91615    4.9974645    68.624746   -3.1908286   -608.17125    30133.708 
    7493     339.6769     4.717306    67.131771   -3.1349376   -627.05798    30133.708 
    7494    338.71955    4.4240652    67.147964   -3.0606113   -603.35759    30133.708 
    7495    334.03661    4.1333576    68.663186   -2.9705808   -543.46995    30133.708 
    7496    326.78263    3.8673973    71.173322   -2.8739607   -455.26332    30133.708 
    7497    318.83977    3.6410212    73.883362   -2.7863953   -348.06033    30133.708 
    7498    312.16214    3.4551972    75.997352   -2.7257613   -231.90991    30133.708 
    7499     308.1276    3.3131511     76.98686   -2.6986761   -118.50612    30133.708 
7500        0.43360450366565467251 13.861000946096059039 0.52910052910052907116 44 -141.869943746650506
    7500    307.15302    3.2150729     76.74601   -2.7040921   -18.494738    30133.708 
    7501    308.67103    3.1567168    75.590395   -2.7325366     58.33157    30133.708 
    7502    311.42875    3.1308015    74.112905   -2.7696679     104.1825    30133.708 
    7503    313.98491    3.1287752    72.956465   -2.8024355    115.74825    30133.708 
    7504     315.2068    3.1549439    72.587637    -2.818968    94.348615    30133.708 
    7505    314.63567    3.2137108    73.148571   -2.8192104    41.913856    30133.708 
    7506      312.598    3.3074373    74.430675   -2.8063361    -35.12393    30133.708 
    7507    310.00183    3.4294488    75.974761   -2.7933137   -126.44822    30133.708 
    7508    307.94088    3.5761267    77.250966   -2.7903762   -221.39792    30133.708 
    7509    307.27431    3.7436176     77.84615   -2.8058119   -309.77351    30133.708 
    7510    308.34125    3.9280422     77.58901   -2.8412163   -382.70606    30133.708 
    7511    310.89578    4.1234767    76.572834   -2.8929705   -433.47502    30133.708 
    7512    314.25955     4.326044    75.080518   -2.9521101   -457.54493    30133.708 
    7513    317.62031    4.5254333    73.455148   -3.0124087   -455.19517    30133.708 
    7514    320.31397    4.7076749    71.980647   -3.0701733   -427.25284    30133.708 
    7515    321.97792    4.8584009    70.819001     -3.12705   -375.70723    30133.708 
    7516    322.54715    4.9679051    70.019392   -3.1870159   -305.11074    30133.708 
    7517    322.13508    5.0321582    69.575514   -3.2544027   -220.07263    30133.708 
    7518    320.89408    5.0531693    69.485184   -3.3313574   -124.52617    30133.708 
    7519    318.94719    5.0382608    69.772404   -3.4154195   -24.532942    30133.708 
    7520    316.42084     4.993731    70.460661   -3.5032632     74.47325    30133.708 
    7521    313.52198    4.9262717    71.522312   -3.5919346    168.17686    30133.708 
    7522    310.58888    4.8412823    72.845302   -3.6819743    254.99128    30133.708 
    7523    308.04498    4.7473557    74.247848   -3.7750826    331.93232    30133.708 
    7524    306.27339    4.6517822    75.538557   -3.8756342    396.30052    30133.708 
    7525     305.4776    4.5609758    76.587643   -3.9854897    447.09363    30133.708 
    7526     305.6105    4.4817667    77.363466   -4.1028226    483.64493    30133.708 
    7527    306.43828    4.4213215    77.907883   -4.2227648    505.53863    30133.708 
    7528    307.71058    4.3866209    78.261454   -4.3402531    512.66518    30133.708 
    7529    309.34035    4.3835606    78.383451   -4.4535407    505.30716    30133.708 
    7530    311.47815    4.4158872    78.121089   -4.5663413    484.11822    30133.708 
    7531    314.40543    4.4871099    77.260118   -4.6882563    451.54342    30133.708 
    7532    318.30007    4.6013026    75.644807   -4.8266071    407.40603    30133.708 
    7533    322.98205    4.7481635     73.31296   -4.9897679    351.83727    30133.708 
    7534    327.75729    4.9139601    70.574481   -5.1773428    283.62391    30133.708 
    7535    331.50036    5.0838557    67.977656    -5.381413    202.78937    30133.708 
    7536    332.99323     5.242733    66.155068   -5.5886803    109.70355    30133.708 
    7537    331.39844    5.3759575    65.598284   -5.7855657     5.643655    30133.708 
    7538    326.67137    5.4706801    66.450033   -5.9651322   -106.14675    30133.708 
    7539    319.72785    5.5211284    68.403691   -6.1281847   -220.75082    30133.708 
    7540    312.26444    5.5257075    70.765845   -6.2858312   -331.14699    30133.708 
    7541    306.24869    5.4857728    72.677649    -6.455551   -429.79779    30133.708 
    7542    303.23648    5.4046745     73.42535   -6.6546769   -510.00599    30133.708 
    7543    303.76718    5.2868888    72.726939   -6.8929736   -567.13649    30133.708 
    7544    307.08557     5.137441    70.877787   -7.1673218   -580.44265    31112.326 
    7545    311.34144    4.9616779    68.680393   -7.4611001   -588.10527    31112.326 
    7546     314.2438    4.7653177     67.16206   -7.7491451   -574.69185    31112.326 
    7547    313.95771    4.5546204    67.172059   -8.0068472   -543.05453    31112.326 
    7548     309.9059    4.3365265     69.01037   -8.2200651   -495.32878    31112.326 
    7549    303.13872    4.1186715    72.243259   -8.3919193   -432.32634    31112.326 
    7550    296.07352    3.9121486    75.798823   -8.5431947   -352.28849    31112.326 
    7551    291.66934    3.7278405    78.328196   -8.7060897    -256.6262    31112.326 
    7552    292.30634    3.5735755      78.7098   -8.9115825   -146.85584    31112.326 
    7553    298.78347    3.4525073    76.507013   -9.1794787   -26.821452    31112.326 
    7554    309.83518    3.3684732    72.198241   -9.5082617    95.308883    31112.326 
    7555    322.39345    3.3263346    67.076699   -9.8763259    210.63024    31112.326 
    7556    332.55186    3.3240889    62.842379   -10.249337    311.01691    31112.326 
    7557    336.86381    3.3539495    61.027119   -10.594027    387.24459    31112.326 
    7558    333.53852    3.4077929    62.458131   -10.885718    437.13165    31112.326 
    7559    323.10891    3.4732064    66.951502   -11.119597    460.40543    31112.326 
    7560    308.31927     3.540598    73.344445   -11.309677    461.92104    31112.326 
    7561    293.29172    3.5971176    79.856972   -11.485688    451.21845    31112.326 
    7562    282.23172       3.6274    84.657452    -11.68355    437.36413    31112.326 
    7563    278.10398    3.6225126    86.441865   -11.931912    427.88268    31112.326 
    7564    281.73101    3.5823465     84.83661   -12.241657     427.3163    31112.326 
    7565    291.59528    3.5075691    80.497875   -12.605752    436.18446    31112.326 
    7566    304.37004    3.4041296    74.882022   -12.999257    451.29475    31112.326 
    7567    316.00767    3.2830414    69.766291   -13.389368    468.64629    31112.326 
    7568    323.03504    3.1579942    66.677765   -13.746049    484.61818    31112.326 
    7569    323.63259    3.0436056     66.41414   -14.051378    497.89575    31112.326 
    7570    318.16007    2.9530427    68.808495   -14.304828    509.27591    31112.326 
    7571    308.96895    2.8957049    72.810101    -14.52338    522.20862    31112.326 
    7572    299.57601    2.8762112    76.849837   -14.736073    541.21202    31112.326 
    7573    293.47656    2.8970305    79.365206   -14.975181     571.5836    31112.326 
    7574    293.01617     2.957221    79.309027    -15.26353    613.89416    31112.326 
    7575    298.67055    3.0466447    76.476469   -15.610914    664.49263    31112.326 
    7576    308.93606     3.154634     71.55121   -16.009428    717.34035    31112.326 
    7577    320.84171    3.2800367    65.868512   -16.437184    766.12707    31112.326 
    7578    330.92671    3.4228375     60.98526    -16.86737    798.75704    31112.326 
    7579    336.33969     3.573745    58.198329   -17.276111    807.65587    31112.326 
    7580    335.65474    3.7229009    58.168552   -17.649688    786.13143    31112.326 
    7581    329.22661    3.8646568    60.755707   -17.986561    732.53639    31112.326 
    7582    319.00246     3.994978    65.102359   -18.296624    647.54687    31112.326 
    7583    307.85904    4.1079113    69.928293   -18.599568    534.44136    31112.326 
    7584    298.68975    4.1983314    73.936389   -18.916241    398.94673    31112.326 
    7585     293.5348    4.2600274     76.20045    -19.26482    246.30396    31112.326 
    7586     293.0234    4.2941763     76.41416   -19.649814     79.96463    31112.326 
    7587    296.29617    4.3068512    74.926274   -20.066242    -95.87174    31112.326 
    7588     301.4267    4.3154912    72.559519   -20.492384   -279.09249    31112.326 
    7589     306.1809    4.3266674    70.283617   -20.909294   -467.97949    31112.326 
    7590     308.8126    4.3409622    68.865806    -21.29981   -657.05581    31112.326 
    7591    308.59546    4.3536712    68.628435   -21.659882   -840.34353    31112.326 
    7592    305.93403     4.365494    69.395469   -21.994812   -1010.6512    31112.326 
    7593    302.05187    4.3769797    70.634939     -22.3193   -1158.9608    31112.326 
    7594     298.4001    4.3888669    71.724989   -22.648519   -1276.4887    31112.326 
    7595    296.05298    4.3972616    72.223903   -22.993635     -1357.01    31112.326 
    7596    295.33496    4.3962835    72.030965   -23.355466   -1396.2516    31112.326 
    7597    295.81454     4.380152    71.378903   -23.725349   -1392.8416    31112.326 
    7598    296.63173    4.3452429    70.676984   -24.089923   -1347.5682    31112.326 
    7599    296.97664    4.2940805    70.288307    -24.43634   -1263.3563    31112.326 
7600        0.43117692789917555496 13.981399940000549975 0.53174603174603174427 47 -159.09945979917657155
    7600    296.50221    4.2298825    70.347573   -24.759313   -1145.9756    31112.326 
    7601    295.46862    4.1526081    70.703081    -25.06478    -1001.385    31112.326 
    7602    294.55216    4.0697388    71.005178   -25.362985   -838.11508    31112.326 
    7603    294.45255      3.99141    70.894627   -25.666565   -664.23087    31112.326 
    7604    295.48406    3.9223422    70.204033   -25.984647   -487.57333    31112.326 
    7605    297.32212    3.8662419    69.075778   -26.316634   -319.26063    31112.326 
    7606    299.05643     3.827481    67.936951   -26.652679   -168.44863    31112.326 
    7607    299.55685    3.8071593    67.334637   -26.977269   -44.211195    31112.326 
    7608    297.98652    3.8026525    67.696775   -27.275531    47.487343    31112.326 
    7609    294.24228    3.8087809    69.121413   -27.539579    104.17382    31112.326 
    7610    289.12245    3.8188589    71.288388   -27.772299    127.21075    31112.326 
    7611    284.12506    3.8258549    73.539392    -27.98677    121.41585    31112.326 
    7612    280.93412    3.8234245    75.102849   -28.201409    94.039171    31112.326 
    7613    280.78843    3.8052767     75.37881   -28.432736    54.505529    31112.326 
    7614    283.97074    3.7672445    74.172519   -28.688944    9.7397474    31112.326 
    7615    289.63621    3.7079849    71.782555   -28.966227   -32.572234    31112.326 
    7616     296.0545    3.6257335    68.908894   -29.250842   -66.786047    31112.326 
    7617    301.17002     3.518951    66.415382   -29.524596   -88.717405    31112.326 
    7618    303.28427    3.3885506    65.035042   -29.770706   -94.053499    31112.326 
    7619     301.6219    3.2359898    65.125344   -29.980007   -80.360238    31112.326 
    7620    296.57573    3.0640111     66.55809   -30.154056   -43.638757    31112.326 
    7621    289.56719     2.878603     68.77567   -30.301626      17.7665    31112.326 
    7622    282.58617    2.6817524    70.986432   -30.439133    103.29811    31112.326 
    7623    277.56176    2.4758445    72.427693   -30.582337    210.86435    31112.326 
    7624    275.78122    2.2631154    72.608729   -30.742051    334.96525    31112.326 
    7625    277.53299    2.0461432    71.456939   -30.921274    467.69724    31112.326 
    7626     282.0779    1.8283993    69.325335   -31.113769    600.12965    31112.326 
    7627    287.93728    1.6126382     66.86557   -31.307735    721.17334    31112.326 
    7628    293.38385    1.4028808    64.814347   -31.489738    820.93604    31112.326 
    7629     296.9822    1.2070912    63.761304   -31.647621    891.71103    31112.326 
    7630    298.00783    1.0328958    63.972419   -31.777171    928.30283    31112.326 
    7631    296.60767   0.88881666    65.324436   -31.881962    929.77841    31112.326 
    7632    293.67712   0.78199212    67.365012   -31.970235    897.35284    31112.326 
    7633    290.50166   0.71383135    69.471252   -32.055236    834.02472    31112.326 
    7634    288.29503   0.68709456     71.04968   -32.146884    746.18633    31112.326 
    7635    287.81425   0.70083497    71.707929   -32.252065    640.72266    31112.326 
    7636    289.15881   0.75382294    71.346753   -32.369671    525.08342    31112.326 
    7637    291.79576   0.84355648    70.153854   -32.494258    404.35077    31112.326 
    7638    294.78699   0.96604757    68.513891   -32.617329    284.88565    31112.326 
    7639    297.12207    1.1147173    66.872892   -32.729444      170.911    31112.326 
    7640    298.05125    1.2740528    65.601189   -32.825657    67.257119    31112.326 
    7641    297.31195    1.4280087    64.890276   -32.902983   -24.001322    31112.326 
    7642    295.19836    1.5649469    64.709104     -32.9633   -99.422876    31112.326 
    7643    292.49251    1.6756198    64.824807   -33.011866   -157.43806    31112.326 
    7644    290.23321    1.7508064    64.888586   -33.057976   -196.61174    31112.326 
    7645    289.37199     1.785495    64.568301   -33.111669   -217.72202    31112.326 
    7646    290.42185    1.7804423    63.691071   -33.180168   -222.17662    31112.326 
    7647    293.22027    1.7399932    62.345447   -33.265309    -213.0372    31112.326 
    7648    296.91357    1.6722346    60.892996   -33.360221   -194.18463    31112.326 
    7649    300.21957    1.5818669    59.864346   -33.453421   -168.70949    31112.326 
    7650     301.8924     1.475855    59.760843    -33.52975   -141.69864    31112.326 
    7651    301.23826    1.3634375     60.83256   -33.578521   -115.32182    31112.326 
    7652     298.4813    1.2529878     62.92579    -33.59834   -89.773625    31112.326 
    7653    294.78252    1.1513552     65.47895   -33.598992   -63.388712    31112.326 
    7654    291.86867    1.0639748    67.689193   -33.598289   -33.109685    31112.326 
    7655    291.39104   0.99311894    68.798424   -33.615962    2.8109636    31112.326 
    7656     294.2513   0.93840262    68.390759   -33.665259    45.345454    31112.326 
    7657    300.17064   0.89799944    66.578946   -33.747556    93.226236    31112.326 
    7658     307.6941   0.86923781    63.996713   -33.851583    142.87593    31112.326 
    7659    314.64835   0.84943624    61.589336    -33.95776    189.34035    31112.326 
    7660    318.89732   0.83599392    60.275187   -34.045291    227.70102    31112.326 
    7661    319.11152   0.82692116     60.60354   -34.101083    253.04149    31112.326 
    7662    315.26511   0.82462976    62.538217   -34.122261    262.27382    31112.326 
    7663    308.68073   0.83114503    65.449186   -34.119954    254.55371    31112.326 
    7664    301.59431   0.84840617     68.31978   -34.112796    230.99819    31112.326 
    7665     296.3904   0.87234054    70.097455    -34.12481     193.5286    31112.326 
    7666     294.7701   0.90358264    70.064712   -34.171193    142.77844    31112.326 
    7667    297.16183   0.94415443    68.099188   -34.256582    79.436874    31112.326 
    7668    302.57967   0.99602861    64.730579   -34.373057    4.0303439    31112.326 
    7669    308.96743    1.0654184    60.973781   -34.500031    -83.25426    31112.326 
    7670    313.92413    1.1524356    57.996141   -34.616422   -183.31041    31112.326 
    7671    315.53105    1.2546059    56.736648    -34.70424   -293.69751    31112.326 
    7672    312.99595    1.3706413    57.604798    -34.75558   -409.34167    31112.326 
    7673    306.91044    1.5005802    60.360859   -34.774964   -522.60512    31112.326 
    7674    299.03029    1.6453198    64.213344   -34.777371   -624.17727    31112.326 
    7675    291.66875    1.8056853    68.092524   -34.782664   -704.59641    31112.326 
    7676    286.92694     1.981331    70.998601   -34.808384   -755.99744    31112.326 
    7677    286.03421    2.1698262    72.301743   -34.863603   -773.60715    31112.326 
    7678    289.01871    2.3661442    71.895607   -34.945934     -756.381    31112.326 
    7679    294.79674    2.5611128     70.16504   -35.044408   -707.02027    31112.326 
    7680    301.60932    2.7459112    67.798107   -35.142749   -632.67309    31112.326 
    7681     307.6305    2.9126189    65.524589   -35.226969   -541.82062    31112.326 
    7682    311.52189    3.0544125    63.881532   -35.289826   -443.69587    31112.326 
    7683    312.74655    3.1665192    63.083673    -35.33241   -347.09747    31112.326 
    7684    311.57381    3.2465858    63.027552   -35.362527   -259.82002    31112.326 
    7685    308.82464    3.2948992    63.404572   -35.390633   -188.47409    31112.326 
    7686    305.48136    3.3188899     63.86179   -35.425873   -136.33142    31112.326 
    7687    302.35386     3.327419    64.141853   -35.472304    -108.3894    31112.326 
    7688    299.89409    3.3220088    64.153491   -35.529533    -106.3965    31112.326 
    7689    298.16266    3.3018733    63.962833   -35.593179   -130.10149    31112.326 
    7690     296.9462    3.2643877    63.725081    -35.65742   -177.08218    31112.326 
    7691    295.93497    3.2062604    63.595775   -35.717345   -242.65838    31112.326 
    7692    294.87727    3.1250236    63.660699    -35.77041   -320.05733    31112.326 
    7693    293.65036    3.0241045     63.90865   -35.816093   -398.98148    31112.326 
    7694    292.26108    2.9070795    64.250661   -35.857212   -471.39755    31112.326 
    7695    290.78351    2.7793883    64.569999   -35.895082   -528.96914    31112.326 
    7696    289.27153    2.6489546    64.779117   -35.930744   -563.58604    31112.326 
    7697    287.71891    2.5225836    64.860315     -35.9622   -568.27651    31112.326 
    7698    286.06499    2.3968025    64.875666   -35.990628    -538.6879    31112.326 
    7699    284.22753    2.2736691    64.944912   -36.011811   -475.00422    31112.326 
7700        0.43524446630884044973 14.068467778744697227 0.52910052910052907116 44 -163.87221743176834821
    7700     282.1761    2.1572489    65.198262   -36.022989   -379.08574    31112.326 
    7701     280.0172    2.0508047    65.720695   -36.022556   -255.40814    31112.326 
    7702    278.03015    1.9567409    66.508411   -36.010926   -110.51015    31112.326 
    7703    276.63781    1.8770798    67.454058    -35.99037    47.227734    31112.326 
    7704    276.30492    1.8132666    68.369378   -35.965578     208.4428    31112.326 
    7705    277.38913    1.7669796    69.041985    -35.94068    362.38985    31112.326 
    7706    279.97661    1.7382882    69.311407   -35.920663    499.40098    31112.326 
    7707    283.76858    1.7330294    69.136496   -35.904399    609.53358    31112.326 
    7708    288.09318     1.751765    68.624629   -35.890467    683.68153    31112.326 
    7709    292.04522    1.7955488    68.004547   -35.872082    715.95088    31112.326 
    7710    294.74124    1.8648019    67.543195   -35.841965    702.56023    31112.326 
    7711    295.62684    1.9595206    67.431603   -35.794096    643.75301    31112.326 
    7712    294.71554    2.0791798    67.684986   -35.726919     543.8296    31112.326 
    7713    292.65477    2.2223769    68.104108   -35.645213    409.91803    31112.326 
    7714    290.54819    2.3909439    68.326769   -35.560764    253.82575    31112.326 
    7715      289.594    2.5917917    67.963451   -35.483322    86.171767    31112.326 
    7716    290.64087    2.8210959    66.772748   -35.425181   -81.251608    31112.326 
    7717    293.80772    3.0722713    64.806599   -35.390336   -238.49191    31112.326 
    7718    298.34713    3.3340963    62.458482   -35.374293   -377.56787    31112.326 
    7719    302.82906    3.5937353    60.377778    -35.36456   -492.03269    31112.326 
    7720    305.61136    3.8388474    59.265984   -35.345196   -577.15902    31112.326 
    7721    305.43982    4.0600632    59.621466   -35.302444   -629.28013    31112.326 
    7722    301.95572    4.2524205    61.528209   -35.230056   -645.81405    31112.326 
    7723    295.90926    4.4126347    64.576873   -35.133141   -626.26002    31112.326 
    7724    288.96424     4.539244    67.963119   -35.026197   -570.23926    31112.326 
    7725    283.14223    4.6327638    70.741094   -34.928188   -477.48138    31112.326 
    7726    280.09681    4.6957043    72.147837   -34.856285   -352.83142    31112.326 
    7727    280.49547    4.7351401    71.878177   -34.815958   -202.68826    31112.326 
    7728    283.76003    4.7533231     70.20322   -34.801023   -37.360329    31112.326 
    7729    288.25366    4.7503817    67.880043   -34.795308    130.39244    31112.326 
    7730    291.88403    4.7322226    65.874499   -34.774895    288.13419    31112.326 
    7731    292.92432    4.6998497     64.99559   -34.722597    428.52192    31112.326 
    7732    290.69434    4.6632025    65.580599   -34.628914    542.45935    31112.326 
    7733    285.87889    4.6376088    67.349399   -34.498789    624.33111    31112.326 
    7734    280.34876    4.6299959    69.492315   -34.351081    674.67409    31112.326 
    7735    276.48532    4.6390977    70.966452   -34.212451    696.17007    31112.326 
    7736    276.26926    4.6648731    70.893645   -34.103928    691.26373    31112.326 
    7737    280.48743    4.7060909    68.911837   -34.035876    663.46807    31112.326 
    7738    288.34901    4.7603094    65.347577   -34.003343    615.22425    31112.326 
    7739    297.65476    4.8248615    61.142694    -33.98823    547.96192    31112.326 
    7740    305.46819    4.9023913    57.557071   -33.964929    463.82738    31112.326 
    7741    309.08282    4.9959823    55.749652   -33.910741    363.24681    31112.326 
    7742    306.93695    5.1086368    56.382045   -33.812171    250.96769    31112.326 
    7743    299.15532    5.2421857    59.384203   -33.670403    131.25653    31112.326 
    7744    287.54446    5.3947706    63.961812   -33.500437    11.888038    31112.326 
    7745    275.02577    5.5625595    68.843571   -33.326166   -98.310491    31112.326 
    7746    264.71367    5.7395169    72.683759   -33.172256   -191.06416    31112.326 
    7747    258.94668    5.9176145    74.483415    -33.05548   -260.01562    31112.326 
    7748    258.59872    6.0869364    73.888927     -32.9782   -301.23339    31112.326 
    7749     262.8852    6.2368651    71.272551   -32.928078    -316.1558    31112.326 
    7750     269.7176    6.3579555    67.575346   -32.882243   -309.19466    31112.326 
    7751    276.46556    6.4408446    63.976786   -32.815581   -284.82192    31112.326 
    7752    280.83959    6.4767496    61.511207   -32.710507    -248.2429    31112.326 
    7753    281.60001    6.4602754    60.761306     -32.5607   -202.89929    31112.326 
    7754    278.87036    6.3887121    61.722271   -32.373415   -151.58858    31112.326 
    7755    273.97735    6.2681604    63.863786   -32.164485   -93.413319    31112.326 
    7756     268.9455    6.1060614    66.347135   -31.953883   -30.106695    31112.326 
    7757     265.8159    5.9076268     68.31339   -31.758068    38.885649    31112.326 
    7758    266.00196     5.676773    69.147999   -31.587223    113.89332    31112.326 
    7759    269.87719    5.4201459    68.649292   -31.441681    191.23562    31112.326 
    7760    276.68744    5.1474781    67.065406   -31.313377    266.02862    31112.326 
    7761    284.79438    4.8680513    65.001003   -31.188913    332.37696    31112.326 
    7762    292.15996    4.5902039    63.224473   -31.053212    384.26387    31112.326 
    7763    296.94765    4.3211388    62.426826   -30.893598    416.83489    31112.326 
    7764    298.07918    4.0667252    62.997389   -30.703396    427.40072    31112.326 
    7765    295.58065    3.8306394    64.884334   -30.484885    415.01342    31112.326 
    7766    290.58802    3.6156635     67.59277    -30.25008    383.14366    31112.326 
    7767    284.99303    3.4261968    70.334303   -30.015106    336.31113    31112.326 
    7768    280.82581    3.2614526    72.289059   -29.798947    278.50351    31112.326 
    7769     279.5691    3.1196934    72.892449   -29.613829    215.44466    31112.326 
    7770    281.65965    2.9990661    72.039914   -29.460968    152.13382    31112.326 
    7771    286.37271    2.8979547    70.126499   -29.329758    92.508897    31112.326 
    7772    292.13809    2.8151563    67.899692   -29.201828    39.695713    31112.326 
    7773    297.16137    2.7519913    66.178842   -29.058847   -1.9217311    31112.326 
    7774    300.12064    2.7109445     65.54998   -28.888174   -29.231142    31112.326 
    7775    300.66021    2.6880469    66.155745   -28.689804   -37.848596    31112.326 
    7776    299.46092    2.6780065    67.663405   -28.476605   -24.383324    31112.326 
    7777    297.89356    2.6801545    69.421426   -28.265688    15.663201    31112.326 
    7778    297.40302     2.690062    70.739429   -28.077202    84.595492    31112.326 
    7779    298.84909    2.7079304    71.181227   -27.922604    180.92906    31112.326 
    7780    302.07125    2.7427527    70.756988   -27.801541    301.59048    31112.326 
    7781    305.87667    2.8065568    69.939253   -27.701438    436.67527    31112.326 
    7782    308.45383     2.904464    69.491009   -27.604256    574.89093    31112.326 
    7783    308.05117    3.0397724    70.165956   -27.490231    704.42059    31112.326 
    7784    303.70439    3.2140039    72.386625   -27.345579    814.12329    31112.326 
    7785    295.74029    3.4277722    76.018498   -27.167799    895.74349    31112.326 
    7786    285.86172    3.6795162    80.329929     -26.9667    942.36334    31112.326 
    7787    276.73717    3.9628601    84.169733    -26.76299    950.60592    31112.326 
    7788    271.19726    4.2698505    86.316158   -26.580565    919.60149    31112.326 
    7789    271.30101    4.5911866    85.887434   -26.438022    849.89437    31112.326 
    7790    277.59027    4.9163954    82.671856   -26.341062    742.70232    31112.326 
    7791    288.81524    5.2328202    77.252001   -26.279165    600.54927    31112.326 
    7792    302.24826    5.5278515    70.863011    -26.23085    427.24624    31112.326 
    7793    314.52357    5.7957129    65.020619   -26.165816    226.24491    31112.326 
    7794    322.73458    6.0235954     61.04016   -26.063385     4.874469    31112.326 
    7795    325.37095    6.1989995    59.617648   -25.915888   -225.18175    31112.326 
    7796    322.77261    6.3138028    60.622428   -25.731941   -449.14298    31112.326 
    7797    316.94563    6.3646068    63.175063   -25.534294    -649.7572    31112.326 
    7798    310.80603    6.3527021    65.980057   -25.351967   -810.00641    31112.326 
    7799    307.12942    6.2833957    67.790596   -25.210436   -915.81685    31112.326 
7800        0.43722930423037598135 14.182956123286826866 0.52910052910052907116 42 -164.48465889634434234
    7800    307.58487    6.1646632    67.838656   -25.123146   -958.44035    31112.326 
    7801    312.18764    6.0055105    66.082177   -25.087437   -935.89212    31112.326 
    7802    319.32956    5.8199424    63.191297   -25.087675   -851.42658    31112.326 
    7803    326.39302    5.6266512    60.288748   -25.095668    -717.1107    31112.326 
    7804      330.704    5.4294845    58.543606   -25.088746   -548.09482    31112.326 
    7805    330.44991    5.2289642    58.763945   -25.051322   -360.59323    31112.326 
    7806    325.27887    5.0260759    61.125995   -24.982481   -168.87122    31112.326 
    7807    316.39425    4.8312651    65.126684   -24.889913    13.536891    31112.326 
    7808    306.13206    4.6529943    69.767157   -24.794673    175.04262    31112.326 
    7809    297.18665    4.4976824    73.894755     -24.7165    306.41894    31112.326 
    7810    291.74555    4.3603348    76.578904   -24.673511    399.91424    31112.326 
    7811    290.83235    4.2384375    77.387888   -24.668921    449.67037    31112.326 
    7812    294.10117    4.1307528    76.471993   -24.693184    450.96086    31112.326 
    7813     300.1246    4.0370085    74.432647   -24.728594    402.89987    31112.326 
    7814    307.03704    3.9581442     72.04034   -24.754603     307.2938    31112.326 
    7815    313.25514    3.8907139    69.923022   -24.759479    169.71569    31112.326 
    7816    317.97743    3.8310478    68.353643   -24.742737   0.65822615    31112.326 
    7817    321.28621     3.777213    67.217145   -24.715209   -185.55417    31112.326 
    7818    323.85181    3.7270191     66.15767   -24.695096   -370.80687    31112.326 
    7819    326.39327    3.6825447    64.827913   -24.698095   -539.90577    31112.326 
    7820    329.16585    3.6486256    63.122092   -24.732756    -678.0046    31112.326 
    7821    331.72239    3.6305996    61.283395   -24.796125   -773.24432    31112.326 
    7822    333.05216    3.6316338    59.836698   -24.874317   -816.83477    31112.326 
    7823    332.03484    3.6443228    59.375979   -24.953267   -804.33466    31112.326 
    7824    327.98838    3.6635593    60.300378   -25.017894   -737.13336    31112.326 
    7825     321.0903     3.681852    62.612382   -25.062977   -617.43602    31112.326 
    7826    312.47138    3.6898462    65.866986   -25.093584   -451.63578    31112.326 
    7827    303.91328    3.6783021    69.298348   -25.123343   -248.24128    31112.326 
    7828    297.26691    3.6382353    72.078446   -25.168515   -18.245477    31112.326 
    7829    293.81096    3.5615515    73.607807   -25.239943    225.70279    31112.326 
    7830    293.79454    3.4389091    73.725644   -25.342372    467.62832    31112.326 
    7831    296.34744    3.2733439    72.755855   -25.464781    689.67775    31112.326 
    7832    299.82094    3.0731708     71.36727   -25.590646    874.74845    31112.326 
    7833    302.42984    2.8546395     70.30076   -25.699742    1007.3116    31112.326 
    7834    302.95881    2.6339427    70.068613   -25.777236    1077.4859    31112.326 
    7835    301.24502    2.4208315    70.745692   -25.822397    1079.5637    31112.326 
    7836    298.23669    2.2264667    71.937923   -25.844872    1013.3232    31112.326 
    7837    295.61502    2.0599004    72.943524   -25.863548    883.54163    31112.326 
    7838    295.12093     1.922843    73.045123   -25.899677    701.18998    31112.326 
    7839    297.82374    1.8130504    71.817279    -25.96876    477.75548    31112.326 
    7840    303.63686    1.7290536    69.325488   -26.072766    227.54541    31112.326 
    7841    311.27655    1.6680688    66.133065   -26.202848   -38.041853    31112.326 
    7842     318.6878    1.6326898    63.106728    -26.33895   -306.21949    31112.326 
    7843    323.78057     1.620372    61.100439   -26.462625   -565.26223    31112.326 
    7844    325.16026    1.6269189    60.645043   -26.561589   -802.70594    31112.326 
    7845    322.58096    1.6481736    61.765459   -26.634795   -1006.4412    31112.326 
    7846    316.96126     1.680952    63.993523    -26.69287   -1165.0223    31112.326 
    7847     309.9733    1.7288063    66.563625   -26.750651    -1268.968    31112.326 
    7848    303.40995    1.7947713    68.703872   -26.822993   -1313.4679    31112.326 
    7849    298.59135    1.8723634     69.90129   -26.919424   -1296.5125    31112.326 
    7850     296.0074    1.9507829    70.043436   -27.036684   -1222.4935    31112.326 
    7851    295.31196    2.0128715    69.393497   -27.167863   -1100.2397    31112.326 
    7852    295.64293    2.0508801    68.422351   -27.297291   -942.46169    31112.326 
    7853     296.1043    2.0604382    67.581423   -27.413007   -762.91892    31112.326 
    7854    296.18568    2.0400072    67.116379   -27.509947   -575.69134    31112.326 
    7855    295.93862    1.9913477    66.995801   -27.592131    -393.5048    31112.326 
    7856    295.86706    1.9217867    66.974461   -27.667898   -227.63635    31112.326 
    7857    296.60939     1.835953    66.752938   -27.749688   -88.345916    31112.326 
    7858    298.55767    1.7380519    66.156784   -27.845864    17.167559    31112.326 
    7859     301.5976    1.6324506    65.251928   -27.957268    84.246695    31112.326 
    7860    305.10669    1.5123946    64.344297   -28.080662     112.7658    31112.326 
    7861    308.15417    1.3804953    63.863722   -28.203981    101.56648    31112.326 
    7862    309.87696    1.2490704     64.17598   -28.317263    54.106372    31112.326 
    7863    309.88785     1.130577    65.404164   -28.413941   -22.842726    31112.326 
    7864    308.48017    1.0343962    67.337761   -28.495715   -119.77749    31112.326 
    7865    306.55966   0.96695537    69.472577   -28.571346   -225.00875    31112.326 
    7866    305.31896   0.93151987    71.171978   -28.653752   -326.03869    31112.326 
    7867    305.79085   0.92522707    71.889598   -28.753702   -410.84932    31112.326 
    7868    308.43068   0.93677251    71.368891   -28.881298   -471.31725    31112.326 
    7869    312.86604   0.97886712     69.73965   -29.036581   -499.15378    31112.326 
    7870    318.03466    1.0755129    67.474696   -29.205148   -495.32787    31112.326 
    7871    322.58778    1.2180208    65.227033   -29.379577   -461.65144    31112.326 
    7872    325.30318    1.3956837    63.615026   -29.550041   -401.70122    31112.326 
    7873    325.46145    1.6002762     63.03302   -29.709879   -322.02518    31112.326 
    7874     323.0536    1.8207263    63.549779   -29.859804   -229.24292    31112.326 
    7875    318.74277      2.04557    64.919117   -30.004785   -129.51671    31112.326 
    7876    313.62348    2.2644812    66.684516   -30.152278   -28.674612    31112.326 
    7877    308.87975    2.4694412    68.332686   -30.310623    68.382573    31112.326 
    7878    305.45304    2.6607269    69.444284    -30.48334    157.99498    31112.326 
    7879    303.82031    2.8372189    69.801321   -30.673569    235.43009    31112.326 
    7880    303.90785    2.9985507    69.429829   -30.879949    297.13163    31112.326 
    7881     305.1524    3.1476156    68.570236   -31.097764    341.19158    31112.326 
    7882    306.69489    3.2899016    67.590245   -31.320266    366.95176    31112.326 
    7883    307.64371    3.4322065    66.866669    -31.54041    375.08518    31112.326 
    7884    307.33291    3.5812975    66.670177   -31.752651    367.52862    31112.326 
    7885    305.51253    3.7397509    67.084973    -31.95392    348.47437    31112.326 
    7886    302.40479    3.9065449    67.984073   -32.145319    320.29368    31112.326 
    7887    298.62664    4.0824109    69.063729    -32.33021    286.83058    31112.326 
    7888    295.02271    4.2679856    69.924319   -32.512932     251.3835    31112.326 
    7889    292.44314    4.4587257     70.17602   -32.699908    214.31411    31112.326 
    7890    291.50938      4.64608    69.546343   -32.896826    175.64421    31112.326 
    7891    292.41604    4.8198867    67.967397   -33.107768    133.84017    31112.326 
    7892    294.82308    4.9698221    65.623314   -33.333896     86.04965    31112.326 
    7893    297.87119     5.086949    62.941616   -33.572334    28.642194    31112.326 
    7894    300.34187    5.1650783    60.518774   -33.815744   -41.984354    31112.326 
    7895    300.95391    5.2016719    58.983341   -34.053192   -128.42329    31112.326 
    7896    298.74168    5.1981373    58.820397   -34.273115   -231.09063    31112.326 
    7897     293.4022    5.1676381    60.202979   -34.464988   -345.59133    31112.326 
    7898    285.53045    5.1214846    62.888854   -34.626384   -468.51232    31112.326 
    7899    276.58169    5.0630162    66.236472   -34.764507   -591.64427    31112.326 
7900        0.43912246588814540793 14.265849322254707587 0.53439153439153441738 48 -156.54412886542422711
    7900    268.49669    4.9989386    69.359851   -34.892807   -704.24367    31112.326 
    7901    263.12343    4.9326355    71.391788   -35.030061   -796.35619    31112.326 
    7902    261.57911    4.8665084    71.777139   -35.190292   -857.74202    31112.326 
    7903    263.79457    4.8012604    70.487408    -35.37796   -881.50396    31112.326 
    7904    268.45014    4.7368728    68.062699   -35.583828   -863.47227    31112.326 
    7905    273.36826    4.6738392    65.445821   -35.787561   -802.89892    31112.326 
    7906    276.26031    4.6137046    63.654092   -35.964943   -701.94631    31112.326 
    7907    275.56351    4.5595808     63.40503   -36.097199   -564.52616    31112.326 
    7908    271.05254    4.5161369    64.838592   -36.177761   -396.28557    31112.326 
    7909     263.9799    4.4863742    67.447195   -36.216443   -203.48732    31112.326 
    7910    256.66374    4.4761839    70.246058   -36.235087    6.3807039    31112.326 
    7911    251.68102    4.4976939    72.122322   -36.258209    224.03123    31112.326 
    7912    250.97067    4.5575704    72.237249   -36.306912     436.4945    31112.326 
    7913    255.14171    4.6546569    70.337716    -36.38836    633.09585    31112.326 
    7914    263.21419    4.7757606    66.871801   -36.498247    797.04904    31112.326 
    7915    272.88157    4.9067802    62.870836   -36.616421    913.45645    31112.326 
    7916    281.23129    5.0318986    59.630194   -36.717092    970.63513    31112.326 
    7917    285.70258    5.1350217    58.286715   -36.776112    961.72761    31112.326 
    7918    284.97214    5.2020936    59.424426   -36.778821    886.43836    31112.326 
    7919     279.4804    5.2224667    62.838499   -36.724899     752.4133    31112.326 
    7920    271.39089    5.1879982    67.547925   -36.632322    573.32899    31112.326 
    7921    263.94684    5.1004698     72.07475   -36.529357    367.24791    31112.326 
    7922    260.41387    4.9665474    74.916734   -36.447669    156.25859    31112.326 
    7923    262.93371    4.7970725    75.062427   -36.410532   -41.218378    31112.326 
    7924    271.69833    4.6077729    72.366877   -36.421881   -208.66259    31112.326 
    7925    284.79117    4.4070564    67.639149   -36.466776   -333.58893    31112.326 
    7926    298.74462    4.2058003    62.393999   -36.513025   -412.90196    31112.326 
    7927    309.67842    4.0185825    58.342944   -36.525507   -445.87979    31112.326 
    7928    314.63609    3.8563417    56.804419    -36.47889   -434.79557    31112.326 
    7929    312.59979     3.725563    58.247443   -36.366713   -383.53399    31112.326 
    7930    304.82704    3.6282029    62.134806   -36.203542   -296.85071    31112.326 
    7931    294.39028    3.5622505    67.120611   -36.019779    -180.5058    31112.326 
    7932    285.10059    3.5185494    71.527898   -35.851091    -40.56489    31112.326 
    7933    280.17555    3.4871853    73.934739   -35.725902    111.07134    31112.326 
    7934    281.14447    3.4630258    73.659725   -35.654897    260.83085    31112.326 
    7935    287.37841    3.4406687    70.981455   -35.627404    392.57192    31112.326 
    7936    296.37534    3.4149756     67.01661    -35.61491     489.2125    31112.326 
    7937    304.70762     3.381348    63.300716   -35.581317    535.31341    31112.326 
    7938    309.29454    3.3358315    61.220558   -35.495969    519.94205    31112.326 
    7939     308.5406    3.2751858    61.502929   -35.344774    439.02827    31112.326 
    7940    302.92125    3.1965713    63.949102   -35.134387    296.99872    31112.326 
    7941    294.79084    3.0903561    67.518681   -34.893197    106.99526    31112.326 
    7942    287.45373     2.948473    70.737293   -34.657598   -114.77638    31112.326 
    7943    283.85743    2.7704114     72.27627   -34.457978   -349.73506    31112.326 
    7944    285.43485    2.5597115    71.477916   -34.307195   -578.43249    31112.326 
    7945     291.5397    2.3227476    68.616994   -34.194077   -783.92616    31112.326 
    7946    299.70739    2.0682485    64.790496   -34.087555   -952.85066    31112.326 
    7947    306.64709    1.8065429    61.477768   -33.949302    -1075.326    31112.326 
    7948    309.56783    1.5487026    59.948557   -33.749348   -1144.1751    31112.326 
    7949      307.303    1.3057689    60.759187   -33.477976   -1154.1457    31112.326 
    7950     300.7808      1.08828    63.539299   -33.149227   -1101.5172    31112.326 
    7951    292.65861   0.90624947    67.150584   -32.794609   -985.23077    31112.326 
    7952    286.27913   0.76820904    70.147619   -32.450129   -807.34044    31112.326 
    7953      284.364   0.67972214    71.353454   -32.143131   -575.36555    31112.326 
    7954    287.95839   0.64630765    70.323344   -31.877548   -302.76161    31112.326 
    7955    296.02777   0.66039153    67.520347   -31.640766   -7.0347499    31112.326 
    7956    305.82348   0.72014418    64.140152   -31.398536    288.76976    31112.326 
    7957    313.90456   0.82470171    61.653103   -31.115395      563.138    31112.326 
    7958    317.45449   0.96760026    61.236757   -30.762864    798.29137    31112.326 
    7959    315.34974    1.1252062    63.313011   -30.341281     979.7528    31112.326 
    7960    308.57704    1.2863751    67.366635   -29.865417    1099.9749    31112.326 
    7961    299.87636    1.4453137    72.118785    -29.36715    1159.0381    31112.326 
    7962    292.72735    1.5934399    75.995557   -28.884403    1160.8102    31112.326 
    7963    290.03538    1.7227996    77.714432   -28.443877    1113.5209    31112.326 
    7964     293.0346    1.8283513    76.762054   -28.051076    1026.4743    31112.326 
    7965    300.84108    1.9081699    73.577442   -27.688232    908.75637    31112.326 
    7966     310.8164    1.9631763    69.371838   -27.322238    768.81538    31112.326 
    7967    319.58427    1.9974816    65.662515   -26.917999     614.7613    31112.326 
    7968    324.29136    2.0154129    63.710007   -26.453708    454.71192    31112.326 
    7969    323.61676     2.020745    64.079641   -25.928252    298.19797    31112.326 
    7970    318.16062    2.0162454    66.487684   -25.360578    155.51573    31112.326 
    7971    310.11582    2.0033831    69.968041   -24.781181    36.606557    31112.326 
    7972    302.39627     1.986671    73.267051   -24.221813   -49.119325    31112.326 
    7973    297.62636    1.9776268     75.29575   -23.697568   -98.270724    31112.326 
    7974    297.36117    1.9754067     75.46938   -23.212774   -111.87287    31112.326 
    7975    301.74152    1.9785795    73.830323   -22.755111   -95.000204    31112.326 
    7976    309.64912    1.9863807    70.947067   -22.304344   -56.563465    31112.326 
    7977     319.2205    1.9988418    67.663113   -21.840975   -7.7563902    31112.326 
    7978    328.48033    2.0162473    64.807238    -21.35262    40.169805    31112.326 
    7979    335.86823    2.0369249    62.966153   -20.838843    77.379875    31112.326 
    7980    340.52261    2.0622498    62.377039   -20.306353    94.613043    31112.326 
    7981    342.30589    2.0925789    62.945043   -19.768056    86.267244    31112.326 
    7982    341.63206     2.125704    64.350353    -19.23775    50.580149    31112.326 
    7983    339.21058    2.1516394      66.1899   -18.726009   -10.720616    31112.326 
    7984    335.77618     2.160209    68.101803   -18.238952   -96.723242    31112.326 
    7985    331.90521    2.1498832    69.839501     -17.7774   -202.82849    31112.326 
    7986     327.9819    2.1221575    71.282756   -17.338452   -322.94829    31112.326 
    7987    324.24743    2.0813969    72.400393   -16.917526   -449.90417    31112.326 
    7988    320.89526    2.0331777    73.192609   -16.509958   -574.94775    31112.326 
    7989    318.14325    1.9827312    73.643347   -16.114267   -690.64507    31112.326 
    7990    316.24755    1.9391071    73.703029   -15.729373   -789.95676    31112.326 
    7991    315.45736     1.910307    73.306729   -15.356237   -866.38939    31112.326 
    7992    315.92627       1.9011    72.416912     -14.9956    -914.1418    31112.326 
    7993    317.61059    1.9120617    71.070433   -14.649503   -930.85842    31112.326 
    7994    320.20744    1.9491496    69.407792   -14.315181    -916.5173    31112.326 
    7995    323.18688     2.012972     67.67064   -13.990935   -874.61369    31112.326 
    7996    325.88798     2.099726    66.167864   -13.673731   -809.45334    31112.326 
    7997    327.66402    2.2029839    65.215384   -13.359113   -725.60619    31112.326 
    7998    328.05188    2.3091042    65.061533   -13.047325   -629.60108    31112.326 
    7999    326.91059    2.4140039    65.812245   -12.736668   -527.94979    31112.326 
8000        0.43831581694848759101 14.330396279050351183 0.53968253968253965258 48 -159.46491068231489407
    8000    324.53297    2.5240179    67.370958   -12.424497    -425.8049    31112.326 
    8001    321.68966    2.6410499    69.413975    -12.11419   -328.39863    31112.326 
    8002    319.52566    2.7643083    71.424341   -11.812138     -239.689    31112.326 
    8003    319.29495    2.8930956    72.797752   -11.527177   -161.18999    31112.326 
    8004    321.98169    3.0229764    73.012255   -11.269838    -93.24628    31112.326 
    8005    327.87715    3.1489843    71.822496   -11.048078   -38.479771    31112.326 
    8006    336.25266     3.273163    69.413297   -10.864908    3.0327576    31112.326 
    8007    345.34108    3.4039957    66.435105   -10.710656    28.494918    31112.326 
    8008    352.69257    3.5402932    63.873769   -10.571783    35.694826    31112.326 
    8009    355.84099    3.6819264    62.764065   -10.428805    24.804021    31112.326 
    8010    353.14597    3.8266206    63.822076   -10.264924    -4.153255    31112.326 
    8011    344.50946    3.9682391     67.12485   -10.072673   -47.405233    31112.326 
    8012    331.65348    4.0996387    71.973116   -9.8588891     -98.4898    31112.326 
    8013    317.79147    4.2137023     77.02248   -9.6448452   -149.18515    31112.326 
    8014    306.71833    4.3044113    80.674881    -9.460356   -191.26079    31112.326 
    8015    301.58214    4.3677054    81.616793   -9.3330861   -218.58406    31112.326 
    8016    303.75658    4.4021158    79.317695    -9.277325   -228.58482    31112.326 
    8017     312.2453    4.4100981    74.295726   -9.2853144   -223.48586    31112.326 
    8018    323.88628    4.3953756    68.027507    -9.329954   -209.46327    31112.326 
    8019     334.3636    4.3562436    62.504159   -9.3716438    -194.4218    31112.326 
    8020    339.68088     4.286158    59.568359   -9.3736906   -187.80264    31112.326 
    8021    337.58575    4.1841466    60.265962   -9.3134693   -194.54904    31112.326 
    8022    328.45982    4.0512644    64.446402   -9.1919069   -214.68954    31112.326 
    8023    315.28597    3.8910508    70.773094   -9.0341598   -243.24959    31112.326 
    8024    302.67318    3.7096905     77.15756   -8.8818354   -271.71979    31112.326 
    8025    295.26604    3.5157684    81.472865   -8.7785517   -290.62452    31112.326 
    8026    296.10504    3.3195862    82.292944   -8.7537541    -292.3039    31112.326 
    8027    305.53611    3.1320532    79.388197   -8.8113251   -272.79483    31112.326 
    8028    321.07405    2.9632896    73.793367   -8.9283777   -232.84221    31112.326 
    8029    338.27313    2.8224425    67.421075   -9.0654064   -176.24678    31112.326 
    8030    352.29503    2.7200732    62.364811   -9.1778822   -108.51381    31112.326 
    8031    359.60362    2.6486584    60.154398   -9.2407871   -33.492627    31112.326 
    8032    359.09883    2.5956238    61.245524   -9.2525046     43.97432    31112.326 
    8033    352.29938    2.5557118    64.930331   -9.2345067    122.66704    31112.326 
    8034    342.56971    2.5238205     69.69046   -9.2250526    203.57893    31112.326 
    8035    333.68985    2.4947187    73.838591   -9.2634403    287.62046    31112.326 
    8036    328.36446    2.4643717    76.182473   -9.3743005    372.52629    31112.326 
    8037    327.27763    2.4300917    76.442501   -9.5579943    453.21235    31112.326 
    8038    329.04889    2.3900664    75.264486   -9.7906659    521.73333    31112.326 
    8039    331.06275    2.3430814    73.840495   -10.034534    569.16407    31112.326 
    8040    330.78406    2.2890538    73.314327   -10.253329    587.58519    31112.326 
    8041    326.97845    2.2288156    74.234278   -10.427577    572.86091    31112.326 
    8042      320.312    2.1643589    76.290072   -10.561754    525.37354    31112.326 
    8043    313.08145    2.0969469    78.444509   -10.682307    449.28487    31112.326 
    8044    308.19404    2.0261118    79.401201   -10.826729    352.07704    31112.326 
    8045    307.83615    1.9518398     78.20597    -11.02829    242.78669    31112.326 
    8046    312.41199     1.880019     74.72329   -11.298272    128.93534    31112.326 
    8047    320.22074    1.8123302    69.780607   -11.626144    14.776802    31112.326 
    8048    328.01166    1.7493793    64.910386   -11.979778   -96.445622    31112.326 
    8049    332.21348    1.6916835    61.785275   -12.318316   -201.53474    31112.326 
    8050    330.36342    1.6373156    61.566631   -12.609239   -296.78348    31112.326 
    8051    322.15259     1.586333    64.424961    -12.83904   -376.82546    31112.326 
    8052    309.66952    1.5424586     69.42544   -13.017925   -434.05129    31112.326 
    8053    296.73329    1.5070545    74.829941   -13.178968     -461.021    31112.326 
    8054    287.52959    1.4857211    78.707981   -13.364466   -449.61314    31112.326 
    8055     285.0979    1.4825888      79.6294   -13.609299   -399.02014    31112.326 
    8056    290.19853    1.4915996    77.187329   -13.930243   -312.35773    31112.326 
    8057    300.96453    1.5081683    72.154392   -14.317217   -198.15145    31112.326 
    8058    313.51032     1.530346    66.214417   -14.738928   -68.919005    31112.326 
    8059    323.25882    1.5685444     61.36774   -15.150904    62.263945    31112.326 
    8060    326.54562    1.6301306    59.226751   -15.516475    180.72223    31112.326 
    8061     321.9056    1.7099971    60.457544    -15.81432    279.95283    31112.326 
    8062    310.52932    1.7962976    64.564946   -16.050153    352.82165    31112.326 
    8063    295.79481    1.8861999    70.091392   -16.247885    398.96616    31112.326 
    8064    282.08777    1.9769498    75.142769   -16.444562    421.94974    31112.326 
    8065    273.32108     2.065268    78.041837   -16.675902    426.46346    31112.326 
    8066    271.68337    2.1475581    77.874973   -16.963657    416.36424    31112.326 
    8067    277.03359    2.2202253    74.749592   -17.308702    393.55738    31112.326 
    8068    287.10243    2.2800092    69.693985   -17.692342    358.01641    31112.326 
    8069    298.37178     2.324236    64.260948   -18.084689    308.79566    31112.326 
    8070    307.28438     2.350939     59.99363   -18.456073    245.54421    31112.326 
    8071    311.35486    2.3586855    57.945292   -18.786582    170.18003    31112.326 
    8072    309.82397    2.3447843     58.40848   -19.072419    87.284385    31112.326 
    8073    303.68296     2.308565    60.922381   -19.323351    3.1131952    31112.326 
    8074    295.13568    2.2502939    64.524165   -19.558772   -73.966903    31112.326 
    8075    286.74554    2.1718342    68.128806   -19.799284   -136.06315    31112.326 
    8076    280.59407    2.0772514    70.889293   -20.060078   -177.00413    31112.326 
    8077    277.73844    1.9754804    72.414936   -20.343436    -193.9212    31112.326 
    8078    278.11138    1.8727499    72.790836   -20.643781    -187.6327    31112.326 
    8079    280.81155      1.77513    72.425383   -20.948804   -161.18742    31112.326 
    8080    284.60279    1.6885314     71.81467   -21.246387    -119.6167    31112.326 
    8081    288.40288     1.616133     71.33093   -21.529673    -68.09165    31112.326 
    8082    291.56913    1.5587159    71.114456   -21.799045   -13.723698    31112.326 
    8083    293.93973    1.5111532    71.091686   -22.057621    39.140454    31112.326 
    8084    295.65534    1.4592704    71.080137   -22.317759    85.574003    31112.326 
    8085    296.91903    1.4068282    70.911051    -22.58031    118.65792    31112.326 
    8086    297.87036    1.3546753    70.505443   -22.846302    133.99743    31112.326 
    8087    298.56892    1.3046257    69.878555   -23.113493    128.65439    31112.326 
    8088    299.06128    1.2594649    69.093243   -23.379837    101.20018    31112.326 
    8089    299.44559    1.2245524    68.208299   -23.645116    52.614218    31112.326 
    8090    299.87108    1.2033231    67.260901   -23.912685    -16.39943    31112.326 
    8091    300.44499     1.197456    66.293575   -24.186878   -101.94159    31112.326 
    8092    301.12449    1.2076901    65.396866   -24.467262   -197.99409    31112.326 
    8093    301.67261    1.2259882    64.727789   -24.754417   -301.03321    31112.326 
    8094     301.7207    1.2497385    64.478146   -25.041715   -408.58516    30884.153 
    8095    300.95313    1.2765721    64.795768   -25.322214   -509.10023    30884.153 
    8096    299.31649    1.3044379     65.69487   -25.591034   -598.21964    30884.153 
    8097    297.14281    1.3319286    67.003394   -25.847929   -669.46065    30884.153 
    8098    295.11273    1.3585863    68.381689   -26.098076   -716.61687    30884.153 
    8099    294.05223     1.385593    69.416227   -26.349957   -734.92095    30884.153 
8100        0.4350833172625633849 14.385945686594158843 0.54497354497354488778 48 -160.10638919434421723
    8100    294.63227     1.413077    69.759023   -26.613481   -722.81247    30884.153 
    8101    297.07386    1.4410482    69.264107    -26.89543   -680.36364    30884.153 
    8102    300.98484    1.4699308    68.065881   -27.196163   -609.78585    30884.153 
    8103    305.41678    1.4956587    66.561895   -27.510916    -515.2343    30884.153 
    8104    309.13925    1.5143352    65.292893   -27.828439    -404.6367    30884.153 
    8105    311.06785    1.5239572    64.751102   -28.135464   -285.84658    30884.153 
    8106    310.71427    1.5232948    65.177734    -28.42204   -166.02652    30884.153 
    8107    308.45688    1.5157227    66.428429   -28.689525   -49.812995    30884.153 
    8108    305.52591    1.5194935     67.97303   -28.939604    58.364968    30884.153 
    8109    303.65392    1.5315481    69.056062   -29.194197    153.72063    30884.153 
    8110    304.42282    1.5417585    68.981061   -29.475502    234.82959    30884.153 
    8111     308.5514    1.5422014    67.415171   -29.800132    298.14023    30884.153 
    8112    315.45912     1.530071    64.585354   -30.170634    340.91739    30884.153 
    8113    323.31785    1.4983743    61.266466   -30.577785    359.71939    30884.153 
    8114    329.59608    1.4482516    58.541707   -30.996997    350.81566    30884.153 
    8115    331.94645    1.3856374     57.41379   -31.401409    313.29464    30884.153 
    8116    329.09973    1.3186299    58.417185   -31.770993    249.33274    30884.153 
    8117    321.39234    1.2560096    61.390436    -32.09989    164.66767    30884.153 
    8118    310.71358    1.2062516    65.504485   -32.398264    68.604302    30884.153 
    8119    299.89514     1.175816     69.53789   -32.687101   -28.415457    30884.153 
    8120    291.77128    1.1664039    72.292531   -32.991447   -116.84756    30884.153 
    8121    288.26807    1.1758552    72.991976   -33.328355   -187.74594    30884.153 
    8122    289.82485    1.1954969    71.522169   -33.706668   -237.27745    30884.153 
    8123    295.32524    1.2251239    68.439587   -34.117671   -265.36897    30884.153 
    8124    302.54463     1.265936    64.760022   -34.544047   -274.55404    30884.153 
    8125    308.91197    1.3205487    61.613484   -34.964886   -269.35729    30884.153 
    8126    312.31778    1.3933753    59.885432   -35.362409    -254.8546    30884.153 
    8127    311.71613    1.4905668    59.958535   -35.726978   -235.44263    30884.153 
    8128    307.34696    1.6199077    61.629176   -36.059687   -213.65013    30884.153 
    8129    300.54291    1.7913876    64.213417   -36.369095    -191.0196    30884.153 
    8130    293.22332    2.0068317    66.797441   -36.669811   -166.84814    30884.153 
    8131    287.23775    2.2605539    68.541381   -36.977847   -142.71167    30884.153 
    8132    283.79765    2.5497351    68.932628   -37.300824   -119.81613    30884.153 
    8133    283.21054    2.8686656    67.903732   -37.638373   -99.537097    30884.153 
    8134    284.96249     3.208304    65.784884    -37.98246   -83.748391    30884.153 
    8135    288.07463    3.5565195    63.126301   -38.321924   -74.292264    30884.153 
    8136     291.5544    3.8988225    60.476153   -38.648302   -72.340969    30884.153 
    8137    294.71866    4.2224964    58.212191   -38.963839   -76.240557    30884.153 
    8138    297.26976    4.5375917    56.493428    -39.26686   -84.356171    30884.153 
    8139    299.16872    4.8419711    55.331356   -39.569231   -96.675552    30884.153 
    8140    300.37383    5.1299487    54.719759   -39.877339   -110.86184    30884.153 
    8141    300.61679    5.3964016    54.738813   -40.190687   -124.67134    30884.153 
    8142    299.40692    5.6362375    55.563636   -40.500925   -136.13663    30884.153 
    8143    296.26675    5.8437872    57.365442   -40.795091   -143.45285    30884.153 
    8144    291.08368    6.0123097    60.156463   -41.061525   -144.72019    30884.153 
    8145    284.38698    6.1337878    63.665527   -41.295545   -137.79454    30884.153 
    8146    277.37727    6.1999855    67.321758   -41.503507   -119.79251    30884.153 
    8147    271.65828    6.2091174    70.374534   -41.695699   -88.666208    30884.153 
    8148     268.7601    6.1518581     72.11515   -41.890046   -45.087146    30884.153 
    8149    269.60607    6.0185163    72.118486   -42.099615     9.504287    30884.153 
    8150    274.13922    5.8034961    70.407602   -42.329043    71.433111    30884.153 
    8151    281.27647    5.5070197    67.473369   -42.572862    135.04739    30884.153 
    8152    289.21283    5.1361762    64.134987   -42.817734    193.56401    30884.153 
    8153    295.97814    4.7050744    61.285994   -43.047531    240.30389    30884.153 
    8154    300.05674    4.2340372    59.612127   -43.249267     269.9754    30884.153 
    8155    300.85774    3.7477495    59.378034   -43.417366    280.04643    30884.153 
    8156     298.8724    3.2705201    60.356418   -43.557322    270.78764    30884.153 
    8157    295.45881    2.8283273    61.923779   -43.681607    243.43021    30884.153 
    8158    292.34184    2.4439849    63.288737   -43.806801    202.51323    30884.153 
    8159    290.99763     2.133979    63.773137   -43.948344    151.54775    30884.153 
    8160    292.13352    1.9114378    63.047288   -44.113993    94.901129    30884.153 
    8161     295.4604    1.7839108    61.237486   -44.301219    34.468406    30884.153 
    8162     299.8247    1.7502613    58.870682   -44.499436   -28.555908    30884.153 
    8163    303.63849    1.8021358    56.681731   -44.692244   -93.136582    30884.153 
    8164    305.47646    1.9061657    55.357136    -44.86672   -154.80199    30884.153 
    8165    304.51636    2.0271684    55.311211   -45.017404   -215.15867    30884.153 
    8166     300.7559    2.1566022    56.564008   -45.141643   -272.59019    30884.153 
    8167    295.00395    2.2870159    58.759753   -45.246416   -323.80055    30884.153 
    8168    288.57165    2.4110543    61.307431   -45.342341   -365.02454    30884.153 
    8169    282.82149    2.5211934    63.582821   -45.440151   -393.38627    30884.153 
    8170      278.752     2.612675    65.115851   -45.545451   -408.19104    30884.153 
    8171    276.76193    2.6828387    65.700543   -45.657877   -409.96022    30884.153 
    8172    276.65352    2.7307399    65.399568   -45.771579    -400.9431    30884.153 
    8173    277.83929    2.7569179    64.456971   -45.878122   -384.63488    30884.153 
    8174    279.64743    2.7630121    63.165527   -45.970237   -365.06797    30884.153 
    8175    281.57979    2.7551489     61.74757   -46.046813   -344.20264    30884.153 
    8176    283.45218    2.7475349    60.295714   -46.106177   -325.96483    30884.153 
    8177    285.36392    2.7411077    58.793422    -46.15646   -313.71123    30884.153 
    8178    287.49806    2.7337305    57.197426   -46.205706   -309.40451    30884.153 
    8179    289.88084    2.7233415    55.537416   -46.259447   -313.96937    30884.153 
    8180    292.22242    2.7086027    53.982931   -46.318632   -327.88679    30884.153 
    8181    293.91438    2.6890659     52.84196   -46.379071   -351.16685    30884.153 
    8182    294.19743    2.6652084    52.484397   -46.432892   -383.11012    30884.153 
    8183    292.44807    2.6368518    53.214698   -46.470994   -421.03679    30884.153 
    8184    288.46814    2.6029104     55.13979   -46.487815   -462.43662    30884.153 
    8185    282.66894    2.5659089    58.082542   -46.481466   -502.84755    30884.153 
    8186    276.06954    2.5306831    61.578541   -46.457349   -535.26565    30884.153 
    8187    270.09596    2.5060295    64.966689   -46.422197   -553.62934    30884.153 
    8188    266.21788    2.4915926    67.556026   -46.388908   -552.27366    30884.153 
    8189    265.50283    2.4858012    68.823731   -46.367521   -526.23709    30884.153 
    8190    268.24557    2.4872329    68.582511   -46.362816   -472.83266    30884.153 
    8191    273.80713    2.4950012    67.059124   -46.371979    -392.1796    30884.153 
    8192    280.74168    2.5081724    64.847325   -46.383995   -286.59295    30884.153 
    8193    287.20069    2.5219335    62.736094   -46.385391   -161.07875    30884.153 
    8194    291.50191    2.5339229    61.458788   -46.361155   -22.689017    30884.153 
    8195    292.69248     2.542144    61.443031   -46.302652    121.90326    30884.153 
    8196    290.90528    2.5441569    62.650341   -46.210973    266.64654    30884.153 
    8197    287.35159    2.5372027    64.572457    -46.09774    406.49089    30884.153 
    8198    283.92301    2.5186135    66.398906   -45.982004    537.23045    30884.153 
    8199    282.52627     2.483634    67.306044   -45.883444    656.19601    30884.153 
8200        0.42914900044926834743 14.431402534711574859 0.54497354497354488778 49 -174.65353522817270004
    8200    284.35142    2.4305449    66.766236   -45.818706    759.52186    30884.153 
    8201    289.38007    2.3732538    64.760699   -45.785421    841.43202    30884.153 
    8202    296.34747    2.3165872     61.80844   -45.774765    895.77521    30884.153 
    8203     303.1387    2.2659777    58.794881   -45.767333    917.58897    30884.153 
    8204    307.50792    2.2282735    56.660042   -45.742759    903.79664    30884.153 
    8205    307.86291    2.2132854    56.063025   -45.686328    854.60949    30884.153 
    8206    303.82453    2.2293384    57.149485   -45.595657    771.94829    30884.153 
    8207     296.3529    2.2821424    59.507309   -45.480098     662.1026    30884.153 
    8208    287.40356    2.3749006    62.321516   -45.357119    533.85112    30884.153 
    8209    279.26221    2.5075424    64.664369   -45.245717    397.02921    30884.153 
    8210    273.80268    2.6763215    65.811245   -45.159639    260.96204    30884.153 
    8211    271.92461    2.8738569     65.47119   -45.102761    133.19395    30884.153 
    8212    273.34689    3.0896372    63.858793    -45.06811    18.817655    30884.153 
    8213    276.80209    3.3109395    61.592426     -45.0406    -79.49468    30884.153 
    8214    280.54011    3.5259666    59.461702    -45.00226   -159.64614    30884.153 
    8215    282.97577    3.7212739    58.147189   -44.937419   -221.84302    30884.153 
    8216    283.23158    3.8797125    57.989246   -44.841838   -266.99712    30884.153 
    8217    281.39735    3.9958491    58.881664   -44.717544   -295.90519    30884.153 
    8218     278.4503    4.0682704    60.326544   -44.576833   -308.33807    30884.153 
    8219    275.84793    4.0987066    61.630215   -44.436322   -304.10504    30884.153 
    8220    274.94738    4.0917828    62.167057    -44.31077   -283.83399    30884.153 
    8221    276.47616    4.0545208    61.612355   -44.207616   -249.53158    30884.153 
    8222    280.24774      3.99672    60.057418   -44.125489   -204.00424    30884.153 
    8223    285.22063    3.9361134    57.967349   -44.052994   -150.37454    30884.153 
    8224    289.88573    3.8898367    56.004046   -43.974649   -95.413922    30884.153 
    8225    292.79486    3.8641766    54.791248   -43.880323   -44.867221    30884.153 
    8226    293.00601     3.862221    54.715063   -43.765198   -2.0084832    30884.153 
    8227    290.31075    3.8842861    55.830966   -43.632059    31.698524    30884.153 
    8228    285.18849    3.9278218    57.898407   -43.488944    56.527407    30884.153 
    8229    278.54179     3.989936    60.509255   -43.345297    77.680635    30884.153 
    8230    271.36817     4.068635    63.242566   -43.206151    94.894221    30884.153 
    8231    264.51536    4.1587014     65.77567    -43.07221     108.6519    30884.153 
    8232    258.59013    4.2547594    67.914812   -42.939376    120.52661    30884.153 
    8233    254.01154    4.3550356    69.553207   -42.802008    132.98966    30884.153 
    8234    251.14131    4.4590837    70.599177   -42.655846    145.48852    30884.153 
    8235    250.37155    4.5631921    70.926712   -42.500867    158.34185    30884.153 
    8236     252.0759    4.6633459    70.385798   -42.340765    171.49166    30884.153 
    8237    256.44977    4.7553069    68.871758   -42.180678    184.41732    30884.153 
    8238    263.31114    4.8338456    66.419625   -42.024455    196.33951    30884.153 
    8239    271.96177    4.8951572    63.273948    -41.87257    204.63385    30884.153 
    8240    281.20021    4.9438433    59.891971   -41.719408    207.85391    30884.153 
    8241    289.54334    4.9823853    56.866433   -41.557938     203.2371    30884.153 
    8242     295.5801    5.0066415     54.78546   -41.381631    189.62121    30884.153 
    8243     298.3388    5.0137545    54.069995   -41.186212    164.53416    30884.153 
    8244    297.57559    5.0053809    54.844132   -40.971158    128.10747    30884.153 
    8245     293.8912    4.9845448    56.879623   -40.741599    83.174467    30884.153 
    8246    288.61389    4.9542563    59.638417   -40.507258    34.255547    30884.153 
    8247      283.461    4.9171282    62.409178   -40.280384   -13.134147    30884.153 
    8248    280.06464     4.875085    64.504634   -40.072541    -53.44683    30884.153 
    8249    279.49027    4.8298697     65.46448   -39.891436   -81.524733    30884.153 
    8250     281.8984    4.7845262    65.201157   -39.736694   -94.720092    30884.153 
    8251    286.46807    4.7397245    64.037065   -39.601221   -92.653812    30884.153 
    8252    291.61589     4.696209    62.613259   -39.471735   -75.825895    30884.153 
    8253    295.47337    4.6542647    61.689369    -39.33235   -47.586156    30884.153 
    8254    296.48457    4.6101152    61.893624   -39.170264   -10.073797    30884.153 
    8255    293.92421    4.5593092    63.501813   -38.979428     33.01347    30884.153 
    8256    288.17775    4.4985079    66.320424   -38.761827    80.515998    30884.153 
    8257    280.68595     4.421096    69.715477    -38.52983     131.7307    30884.153 
    8258    273.54717    4.3243586    72.782806   -38.298674    185.26776    30884.153 
    8259    268.90292    4.2096365    74.609409   -38.084106    241.26996    30884.153 
    8260    268.30714    4.0792218    74.545343   -37.896863    296.63421    30884.153 
    8261    272.25296     3.934714    72.404588   -37.739074     347.6675    30884.153 
    8262     279.9946    3.7791601    68.535056   -37.603648    389.18424    30884.153 
    8263    289.72915    3.6168219      63.7373   -37.476614    414.59845    30884.153 
    8264    299.08223    3.4527815    59.054719   -37.341402    417.41178    30884.153 
    8265    305.75877     3.291964    55.494537   -37.183905    392.48027    30884.153 
    8266    308.17002    3.1381791    53.759094   -36.996581    337.19022    30884.153 
    8267    305.85539    2.9928633    54.065132   -36.779976    252.87958    30884.153 
    8268    299.57238    2.8511929     56.10408   -36.544994    144.40241    30884.153 
    8269     291.0202    2.7105577    59.154699   -36.305889    17.520623    30884.153 
    8270    282.30754    2.5693868    62.310168   -36.078546   -118.71748    30884.153 
    8271    275.33377    2.4260378     64.74855   -35.875115   -254.26149    30884.153 
    8272    271.26657    2.2806961    65.961278   -35.700336   -379.74789    30884.153 
    8273    270.27105     2.145786    65.869975   -35.546402   -486.70039    30884.153 
    8274    271.60157    2.0298155    64.800013   -35.402011   -571.53391    30884.153 
    8275    273.97709     1.936198     63.32601   -35.251337   -629.87224    30884.153 
    8276    276.06902    1.8706755    62.049552   -35.080907    -660.0187    30884.153 
    8277    276.96408    1.8427999    61.391215   -34.884427   -659.72224    30884.153 
    8278    276.43418    1.8637519    61.469845   -34.663164   -629.17204    30884.153 
    8279     274.9224    1.9389337    62.107121   -34.426587   -568.52676    30884.153 
    8280     273.2595    2.0660345    62.949154   -34.187036   -478.51537    30884.153 
    8281    272.23522    2.2349765     63.64927   -33.956448   -363.25008    30884.153 
    8282    272.21903    2.4356157    64.030779   -33.737637   -228.30587    30884.153 
    8283    273.00695    2.6515634    64.159318   -33.526633     -80.0434    30884.153 
    8284    273.94587    2.8651829    64.291564   -33.312094    71.838403    30884.153 
    8285    274.29573    3.0595425    64.720987   -33.080963     218.9791    30884.153 
    8286    273.66924     3.218402    65.591484   -32.825628    352.81796    30884.153 
    8287    272.33425    3.3320015    66.768474   -32.545881    465.75665    30884.153 
    8288    271.22749     3.395628    67.838151   -32.251094    552.98211    30884.153 
    8289    271.63154    3.4084639    68.252359   -31.956965    611.69665    30884.153 
    8290    274.62536    3.3748314     67.56794   -31.677769    639.78022    30884.153 
    8291    280.54273    3.3022566     65.67873   -31.420546    635.84423    30884.153 
    8292    288.68243    3.2002698    62.932482   -31.181314    599.61704    30884.153 
    8293    297.42182    3.0795394    60.067393   -30.945944    530.73086    30884.153 
    8294    304.72276     2.949101    57.977488   -30.696841    429.90653    30884.153 
    8295    308.84464    2.8161325     57.39153   -30.419913    300.42172    30884.153 
    8296    308.98788    2.6856768    58.591082   -30.110917    148.21797    30884.153 
    8297    305.61325    2.5601917    61.281985   -29.777637   -17.102201    30884.153 
    8298    300.30511     2.439289     64.67418    -29.43746   -184.75582    30884.153 
    8299    295.22715    2.3215442    67.741698   -29.111189   -344.69399    30884.153 
8300        0.42352272448652966697 14.506936563158536302 0.54761904761904756089 48 -161.28511755442573872
    8300    292.37336    2.2057198    69.569471    -28.81568     -486.965    30884.153 
    8301    292.89344    2.0907712    69.659724   -28.557968    -604.0489    30884.153 
    8302     296.7271    1.9764177    68.090334   -28.333025   -691.64917    30884.153 
    8303    302.67093    1.8634782    65.472648   -28.125888   -748.43769    30884.153 
    8304    308.84564    1.7538962    62.727439   -27.917009   -776.01595    30884.153 
    8305    313.39275    1.6498822     60.75975   -27.689446   -777.43683    30884.153 
    8306    315.15093    1.5535233    60.147195   -27.434639   -755.93132    30884.153 
    8307    314.07059    1.4661922    60.950936   -27.155491   -714.30674    30884.153 
    8308    311.21698    1.3881248    62.715376   -26.865474   -654.81175    30884.153 
    8309    308.35642    1.3186669    64.655396   -26.584902   -579.17698    30884.153 
    8310    307.24801    1.2679864    65.961437   -26.337817   -486.83104    30884.153 
    8311    308.91919    1.2954587    66.109902   -26.122645   -381.34789    30884.153 
    8312    313.32035    1.4353558    65.056091   -25.943661   -272.34725    30884.153 
    8313    319.36937    1.6991355    63.233314   -25.788762   -168.06126    30884.153 
    8314    325.31139    2.0872531    61.372175   -25.640253   -76.377218    30884.153 
    8315    329.37818    2.5871092    60.207926   -25.481848   -3.9858653    30884.153 
    8316    330.43736    3.1735424    60.194322   -25.305172    44.959033    30884.153 
    8317    328.37958    3.8106757    61.338782   -25.112657    70.219762    30884.153 
    8318    324.09959    4.4522926    63.223258   -24.916856    75.525556    30884.153 
    8319    319.07145    5.0527123    65.196744   -24.735593    66.088833    30884.153 
    8320     314.7268    5.5746564    66.656671    -24.58345      46.9975    30884.153 
    8321    311.89986    5.9901871    67.298314   -24.465401     25.22261    30884.153 
    8322    310.55542    6.2797962    67.227783   -24.376294    6.9685413    30884.153 
    8323    309.90369    6.4354489    66.892526    -24.30217   -3.7978863    30884.153 
    8324    308.83523    6.4645168    66.863413   -24.225029   -3.3876308    30884.153 
    8325    306.49928    6.3841218    67.561157   -24.131135    11.343545    30884.153 
    8326    302.75897    6.2184428    69.043864   -24.015636    43.640246    30884.153 
    8327    298.33319    5.9946939    70.945848   -23.884347    96.500976    30884.153 
    8328    294.56257    5.7391793    72.596065   -23.751118     172.1034    30884.153 
    8329    292.89186    5.4736574    73.271927   -23.631813    271.45255    30884.153 
    8330     294.2765    5.2122018    72.489383    -23.53795    392.74956    30884.153 
    8331     298.7494    4.9614206    70.214763   -23.472033    530.07965    30884.153 
    8332     305.3297    4.7232362    66.913473   -23.425593    674.62456    30884.153 
    8333    312.32675    4.4958135    63.410238   -23.383124    815.85018    30884.153 
    8334    317.92887    4.2759521    60.610042   -23.328007    942.12848    30884.153 
    8335    320.85457    4.0607366    59.183569   -23.249372    1042.7209    30884.153 
    8336    320.80378    3.8504575    59.337177   -23.148262    1110.4243    30884.153 
    8337    318.54263    3.6537343    60.756225   -23.031853    1138.9886    30884.153 
    8338    315.58428    3.4706548    62.742904   -22.920865    1126.2091    30884.153 
    8339    313.56181    3.3051156    64.495747   -22.832654    1070.9707    30884.153 
    8340    313.55119    3.1623084    65.420032   -22.781531    975.96812    30884.153 
    8341    315.63015    3.0570858    65.346611   -22.764614    844.14346    30884.153 
    8342    318.84364     2.997862    64.575314   -22.773536    679.55414    30884.153 
    8343    321.58538    2.9919353    63.729829   -22.789402    486.39235    30884.153 
    8344    322.24084    3.0404453    63.485075   -22.794511    270.74464    30884.153 
    8345     319.8421    3.1456783    64.275873   -22.776076     42.31647    30884.153 
    8346     314.4976    3.3079904     66.10302   -22.731014   -189.27731    30884.153 
    8347    307.42444    3.5157493    68.510588   -22.672373   -411.50442    30884.153 
    8348    300.54153    3.7644677    70.742607    -22.61511   -613.81882    30884.153 
    8349    295.80719    4.0528243    72.018861   -22.576796   -785.68155    30884.153 
    8350    294.55128    4.3784059    71.824991   -22.569401   -919.35774    30884.153 
    8351     297.0117    4.7368971    70.111456   -22.595155    -1010.762    30884.153 
    8352    302.24482    5.1237162    67.330561   -22.644909   -1059.2003    30884.153 
    8353    308.44281    5.5313074    64.298369   -22.703869   -1068.3171    30884.153 
    8354    313.55614    5.9521767    61.928503   -22.749983   -1042.5973    30884.153 
    8355    315.99844    6.3656651    60.927176   -22.772598   -990.26601    30884.153 
    8356    315.19211    6.7565067     61.55077   -22.764796   -918.85118    30884.153 
    8357    311.78797    7.1098556    63.508993   -22.732141   -833.73083    30884.153 
    8358    307.46598    7.4117272    66.052585   -22.690082   -738.19992    30884.153 
    8359    304.36202    7.6489584    68.223461   -22.659576    -636.0228    30884.153 
    8360    304.30463    7.8095318    69.188396   -22.660381   -530.00087    30884.153 
    8361    308.11383    7.8842932    68.546022   -22.704367   -423.44002    30884.153 
    8362    315.21039    7.8681876    66.498894   -22.792544   -320.20992    30884.153 
    8363     323.6728    7.7772293     63.82265   -22.908935   -223.06415    30884.153 
    8364    330.82231    7.6247834    61.629616   -23.033393    -139.1937    30884.153 
    8365    334.10511     7.416132    60.997651   -23.142679   -71.928563    30884.153 
    8366    331.95189     7.158825    62.585545     -23.2191   -21.526306    30884.153 
    8367    324.38302     6.860497    66.368497   -23.258757    16.190551    30884.153 
    8368    313.09408    6.5378037    71.594755   -23.270037     45.30093    30884.153 
    8369    301.00391     6.210851    76.985691   -23.272628    70.818469    30884.153 
    8370    291.38673    5.8923964    81.122972   -23.292764    100.26749    30884.153 
    8371    286.84377    5.5913381    82.896533   -23.353001    138.30316    30884.153 
    8372    288.47677    5.3170978    81.861403   -23.464464     187.2726    30884.153 
    8373    295.54703    5.0855732    78.382293   -23.619873    247.09385    30884.153 
    8374     305.7551    4.9040962     73.51694   -23.800065    312.69389    30884.153 
    8375    316.00005    4.7677669    68.679546   -23.982446    377.81333    30884.153 
    8376    323.35273    4.6790402    65.195724   -24.142644     434.5732    30884.153 
    8377    325.97755    4.6399066    63.896196   -24.266793    478.97656    30884.153 
    8378     323.6734    4.6476018    64.880471   -24.355398    508.63431    30884.153 
    8379    317.84856    4.6968804    67.524658   -24.422332    524.38873    30884.153 
    8380    310.97073    4.7810929    70.722244   -24.490145    529.47301    30884.153 
    8381    305.67704    4.8972678      73.2714   -24.583516      529.214    30884.153 
    8382    303.88414    5.0440852    74.274205   -24.719383     524.7613    30884.153 
    8383    306.17668     5.214985    73.415138   -24.903697     517.5996    30884.153 
    8384     311.6565    5.4056731    71.028287   -25.127947    507.59802    30884.153 
    8385    318.32078    5.6116809    67.938885   -25.373052    492.69026    30884.153 
    8386    323.81224    5.8186734    65.144702   -25.619493    472.11819    30884.153 
    8387     326.2269    6.0160935    63.457469   -25.849337     442.5656    30884.153 
    8388    324.73113    6.1960777    63.232579   -26.055236    405.05755    30884.153 
    8389    319.78049     6.345797    64.281957   -26.243727    362.00465    30884.153 
    8390    312.84869    6.4579386    65.990839   -26.427613    315.21166    30884.153 
    8391    305.83693    6.5255736    67.580597   -26.624049    267.68763    30884.153 
    8392    300.39189    6.5415139    68.410365   -26.846335    222.23923    30884.153 
    8393    297.38112    6.5011928    68.200016   -27.099565    181.16858    30884.153 
    8394    296.72139    6.4056681    67.095055   -27.377604    144.13968    30884.153 
    8395    297.59051    6.2574016    65.561239   -27.668405    108.75367    30884.153 
    8396    298.89328    6.0619786    64.163129    -27.95812    73.448298    30884.153 
    8397    299.77069    5.8301163     63.32319   -28.237023    35.938556    30884.153 
    8398    299.94891    5.5775077    63.158234   -28.503569   -4.4184957    30884.153 
    8399    299.79644    5.3224661    63.453881   -28.765035    -46.96901    30884.153 
8400        0.41568839352359066019 14.525521711454510765 0.54497354497354488778 49 -164.99345321586713453
    8400      300.074    5.0840038    63.782021   -29.034987   -89.474655    30884.153 
    8401     301.5141    4.8719084    63.710893   -29.325887   -127.04999    30884.153 
    8402    304.36323    4.6804177    63.023059   -29.651459   -160.13653    30884.153 
    8403     308.0859    4.5096959     61.85375   -30.011818   -188.56228    30884.153 
    8404    311.41745    4.3548262    60.687824    -30.39824   -211.67873    30884.153 
    8405    312.73747    4.2061076    60.205196   -30.794094   -229.11779    30884.153 
    8406    310.65224      4.05291    61.021968   -31.179342    -238.5971    30884.153 
    8407    304.59677    3.8828746    63.419222    -31.53698   -238.95533    30884.153 
    8408    295.20448    3.6834364     67.16329    -31.86202   -228.49057    30884.153 
    8409    284.27632    3.4540829    71.498691    -32.15974   -203.89377    30884.153 
    8410    274.33793    3.2010004    75.334419   -32.447985   -161.44993    30884.153 
    8411    267.88628     2.936361     77.57308   -32.750404   -98.793533    30884.153 
    8412    266.57383    2.6770522     77.47343    -33.08886   -15.842069    30884.153 
    8413    270.62279    2.4490137    74.916078   -33.471516    84.671481    30884.153 
    8414    278.70412    2.2754793    70.470446   -33.896572    196.26258    30884.153 
    8415    288.34016    2.1782391    65.233472   -34.344373    308.57118    30884.153 
    8416    296.69841    2.1645323    60.487917   -34.792488     410.3996    30884.153 
    8417     301.5157     2.227087    57.299835   -35.218197     494.6503    30884.153 
    8418    301.79165    2.3462107    56.198299   -35.613296     554.0238    30884.153 
    8419    298.04904    2.5112338    57.041091   -35.977223    585.76842    30884.153 
    8420    292.11389    2.7056995    59.108434   -36.322955    593.04461    30884.153 
    8421    286.45229    2.9066124    61.383015   -36.673899    580.12652    30884.153 
    8422    283.31637    3.0981126    62.910313    -37.04972    552.68841    30884.153 
    8423    284.01489    3.2639312    63.113677   -37.466933    516.33552    30884.153 
    8424     288.5197    3.3957864    61.963396   -37.928497    474.94572    30884.153 
    8425    295.53169    3.4907746    59.950204   -38.426856    432.65943    30884.153 
    8426    302.95497    3.5487054    57.888313   -38.946173    392.59208    30884.153 
    8427    308.59381    3.5713299    56.621842    -39.46783    357.31175    30884.153 
    8428    310.84353    3.5614094    56.736621   -39.976289      329.342    30884.153 
    8429    309.15138    3.5222962    58.372266   -40.463908     312.0978    30884.153 
    8430    304.11444    3.4594781    61.191561    -40.93088    308.45628    30884.153 
    8431    297.21068    3.3759046    64.508323   -41.386575    319.67084    30884.153 
    8432    290.26955    3.2753014    67.521578   -41.842979    347.08809    30884.153 
    8433    284.88935    3.1589522     69.56849    -42.31191     387.5444    30884.153 
    8434    281.99349    3.0273424    70.308886   -42.799407    436.64531    30884.153 
    8435    281.64607    2.8877511    69.783842   -43.305138    489.19314    30884.153 
    8436    283.19766    2.7519146    68.342142   -43.820388    535.45351    30884.153 
    8437    285.63544    2.6234077    66.481311      -44.337    566.39924    30884.153 
    8438    287.95821    2.5066146    64.672056   -44.847211    574.31507    30884.153 
    8439    289.46616    2.4059023    63.232286   -45.347218    553.55162    30884.153 
    8440    289.87232    2.3244754    62.287185   -45.837462    501.22785    30884.153 
    8441    289.23579    2.2634737    61.810643   -46.320705    417.65386    30884.153 
    8442    287.79132    2.2209433    61.710003   -46.800573      306.883    30884.153 
    8443    285.77781    2.1977849    61.904278   -47.275938    174.20779    30884.153 
    8444    283.36202    2.1938378     62.35573   -47.744271    26.130818    30884.153 
    8445    280.68401    2.2087025    63.043393   -48.200198    -127.7775    30884.153 
    8446    277.96287    2.2451011    63.899997   -48.638582   -277.86231    30884.153 
    8447    275.60907    2.3064813     64.75101   -49.057591   -414.99007    30884.153 
    8448    274.23899    2.3936646    65.299136   -49.463019   -528.86109    30884.153 
    8449    274.52856    2.5183898    65.179936   -49.860776   -611.32542    30884.153 
    8450    276.97371    2.6868804    64.080968   -50.263495   -659.00129    30884.153 
    8451    281.60567    2.8985645    61.888442   -50.680963   -668.75188    30884.153 
    8452    287.75756    3.1466974    58.806197   -51.118835   -642.67489    30884.153 
    8453    294.03221     3.423313    55.388092   -51.572381   -587.48786    30884.153 
    8454    298.55412    3.7168672    52.442919   -52.027546   -511.74905    30884.153 
    8455    299.47185    4.0128657    50.819154   -52.463518   -425.45491    30884.153 
    8456    295.56617    4.2983733    51.126565   -52.860396   -337.00246    30884.153 
    8457    286.77621    4.5683127    53.490122   -53.200692   -254.67475    30884.153 
    8458    274.43193    4.8097428    57.435324   -53.483535   -183.91612    30884.153 
    8459    261.01604    5.0100987    61.969479     -53.7226   -127.86418    30884.153 
    8460    249.51036    5.1637492    65.852359     -53.9394   -86.877622    30884.153 
    8461    242.53708     5.260974    67.973023   -54.162131   -59.296503    30884.153 
    8462    241.54383     5.298619    67.708373   -54.408469   -45.681808    30884.153 
    8463     246.3298    5.2768079    65.138304   -54.683341   -46.390278    30884.153 
    8464    255.09076    5.1982199    61.037606   -54.976097   -62.021307    30884.153 
    8465    264.96373    5.0684979    56.644194   -55.264468   -93.168232    30884.153 
    8466    272.90778    4.8952491     53.27674   -55.522803   -139.34144    30884.153 
    8467    276.63403    4.6896459    51.924039   -55.731168     -197.096    30884.153 
    8468    275.30244    4.4695492    52.936151   -55.878333   -259.50357    30884.153 
    8469    269.77206    4.2501537    55.912869   -55.970836    -319.3483    30884.153 
    8470     262.3117    4.0457396    59.827817   -56.028312   -368.67214    30884.153 
    8471    255.85958    3.8700099    63.353439    -56.07572    -400.3878    30884.153 
    8472    253.05846    3.7292285     65.28782   -56.140668   -407.82586    30884.153 
    8473    255.35596        3.628    64.953586   -56.240451   -388.99294    30884.153 
    8474    262.46797    3.5701025    62.438575   -56.377109   -345.40267    30884.153 
    8475    272.40217    3.5582802    58.591723   -56.536102   -282.74155    30884.153 
    8476    282.05413    3.5941486    54.764556   -56.690328   -209.31345    30884.153 
    8477    288.20619    3.6730377    52.373716   -56.811563   -133.81173    30884.153 
    8478    288.59129    3.7913367    52.426031   -56.876867   -65.342747    30884.153 
    8479    282.67542    3.9460053    55.168167   -56.878523   -9.6448709    30884.153 
    8480    271.89109     4.130954    59.984083   -56.826509    31.385979    30884.153 
    8481    259.21545    4.3368979    65.579526   -56.745085    59.217532    30884.153 
    8482    248.24291    4.5521153    70.390206   -56.664565      78.1017    30884.153 
    8483    242.08409    4.7618696    73.070496   -56.609579    91.683435    30884.153 
    8484    242.44534    4.9463237     72.89966   -56.592886    103.60196    30884.153 
    8485    249.17765    5.0888766     69.97349   -56.609714    114.90332    30884.153 
    8486    260.42739    5.1774681     65.13267   -56.641145    125.88236    30884.153 
    8487    273.27623    5.2081994    59.671605     -56.6633    134.26075    30884.153 
    8488    284.63427    5.1874154    54.942733   -56.653276    137.57145    30884.153 
    8489    292.10474     5.120814     51.98273   -56.599694      135.007    30884.153 
    8490    294.53966    5.0171568    51.270496   -56.502455    127.84009    30884.153 
    8491     292.1776    4.8882637      52.6705   -56.372779    120.08243    30884.153 
    8492    286.38504    4.7514679    55.553396   -56.224946    115.90995    30884.153 
    8493    279.13157     4.617788    59.035967   -56.077172    118.76778    30884.153 
    8494    272.36699    4.4945627    62.257213   -55.942645    132.43587    30884.153 
    8495    267.49351    4.3856489    64.606549   -55.827581    158.40093    30884.153 
    8496    265.08805     4.289767    65.843231   -55.729718    196.77016    30884.153 
    8497    264.90584    4.2049433     66.08512   -55.639501    243.19742    30884.153 
    8498    266.14363    4.1313315    65.684693   -55.544196    293.04607    30884.153 
    8499    267.85825    4.0666115    65.047759   -55.431789    341.89818    30884.153 
8500        0.40995104231408951989 14.562476596048229638 0.54761904761904756089 45 -177.33364075182657871
    8500    269.34583    4.0056634    64.466043   -55.297589    383.96287    30884.153 
    8501    270.35395    3.9488016    64.025292   -55.142327    415.32076    30884.153 
    8502    271.07728     3.898607    63.617766   -54.972421    431.92403    30884.153 
    8503    271.95442    3.8560214     63.04371   -54.797357     431.7453    30884.153 
    8504    273.38257    3.8138503    62.149754   -54.625131    415.77327    30884.153 
    8505    275.45901    3.7646552    60.936903   -54.458029    382.33978    30884.153 
    8506    277.88966    3.7077194    59.587684   -54.292799    332.94847    30884.153 
    8507    280.12443    3.6436659    58.400843   -54.122566    269.06124    30884.153 
    8508    281.60959    3.5741506    57.666896   -53.940671    194.16111    30884.153 
    8509    282.04191    3.5004038    57.544989   -53.744519    111.39899    30884.153 
    8510     281.5026    3.4229939    57.997205   -53.536448    25.740843    30884.153 
    8511    280.41414    3.3425103    58.806174   -53.322694   -57.338548    30884.153 
    8512    279.35743    3.2583368    59.663552   -53.109748   -131.73395    30884.153 
    8513    278.82615    3.1663053    60.287646   -52.905334   -192.60009    30884.153 
    8514    279.02276    3.0724289    60.521219   -52.708316   -236.22806    30884.153 
    8515    279.80239     2.978982    60.374432   -52.517164   -263.44715    30884.153 
    8516    280.75091     2.885493    60.004879   -52.326254   -274.43209    30884.153 
    8517    281.35061    2.7863745    59.649233   -52.131755   -269.56155    30884.153 
    8518    281.16958    2.6816432    59.534711    -51.92842   -252.82373    30884.153 
    8519     280.0287    2.5774601     59.79587   -51.714294   -228.17473    30884.153 
    8520    278.10208    2.4821671    60.424029   -51.490336   -198.78005    30884.153 
    8521    275.90159    2.4044024    61.261555   -51.260153   -167.53822    30884.153 
    8522    274.15108     2.352241    62.043285   -51.029139   -136.99079    30884.153 
    8523    273.58527    2.3302683    62.475498   -50.803545   -107.76667    30884.153 
    8524    274.71056    2.3440112    62.332432   -50.586787   -83.185153    30884.153 
    8525    277.62714     2.393552    61.539034   -50.380728   -64.810023    30884.153 
    8526    281.96245    2.4670551    60.214554   -50.184312   -53.938138    30884.153 
    8527    286.90333    2.5549715    58.658657   -49.992111   -54.107275    30884.153 
    8528    291.37676    2.6555653    57.279081   -49.797648    -65.48651    30884.153 
    8529    294.35235    2.7670213    56.480772   -49.594068   -88.838933    30884.153 
    8530    295.12477    2.8817754    56.552404   -49.379741   -121.10427    30884.153 
    8531    293.49865    2.9951305    57.584549   -49.154441   -162.34023    30884.153 
    8532     289.8467    3.1036411    59.440033   -48.921479   -208.90032    30884.153 
    8533    285.03271    3.2056692    61.778843   -48.686141    -255.6835    30884.153 
    8534    280.22337    3.3020033    64.127908   -48.454305   -297.85785    30884.153 
    8535    276.63686     3.394584    65.979565   -48.231868   -331.68794    30884.153 
    8536    275.27187    3.4855962     66.90258   -48.023615   -353.63905    30884.153 
    8537    276.66249     3.577532    66.646975   -47.832235    -361.7997    30884.153 
    8538    280.72386    3.6693298    65.220277   -47.656862    -354.8149    30884.153 
    8539    286.71717    3.7567904    62.910246   -47.494152   -333.59331    30884.153 
    8540    293.36751    3.8390686    60.238788   -47.337049   -302.64674    30884.153 
    8541    299.15845    3.9169089     57.84257   -47.176514   -267.06711    30884.153 
    8542    302.71816    3.9911085    56.309119   -47.004033    -231.6612    30884.153 
    8543    303.18761     4.058005    56.016572   -46.817035   -200.14893    30884.153 
    8544    300.45148    4.1169738    57.027195   -46.615617    -176.9872    30884.153 
    8545    295.17197    4.1684775    59.069293   -46.405402   -163.39838    30884.153 
    8546    288.62214    4.2116279    61.612975   -46.194836    -160.6982    30884.153 
    8547    282.35904    4.2431127     64.01482   -45.993022   -168.74996    30884.153 
    8548    277.83736     4.258233    65.687175    -45.80702   -186.90591    30884.153 
    8549    276.07058    4.2512435    66.245063   -45.640209   -214.51553    30884.153 
    8550    277.41774    4.2159421    65.594269   -45.491653   -251.15809    30884.153 
    8551    281.53649    4.1464778    63.942409   -45.356556   -296.63583    30884.153 
    8552    287.50188    4.0382756    61.734452   -45.227611   -350.74047    30884.153 
    8553    294.05432    3.8889256    59.531474   -45.096911   -412.86894    30884.153 
    8554    299.90945    3.6997723    57.864232   -44.958442   -480.91396    30884.153 
    8555    304.05997    3.4769985    57.099299   -44.807826   -552.73167    30884.153 
    8556    305.98634    3.2264475    57.354178   -44.646639   -624.36759    30884.153 
    8557    305.71676    2.9576952    58.484546   -44.478735   -691.19762    30884.153 
    8558    303.74076    2.6812382    60.143792   -44.310802   -748.23557    30884.153 
    8559    300.81535    2.4086121    61.892065   -44.149209   -790.22521    30884.153 
    8560    297.73634    2.1513573    63.317097   -43.998337   -812.68573    30884.153 
    8561    295.14941    1.9198386    64.129221   -43.859689   -812.47139    30884.153 
    8562    293.44331    1.7223087    64.208305   -43.732269    -788.1241    30884.153 
    8563    292.72671     1.564396    63.601994   -43.613774   -739.99754    30884.153 
    8564    292.86047    1.4490869    62.491144   -43.501776   -670.18677    30884.153 
    8565    293.51935    1.3752022    61.142106   -43.393098   -581.29135    30884.153 
    8566    294.25426    1.3345618    59.857729   -43.287727   -478.54523    30884.153 
    8567    294.55818    1.3236226    58.928792    -43.18223   -368.09248    30884.153 
    8568    293.96302    1.3447947    58.581522   -43.072475   -254.38975    30884.153 
    8569    292.18902    1.3954667    58.923452   -42.955898   -143.33952    30884.153 
    8570    289.26226    1.4703558    59.901222   -42.829775   -41.275394    30884.153 
    8571    285.55078    1.5669493    61.289464   -42.695316    49.435882    30884.153 
    8572    281.72143    1.6807489     62.72983   -42.556922    124.51281    30884.153 
    8573    278.56627     1.806699    63.819794   -42.419448    183.04465    30884.153 
    8574    276.75907    1.9360781    64.228826   -42.289076    223.87771    30884.153 
    8575    276.62155    2.0589061    63.805259    -42.16874    247.60596    30884.153 
    8576    277.98107    2.1669058    62.634879   -42.057194     255.4557    30884.153 
    8577    280.18891    2.2549593    61.027346   -41.949034    249.23778    30884.153 
    8578    282.29851    2.3223663    59.430554   -41.836508    231.82045    30884.153 
    8579    283.35324    2.3748309    58.297785   -41.711058    207.30923    30884.153 
    8580     282.7044    2.4191926     57.94875   -41.566684    180.28738    30884.153 
    8581    280.23947    2.4623067    58.468452    -41.40253    154.86469    30884.153 
    8582    276.44644    2.5139573    59.678034   -41.221349    137.67014    30884.153 
    8583    272.29703    2.5795584    61.189569   -41.032153     136.1311    30884.153 
    8584    268.95804     2.664128    62.531826   -40.843619    153.42992    30884.153 
    8585    267.42006    2.7681504    63.310464   -40.664238    192.91818    30884.153 
    8586    268.17407    2.8863058    63.349601   -40.495692    256.82901    30884.153 
    8587    271.02913    3.0011588    62.763656   -40.339686    343.35114    30884.153 
    8588    275.14755    3.1071936    61.925412   -40.185053    447.10181    30884.153 
    8589     279.3365    3.2036326    61.330248   -40.020891    562.60714    30884.153 
    8590    282.48714    3.3031035    61.400758    -39.83344    683.87482    30884.153 
    8591    284.01522    3.4144147    62.304851   -39.619019    800.52123    30884.153 
    8592    284.10106    3.5421947    63.864025    -39.38144    905.28784    30884.153 
    8593    283.60126    3.6907882     65.59957   -39.132282    992.01207    30884.153 
    8594    283.68358      3.86146    66.909259   -38.887396     1055.989    30884.153 
    8595     285.2911    4.0574571    67.311764   -38.660014    1093.0654    30884.153 
    8596    288.67876    4.2803781    66.662557   -38.455473    1097.3292    30884.153 
    8597    293.21502      4.52419    65.248274   -38.269119    1064.6254    30884.153 
    8598    297.53266    4.7797064    63.711133    -38.08743    991.79793    30884.153 
    8599    300.02035    5.0353504    62.820506   -37.893304     877.5852    30884.153 
8600        0.40521313431984795628 14.611828170032339358 0.54497354497354488778 50 -173.35870967912546803
    8600    299.47241    5.2782993    63.171661   -37.672816    723.66298    30884.153 
    8601    295.64752     5.495874    64.925025    -37.42094    535.39513    30884.153 
    8602    289.50933    5.6769845    67.689409   -37.144103    321.93775    30884.153 
    8603     283.0323    5.8134042    70.602914   -36.858587    95.520349    30884.153 
    8604    278.61327    5.9006399    72.594635   -36.585239   -130.01644    30884.153 
    8605    278.27583     5.937411    72.744759   -36.341933   -340.44787    30884.153 
    8606    282.92909    5.9246157    70.622855   -36.138072   -524.72071    30884.153 
    8607    291.93763    5.8689769    66.486812   -35.969325   -674.27389    30884.153 
    8608    303.18817    5.7790668    61.264763   -35.819204   -785.97376    30884.153 
    8609    313.65821    5.6609708     56.31163   -35.664071   -858.59171    30884.153 
    8610    320.31312    5.5222437    53.006496   -35.481536   -892.08263    30884.153 
    8611    321.09499     5.369624    52.313547   -35.256046   -892.84877    30884.153 
    8612    315.66168    5.2019078    54.450857   -34.986129    -864.1621    30884.153 
    8613    305.58853    5.0158394     58.78512   -34.685157   -808.50943    30884.153 
    8614    293.96213    4.8085559     63.99928   -34.377983   -727.41631    30884.153 
    8615    284.46617    4.5777904    68.489833   -34.094091   -624.05701    30884.153 
    8616    280.23345    4.3244465    70.871092   -33.857703   -501.72305    30884.153 
    8617    282.84252    4.0542589     70.42116   -33.678585    -367.3427    30884.153 
    8618    291.79075    3.7752273    67.321996   -33.549232   -230.01435    30884.153 
    8619    304.61417    3.4976422     62.61206   -33.447307   -101.10249    30884.153 
    8620     317.6239    3.2339301      57.8664   -33.342579    8.7784408    30884.153 
    8621    327.02266    2.9979738    54.706406   -33.208093    92.721055    30884.153 
    8622    330.06148    2.8036019    54.295513   -33.026487    144.30807    30884.153 
    8623     325.8724    2.6585805    56.977715   -32.796514    163.63815    30884.153 
    8624    315.71292    2.5671211    62.169784   -32.531686    157.03305    30884.153 
    8625    302.56914    2.5291535     68.53662   -32.256728    134.13722    30884.153 
    8626    290.23948    2.5399371    74.394314   -32.001035    106.61679    30884.153 
    8627    282.17983    2.5920801    78.218737   -31.787862     87.24498    30884.153 
    8628    280.45978    2.6670879    79.106202   -31.634174    85.281398    30884.153 
    8629    285.12366    2.7607293    77.043745   -31.532515    102.69498    30884.153 
    8630     294.2195    2.8748117    72.894334   -31.461681    138.75963    30884.153 
    8631    304.48111    3.0103773     68.10325   -31.391089    189.33181    30884.153 
    8632    312.42669     3.166961      64.2138   -31.289254    246.61272    30884.153 
    8633     315.5243    3.3372629    62.353689   -31.137271    302.69376    30884.153 
    8634     313.0195    3.5124588    62.867537   -30.932957    351.62469    30884.153 
    8635    306.13254    3.6879996    65.224841    -30.69392    391.33734    30884.153 
    8636     297.5812    3.8684969    68.237019    -30.44555    419.52094    30884.153 
    8637    290.60475    4.0510866     70.50086   -30.219817    436.44253    30884.153 
    8638    287.81115    4.2305677    70.908675    -30.04067    443.83293    30884.153 
    8639    290.25882    4.4130912     69.04122   -29.913471    438.82942    30884.153 
    8640    297.13847    4.6093196    65.305718   -29.826088    417.68489    30884.153 
    8641    306.11605    4.8227381    60.783857   -29.755163    377.05277    30884.153 
    8642    314.14911    5.0565138    56.855541   -29.672942    313.90439    30884.153 
    8643     318.5159    5.3121626    54.736418   -29.557629    227.80201    30884.153 
    8644    317.69541    5.5865692    55.088995   -29.399678    121.70356    30884.153 
    8645    311.80387    5.8677347    57.832094   -29.207379     1.986103    30884.153 
    8646    302.46014     6.149099    62.199224   -28.996744   -123.91625    30884.153 
    8647    292.18171    6.4259697    67.011934    -28.79051   -245.60159    30884.153 
    8648    283.53593     6.692873    71.068282   -28.608977   -353.09847    30884.153 
    8649    278.32449    6.9438593    73.512733   -28.462938    -438.6794    30884.153 
    8650    277.08405    7.1728733    74.065178   -28.349754   -497.97033    30884.153 
    8651    279.05941    7.3737804    73.038448   -28.254439   -530.20906    30884.153 
    8652     282.6328     7.541078    71.149883   -28.155155   -538.44874    30884.153 
    8653    286.02668    7.6706735    69.207304   -28.032001   -527.02498    30884.153 
    8654    288.00212    7.7619909    67.794721   -27.873153   -501.17499    30884.153 
    8655    288.28382    7.8145867    67.079419   -27.680922   -465.90578    30884.153 
    8656    287.54565    7.8310801    66.810817   -27.469046   -424.11638    30884.153 
    8657    286.99884    7.8152516    66.499862   -27.256048   -377.69793    30884.153 
    8658    287.76866    7.7679393    65.693335   -27.057842   -299.59954     34038.18 
    8659    290.32372    7.6887941    64.219128   -26.882557   -257.59166     34038.18 
    8660    294.21548    7.5827366    62.294758    -26.72458   -219.32905     34038.18 
    8661    298.24024    7.4563946    60.454778   -26.568711   -185.84045     34038.18 
    8662    300.94004    7.3121884     59.33195   -26.398884   -157.64395     34038.18 
    8663    301.21822    7.1474988    59.388904   -26.204727   -133.84143     34038.18 
    8664    298.79798    6.9651927     60.71476    -25.98269   -113.55171     34038.18 
    8665    294.35761    6.7723922    62.971594   -25.740608   -92.974448     34038.18 
    8666    289.30626    6.5755756    65.508094   -25.493268    -67.41767     34038.18 
    8667    285.26793     6.379781    67.594361   -25.256503   -32.380456     34038.18 
    8668    283.48857    6.1880886    68.685722   -25.041071    15.320785     34038.18 
    8669    284.39046    6.0014438    68.615846    -24.84858    76.727937     34038.18 
    8670    287.43652    5.8188192    67.648527   -24.670864    150.46626     34038.18 
    8671    291.35158    5.6375776    66.370222   -24.492713    233.28414     34038.18 
    8672     294.6178    5.4528756    65.462638   -24.298229     320.8405     34038.18 
    8673    296.06069    5.2608931    65.437641   -24.075455    408.02255     34038.18 
    8674    295.31281    5.0599873    66.431618   -23.821373    490.12314     34038.18 
    8675    292.98077    4.8503986     68.13711   -23.543762     564.3579     34038.18 
    8676    290.43384     4.637609    69.903373   -23.257171    630.02273     34038.18 
    8677    289.29182    4.4266554    70.975267   -22.980077    685.43696     34038.18 
    8678    290.78279    4.2208615    70.788003   -22.726058    729.43571     34038.18 
    8679    295.19913    4.0221111    69.208613   -22.500501    760.88715     34038.18 
    8680    301.67687    3.8355502     66.62939   -22.296362    777.49094     34038.18 
    8681    308.39958    3.6689778    63.871291   -22.097532    777.13275     34038.18 
    8682    313.17153     3.530576    61.923445   -21.885768     758.2732     34038.18 
    8683    314.16474    3.4310044    61.606015   -21.644891    721.14008     34038.18 
    8684    310.59633    3.3749173    63.274014   -21.367087    667.23678     34038.18 
    8685    303.07474    3.3519378     66.66701   -21.061177    601.08245     34038.18 
    8686    293.47104    3.3566647    70.959393   -20.741383    527.71163     34038.18 
    8687    284.39146    3.3870972    74.996311   -20.427154     454.0969     34038.18 
    8688    278.41679    3.4416134    77.638551   -20.136657    386.82775     34038.18 
    8689    277.33479    3.5181246    78.106722   -19.880465    329.90914     34038.18 
    8690    281.60834    3.6140809    76.217111   -19.657618    285.30542     34038.18 
    8691    290.23591    3.7273487    72.438973   -19.456047    252.11251     34038.18 
    8692    301.04913    3.8559224    67.757871   -19.255926    227.23468     34038.18 
    8693    311.36241    3.9895226    63.388006   -19.038262    207.59359     34038.18 
    8694    318.74292    4.1207349    60.420269   -18.787278    186.99884     34038.18 
    8695    321.69996    4.2477717     59.51046   -18.498062    162.60557     34038.18 
    8696    320.10713    4.3704055    60.700836   -18.175361    134.68151     34038.18 
    8697    315.19556    4.4853552    63.427451   -17.835285    101.47545     34038.18 
    8698      309.129    4.5891542    66.711011   -17.498603    64.790499     34038.18 
    8699    304.29549    4.6777303    69.472578   -17.185394    27.649457     34038.18 
8700        0.40222653277885134226 14.643735067838530739 0.53439153439153441738 49 -153.98391465885413254
    8700    302.53706    4.7467131    70.875124   -16.909477   -8.4104995     34038.18 
    8701     304.5584    4.7969043    70.580667   -16.673905   -42.241906     34038.18 
    8702     309.7358    4.8335346    68.838939   -16.466756   -74.900395     34038.18 
    8703    316.37847    4.8500001    66.380112    -16.27204   -108.51091     34038.18 
    8704    322.30395    4.8420586    64.152832   -16.069796   -146.77357     34038.18 
    8705    325.56815     4.809527    62.998882   -15.845458   -191.01062     34038.18 
    8706    325.10329    4.7534831    63.377802   -15.593399   -241.25775     34038.18 
    8707     321.0309    4.6740173    65.231885   -15.320207   -295.08406     34038.18 
    8708    314.56779    4.5753908    68.028191   -15.038806   -349.19705     34038.18 
    8709    307.59008    4.4637589    70.950973   -14.765782   -398.50326     34038.18 
    8710    302.02067    4.3456029    73.171284   -14.515256   -437.84514     34038.18 
    8711    299.24193    4.2272595    74.101085   -14.294542   -462.99951     34038.18 
    8712    299.71753    4.1145495    73.553395   -14.102573   -471.15461     34038.18 
    8713    302.92196    4.0143465    71.766892   -13.929582   -461.17701     34038.18 
    8714    307.58029    3.9305679    69.298673    -13.76229   -434.63424     34038.18 
    8715     312.1158    3.8644118    66.828254    -13.58707   -393.58372     34038.18 
    8716    315.15132    3.8151352    64.940198   -13.394479   -340.57795     34038.18 
    8717    315.90926    3.7801109    63.955953   -13.182019   -278.14112     34038.18 
    8718    314.38314    3.7551019    63.867931   -12.954669   -208.52055     34038.18 
    8719    311.23514    3.7343603    64.394435   -12.722614   -133.35132     34038.18 
    8720    307.46273    3.7107131    65.131971   -12.498772   -54.960855     34038.18 
    8721    303.97286    3.6802908    65.743012   -12.291385    23.505845     34038.18 
    8722    301.24406     3.639738    66.101442   -12.102246    98.672284     34038.18 
    8723    299.21064    3.5860645    66.333227   -11.925136    166.57838     34038.18 
    8724    297.41563    3.5170133    66.732404   -11.748319    223.15766     34038.18 
    8725    295.35995    3.4314367    67.589256   -11.559666     264.9357     34038.18 
    8726    292.87344    3.3307506    69.010603   -11.353063    290.62862     34038.18 
    8727    290.33211    3.2229556    70.818559   -11.127463    300.00943     34038.18 
    8728    288.60338    3.1111788     72.58328   -10.892996    292.42249     34038.18 
    8729    288.71162     2.999491    73.781016   -10.661861    269.89038     34038.18 
    8730    291.37025    2.8948234     74.01141   -10.444198    234.93712     34038.18 
    8731    296.57762    2.8158843    73.180678   -10.242108    192.10975     34038.18 
    8732    303.50023    2.7811169    71.569906   -10.049848    140.65182     34038.18 
    8733    310.68293    2.7989985    69.754954   -9.8551689    81.869431     34038.18 
    8734    316.48634    2.8743107    68.405653   -9.6443434    17.211882     34038.18 
    8735    319.64401    3.0071418    68.039343   -9.4076768   -51.139703     34038.18 
    8736    319.71311    3.1926585    68.822822   -9.1435684   -119.87327     34038.18 
    8737    317.24398    3.4217433    70.500316   -8.8597296    -184.5698     34038.18 
    8738    313.59332    3.6822624     72.48011   -8.5708461   -239.98479     34038.18 
    8739    310.43218    3.9599666    74.054597   -8.2947787   -281.35328     34038.18 
    8740    309.11983    4.2434154    74.675927   -8.0444657   -305.94261     34038.18 
    8741    310.19062    4.5214606    74.182553   -7.8226129   -311.67685     34038.18 
    8742    313.14497    4.7779965     72.88357   -7.6243675    -299.4014     34038.18 
    8743    316.63951    5.0092302     71.45358   -7.4308172    -274.2378     34038.18 
    8744    319.06649    5.2124455    70.665902   -7.2223998   -239.29915     34038.18 
    8745    319.27229    5.3882898    71.063211   -6.9836819   -201.16078     34038.18 
    8746    317.12031    5.5421736    72.699857   -6.7110497   -163.59082     34038.18 
    8747    313.67242    5.6779857     75.07006   -6.4147871   -128.75829     34038.18 
    8748    310.85818    5.7967639    77.266002    -6.115341    -97.49027     34038.18 
    8749    310.75074    5.8963432    78.313437   -5.8351517   -70.035512     34038.18 
    8750    314.73948    5.9702133    77.554826   -5.5871238   -45.744472     34038.18 
    8751    322.91937     5.998742    74.926489   -5.3778338   -26.307524     34038.18 
    8752    333.92764    5.9753123    71.018222   -5.1929868   -15.864865     34038.18 
    8753    345.33642    5.9000768    66.889061   -5.0121373   -17.488759     34038.18 
    8754    354.44985    5.7776698    63.710161   -4.8148135   -33.468888     34038.18 
    8755    359.19113    5.6169559    62.367929   -4.5880724   -63.913357     34038.18 
    8756    358.78679    5.4252855    63.168889   -4.3310039   -104.89309     34038.18 
    8757    353.99385    5.2095147    65.745552   -4.0561696   -152.57995     34038.18 
    8758    346.81631    4.9831544    69.189527   -3.7829263   -199.99031     34038.18 
    8759    339.84404    4.7598405    72.359113   -3.5333209    -239.2672     34038.18 
    8760    335.41908    4.5520861    74.255362   -3.3248282   -263.46231     34038.18 
    8761    334.91186    4.3704031    74.340863   -3.1649793   -267.94045     34038.18 
    8762    338.33302    4.2259106    72.696932   -3.0503671   -250.04672     34038.18 
    8763    344.42354    4.1317285     69.96973   -2.9636565   -212.30213     34038.18 
    8764    351.17072    4.0885895    67.128047   -2.8868018   -159.51129     34038.18 
    8765    356.53362    4.0931022    65.121398   -2.8030041   -97.406879     34038.18 
    8766    359.13854    4.1390245    64.559642    -2.704021   -31.898569     34038.18 
    8767     358.6999    4.2181455    65.526406   -2.5929986    31.870009     34038.18 
    8768    356.02388    4.3211543    67.587916   -2.4831463    89.951569     34038.18 
    8769    352.61616    4.4384105    69.984907   -2.3928481    139.49837     34038.18 
    8770    350.06411    4.5605674    71.927051   -2.3391142    178.32964     34038.18 
    8771    349.43571    4.6813558    72.874084   -2.3323595    205.76264     34038.18 
    8772    350.93392    4.7980396    72.699764   -2.3721557    218.80992     34038.18 
    8773      353.918    4.9059238    71.685361    -2.450867    215.42332     34038.18 
    8774    357.22223    5.0038007    70.362529   -2.5594213    196.55891     34038.18 
    8775    359.66506    5.0984235    69.279885   -2.6820322    164.23248     34038.18 
    8776    360.51589    5.1760137    68.792535   -2.8187016    116.06515     34038.18 
    8777     359.6849    5.2220661    68.962629    -2.973881    55.776869     34038.18 
    8778    357.62688    5.2244941    69.595213   -3.1576923   -11.765978     34038.18 
    8779    355.02699    5.1756562    70.382022   -3.3817395   -80.930647     34038.18 
    8780    352.42114    5.0741725    71.079103   -3.6536855   -145.99387     34038.18 
    8781    349.93583    4.9245312    71.631403   -3.9746814    -202.1556     34038.18 
    8782    347.27413    4.7400218    72.182292   -4.3367923   -246.79934     34038.18 
    8783    343.96447    4.5407967    72.959385   -4.7276433   -277.29859     34038.18 
    8784    339.74058    4.3574143    74.092272   -5.1347419   -291.68218     34038.18 
    8785    334.87789    4.2215852    75.452825   -5.5560273   -290.00954     34038.18 
    8786    330.29964    4.1638756     76.61288   -5.9889166   -273.23505     34038.18 
    8787    327.32498     4.179559    76.959556   -6.4558704   -243.06635     34038.18 
    8788    327.11302    4.2645499    75.940042   -6.9713506   -203.08001     34038.18 
    8789    330.06601    4.3986882    73.336818   -7.5555842   -158.51874     34038.18 
    8790    335.45309     4.563334    69.451185    -8.212561   -117.56212     34038.18 
    8791    341.44885    4.7382022    65.099468   -8.9333307   -88.005214     34038.18 
    8792    345.63443    4.9026317    61.400592   -9.6959767   -77.294345     34038.18 
    8793     345.7975    5.0376237    59.418512   -10.471616   -90.899504     34038.18 
    8794    340.75274    5.1275736    59.785519   -11.232927   -130.82582     34038.18 
    8795     330.8737    5.1615741    62.446491   -11.962509   -194.74058     34038.18 
    8796    318.12036    5.1342053    66.624662   -12.658475   -276.03735     34038.18 
    8797    305.52223     5.045765    71.032487   -13.335262   -364.88528     34038.18 
    8798    296.26863     4.901923    74.265248   -14.018882   -450.01566     34038.18 
    8799    292.69814     4.712858    75.250158   -14.737745   -520.57469     34038.18 
8800        0.40259863026531866881 14.667222424974919903 0.53968253968253965258 47 -149.4097582766536334
    8800    295.52565    4.4907433    73.601106   -15.512075    -566.7946     34038.18 
    8801    303.56336    4.2500245    69.757401   -16.345796   -585.98497     34038.18 
    8802     314.0608    4.0060302    64.851954   -17.222462   -576.09686     34038.18 
    8803    323.55142    3.7669124    60.348932   -18.117944   -537.22211     34038.18 
    8804    328.93319    3.5523709    57.569682   -18.994468   -475.44319     34038.18 
    8805     328.4524    3.3745188    57.265824    -19.82429   -395.09074     34038.18 
    8806    322.22685    3.2383079    59.391064   -20.592774   -298.91189     34038.18 
    8807    312.12597    3.1415622    63.147447   -21.304232   -190.71183     34038.18 
    8808    301.07862    3.0810133    67.282662   -21.976507     -73.9637     34038.18 
    8809     292.0754    3.0510335    70.524991   -22.634664     47.45746     34038.18 
    8810    287.21626    3.0452873    71.997301   -23.300425    168.29168     34038.18 
    8811    287.12534    3.0581749    71.467607   -23.984121    281.78192     34038.18 
    8812    290.90449    3.0855835    69.362256   -24.681266    380.71708     34038.18 
    8813    296.59609    3.1192432    66.558436   -25.377725    459.03564     34038.18 
    8814    301.92992    3.1524182    64.049278   -26.052863    510.09723     34038.18 
    8815    305.07231    3.1823205    62.608246   -26.691458    531.01624     34038.18 
    8816    305.15209     3.214434    62.566487   -27.282535    523.87996     34038.18 
    8817     302.4175    3.2468969    63.762501   -27.829007    493.98487     34038.18 
    8818    298.00034    3.2763942    65.659184   -28.339121    446.92798     34038.18 
    8819    293.42805    3.2903511      67.5695    -28.82913    392.70527     34038.18 
    8820    290.06031     3.282292    68.902573   -29.310547    338.52331     34038.18 
    8821     288.6614    3.2529373    69.345812   -29.790541    291.82949     34038.18 
    8822    289.25911    3.2054426    68.926637   -30.268887    257.81627     34038.18 
    8823    291.27881    3.1436586    67.944078   -30.739461    241.61976     34038.18 
    8824    293.87478    3.0753524     66.80787   -31.192731    241.48718     34038.18 
    8825    296.32544     3.009788    65.853128   -31.621912    254.16395     34038.18 
    8826      298.324     2.953942    65.208467   -32.026218     275.6977     34038.18 
    8827    300.02634    2.9126403    64.772582   -32.412921     301.5285     34038.18 
    8828    301.86126    2.8896339     64.30678     -32.7913    327.08028     34038.18 
    8829    304.17655    2.8866774    63.597287   -33.174397    345.33231     34038.18 
    8830    306.93407    2.9072881    62.606122   -33.567369     346.1466     34038.18 
    8831    309.59701    2.9459264    61.539106   -33.967733    322.26979     34038.18 
    8832    311.26006    2.9939026    60.788088   -34.365201    267.69389     34038.18 
    8833    311.01805    3.0397431    60.766014   -34.745447     179.3614     34038.18 
    8834    308.40104    3.0707461    61.704915    -35.09742    56.658288     34038.18 
    8835    303.68693    3.0788752    63.506185   -35.416138   -96.953769     34038.18 
    8836    297.94434    3.0588665    65.715689   -35.706927   -273.68233     34038.18 
    8837    292.74969    3.0102348    67.645949   -35.983288    -460.7455     34038.18 
    8838    289.68718    2.9307283    68.606194   -36.262282   -645.10598     34038.18 
    8839    289.76308     2.825908    68.156026   -36.560028   -814.31225     34038.18 
    8840    293.00452    2.7202667    66.284293   -36.879374   -958.27171     34038.18 
    8841    298.42037    2.6335956    63.443293   -37.217253   -1067.6871     34038.18 
    8842    304.31447     2.574626    60.423277   -37.557521   -1135.3728     34038.18 
    8843    308.81592    2.5337538     58.10481   -37.889622   -1159.6148     34038.18 
    8844    310.46521    2.5189086    57.174146   -38.195129   -1141.3615     34038.18 
    8845    308.73083    2.5334904    57.892403   -38.467295   -1082.4535     34038.18 
    8846    304.21949    2.5814982    59.998151   -38.705245   -987.08817     34038.18 
    8847    298.53917    2.6429463    62.779314    -38.92281   -858.35442     34038.18 
    8848    293.75141    2.7015163    65.298249    -39.13657   -705.71722     34038.18 
    8849    291.66929    2.7531127     66.69495   -39.365729   -539.70826     34038.18 
    8850    293.27594    2.7918991    66.470049   -39.623589   -371.11772     34038.18 
    8851    298.35987     2.812136    64.654081   -39.913441   -211.54334     34038.18 
    8852    305.54397    2.8096123    61.801147   -40.227327    -72.14443     34038.18 
    8853    312.69037    2.7905783    58.805561   -40.548104    38.512291     34038.18 
    8854    317.59795    2.7591288    56.602802   -40.858128    111.91435     34038.18 
    8855     318.7047    2.7136715    55.863162   -41.142472    146.34565     34038.18 
    8856    315.53432     2.655879    56.781871   -41.395397    143.38251     34038.18 
    8857    308.79704    2.5891774    59.037678   -41.620075    111.17521     34038.18 
    8858    300.08817    2.5133977    61.929266   -41.830723    60.626781     34038.18 
    8859    291.31181    2.4360388    64.629874   -42.039897    4.3547981     34038.18 
    8860    284.07096    2.3641286    66.460395   -42.259526   -44.325101     34038.18 
    8861     279.2259    2.3077017    67.084416   -42.492551   -75.113077     34038.18 
    8862    276.75774    2.2758877    66.565268   -42.734428   -79.357939     34038.18 
    8863    275.94148    2.2739262    65.285091   -42.975514   -51.987379     34038.18 
    8864    275.72577    2.3013115    63.773284   -43.203414    10.221725     34038.18 
    8865    275.14109    2.3526447    62.517373   -43.410421     103.5499     34038.18 
    8866    273.60468     2.427229    61.822197   -43.591811    222.90036     34038.18 
    8867    271.05102    2.5222486    61.758077   -43.749427    362.18958     34038.18 
    8868     267.8474    2.6364939    62.198696   -43.888613     511.9892     34038.18 
    8869    264.58371    2.7712645    62.915574   -44.014283    663.58749     34038.18 
    8870    261.83594    2.9198635    63.684368   -44.133645    806.54277     34038.18 
    8871    259.97195    3.0787017     64.35916   -44.247511    929.68536     34038.18 
    8872    259.08516    3.2461365    64.889331   -44.353611    1024.8729     34038.18 
    8873    259.06417    3.4177466    65.283355   -44.448916    1084.6997     34038.18 
    8874     259.7163    3.5880917    65.550139   -44.530356    1103.2736     34038.18 
    8875    260.87323    3.7515573    65.656205   -44.597458    1078.7292     34038.18 
    8876    262.41808    3.9036558    65.528116   -44.652523    1012.4106     34038.18 
    8877    264.22431    4.0417627    65.102133   -44.699138    908.64118     34038.18 
    8878    266.06082    4.1636353     64.39367   -44.739109    775.09353     34038.18 
    8879    267.53739    4.2655833    63.541804   -44.772103    619.81586     34038.18 
    8880    268.13914    4.3519532    62.795364   -44.793338    454.02115     34038.18 
    8881    267.41236    4.4292293    62.430113   -44.795366    286.12507     34038.18 
    8882    265.21061    4.4975853    62.626618   -44.772968    125.86533     34038.18 
    8883    261.85652    4.5567468    63.365457   -44.725524   -17.185803     34038.18 
    8884    258.14718     4.607641    64.395591   -44.657534   -135.17645     34038.18 
    8885     255.1579    4.6473392    65.303454   -44.579259   -223.42077     34038.18 
    8886    253.88225    4.6689718    65.665569   -44.501345   -279.14718     34038.18 
    8887    254.82351    4.6678107    65.227671   -44.431166   -300.75569     34038.18 
    8888    257.74686    4.6386052    64.033997    -44.36805   -295.18832     34038.18 
    8889    261.68994     4.571066    62.447491    -44.30351   -269.44283     34038.18 
    8890    265.24201    4.4572974    61.039819   -44.223431   -232.13283     34038.18 
    8891    267.04402    4.2937408    60.382861   -44.113124   -192.03468     34038.18 
    8892    266.32689    4.0826634    60.815312   -43.962956   -156.59365     34038.18 
    8893    263.28468    3.8328414    62.274307    -43.77254   -130.76243     34038.18 
    8894    259.12015    3.5594359    64.265156    -43.55244   -116.03294     34038.18 
    8895    255.70773    3.2865085    65.996649    -43.31936   -110.79123     34038.18 
    8896    254.97096    3.0391358    66.648002   -43.092942   -113.00548     34038.18 
    8897    258.18716    2.8337645    65.679416    -42.88445   -117.28938     34038.18 
    8898    265.42056    2.6701101    63.074157   -42.701463   -120.81409     34038.18 
    8899    275.32988    2.5570035    59.412344   -42.529875   -121.09936     34038.18 
8900        0.39843445059327842195 14.681071740114958857 0.53968253968253965258 47 -171.70791515403612948
    8900    285.50572    2.4955107    55.727307    -42.35009   -116.34004     34038.18 
    8901    293.21887    2.4846594    53.179614    -42.13814    -106.0126     34038.18 
    8902    296.34174    2.5178942    52.657125   -41.877103   -88.041007     34038.18 
    8903    294.10742    2.5835063    54.447295   -41.564067   -60.669472     34038.18 
    8904    287.41052    2.6707936    58.108436   -41.211489   -22.429209     34038.18 
    8905    278.54328    2.7721297      62.5949   -40.842617    28.454171     34038.18 
    8906    270.44454    2.8805373    66.597777   -40.484657    92.979256     34038.18 
    8907    265.72278    2.9898794    68.980597   -40.158377    169.89833     34038.18 
    8908    265.80974    3.0910653    69.153656   -39.871364    255.96893     34038.18 
    8909    270.51954     3.178018    67.255676   -39.613839    342.39415     34038.18 
    8910    278.17585    3.2484234    64.081576   -39.364007    419.56246     34038.18 
    8911    286.23874    3.3014325    60.793352   -39.096393    478.49429     34038.18 
    8912    292.18214    3.3386929    58.522786   -38.789693    509.57838     34038.18 
    8913    294.32124    3.3600357    58.006178   -38.435713    506.88034     34038.18 
    8914    292.29738    3.3658648    59.375657   -38.040329     468.7435     34038.18 
    8915    287.08837     3.357828    62.166735   -37.620693    397.81659     34038.18 
    8916    280.57811    3.3393328    65.522294   -37.198604    300.38938     34038.18 
    8917    274.87085    3.3157051    68.505897   -36.792746    185.15391     34038.18 
    8918    271.60918    3.2938403    70.405933   -36.412534    61.783131     34038.18 
    8919    271.52964    3.2813285    70.925873    -36.05568   -60.302358     34038.18 
    8920    274.37772    3.2859892    70.207207   -35.710599    -172.1562     34038.18 
    8921    279.16532     3.315769    68.699063   -35.360986   -266.76353     34038.18 
    8922    284.62898    3.3755109    66.944374    -34.99259   -338.96816     34038.18 
    8923    289.68463    3.4621794    65.376424   -34.599988   -384.53425     34038.18 
    8924    293.69354    3.5702576    64.204875   -34.185577   -401.92227     34038.18 
    8925    296.48189    3.6934382    63.421768   -33.758155   -390.60231     34038.18 
    8926     298.1658    3.8227655    62.903303   -33.328483   -352.58253     34038.18 
    8927    298.90036    3.9478977    62.541746   -32.903996   -291.90402     34038.18 
    8928    298.71091    4.0577098    62.333192   -32.486242   -214.88253     34038.18 
    8929    297.49985    4.1406032    62.376067   -32.071459   -129.59404     34038.18 
    8930    295.21394    4.1859955    62.785046    -31.65412   -44.337106     34038.18 
    8931     292.0712    4.1847557    63.571795   -31.230539    31.691789     34038.18 
    8932    288.69181    4.1277593     64.56519   -30.803092    90.551813     34038.18 
    8933    286.01304    4.0097892    65.427149   -30.379578     126.2939     34038.18 
    8934    284.98706     3.832392    65.772811   -29.970038    135.27786     34038.18 
    8935    286.16812    3.6052814    65.350126   -29.582335    116.07615     34038.18 
    8936    289.35264    3.3543786    64.198539   -29.217379    71.467239     34038.18 
    8937    293.49682    3.1143704    62.706221   -28.865746     1.607907     34038.18 
    8938    296.97622    2.9101391    61.522694   -28.513063   -89.148258     34038.18 
    8939    298.09335    2.7579305    61.342203   -28.146365   -194.57977     34038.18 
    8940    295.70803    2.6716249    62.631795   -27.753279   -305.67606     34038.18 
    8941    289.74856     2.656784    65.407187   -27.332917   -413.52315     34038.18 
    8942     281.3952     2.712848     69.15166   -26.893703   -504.41061     34038.18 
    8943    272.83535    2.8268326    72.923391   -26.454739   -567.90975     34038.18 
    8944    266.61861    2.9855441    75.628963   -26.035562   -594.86269     34038.18 
    8945    264.85961    3.1694378    76.377365   -25.649939   -579.11837     34038.18 
    8946    268.49933    3.3507683     74.79934   -25.305964   -521.07317     34038.18 
    8947    276.88914    3.5179983    71.214828   -24.992875    -426.1272     34038.18 
    8948    287.90264    3.6638061    66.583758   -24.691536   -303.41862     34038.18 
    8949    298.52746    3.7857215    62.243947   -24.376601   -166.45183     34038.18 
    8950    305.77459    3.8799584    59.509057   -24.027586   -30.107973     34038.18 
    8951    307.61727    3.9429986    59.252514   -23.633919    92.117788     34038.18 
    8952    303.65417    3.9715317    61.614973   -23.199285    189.70372     34038.18 
    8953    295.26692    3.9625532     65.93845   -22.741117    256.19923     34038.18 
    8954    285.20176    3.9138725    70.957432   -22.285642     289.3196     34038.18 
    8955    276.70407    3.8248859    75.189522   -21.859403     290.2682     34038.18 
    8956    272.49483        3.694    77.397659    -21.48175    263.21215     34038.18 
    8957    273.91289     3.526573    76.970669   -21.155636    210.85168     34038.18 
    8958    280.53311    3.3344115    74.091801   -20.868869    137.28057     34038.18 
    8959    290.36421    3.1361763    69.649494   -20.597495    48.218968     34038.18 
    8960    300.54541    2.9505516    64.930037   -20.315223    -54.01402     34038.18 
    8961    308.28224    2.7894626     61.20591   -20.002569   -164.95497     34038.18 
    8962    311.68166    2.6603887    59.361812    -19.65276   -277.50165     34038.18 
    8963    310.24185    2.5678431    59.677296   -19.272249   -385.43129     34038.18 
    8964     304.8595    2.5151926    61.820725   -18.879142   -479.01723     34038.18 
    8965    297.41449    2.5088142    65.032732   -18.492059   -550.05161     34038.18 
    8966    290.12246    2.5492714    68.411382   -18.128622   -594.29576     34038.18 
    8967    284.88683    2.6330301    71.190919   -17.797593   -608.00363     34038.18 
    8968    282.85572    2.7516952    72.925433   -17.497736   -590.61264     34038.18 
    8969    284.28929    2.8926572    73.533158   -17.220126   -544.60437     34038.18 
    8970    288.71043    3.0432111    73.216202   -16.951599   -474.34808     34038.18 
    8971    295.22736    3.1882449    72.314277   -16.681756    -387.9477     34038.18 
    8972    302.85861    3.3116847     71.16518   -16.405503   -293.10125     34038.18 
    8973    310.73219    3.4004746    70.026391    -16.12388   -197.26133     34038.18 
    8974    318.13833    3.4467208     69.06989   -15.841844   -106.96752     34038.18 
    8975    324.48511    3.4490732    68.422261   -15.564728   -27.415572     34038.18 
    8976    329.25487    3.4130193     68.20189   -15.295332    37.818841     34038.18 
    8977    332.04229    3.3495252    68.514061   -15.032957    87.560619     34038.18 
    8978    332.68434    3.2727851    69.396403    -14.77551    121.90604     34038.18 
    8979    331.42943    3.1949658     70.74315    -14.52146    144.92842     34038.18 
    8980    329.01104    3.1277012    72.258055   -14.273746    158.71367     34038.18 
    8981    326.55653    3.0875571    73.478482   -14.038583    168.83837     34038.18 
    8982    325.33941    3.0858906    73.883377   -13.824991    180.27918     34038.18 
    8983    326.39316    3.1232511    73.060983   -13.643609    197.58969     34038.18 
    8984    330.11144    3.1935815    70.881918   -13.500857    224.35017     34038.18 
    8985    335.99359    3.2863931    67.611522   -13.396883    262.04624     34038.18 
    8986     342.6515    3.3889827     63.91018   -13.324633      309.896     34038.18 
    8987    348.11694    3.4865513    60.703053   -13.271562    366.87407     34038.18 
    8988     350.3828    3.5663006    58.942493   -13.221363    429.87891     34038.18 
    8989    348.04099    3.6198895    59.322152   -13.159933    492.58872     34038.18 
    8990    340.82719    3.6458489    62.027018   -13.081044     551.8133     34038.18 
    8991    329.87423    3.6604378     66.60867   -12.980824     606.4254     34038.18 
    8992    317.58046    3.6704352    72.042698   -12.873429    654.40923     34038.18 
    8993    307.03928    3.6777323    76.975154   -12.778332    696.91784     34038.18 
    8994    301.15544    3.6844749    80.098387   -12.718205    733.89014     34038.18 
    8995    301.75185    3.6977584    80.544546   -12.708723    764.44687     34038.18 
    8996    308.96578     3.722922    78.166122   -12.752078    787.57457     34038.18 
    8997     321.1217    3.7581158    73.601831    -12.84132    798.62707     34038.18 
    8998    335.16066     3.808945    68.095603   -12.952363    793.07546     34038.18 
    8999    347.53713    3.8680399    63.120539    -13.06333    767.28371     34038.18 
9000        0.39774706772111972919 14.716741983852227094 0.53439153439153441738 45 -174.1078140706139834
    9000    355.24232    3.9314691    59.930989   -13.153511    716.17817     34038.18 
    9001    356.65133     3.998826     59.19334   -13.214174    639.36838     34038.18 
    9002     351.9459     4.067535    60.812895    -13.24965    539.60854     34038.18 
    9003     342.9522    4.1331831    64.007866   -13.275338    422.35935     34038.18 
    9004     332.4862    4.1902945    67.595014   -13.312513    294.64277     34038.18 
    9005     323.4413    4.2333621    70.383595   -13.381588    163.54374     34038.18 
    9006    317.91621    4.2590386     71.54585   -13.496487    35.853886     34038.18 
    9007    316.65958    4.2687188    70.848815    -13.65789   -85.526362     34038.18 
    9008    318.97905    4.2614568    68.683884   -13.857166   -200.05704     34038.18 
    9009     323.0969    4.2376482    65.898123   -14.076797   -308.53392     34038.18 
    9010    326.81478    4.1990502    63.493287    -14.29691   -412.55664     34038.18 
    9011    328.25609    4.1480348    62.297437   -14.501534   -513.32552     34038.18 
    9012    326.43617    4.0868079    62.718217     -14.6832   -610.67478     34038.18 
    9013    321.47136      4.02206    64.654565   -14.845159     -700.731     34038.18 
    9014    314.43398    3.9580866    67.583013   -14.995557   -779.96491     34038.18 
    9015     306.8958    3.8870221    70.775028   -15.148453   -845.89161     34038.18 
    9016    300.34781    3.8037766    73.550803   -15.314049   -893.65354     34038.18 
    9017    295.77531    3.7040043    75.469863   -15.495393   -919.41525     34038.18 
    9018    293.50065    3.5847674    76.394021   -15.688378   -920.60738     34038.18 
    9019    293.30871    3.4464114    76.419792   -15.885169   -895.45506     34038.18 
    9020    294.74132    3.2967606    75.736534   -16.076844   -843.25556     34038.18 
    9021    297.39394    3.1419727    74.495955   -16.261166   -764.76981     34038.18 
    9022    301.02747    2.9868447    72.765233   -16.444537   -661.66398     34038.18 
    9023    305.46616    2.8429033    70.580937   -16.634477   -537.77333     34038.18 
    9024    310.38034    2.7184764    68.066114   -16.839217   -397.11982     34038.18 
    9025    315.09569    2.6187564    65.529385   -17.061372    -245.0277     34038.18 
    9026    318.59183    2.5490917    63.468987   -17.293931   -76.613024    38721.666 
    9027    319.78092    2.5033058     62.45083   -17.525186    61.751861    38721.666 
    9028    317.93491    2.4729391    62.895652   -17.740403    192.10874    38721.666 
    9029    313.09533    2.4550625    64.864414   -17.930178    309.77386    38721.666 
    9030     306.2969    2.4467964    67.942419   -18.095198    411.74449    38721.666 
    9031     299.4094    2.4455851    71.295169   -18.247589    496.75531    38721.666 
    9032    294.60844    2.4494982    73.901535   -18.407795    565.12795    38721.666 
    9033    293.63207    2.4575889    74.896359   -18.596746    618.06752    38721.666 
    9034    297.08376    2.4680775    73.902615   -18.828743    655.17135    38721.666 
    9035    304.05553    2.4796608    71.223769   -19.104209    676.26433    38721.666 
    9036    312.26173    2.4913625    67.806238   -19.407937    680.88092    38721.666 
    9037    318.69651    2.5007137    64.960324   -19.714139    669.22865    38721.666 
    9038    320.62182    2.5071212    63.919537   -19.993528      640.862    38721.666 
    9039    316.56085    2.5120929    65.387986   -20.223719     598.5107    38721.666 
    9040    306.92518    2.5171132    69.243935   -20.399375    546.75679    38721.666 
    9041    294.00973    2.5275667    74.522024   -20.532238    492.41827    38721.666 
    9042    281.32035    2.5491726    79.697802   -20.650364    442.47227    38721.666 
    9043    272.43745    2.5886255    83.186748    -20.78697    403.28465    38721.666 
    9044    269.81389    2.6515895    83.882115   -20.968356    378.71154    38721.666 
    9045    273.93808    2.7416044    81.536463   -21.203543    368.94182    38721.666 
    9046    283.17228    2.8591511    76.845938   -21.479889    370.55661    38721.666 
    9047     294.3382     2.992115    71.205301   -21.771385    378.16855    38721.666 
    9048    303.80345    3.1294579    66.223462   -22.044109    382.38759    38721.666 
    9049    308.70869    3.2650547    63.174495   -22.271602    375.72641    38721.666 
    9050    307.92304    3.3929589    62.579164   -22.443155    352.79978    38721.666 
    9051    302.35834    3.5087259    64.061414   -22.567908    311.54561    38721.666 
    9052    294.56434    3.6152646    66.522536   -22.668044    253.11026    38721.666 
    9053    287.77711    3.7137786    68.562896   -22.776352    179.27698    38721.666 
    9054     284.7542    3.8073524    68.996859   -22.920464    92.884867    38721.666 
    9055    286.80224    3.8995262     67.28035   -23.115308   -3.0327524    38721.666 
    9056     293.3391    3.9928999    63.702302   -23.358444   -105.89814    38721.666 
    9057    302.12494    4.0951459    59.274281   -23.628304   -212.72732    38721.666 
    9058    310.10193     4.208585    55.358628   -23.895489   -323.58953    38721.666 
    9059    314.51842    4.3263611    53.170287   -24.132576   -436.31701    38721.666 
    9060    313.91148    4.4382302    53.335502   -24.323526   -546.82424    38721.666 
    9061    308.61173    4.5320863    55.671401   -24.469805   -649.21089    38721.666 
    9062    300.57762    4.5956976    59.269108   -24.589638   -736.40168    38721.666 
    9063    292.62881    4.6184294    62.847134   -24.710894   -801.42766    38721.666 
    9064    287.37998    4.5926687    65.237107   -24.860176   -838.95188    38721.666 
    9065    286.28823    4.5147435    65.813684    -25.05243    -846.5257    38721.666 
    9066    289.17298    4.3852318    64.705552   -25.285327   -825.14328    38721.666 
    9067    294.37439    4.2086622    62.713426   -25.540685   -778.90963    38721.666 
    9068    299.46529    3.9927152    60.975968   -25.792032   -713.94988    38721.666 
    9069    302.22514    3.7471177    60.518937   -26.014952   -636.94316    38721.666 
    9070    301.49869    3.4822246    61.861203   -26.195996    -553.3961    38721.666 
    9071    297.61963    3.2077468    64.822623   -26.337535   -467.78111    38721.666 
    9072    292.25528    2.9329668    68.598282   -26.456118   -382.72326    38721.666 
    9073    287.75027    2.6660868    72.063077   -26.576435    -299.5495    38721.666 
    9074    286.22594    2.4142165    74.187482    -26.72214   -219.25613    38721.666 
    9075     288.7762    2.1835381    74.407882   -26.907231   -143.30606    38721.666 
    9076    295.05696    1.9794575    72.815293   -27.131225   -74.000188    38721.666 
    9077    303.41493    1.8065935    70.096378   -27.380004   -14.255018    38721.666 
    9078    311.49771    1.6685013    67.254886    -27.63191    33.276301    38721.666 
    9079    317.10535    1.5672555    65.224926   -27.866662    66.740755    38721.666 
    9080    318.95629    1.5031921    64.527435   -28.073081    86.099568    38721.666 
    9081    317.07771    1.4739915    65.102498   -28.253367    93.609975    38721.666 
    9082    312.68032    1.4746364    66.378948    -28.42183     93.45475    38721.666 
    9083    307.58574    1.4981994    67.547204   -28.598654    90.393057    38721.666 
    9084    303.44945    1.5371186    67.920122    -28.80196    89.253305    38721.666 
    9085    301.10296     1.584908    67.232959   -29.039157    92.420689    38721.666 
    9086    300.28132    1.6342006    65.759767   -29.303692    100.97583    38721.666 
    9087    299.82979    1.6730678    64.199277   -29.580835    114.37267    38721.666 
    9088    298.28319    1.6987068     63.37705   -29.847282    129.54368    38721.666 
    9089    294.58957    1.7145662    63.885053   -30.084636    144.09024    38721.666 
    9090    288.67287    1.7273408    65.806069   -30.285466    156.16289    38721.666 
    9091    281.57686     1.745695    68.637486   -30.456424    164.80592    38721.666 
    9092    275.12496    1.7785168    71.451456   -30.615901    169.75748    38721.666 
    9093    271.21711    1.8330426    73.235939   -30.786931    170.83345    38721.666 
    9094    271.03466    1.9132238     73.28885   -30.987895    167.20411    38721.666 
    9095    274.47193    2.0186611    71.512696   -31.224605    156.93079    38721.666 
    9096    280.03912    2.1443213    68.489754   -31.487033    137.03986    38721.666 
    9097    285.30957    2.2811211    65.297375   -31.752228    104.29156    38721.666 
    9098    287.77501    2.4177621    63.121526   -31.992137    56.323384    38721.666 
    9099    285.80383    2.5423525    62.807236   -32.184949   -7.3731493    38721.666 
9100        0.39761932534048394228 14.758745611676054921 0.52910052910052907116 49 -158.8871598215118297
    9100    279.34462    2.6457225    64.515583   -32.320826   -83.568946    38721.666 
    9101    270.07689    2.7193407    67.624175   -32.410455   -168.71996    38721.666 
    9102    260.93002    2.7613548    70.916151   -32.478278   -255.94359    38721.666 
    9103    255.12125     2.770336    73.000773   -32.556797   -337.79605    38721.666 
    9104    255.03084    2.7484687    72.814455   -32.672953   -408.76372    38721.666 
    9105    261.33262    2.7018778    70.017486   -32.838625    -464.7366    38721.666 
    9106    272.70651    2.6386624    65.138516   -33.046231   -504.32427    38721.666 
    9107    286.23717    2.5669482    59.412262   -33.272327   -528.27612    38721.666 
    9108    298.35843    2.4938675    54.370272   -33.487019   -539.53697    38721.666 
    9109    306.00258    2.4253174    51.336161   -33.665211   -540.88294    38721.666 
    9110    307.55042    2.3655601    51.007211    -33.79515   -534.08039    38721.666 
    9111    303.26578     2.315936    53.265748   -33.880095   -518.60297    38721.666 
    9112    295.09252    2.2690516    57.270808   -33.940223   -493.19971    38721.666 
    9113    285.91865    2.2206017    61.778185   -33.998898   -456.58169    38721.666 
    9114    278.61931    2.1680852    65.558185   -34.078051   -407.39531    38721.666 
    9115    275.22656    2.1091264    67.759091   -34.189844   -344.71748    38721.666 
    9116    276.43162    2.0517005    68.103925   -34.336401   -268.93764    38721.666 
    9117     281.6004    2.0096882    66.878767    -34.50768   -186.30598    38721.666 
    9118     289.1903    1.9858875    64.750585   -34.689437    -101.7687    38721.666 
    9119    297.31047    1.9824982    62.502784   -34.869283   -20.040388    38721.666 
    9120    304.28267    2.0052567    60.788309   -35.037871    54.268513    38721.666 
    9121    309.01796    2.0550844    59.977533   -35.195527    116.60122    38721.666 
    9122    311.11828    2.1302714    60.132823   -35.347812    164.50868    38721.666 
    9123    310.74199    2.2257109    61.090849    -35.50134    197.73068    38721.666 
    9124    308.33883    2.3302352     62.59607   -35.665189    216.06981    38721.666 
    9125     304.3991    2.4421971     64.41478   -35.840634    220.01563    38721.666 
    9126    299.35254    2.5693387    66.378756   -36.021569    211.23108    38721.666 
    9127    293.64091    2.7149698    68.348959    -36.20267    190.86357    38721.666 
    9128     287.8682    2.8796309    70.132701    -36.37782    161.11632    38721.666 
    9129     282.8929    3.0600118    71.418364   -36.547432    124.33764    38721.666 
    9130    279.76224    3.2511979    71.786889   -36.718662    83.460112    38721.666 
    9131    279.44414    3.4475967    70.823118   -36.904129    41.226272    38721.666 
    9132    282.43057    3.6438259    68.297066   -37.117292  0.018811675    38721.666 
    9133    288.37557    3.8358794    64.339707   -37.366357   -39.134629    38721.666 
    9134    295.94965    4.0270432    59.523245   -37.648528   -74.997355    38721.666 
    9135    303.06837    4.2172633    54.784272   -37.952246   -110.37003    38721.666 
    9136     307.4505    4.4001266    51.189887   -38.258122   -146.25352    38721.666 
    9137    307.33356    4.5688202    49.610793   -38.546104   -182.65417    38721.666 
    9138    302.13566    4.7183364     50.41342   -38.801543   -217.63695    38721.666 
    9139    292.80291    4.8422144    53.287475   -39.022436   -248.55393    38721.666 
    9140    281.67152    4.9331421     57.28601   -39.220445   -270.62046    38721.666 
    9141    271.84108    4.9853309    61.083641   -39.418582    -278.5556    38721.666 
    9142    266.24083    4.9957248     63.38085   -39.644391   -267.95034    38721.666 
    9143    266.67244    4.9659314    63.327268   -39.921963   -235.84549    38721.666 
    9144    273.15475    4.9065981    60.822928   -40.259508   -183.15618    38721.666 
    9145    283.80968    4.8255879    56.590502   -40.651653   -114.76312    38721.666 
    9146    295.34898    4.7248198    51.983726   -41.077595   -36.104697    38721.666 
    9147    304.00962    4.6061198    48.583091   -41.507468    43.744306    38721.666 
    9148    306.67822    4.4758472       47.705   -41.911299    117.35805    38721.666 
    9149    301.87609    4.3398426    49.976531   -42.267635    179.27884    38721.666 
    9150    290.25802    4.2019616     55.11617   -42.569238    227.34081    38721.666 
    9151    274.46331    4.0625584    61.993868    -42.82664    261.64011    38721.666 
    9152    258.36573    3.9224213    68.952762   -43.062026    284.67123    38721.666 
    9153    245.96409    3.7771415    74.290001   -43.306937    299.95056    38721.666 
    9154    240.24466    3.6262448    76.746209    -43.58746    309.68359    38721.666 
    9155    242.36813    3.4725006    75.853662   -43.919014    315.11167    38721.666 
    9156    251.41763    3.3217881    72.041556   -44.300608    315.27134    38721.666 
    9157    264.74644    3.1813307    66.477025   -44.717245    308.79734    38721.666 
    9158    278.78876    3.0603903    60.704055   -45.145251    293.96149    38721.666 
    9159    290.08082    2.9690271    56.195983   -45.560082    269.22667    38721.666 
    9160    296.18098    2.9168806    53.957595   -45.943981    235.87023    38721.666 
    9161    296.24543    2.9086223    54.287933   -46.289816    195.37098    38721.666 
    9162    291.10813    2.9408889    56.760718   -46.602108    152.65155    38721.666 
    9163    282.87897    3.0075622    60.407602   -46.894004    114.80867    38721.666 
    9164    274.23686    3.0990157    64.034806   -47.183633    87.722374    38721.666 
    9165     267.6284    3.2037854    66.573469    -47.48826     76.89296    38721.666 
    9166    264.60262    3.3121561    67.361948   -47.819567      85.9219    38721.666 
    9167    265.46288    3.4175092    66.288076   -48.180369    114.82263    38721.666 
    9168    269.29447    3.5171608    63.767508   -48.563532    160.46783    38721.666 
    9169    274.32809    3.6086647    60.580488   -48.955602    217.43217    38721.666 
    9170     278.4979    3.6868584    57.627847    -49.34259    278.38704    38721.666 
    9171    280.01408    3.7531721    55.681367   -49.708923    334.20579    38721.666 
    9172    277.82223     3.810549    55.192961   -50.044254    377.13781    38721.666 
    9173    271.84227    3.8603503    56.204398   -50.343435    400.88415    38721.666 
    9174    262.95498    3.8956833    58.364987   -50.607985    402.54066    38721.666 
    9175    252.74224    3.9076053     61.04058   -50.845057    378.09678    38721.666 
    9176    243.08188    3.8954791    63.478517   -51.063573    326.61177    38721.666 
    9177    235.71537    3.8610277    64.991489    -51.27463      248.802    38721.666 
    9178    231.84539    3.8076692    65.125105   -51.488171    147.23372    38721.666 
    9179     231.8495    3.7403486    63.775299   -51.709753     25.71467    38721.666 
    9180    235.18283    3.6636472      61.2262   -51.939318   -110.69625    38721.666 
    9181     240.5059     3.585366    58.090268    -52.16851   -257.82939    38721.666 
    9182    246.04237    3.5141582    55.152515   -52.384075    -409.8542    38721.666 
    9183    250.09013    3.4542704    53.154123   -52.571275   -559.28265    38721.666 
    9184    251.52137    3.4066514     52.57492   -52.719183   -699.64562    38721.666 
    9185    250.12441    3.3716479    53.484675   -52.824256   -823.10247    38721.666 
    9186    246.67308    3.3463758    55.518007   -52.892344   -921.75175    38721.666 
    9187    242.67056    3.3252633    57.988686    -52.93693   -988.50291    38721.666 
    9188    239.84835    3.3010973    60.109608   -52.974373   -1017.5246    38721.666 
    9189     239.5869    3.2652779    61.245323    -53.01884   -1006.8395    38721.666 
    9190    242.44784    3.2108852    61.113303   -53.076226    -957.2931    38721.666 
    9191    247.97374    3.1337855    59.866131   -53.144257   -872.33835    38721.666 
    9192    254.82749    3.0363271    58.028714   -53.210637   -760.40923    38721.666 
    9193    261.21917    2.9209179    56.316751   -53.259875   -630.79471    38721.666 
    9194    265.45096    2.7932294    55.398695   -53.280905   -493.69609    38721.666 
    9195    266.42929    2.6774265    55.677045   -53.260204   -358.79036    38721.666 
    9196     264.0177    2.5860125    57.159699    -53.19898   -235.94032    38721.666 
    9197    259.07673    2.5153651    59.462361    -53.10681   -130.18983    38721.666 
    9198    253.15122    2.4601379    61.938867   -52.996788    -46.62392    38721.666 
    9199     247.9644    2.4174712    63.894794   -52.883279    13.171685    38721.666 
9200        0.38970376266144901578 14.791715934670236265 0.51322751322751325453 48 -163.73672992188923558
    9200    244.90065    2.3832884    64.809491   -52.776376    49.421111    38721.666 
    9201    244.61332    2.3535111    64.491892   -52.678307    63.698455    38721.666 
    9202    246.89449     2.325137    63.118479   -52.582783    58.601276    38721.666 
    9203     250.8355    2.2968777    61.145493   -52.477636    37.616977    38721.666 
    9204    255.20067     2.269194    59.134342   -52.349651    5.1258527    38721.666 
    9205    258.86351    2.2437488    57.559891   -52.189481    -33.59679    38721.666 
    9206    261.14423    2.2224688    56.672861   -51.994588   -72.528473    38721.666 
    9207    261.94236    2.2064801    56.459992   -51.769029   -105.19304    38721.666 
    9208    261.65122    2.1942339    56.702317   -51.521271    -125.0883    38721.666 
    9209    260.91874    2.1836251    57.093363   -51.260521   -126.85527    38721.666 
    9210    260.38358    2.1763369    57.361091   -50.990077   -106.44607    38721.666 
    9211    260.49689    2.1660313    57.348675    -50.71199   -63.185424    38721.666 
    9212     261.4424     2.141567    57.037221   -50.426021    2.3865875    38721.666 
    9213    263.14494    2.0978922    56.519895   -50.128182    86.923841    38721.666 
    9214    265.34713    2.0332141    55.954149   -49.815885    185.42093    38721.666 
    9215    267.69138    1.9485378    55.518469   -49.487651    291.73057    38721.666 
    9216    269.77756    1.8476758    55.384468   -49.142896    398.82043    38721.666 
    9217    271.21057     1.736647     55.69945   -48.781197    499.33046    38721.666 
    9218    271.65626    1.6234441    56.567684   -48.402167    586.63044    38721.666 
    9219    270.92116    1.5176848    58.023239   -48.004547    654.17597    38721.666 
    9220     269.0396    1.4265002    59.998605   -47.588802    696.81263    38721.666 
    9221    266.32544    1.3555239    62.304219   -47.156801    711.30772    38721.666 
    9222    263.35257    1.3087929    64.636758   -46.712416    696.41839    38721.666 
    9223    260.83499    1.2919725    66.626813    -46.26221    654.00463    38721.666 
    9224     259.4471    1.3155185    67.921565   -45.807782    585.65267    38721.666 
    9225    259.62745    1.3776052    68.281655   -45.353842    493.29431    38721.666 
    9226    261.40925    1.4714113    67.662117    -44.89954    382.00233    38721.666 
    9227    264.34344    1.5911582    66.245011   -44.441351    255.66819    38721.666 
    9228    267.59287    1.7382673    64.401152   -43.971534    117.69819    38721.666 
    9229    270.18496    1.9128813    62.586788   -43.483898   -26.662495    38721.666 
    9230    271.31461    2.1222923    61.204975   -42.971659    -171.0466    38721.666 
    9231    270.63993    2.3670366    60.476236   -42.435981    -311.4649    38721.666 
    9232     268.4377    2.6406552    60.365139   -41.882489   -441.92782    38721.666 
    9233    265.53674    2.9345987    60.594017   -41.321177   -556.40358    38721.666 
    9234    263.06288    3.2391604    60.746177   -40.763704   -649.35838    38721.666 
    9235     262.0569    3.5440254    60.428753   -40.219465   -715.90226    38721.666 
    9236    263.08973    3.8375994    59.439693   -39.693348   -753.42242    38721.666 
    9237    266.01372    4.1100125     57.87621   -39.182397   -761.59594    38721.666 
    9238    269.96375    4.3527938    56.135402   -38.677309   -741.86175    38721.666 
    9239    273.63483    4.5586656    54.794225   -38.165558    -697.2449    38721.666 
    9240      275.754    4.7212773    54.403847   -37.636377   -631.64667    38721.666 
    9241    275.57836     4.834989    55.272583   -37.085533   -549.08761    38721.666 
    9242    273.22243    4.8949009    57.324241   -36.517869   -453.15727    38721.666 
    9243     269.6768    4.8945001    60.094956   -35.946358   -345.88214    38721.666 
    9244    266.47301    4.8296093    62.879325   -35.387746   -230.94562    38721.666 
    9245    265.12306    4.7025935    64.974523    -34.85617   -111.27547    38721.666 
    9246    266.55498     4.519826    65.929988   -34.358317     9.750137    38721.666 
    9247    270.74477    4.2926981    65.707356   -33.889826    127.65078    38721.666 
    9248    276.69502    4.0335985    64.689449   -33.438765    236.57971    38721.666 
    9249    282.76577    3.7559855    63.535253   -32.989139    330.92486    38721.666 
    9250    287.23929    3.4734944    62.935077    -32.52712    406.17923    38721.666 
    9251    288.91875    3.1983459     63.35607    -32.04544     459.1267    38721.666 
    9252    287.54949    2.9335375    64.870047   -31.549354    489.32018    38721.666 
    9253    283.88884    2.6849046    67.125571   -31.049562    496.78595    38721.666 
    9254    279.42435    2.4611424     69.47324   -30.562119    484.67854    38721.666 
    9255    275.85523    2.2681758    71.197536   -30.104166    458.79887    38721.666 
    9256    274.49014    2.1187543    71.772221   -29.682044    422.43242    38721.666 
    9257    275.81734    2.0201817    71.042852    -29.29484    379.70813    38721.666 
    9258    279.37999    1.9703131    69.270891   -28.934923     334.2034    38721.666 
    9259    283.98674    1.9695449     67.02348   -28.584727    286.19064    38721.666 
    9260     288.2017    2.0114812    64.954077   -28.228874    237.97605    38721.666 
    9261    290.89263    2.0834834    63.563241   -27.859194     190.5565    38721.666 
    9262    291.61558    2.1741841    63.035363   -27.475264    145.18325    38721.666 
    9263    290.70978    2.2711809    63.213714   -27.086074    104.07232    38721.666 
    9264    289.07471    2.3617198    63.716093   -26.705036    69.462307    38721.666 
    9265    287.74287    2.4344367    64.132695   -26.344106     43.03683    38721.666 
    9266    287.44954    2.4798942    64.215581   -26.008803    25.927085    38721.666 
    9267    288.37433    2.4917325    63.978631   -25.696976    16.837687    38721.666 
    9268    290.14788    2.4691589    63.671454   -25.399609    13.484995    38721.666 
    9269    292.10025    2.4149606    63.646822   -25.105635    12.759922    38721.666 
    9270    293.61613    2.3340045    64.186346   -24.806517    11.248825    38721.666 
    9271    294.43617    2.2322723    65.361283   -24.498543    7.0812461    38721.666 
    9272    294.78629    2.1091582    66.984661   -24.186905   -2.7969611    38721.666 
    9273    295.27049    1.9638333    68.672711   -23.878973   -20.561886    38721.666 
    9274    296.58281    1.8004175    69.984841   -23.583733   -46.939452    38721.666 
    9275    299.19273    1.6249494    70.585736    -23.30746   -83.145903    38721.666 
    9276    303.09737    1.4444729    70.368788   -23.051801   -129.07552    38721.666 
    9277    307.74771    1.2665462    69.495974   -22.812993   -186.82028    38721.666 
    9278    312.18828    1.0958725    68.339806   -22.583535   -256.29615    38721.666 
    9279    315.34745   0.93875965    67.349122   -22.354702    -336.4852    38721.666 
    9280    316.40142   0.80244175    66.887326   -22.119856   -425.08674    38721.666 
    9281    315.07339   0.69421011    67.101252   -21.877023   -518.04356    38721.666 
    9282    311.75947   0.62072789    67.867925   -21.629409   -610.18865    38721.666 
    9283    307.43992    0.5846261    68.838213   -21.383194   -694.67573    38721.666 
    9284    303.40855    0.5682492    69.561933   -21.151109   -763.15475    38721.666 
    9285    300.85155   0.55463585    69.653323   -20.939248   -810.68513    38721.666 
    9286    300.46075    0.5340075    68.931241   -20.753243    -833.6509    38721.666 
    9287     302.2451   0.50688282    67.488722   -20.589447   -830.17779    38721.666 
    9288    305.56299   0.47453246    65.667453   -20.440405   -799.16277    38721.666 
    9289    309.35162   0.43973343    63.947579   -20.296129   -742.41643    38721.666 
    9290    312.47938   0.40756452    62.792038   -20.147241   -662.57039    38721.666 
    9291    314.10897   0.38360796    62.499148   -19.987946    -563.0363    38721.666 
    9292      313.954   0.37248225    63.111118   -19.816472   -447.12658    38721.666 
    9293    312.35811   0.37077329    64.404394   -19.638689   -317.54494    38721.666 
    9294      310.167   0.37769793    65.959286    -19.46114   -179.61427    38721.666 
    9295    308.46986   0.39489577    67.280588   -19.291682   -37.512984    38721.666 
    9296    308.29917   0.42249773    67.931324   -19.137338     104.3831    38721.666 
    9297    310.34702   0.45927933    67.644662   -19.002804    241.22256    38721.666 
    9298    314.76857   0.50314842    66.390907   -18.889912    367.68721    38721.666 
    9299    321.11232   0.55062659    64.389829   -18.797777    479.05832    38721.666 
9300        0.38850792409996420806 14.818888367258217897 0.51058201058201058142 47 -167.51010675518170956
    9300    328.39059   0.59754653    62.067592    -18.72187    570.58502    38721.666 
    9301    335.27523   0.63817208     59.96579    -18.65742    635.96936    38721.666 
    9302    340.39599   0.67048025     58.61512   -18.597388     671.4945    38721.666 
    9303    342.68933    0.6946426    58.396047   -18.535779    675.38328    38721.666 
    9304    341.70042   0.71266932    59.423306   -18.469626    648.08566    38721.666 
    9305    337.73175   0.72931447    61.494865   -18.400674    593.06882    38721.666 
    9306    331.77747   0.74891647    64.133754   -18.336018    514.26266    38721.666 
    9307    325.22582   0.77393829    66.724915   -18.285972    417.83275    38721.666 
    9308    319.41327   0.80704461    68.707793   -18.260337    310.56201    38721.666 
    9309    315.19467   0.85083363    69.759651   -18.264258    199.02247    38721.666 
    9310    312.68603   0.90757834    69.900003   -18.295406    88.994886    38721.666 
    9311    311.28413   0.97897121    69.471955   -18.344017   -14.629419    38721.666 
    9312    309.96298    1.0662397    69.002157   -18.395448   -107.77796    38721.666 
    9313    307.73573    1.1705163    68.988371   -18.435774   -186.74776    38721.666 
    9314    304.11648    1.2921097    69.692818   -18.455336   -249.12223    38721.666 
    9315    299.40323    1.4269983    71.017405   -18.453184   -291.98056    38721.666 
    9316    294.65876    1.5687881    72.510694   -18.436978   -312.66862    38721.666 
    9317    291.38839    1.7089963    73.510724   -18.420859   -309.40709    38721.666 
    9318    291.00542    1.8379185    73.381835   -18.421057   -281.74675    38721.666 
    9319    294.25887    1.9468201    71.768733   -18.449483   -231.59055    38721.666 
    9320    300.83105    2.0274991    68.777347   -18.509841   -163.96932    38721.666 
    9321    309.27298    2.0740539    65.006627   -18.594776   -85.347786    38721.666 
    9322    317.35014    2.0844009    61.399389   -18.687133   -4.4236581    38721.666 
    9323    322.72509    2.0591136    58.945217    -18.76654    69.466144    38721.666 
    9324    323.75437    2.0023939    58.332147   -18.816432    128.57167    38721.666 
    9325    320.10374    1.9217372    59.678609    -18.83133    167.40389    38721.666 
    9326      312.921    1.8269282    62.461714    -18.82014    183.27152    38721.666 
    9327    304.45879    1.7287899    65.688633   -18.803713    176.07456    38721.666 
    9328    297.26224    1.6379061    68.259233   -18.806997    147.49558    38721.666 
    9329    293.22744    1.5635201    69.382672   -18.848701    99.964837    38721.666 
    9330    292.90708    1.5127578     68.87955   -18.933004    35.857602    38721.666 
    9331     295.3511     1.489426    67.242895   -19.046866   -42.203802    38721.666 
    9332    298.54546    1.4926741    65.429591   -19.166365    -132.1923    38721.666 
    9333     300.2652    1.5210097    64.467523   -19.264642    -230.9483    38721.666 
    9334    298.98514    1.5770536    65.038636   -19.324134   -332.07347    38721.666 
    9335    294.51438    1.6650667    67.204795   -19.339977   -429.62082    38721.666 
    9336    288.08623    1.7786475    70.384138   -19.325839   -514.91103    38721.666 
    9337    281.86091    1.9086291     73.58191   -19.304221   -577.36727    38721.666 
    9338     278.0487    2.0562345    75.777372   -19.299968   -607.19331    38721.666 
    9339    278.07085    2.2302659    76.310502    -19.32741   -601.07932    38721.666 
    9340    282.05685    2.4291387    75.119705   -19.387765   -556.85806    38721.666 
    9341    288.79404    2.6501983     72.74756   -19.468778   -476.03533    38721.666 
    9342    296.20626    2.8923482    70.116001   -19.547606   -363.84833    38721.666 
    9343    302.16318    3.1478003    68.160082   -19.603164   -227.68586    38721.666 
    9344    305.28864    3.4052187    67.462537   -19.622428   -77.493603    38721.666 
    9345     305.4554    3.6524752    68.033108   -19.606755    76.965174    38721.666 
    9346    303.77471    3.8768652    69.323806   -19.571906    227.04474    38721.666 
    9347    302.06166    4.0672922    70.479907   -19.542482    364.82369    38721.666 
    9348    301.98155    4.2188273     70.73003   -19.542683    483.83149    38721.666 
    9349    304.24748    4.3334385    69.754063   -19.584212    576.09961    38721.666 
    9350    308.22015    4.4131934    67.865069   -19.662965    634.69322    38721.666 
    9351    312.09701    4.4631287    65.913239   -19.758154    654.00237    38721.666 
    9352    313.66496    4.4898121    64.933516    -19.84072     630.8243    38721.666 
    9353    311.31942    4.4996217    65.674189   -19.885154    565.84245    38721.666 
    9354     304.9155    4.4949483    68.206963   -19.881531    464.92708    38721.666 
    9355    296.04768    4.4764047    71.798012   -19.840497    337.24191    38721.666 
    9356     287.5971    4.4465664    75.116787   -19.789203     195.5131    38721.666 
    9357    282.68258     4.409983    76.719171   -19.764341    54.932533    38721.666 
    9358    283.42018    4.3805389    75.623924   -19.789501   -71.433752    38721.666 
    9359    289.99467    4.3622204    71.752243    -19.87504   -173.88797    38721.666 
    9360    300.40523    4.3574463    66.047959   -20.006312   -246.34705    38721.666 
    9361    311.04042    4.3675091    60.214036   -20.150407   -287.00821    38721.666 
    9362    317.91408    4.3916248    56.146849   -20.268046   -297.37242    38721.666 
    9363    318.11924    4.4269703     55.26707   -20.326883   -279.72511    38721.666 
    9364    310.97616    4.4607531    57.990006   -20.316354   -237.71223    38721.666 
    9365    298.40315    4.4808469    63.535757   -20.247813   -176.14777    38721.666 
    9366    284.36843    4.4798666    70.155242   -20.154202   -98.317944    38721.666 
    9367    273.60634    4.4529836     75.70356   -20.078737   -8.1769715    38721.666 
    9368    270.00547    4.3983039    78.366365   -20.059601    88.512303    38721.666 
    9369    275.23974    4.3167658    77.285522   -20.115617    183.38965    38721.666 
    9370     288.1319    4.2116794    72.860951   -20.238884    265.59466    38721.666 
    9371    304.98959    4.0880961    66.617033   -20.397722    322.98247    38721.666 
    9372    320.80362    3.9555389    60.676226   -20.549693    346.82011    38721.666 
    9373    330.92021    3.8282462    57.024973    -20.65332    327.36436    38721.666 
    9374    332.59779     3.711909    56.831852   -20.687698    261.96553    38721.666 
    9375    325.85862    3.6104694    60.065102   -20.657386    154.36423    38721.666 
    9376    313.38375    3.5299609    65.538895   -20.587006    15.868653    38721.666 
    9377    299.49897    3.4724371    71.362703   -20.517924   -138.64907    38721.666 
    9378    288.62922    3.4440804    75.623326   -20.488558   -293.42407    38721.666 
    9379    283.81144    3.4500487    77.043724   -20.523227   -432.55463    38721.666 
    9380     285.7729    3.4945036    75.384819    -20.62406   -542.54909    38721.666 
    9381    292.87246    3.5858572    71.459295   -20.767714   -613.76371    38721.666 
    9382    301.89354    3.7279506    66.771441   -20.918278   -642.32861    38721.666 
    9383    309.34983    3.9141394    62.930877   -21.041054   -628.44598    38721.666 
    9384    312.78918    4.1305647    61.064789   -21.113287    -574.1126    38721.666 
    9385    311.62717    4.3577292    61.443369   -21.133398   -481.91269    38721.666 
    9386    307.23692    4.5724328    63.444919   -21.119463   -356.55029    38721.666 
    9387    302.28701    4.7480551    65.858252   -21.104037   -203.82585    38721.666 
    9388    299.60247    4.8642093    67.395251   -21.119463   -32.096177    38721.666 
    9389    301.01018    4.9089228    67.212543   -21.187702    148.80657    38721.666 
    9390    306.60562     4.880853    65.245014   -21.311344    326.21795    38721.666 
    9391    314.71017    4.7875815    62.228117   -21.474275    486.12688    38721.666 
    9392    322.52142    4.6446638    59.406729   -21.647936    615.23548    38721.666 
    9393    327.19723    4.4727478    58.047674   -21.802464    702.95439    38721.666 
    9394    326.95193    4.2898654    58.946804   -21.920328    744.11734    38721.666 
    9395    321.71631    4.1209131    62.121734   -21.997651    737.76409    38721.666 
    9396    313.14954    3.9858421     66.80385   -22.051046    687.60336    38721.666 
    9397    304.00257    3.8938685    71.727339   -22.107155    603.07578    38721.666 
    9398      297.053    3.8462238    75.598874   -22.194136    494.75995    38721.666 
    9399     294.0669     3.839964    77.561776   -22.329258    374.38912    38721.666 
9400        0.39497261147518114566 14.813621014387319264 0.51322751322751325453 47 -156.25285329024902126
    9400    295.17704    3.8672798    77.479544   -22.513115    252.72732    38721.666 
    9401    298.90116    3.9157405    75.938287   -22.727676    139.18722    38721.666 
    9402    302.75864    3.9656097    73.978793   -22.949216    39.964903    38721.666 
    9403    304.24144    4.0090638    72.667145     -23.1477   -41.335707    38721.666 
    9404    301.79585    4.0412434    72.669839   -23.304102   -101.63156    38721.666 
    9405    295.43786    4.0552384    73.994478    -23.41543   -137.78129    38721.666 
    9406    286.75939    4.0462025    75.988235   -23.494005    -149.9106    38721.666 
    9407    278.35506    4.0130754    77.587326   -23.564795   -138.06479    38721.666 
    9408    272.90267    3.9595596    77.721714   -23.652441    -104.7824    38721.666 
    9409    272.22099    3.8868903    75.723398   -23.776815   -57.143705    38721.666 
    9410    276.63203    3.7969524    71.592844   -23.943492   -3.4843952    38721.666 
    9411    284.84477    3.6926859    66.031595   -24.142966     45.99049    38721.666 
    9412    294.38723    3.5782615      60.2339   -24.354831    80.618004    38721.666 
    9413    302.41923    3.4588477    55.514929   -24.555546    91.054877    38721.666 
    9414    306.63583     3.340012    52.906762   -24.726659    70.995899    38721.666 
    9415    305.95404    3.2268484    52.858903   -24.860448    18.582588    38721.666 
    9416     300.7656     3.122922    55.137405   -24.961694   -63.533248    38721.666 
    9417     292.7008    3.0301785    58.943524    -25.04468   -168.49617    38721.666 
    9418    284.02117     2.948686     63.19644   -25.127638   -286.26635    38721.666 
    9419    276.87688    2.8770932    66.872881   -25.225909   -404.96046    38721.666 
    9420     272.6936    2.8094961    69.287712   -25.347595   -511.88962    38721.666 
    9421    271.84936    2.7408631     70.23453    -25.49147   -598.42265    38721.666 
    9422    273.72456    2.6722612     69.95875   -25.647501   -656.61749    38721.666 
    9423    277.06063    2.6062397    68.999775    -25.80266   -681.70838    38721.666 
    9424    280.44628     2.546569    67.974827   -25.944964   -671.13603    38721.666 
    9425    282.76458     2.495506    67.382307   -26.067178     -624.529    38721.666 
    9426     283.4684    2.4532594    67.479726   -26.167862   -544.58647    38721.666 
    9427    282.66753    2.4057505    68.256029   -26.250086   -433.87994    38721.666 
    9428    280.97854    2.3356995    69.483044   -26.320574   -301.06713    38721.666 
    9429    279.26142     2.239062    70.812987   -26.385793   -154.50793    38721.666 
    9430    278.39441    2.1152204    71.881564    -26.45086   -3.4820106    38721.666 
    9431    279.07361    1.9664312    72.390952   -26.519412    141.19298    38721.666 
    9432    281.69177    1.7973683    72.159578   -26.593398    269.23212    38721.666 
    9433    286.28966    1.6156889    71.140211   -26.673678    371.47095    38721.666 
    9434    292.57032    1.4316437    69.413603   -26.760456    440.20156    38721.666 
    9435    299.95387    1.2567532    67.167148   -26.853974     470.1053    38721.666 
    9436    307.65347    1.1027355    64.666759    -26.95459    458.88986    38721.666 
    9437    314.76085    0.9801352    62.227336   -27.062713    407.44171    38721.666 
    9438    320.33742   0.89699408     60.18348   -27.178324    319.81868    38721.666 
    9439    323.51456    0.8577936    58.858043   -27.300221    202.98413    38721.666 
    9440    323.61107   0.86298756    58.523377   -27.425066    66.724134    38721.666 
    9441    320.28364    0.9011966    59.351585     -27.5487   -76.163751    38721.666 
    9442     313.6475   0.96006803    61.357976   -27.664955   -215.76925    38721.666 
    9443    304.36682       1.0328    64.350797   -27.769181   -340.00476    38721.666 
    9444    293.68498    1.1123215    67.912522   -27.860295   -437.64503    38721.666 
    9445    283.29407    1.1925477    71.437324   -27.942521   -499.13223    38721.666 
    9446    275.04455    1.2709591    74.234971   -28.024272   -517.38241    38721.666 
    9447    270.54597    1.3473055    75.685992   -28.116548   -490.07267    38721.666 
    9448    270.75905    1.4234126    75.406882   -28.228493   -418.56592    38721.666 
    9449    275.70378    1.5033408    73.372112   -28.363992   -308.48364    38721.666 
    9450    284.39535    1.5925411    69.947409   -28.520076    -169.3161    38721.666 
    9451    295.04316    1.6974042    65.815965   -28.688704   -12.658368    38721.666 
    9452    305.46917     1.830382    61.814057   -28.856284    148.58319    38721.666 
    9453    313.65561    1.9948433    58.722696   -29.013298     298.8552    38721.666 
    9454    318.23308      2.18534    57.077206    -29.15332    426.05026    38721.666 
    9455    318.77071    2.3934316    57.044575   -29.275522    520.95533    38721.666 
    9456    315.83044    2.6087978    58.397999   -29.384635    577.98589    38721.666 
    9457    310.76887    2.8204919    60.590653   -29.489718    595.38072    38721.666 
    9458    305.34719    3.0181566    62.906639   -29.602181    574.90103    38721.666 
    9459    301.25116    3.1930834    64.651209   -29.733367    521.15623    38721.666 
    9460     299.6391    3.3390383    65.335328   -29.891971    440.72437    38721.666 
    9461    300.82838    3.4528068    64.810316   -30.081693     341.2463    38721.666 
    9462    304.20181     3.534805     63.31606   -30.300345    231.11284    38721.666 
    9463    308.37736    3.5915946    61.422142   -30.536991    118.20391    38721.666 
    9464    311.61824    3.6277261    59.867285   -30.778437    8.7736704    38721.666 
    9465    312.37109    3.6489343    59.333749   -31.009509   -90.638137    38721.666 
    9466     309.7761    3.6660025    60.219067   -31.219751   -173.09378    38721.666 
    9467    304.01565    3.6948529    62.479888   -31.402447   -234.18595    38721.666 
    9468    296.34845    3.7410734    65.610562   -31.564609    -270.3203    38721.666 
    9469    288.76922    3.8089688    68.774927   -31.720141   -279.11391    38721.666 
    9470    283.41093    3.9018104    71.057215   -31.887012   -260.49371    38721.666 
    9471    281.87514    4.0215638    71.753808   -32.081245   -217.20441    38721.666 
    9472    284.70691    4.1686789    70.608705   -32.311387   -154.93399    38721.666 
    9473    291.19314    4.3419447    67.911608   -32.575597   -81.886052    38721.666 
    9474    299.55084    4.5402627    64.422441    -32.86345   -6.9924232    38721.666 
    9475    307.46892    4.7645628    61.142905    -33.15531    59.489231    38721.666 
    9476    312.82277    5.0048102    59.009039   -33.435423    109.02686    38721.666 
    9477    314.30087    5.2519739    58.603398   -33.693279    137.12386    38721.666 
    9478    311.78564    5.5011725      59.9775   -33.925284    140.43872    38721.666 
    9479    306.36521    5.7446469    62.640159   -34.138995    120.60568    38721.666 
    9480    299.94926    5.9770742     65.71657   -34.349173    82.493329    38721.666 
    9481    294.63436     6.195571      68.2277   -34.573573    32.964056    38721.666 
    9482    292.01613     6.399725    69.400862   -34.827902   -20.046468    38721.666 
    9483    292.67678    6.5940122     68.91088   -35.117418   -69.436252    38721.666 
    9484    296.02046     6.778349      66.9732    -35.43952    -110.2884    38721.666 
    9485    300.48448    6.9554745      64.2586   -35.782431   -137.11363    38721.666 
    9486    304.09235    7.1333618    61.656856   -36.124729   -148.48697    38721.666 
    9487     305.1487     7.308399    59.973374   -36.450746   -143.53808    38721.666 
    9488    302.80193    7.4768056    59.664141   -36.749849   -121.36058    38721.666 
    9489    297.30531    7.6367596    60.700554   -37.021898   -80.518479    38721.666 
    9490    289.89573    7.7906495    62.608562    -37.27447   -21.404475    38721.666 
    9491    282.34363     7.938635    64.660914   -37.522493    54.210444    38721.666 
    9492    276.33725    8.0800992    66.147409   -37.780357    143.49486    38721.666 
    9493    272.93046    8.2129994    66.622595   -38.056921    241.67197    38721.666 
    9494     272.2427    8.3342053    66.043539   -38.353468    342.77284    38721.666 
    9495    273.50945    8.4430993    64.755057   -38.659081    438.80445    38721.666 
    9496    275.44824    8.5289606     63.33657   -38.961236    520.96114    38721.666 
    9497    276.77353    8.5767214    62.373398   -39.245976    582.00358    38721.666 
    9498    276.67864    8.5698833    62.236674   -39.504001    616.72302    38721.666 
    9499    275.12417    8.4929186    62.949274   -39.733927     622.6438    38721.666 
9500        0.40128585922390458407 14.804255128181866397 0.52910052910052907116 49 -163.55772156767307024
    9500    272.83041     8.333787    64.183631   -39.942865    600.19448    38721.666 
    9501    270.97936    8.0860503    65.391341   -40.144081    552.34351    38721.666 
    9502    270.73783    7.7481448    66.018311   -40.352431    484.68275    38721.666 
    9503    272.75708    7.3280799    65.728185     -40.5789    402.49154    38721.666 
    9504    276.86191    6.8442467     64.54718   -40.825689    310.92109    38721.666 
    9505    282.06617    6.3156164    62.871648   -41.085486    216.24241    38721.666 
    9506    286.88586    5.7622132    61.329735   -41.344858    122.40607    38721.666 
    9507    289.86929    5.2080941    60.542767   -41.587649    33.725734    38721.666 
    9508    290.15387    4.6745184    60.878738   -41.802197   -45.275307    38721.666 
    9509     287.8112     4.172554    62.298372   -41.988454   -109.46431    38721.666 
    9510    283.81707    3.7111719    64.361331   -42.154717    -155.7347    38721.666 
    9511    279.67379    3.2961946    66.393289   -42.316088   -181.16728    38721.666 
    9512    276.81611    2.9311161    67.751878   -42.489416   -186.12579    38721.666 
    9513    276.04729    2.6240939    68.080236      -42.683   -171.47354    38721.666 
    9514    277.24968    2.3803467    67.445335   -42.895846   -142.59861    38721.666 
    9515    279.47291    2.2035566    66.301938   -43.116073    -105.6704    38721.666 
    9516    281.36978    2.0932147    65.298789   -43.326085   -66.740869    38721.666 
    9517    281.81006     2.035903    65.006265   -43.510732   -29.088279    38721.666 
    9518    280.38329     2.015042    65.674467   -43.663035  -0.41308227    38721.666 
    9519    277.61279      2.02435    67.115945    -43.78563    16.852784    38721.666 
    9520    274.83761    2.0606653    68.757795   -43.888423    22.322232    38721.666 
    9521      273.755    2.1134604    69.842362   -43.992634    17.536845    38721.666 
    9522    275.79713    2.1772849    69.703055   -44.113306    3.7915098    38721.666 
    9523     281.5724     2.239565    68.018828   -44.264141   -16.187579    38721.666 
    9524    290.55148    2.2927754    64.958936   -44.445058   -40.522478    38721.666 
    9525    301.13536    2.3294785    61.161749   -44.648028   -67.475263    38721.666 
    9526    311.09349    2.3448539     57.55065    -44.85699   -95.835652    38721.666 
    9527    318.23404    2.3362983    55.042742   -45.054715   -123.79176    38721.666 
    9528    321.09403    2.3035317    54.246339   -45.228545   -148.65856    38721.666 
    9529    319.40815    2.2476661    55.253672   -45.375363   -166.04926    38721.666 
    9530    314.17785    2.1719036    57.607881   -45.503009   -172.02967    38721.666 
    9531    307.31031    2.0804614    60.462668   -45.627617    -161.6193    38721.666 
    9532    300.94075    1.9770791    62.882474   -45.769516    -132.0717    38721.666 
    9533     296.6815    1.8712747    64.173908   -45.942193   -82.977495    38721.666 
    9534    295.09605    1.7737008    64.121409   -46.149148   -15.698596    38721.666 
    9535    295.58525    1.6961158    63.036238   -46.382062    65.764807    38721.666 
    9536    296.73412    1.6530555    61.600399   -46.619571    157.15109    38721.666 
    9537    296.97693     1.648533    60.567705    -46.84346    249.38649    38721.666 
    9538    295.29252    1.6860682    60.444634   -47.038494    333.89661    38721.666 
    9539      291.658    1.7652526     61.28179   -47.202035    405.13622    38721.666 
    9540     287.0771    1.8814933    62.659467   -47.344107    459.93387    38721.666 
    9541    283.16698    2.0262189     63.87152   -47.483798     496.8189    38721.666 
    9542    281.47703    2.1887462    64.231566    -47.64013    515.74108    38721.666 
    9543    282.82793    2.3486633    63.376005    -47.82691     518.4713    38721.666 
    9544     286.8963    2.4884429    61.441886   -48.045614    503.88876    38721.666 
    9545    292.24897    2.6031934    59.044927   -48.283527    472.52258    38721.666 
    9546    296.84786    2.6909423    57.062232   -48.520415    425.58863    38721.666 
    9547    298.80774    2.7488226    56.300364   -48.734248    366.66803    38721.666 
    9548    297.11173    2.7718005    57.174619   -48.913315    298.55602    38721.666 
    9549     292.0252    2.7646985     59.52222   -49.054799    226.31153    38721.666 
    9550     285.0637    2.7334818    62.624976   -49.170259     156.5059    38721.666 
    9551    278.49038    2.6844102    65.440406   -49.280558    95.820256    38721.666 
    9552    274.51987    2.6239023    66.961628   -49.408283    49.711137    38721.666 
    9553    274.52099    2.5585846    66.576045   -49.569248    21.193715    38721.666 
    9554     278.5055    2.4960764    64.290468   -49.768844    10.796497    38721.666 
    9555    285.08841     2.461653    60.738321   -49.991494    17.343623    38721.666 
    9556    291.98472    2.4722388    56.964329   -50.218523    32.936064    38721.666 
    9557    296.81874      2.53836    54.063162   -50.428126    52.325703    38721.666 
    9558    297.93844    2.6713863    52.805379   -50.601823    69.597692    38721.666 
    9559    294.98624    2.8711549    53.386447   -50.735833    79.414881    38721.666 
    9560    288.98786    3.1292967    55.386457   -50.839438    79.356288    38721.666 
    9561    281.94578    3.4324191    57.950161    -50.93135    69.267379    38721.666 
    9562    276.10005    3.7634844    60.117035   -51.033063    50.306189    38721.666 
    9563    273.12868    4.1034262    61.177287   -51.160779    24.055459    38721.666 
    9564    273.57918    4.4329658    60.922205   -51.319197   -8.1799752    38721.666 
    9565    276.73653    4.7343844    59.697251   -51.499634   -45.618543    38721.666 
    9566    280.97064    4.9930481    58.239771   -51.683305   -87.720064    38721.666 
    9567     284.4276    5.1985467    57.363973   -51.848626   -133.53343    38721.666 
    9568    285.79718    5.3453873    57.614813   -51.979775   -180.99749    38721.666 
    9569     284.8547    5.4332394    59.027192    -52.07327   -226.56053    38721.666 
    9570    282.55555    5.4667611    61.089745   -52.139934   -265.37796    38721.666 
    9571    280.63176    5.4550287     62.93498   -52.201257   -292.12874    38721.666 
    9572    280.83867    5.4105816    63.687585   -52.281234   -302.23801    38721.666 
    9573    284.14899    5.3480882    62.835619   -52.396754   -293.10634    38721.666 
    9574     290.2268    5.2826845    60.473715   -52.550457    -264.9054    38721.666 
    9575    297.41516    5.2281124    57.312603   -52.729175   -220.62936    38721.666 
    9576    303.27194    5.1948881    54.439652   -52.908703   -165.34985    38721.666 
    9577    305.46526     5.189371     52.91523    -53.06329   -104.47009    38721.666 
    9578    302.69163    5.2138911    53.358898    -53.17443   -43.370229    38721.666 
    9579    295.25972    5.2621224     55.68761   -53.239438    14.974491    38721.666 
    9580    285.08214    5.3226013    59.113505   -53.272226    68.389296    38721.666 
    9581    275.06882    5.3829742    62.408754     -53.2981     117.0061    38721.666 
    9582    268.13933    5.4295543    64.344229   -53.344974     161.7231    38721.666 
    9583    266.19948    5.4494674    64.141421   -53.432618    203.04231    38721.666 
    9584    269.45699    5.4330195    61.770779   -53.565222     240.6768    38721.666 
    9585    276.32973    5.3768898    57.984758   -53.728236    272.67511    38721.666 
    9586    283.99424    5.2816264    54.068078    -53.89411    296.41711    38721.666 
    9587    289.38265    5.1471018    51.390439   -54.034121    310.10463    38721.666 
    9588    290.26409    4.9807639    50.919618   -54.124497    312.15468    38721.666 
    9589    286.04307    4.7948774    52.869403   -54.157514    304.20892    38721.666 
    9590    277.98544    4.6015727    56.613075   -54.144181    289.65115    38721.666 
    9591     268.7649    4.4124943    60.898801   -54.110003     273.7476    38721.666 
    9592    261.49438    4.2386293    64.294002   -54.086074      261.802    38721.666 
    9593    258.59038    4.0901836    65.700995   -54.097441    257.55216    38721.666 
    9594    260.87889    3.9774192    64.756278    -54.15413    262.55471    38721.666 
    9595     267.2797    3.9145053    61.965532   -54.243124    275.35212    38721.666 
    9596    275.19959     3.907368    58.520016   -54.339567    290.45388    38721.666 
    9597       281.48    3.9593358     55.86038   -54.409246    301.56697    38721.666 
    9598    283.55924    4.0592394    55.150751   -54.427789    304.12191    38721.666 
    9599    280.39185    4.1928582    56.858069   -54.384516    292.25062    38721.666 
9600        0.40955321868400645924 14.82813374164607545 0.53174603174603174427 42 -177.88900589596960344
    9600    272.79963     4.347096      60.5936   -54.288096    264.38856    38721.666 
    9601     263.1617    4.5054363    65.267158   -54.162555    222.05507    38721.666 
    9602    254.54231    4.6484638     69.48982    -54.03764    167.62733    38721.666 
    9603    249.60676     4.755666     72.06771   -53.937036    104.56252    38721.666 
    9604    249.73172    4.8082591    72.401367    -53.86936    35.808951    38721.666 
    9605    254.62563     4.791573    70.649968   -53.825335   -36.779407    38721.666 
    9606    262.56326    4.6970019    67.615266   -53.782157   -112.36157    38721.666 
    9607    271.10903    4.5223645    64.406525   -53.712928   -189.95223    38721.666 
    9608    278.02066    4.2741373    62.024476   -53.597898   -268.64827    38721.666 
    9609    282.00803    3.9706708    61.019268   -53.427744   -346.39921    38721.666 
    9610    283.08452    3.6284515     61.34328   -53.211504   -420.69485    38721.666 
    9611    282.38182    3.2677732     62.43903    -52.96862   -486.19926    38721.666 
    9612    281.56313    2.9116059    63.511599   -52.720738   -539.14245    38721.666 
    9613    282.08909    2.5776738    63.869728   -52.485163   -576.33706    38721.666 
    9614    284.60083     2.279859    63.204425   -52.267954   -596.05061    38721.666 
    9615    288.66733    2.0292099    61.700135   -52.062112   -598.72095    38721.666 
    9616    292.98514    1.8330767    59.942813   -51.849899   -586.35616    38721.666 
    9617    295.93577    1.6877704    58.667525   -51.614637   -562.68211    38721.666 
    9618    296.25722    1.5906072    58.449042   -51.341733   -532.15682    38721.666 
    9619    293.59072     1.537044    59.456095   -51.028138   -498.29436    38721.666 
    9620    288.68395    1.5173765    61.368662   -50.682704   -462.23541    38721.666 
    9621    283.14869    1.5186097    63.490098   -50.323388   -424.37533    38721.666 
    9622    278.87618    1.5321553    65.008762   -49.968359   -385.41792    38721.666 
    9623    277.34984    1.5541308    65.305047   -49.630001   -344.58798    38721.666 
    9624    279.11626    1.5846112    64.184533   -49.309427   -301.24716    38721.666 
    9625      283.607    1.6275081    61.947059   -48.996086   -255.11794    38721.666 
    9626    289.37299    1.6894483    59.268895   -48.672214   -206.14875    38721.666 
    9627    294.62591    1.7778622    56.949884    -48.32016   -154.13268    38721.666 
    9628    297.86593    1.8986765    55.628744    -47.92939   -98.286919    38721.666 
    9629    298.34891    2.0568997    55.576785   -47.500147   -35.973573    38721.666 
    9630     296.2453    2.2533208    56.642647   -47.042366    33.690853    38721.666 
    9631    292.46787    2.4790193    58.353915   -46.570034    113.45719    38721.666 
    9632    288.25446    2.7073341    60.124167   -46.100564    205.89308    38721.666 
    9633    284.67278    2.9137827    61.474642   -45.642464    307.83403    38721.666 
    9634    282.28183    3.0828302    62.181372   -45.194802    416.13655    38721.666 
    9635    281.07236     3.200356    62.302475   -44.750401     526.1304    38721.666 
    9636    280.62954    3.2554025    62.092929   -44.298982    631.71316    38721.666 
    9637    280.42259    3.2419969    61.859125   -43.831961    726.09395    38721.666 
    9638    280.07596    3.1604767     61.82416   -43.345898    802.59855    38721.666 
    9639    279.50204    3.0180788    62.061061   -42.843216    855.35125    38721.666 
    9640    278.86264    2.8255521    62.513501   -42.329332    880.77537    38721.666 
    9641     278.3923    2.5942102    63.079027   -41.811884    875.11294    38721.666 
    9642    278.19161    2.3419484    63.705294   -41.293624    836.72998    38721.666 
    9643    278.13144    2.0875437    64.441226    -40.77297    765.92394    38721.666 
    9644    277.91873    1.8484604    65.411164    -40.24448    664.89789    38721.666 
    9645     277.3049    1.6390149    66.719676    -39.70189    537.89604    38721.666 
    9646      276.338    1.4690625    68.332519   -39.141879    391.21117    38721.666 
    9647    275.51994    1.3433604    69.998347   -38.566753     232.9193    38721.666 
    9648    275.76388    1.2579306    71.265643   -37.984112    73.381231    38721.666 
    9649    278.08569    1.2046028    71.613074   -37.406856   -78.638232    38721.666 
    9650    283.14885    1.1827599    70.653274    -36.84314   -215.32143    38721.666 
    9651    290.85736     1.188825    68.333956    -36.29644   -330.51627    38721.666 
    9652    300.16162    1.2161742    65.045357   -35.759933   -420.03845    38721.666 
    9653     309.2076    1.2482359    61.569641   -35.226014   -482.87785    38721.666 
    9654    315.82554    1.2812437    58.866115   -34.678002   -521.48449    38721.666 
    9655    318.25152    1.3131774    57.755525   -34.106482   -539.68773    38721.666 
    9656    315.80676    1.3413578    58.619176   -33.511287   -541.23633    38721.666 
    9657    309.24376    1.3633716    61.231549   -32.903823   -529.57945    38721.666 
    9658    300.61121    1.3771849    64.802634    -32.30481   -507.58694    38721.666 
    9659    292.64602    1.3813042    68.229094   -31.738131   -477.77635    38721.666 
    9660    287.88507    1.3750304    70.472027   -31.223131   -442.66125    38721.666 
    9661    287.80401    1.3632427    70.926057   -30.765581   -404.56097    38721.666 
    9662     292.3183    1.3490226    69.641318   -30.357424   -369.08312    38721.666 
    9663     299.8216    1.3322931    67.311192   -29.977324   -340.93197    38721.666 
    9664    307.75253    1.3131353    65.023472   -29.598306   -324.26257    38721.666 
    9665    313.51834      1.29205    63.859532   -29.197116    -321.4366    38721.666 
    9666    315.43628    1.2711821    64.485223   -28.762907   -331.33186    38721.666 
    9667    313.35837    1.2560509    66.883997   -28.298721   -350.26341    38721.666 
    9668    308.74427    1.2487458    70.334591   -27.823999   -371.56475    38721.666 
    9669    304.13483    1.2510444    73.648107    -27.36569   -386.25876    38721.666 
    9670    302.21562    1.2645931    75.583834   -26.949611   -385.19031    38721.666 
    9671    304.80862    1.2906154    75.296054   -26.591383   -360.91503    38721.666 
    9672    312.15592    1.3295872    72.650363    -26.29096   -309.19698    38721.666 
    9673     322.7587    1.3809587    68.293829    -26.03296   -229.72581    38721.666 
    9674    333.83428    1.4430099    63.452093    -25.79275   -125.89737    38721.666 
    9675    342.20396    1.5262918    59.525083    -25.54497   -1.8333858    38721.666 
    9676    345.37618    1.6389775    57.624093   -25.273184    132.68495    38721.666 
    9677    342.39239    1.7743612    58.213659   -24.974667     269.9298    38721.666 
    9678    334.09587    1.9248037    60.980562   -24.660982    402.94242    38721.666 
    9679    322.81949    2.0826392    64.969092   -24.353839    525.78551    38721.666 
    9680    311.58635    2.2409392     68.92788   -24.077638    633.27471    38721.666 
    9681    303.11248    2.3940188    71.741455   -23.850994    720.47408    38721.666 
    9682    298.95955    2.5377483    72.793987   -23.680134    782.56608    38721.666 
    9683    299.12204    2.6707616    72.140739   -23.556006    814.94557    38721.666 
    9684    302.17966    2.7929915    70.433507   -23.457198    812.28463    38721.666 
    9685    305.93637    2.9036047    68.634391   -23.357791    771.26884    38721.666 
    9686    308.29146    3.0035156    67.628022    -23.23624    692.17046    38721.666 
    9687    308.02882    3.0955929    67.878849   -23.081554    577.11244    38721.666 
    9688    305.22603    3.1802283    69.262762   -22.898821    432.10904    38721.666 
    9689     301.1144    3.2632916    71.135158   -22.707104    267.55598    38721.666 
    9690    297.50078    3.3588868    72.606105     -22.5253     93.26153    38721.666 
    9691    295.97544    3.4680027    72.913339   -22.374522   -80.735394    38721.666 
    9692    297.19273    3.5911898    71.743885   -22.262359   -245.42682    38721.666 
    9693    300.55189    3.7294649    69.373793   -22.181628   -394.29704    38721.666 
    9694    304.41135    3.8840312    66.568613    -22.11312   -523.51432    38721.666 
    9695    306.74918    4.0556645    64.282973   -22.033133   -631.44086    38721.666 
    9696    306.00865    4.2439507     63.27793   -21.922714   -717.76721    38721.666 
    9697    301.79141    4.4466169    63.807901    -21.77502   -782.66144    38721.666 
    9698    295.11658    4.6591887    65.502535   -21.598126   -826.31469    38721.666 
    9699    288.12959    4.8751155    67.494084   -21.412265   -849.01638    38721.666 
9700        0.40870081671249175459 14.848753099406133416 0.53174603174603174427 47 -149.62550982730004989
    9700    283.35438    5.0863805    68.746961    -21.24242   -851.68985    38721.666 
    9701     282.7581     5.284521    68.468436   -21.108818   -836.44642    38721.666 
    9702    286.97505    5.4614427     66.44585   -21.019084   -807.66769    38721.666 
    9703    294.98437    5.6108104    63.179605   -20.964541   -770.92311    38721.666 
    9704    304.38472    5.7281945    59.750842   -20.923257    -732.7866    38721.666 
    9705    312.19021    5.8111992    57.460115   -20.867597   -699.62416    38721.666 
    9706    315.87615    5.8591123    57.359834   -20.774368   -675.82193    38721.666 
    9707     314.3012    5.8722812    59.848416   -20.633459   -662.65883    38721.666 
    9708    308.16486    5.8492974    64.480309   -20.451297    -656.9451    38721.666 
    9709    299.79575    5.7855521    70.073241   -20.252549   -653.76582    38721.666 
    9710    292.32012     5.689076    75.086472   -20.066433   -645.05952    38721.666 
    9711    288.55263    5.5689464    78.139511   -19.920214    -625.0078    38721.666 
    9712    289.98393    5.4297868     78.48404   -19.827409   -588.23024    38721.666 
    9713    296.21635    5.2769857    76.258076   -19.782826   -531.43892    38721.666 
    9714     305.1018    5.1168028    72.426587   -19.763244   -455.20443    38721.666 
    9715     313.5258    4.9506819    68.430589   -19.737515   -362.77337    38721.666 
    9716    318.53482    4.7723003    65.676026    -19.67968   -257.58651    38721.666 
    9717    318.38305    4.5771061    65.050631   -19.574595    -144.3671    38721.666 
    9718    313.13455    4.3621142     66.64207   -19.425444   -26.101362    38721.666 
    9719     304.6197    4.1248616    69.749362   -19.251171    95.300599    38721.666 
    9720    295.77067    3.8644423    73.169346   -19.079241    218.47903    38721.666 
    9721    289.59503    3.5845918    75.641826   -18.936841    342.80502    38721.666 
    9722    288.18011    3.2957433    76.288103    -18.83722    465.23308    38721.666 
    9723    292.05235    3.0018633    74.893892   -18.783305     580.8055    38721.666 
    9724    300.06227    2.7111832    71.951399   -18.761792     682.9189    38721.666 
    9725    309.81753    2.4357842    68.463967   -18.750066    764.96501    38721.666 
    9726    318.49205    2.1849576    65.595428   -18.725177    821.24823    38721.666 
    9727    323.70736    1.9618463    64.289565   -18.673081    847.71132    38721.666 
    9728    324.19743    1.7713736    64.986719   -18.588569    842.96831    38721.666 
    9729    320.08009    1.6171295    67.521824   -18.478783    809.64054    38721.666 
    9730    312.67593    1.5031309    71.223019   -18.358194    753.28217    38721.666 
    9731    303.99791    1.4242335    75.161303   -18.243372    681.61018    38721.666 
    9732    296.06903    1.3694771    78.454346   -18.149449    600.70594    38721.666 
    9733    290.33453    1.3374474    80.513668   -18.081623    518.00761    38721.666 
    9734    287.39315    1.3303295    81.158493    -18.03363    440.58804    38721.666 
    9735    287.05562    1.3461669    80.574595   -17.995354    369.10967    38721.666 
    9736     288.6535    1.3816975    79.158757     -17.9546    305.12346    38721.666 
    9737    291.42113     1.433017    77.332871   -17.902909    248.65744    38721.666 
    9738    294.78456    1.4968558    75.406922   -17.838286    198.69069    38721.666 
    9739    298.45832    1.5716879    73.535352   -17.764611    153.16285    38721.666 
    9740    302.35992    1.6580251    71.760046   -17.688663    109.75462    38721.666 
    9741    306.42944    1.7617469    70.094268   -17.615701    66.952719    38721.666 
    9742    310.50084    1.8874173    68.589582   -17.548197    20.909791    38721.666 
    9743    314.26627     2.040539     67.34949   -17.485158   -28.702543    38721.666 
    9744    317.36853    2.2246208    66.489663   -17.423256   -84.446868    38721.666 
    9745    319.56631    2.4309858    66.071295   -17.360477   -145.74992    38721.666 
    9746    320.82763    2.6473615    66.052148   -17.298349   -211.68603    38721.666 
    9747     321.3414    2.8648326    66.283063   -17.239608   -279.41215    38721.666 
    9748    321.43464    3.0751959    66.554534   -17.189202   -344.58064    38721.666 
    9749    321.42043    3.2715224    66.674662   -17.151819    -402.1546    38721.666 
    9750    321.44663    3.4480263    66.545945   -17.129239   -446.19577    38721.666 
    9751    321.41093    3.5952491    66.209521   -17.122738   -472.21961    38721.666 
    9752     320.9691    3.7088377    65.838874   -17.127383    -477.3051    38721.666 
    9753    319.66055    3.7851869    65.679391   -17.138156   -458.84577    38721.666 
    9754    317.11653     3.822915     65.95173   -17.147747   -415.75398    38721.666 
    9755    313.26102    3.8232274    66.751373   -17.151349   -349.90582    38721.666 
    9756       308.44    3.7908799    67.983269   -17.147588   -263.20072    38721.666 
    9757    303.41583    3.7314696    69.360733   -17.139566   -159.87183    38721.666 
    9758    299.19212    3.6516248    70.479675   -17.134047   -45.037019    38721.666 
    9759    296.71647    3.5602494    70.948065   -17.139846    75.749134    38721.666 
    9760    296.57121    3.4703067      70.5264   -17.160886    194.65217    38721.666 
    9761    298.76376    3.3885356    69.225704   -17.199739    303.44357    38721.666 
    9762    302.67839    3.3251434    67.324096   -17.251709    395.67855    38721.666 
    9763    307.24757    3.2874806    65.292456   -17.309429    462.52104    38721.666 
    9764    311.26755     3.278018    63.656269   -17.364441    498.71603    38721.666 
    9765    313.73416    3.2981724    62.842198    -17.41117    502.13222    38721.666 
    9766    314.11182    3.3520497    63.061355   -17.445041    474.42027    38721.666 
    9767    312.44994    3.4365993    64.262439   -17.471836    418.99029    38721.666 
    9768    309.32316    3.5557231    66.161922   -17.491912     342.1319    38721.666 
    9769    305.64866    3.7007321    68.330311   -17.513844    251.37817    38721.666 
    9770    302.43008    3.8614089    70.302452   -17.543069    156.02614    38721.666 
    9771    300.50051    4.0287289    71.680637   -17.584565    65.878835    38721.666 
    9772    300.33031    4.2000824    72.212447   -17.639921    -10.12896    38721.666 
    9773    301.92892    4.3729111    71.835491     -17.7104   -65.900563    38721.666 
    9774    304.83509     4.544752    70.687642   -17.794564   -96.840365    38721.666 
    9775    308.19634    4.7141277      69.0803     -17.8887   -100.95695    38721.666 
    9776    310.93475    4.8845479    67.436064   -17.986578   -76.667844    38721.666 
    9777    311.99902    5.0550102    66.199548   -18.083071   -28.018898    38721.666 
    9778    310.62115    5.2218716    65.738474   -18.171468    38.581992    38721.666 
    9779    306.50829     5.382278    66.258157   -18.247602    116.70879    38721.666 
    9780    299.95235    5.5325833    67.750695   -18.310028    199.22235    38721.666 
    9781    291.80492    5.6687599    69.990228   -18.360123    278.85587    38721.666 
    9782    283.33011    5.7875529     72.57287   -18.401161    349.78761    38721.666 
    9783    275.96991    5.8849955    74.991167    -18.43944    405.31348    38721.666 
    9784    271.06588    5.9613101    76.728647   -18.480424    439.97686    38721.666 
    9785    269.58634    6.0195586    77.362468   -18.529797    450.00989    38721.666 
    9786    271.90376    6.0654542    76.660505   -18.591549    433.64905    38721.666 
    9787    277.67046    6.1052622    74.653244   -18.666553    389.27157    38721.666 
    9788    285.82854    6.1451158    71.657562   -18.752628     317.9425    38721.666 
    9789    294.79717    6.1977785    68.227954   -18.839455     222.1987    38721.666 
    9790    302.84515    6.2690189    65.030744    -18.91783    104.96108    38721.666 
    9791     308.5412    6.3614617     62.66661   -18.978854   -26.333077    38721.666 
    9792    311.15416    6.4763306    61.496047   -19.017362   -165.27167    38721.666 
    9793    310.86587    6.6095502    61.532651   -19.036835   -302.99893    38721.666 
    9794    308.68678    6.7561946     62.45064    -19.04773   -429.50539    38721.666 
    9795    306.09105    6.9116401    63.712818   -19.064911   -534.95322    38721.666 
    9796    304.48907    7.0720295     64.77578    -19.10213   -610.48873    38721.666 
    9797    304.72406    7.2316601    65.295561   -19.169048   -649.66735    38721.666 
    9798    306.77191      7.38834    65.254531   -19.264986   -650.41337    38721.666 
    9799    309.76579    7.5412628    64.959968    -19.38119   -613.19932    38721.666 
9800        0.4070969239388118055 14.880453260506817159 0.52380952380952372494 46 -161.01784275886038245
    9800    312.33466    7.6891599    64.915043   -19.504277   -541.10522    38721.666 
    9801    313.12353    7.8337362    65.611196   -19.618399   -439.39637    38721.666 
    9802     311.3252    7.9718764    67.317901   -19.714002   -315.63961    38721.666 
    9803    307.02302    8.0953292    69.947277   -19.789036   -177.15231    38721.666 
    9804    301.21163    8.1929826    73.046283   -19.850087   -30.704622    38721.666 
    9805    295.49345    8.2538575    75.921751   -19.910964    117.63823    38721.666 
    9806    291.55523    8.2710008    77.858655   -19.985677    261.16409    38721.666 
    9807    290.60421    8.2373579    78.355788   -20.086752    393.48176    38721.666 
    9808    292.94764    8.1505035    77.296809   -20.219134    508.79524    38721.666 
    9809    297.86687     8.022114    74.992032   -20.376495    602.60512    38721.666 
    9810    303.87558    7.8676155    72.071126   -20.546631      668.493    38721.666 
    9811    309.25762    7.6991254    69.261717   -20.713322    703.61273    38721.666 
    9812    312.65189    7.5262691    67.136877   -20.866701    705.88209    38721.666 
    9813    313.49673    7.3634013    65.929533   -21.002379    676.08882    38721.666 
    9814    312.16831     7.221209    65.485236   -21.127342    617.88858    38721.666 
    9815    309.74534    7.1072364    65.372052   -21.255617    552.78787     37594.64 
    9816    307.52237    7.0184661    65.100277   -21.402213    453.14901     37594.64 
    9817    306.44025    6.9437039    64.358672   -21.579027    344.85812     37594.64 
    9818    306.68857    6.8734508    63.165954   -21.788461    232.13966     37594.64 
    9819    307.66679    6.7976388    61.872728   -22.022118    120.09334     37594.64 
    9820     308.2839     6.708085    61.012022   -22.265143    13.103675     37594.64 
    9821    307.47964    6.5995942    61.063093   -22.501953   -85.079712     37594.64 
    9822    304.74893    6.4683677    62.228677   -22.720226   -169.72719     37594.64 
    9823    300.43979    6.3012157    64.319821   -22.922878   -236.82071     37594.64 
    9824    295.66444    6.0977718    66.799063   -23.120041   -283.72774     37594.64 
    9825     291.9122    5.8780291     68.96363   -23.320937   -308.18726     37594.64 
    9826    290.50744    5.6513405     70.20095   -23.549682   -309.00775     37594.64 
    9827    292.06241    5.4554733    70.219133   -23.808211   -287.50094     37594.64 
    9828    296.21517     5.314853    69.162599   -24.100827   -248.46599     37594.64 
    9829    301.71739    5.2432355    67.565703   -24.419776   -196.43981     37594.64 
    9830    306.83759    5.2456111    66.159451   -24.744659   -135.39686     37594.64 
    9831    309.95665     5.297098    65.600016   -25.068442   -72.889609     37594.64 
    9832    310.09937    5.3880018    66.219532   -25.376511   -16.067102     37594.64 
    9833    307.27275    5.5095482    67.891952   -25.666434    30.442185     37594.64 
    9834    302.44573    5.6517695    70.072121   -25.947316    64.821087     37594.64 
    9835    297.15452    5.8102893    71.998751   -26.231446     86.00832     37594.64 
    9836    292.90905    5.9757541    72.985218   -26.535258    93.245745     37594.64 
    9837    290.61874    6.1374106    72.686164   -26.868234    87.236536     37594.64 
    9838    290.26289    6.2849657    71.234105    -27.23029     67.94817     37594.64 
    9839    290.95796    6.4122015    69.185231   -27.609554    35.514871     37594.64 
    9840    291.39535    6.5145246    67.292282   -27.988078    -8.826831     37594.64 
    9841     290.4604    6.5886451    66.194595   -28.348618   -62.532371     37594.64 
    9842    287.77208    6.6320066     66.15144   -28.681581   -120.93671     37594.64 
    9843    283.90518    6.6424217     66.93069   -28.990157   -178.32523     37594.64 
    9844    280.19357    6.6207558    67.901856   -29.287896   -227.91046     37594.64 
    9845    278.18894     6.568743    68.299774   -29.594541    -262.5503     37594.64 
    9846    278.98906    6.4888995    67.553832    -29.92767   -276.22047     37594.64 
    9847    282.71125    6.3854428    65.548448   -30.296233   -264.40684     37594.64 
    9848    288.33687    6.2691714    62.706923   -30.694422   -224.48068     37594.64 
    9849    294.01812    6.1513639    59.859769   -31.105642   -159.33279     37594.64 
    9850    297.72977    6.0397583    57.944463    -31.50891   -72.119501     37594.64 
    9851    298.00988    5.9409971    57.652116   -31.885117    33.576632     37594.64 
    9852    294.51752    5.8582197    59.156717    -32.22553    154.96911     37594.64 
    9853    288.18227    5.7925679    62.033582   -32.533781    287.09414     37594.64 
    9854    280.88028    5.7422269    65.402967   -32.824672    426.53952     37594.64 
    9855     274.7506    5.7003861    68.248228   -33.120332    568.88703     37594.64 
    9856    271.40535    5.6621896     69.78908   -33.437593    708.20965     37594.64 
    9857    271.34892    5.6198327    69.767065   -33.784773    838.40289     37594.64 
    9858    273.82243    5.5695302    68.530715   -34.153957    950.12066     37594.64 
    9859    277.15625    5.5095225    66.881457   -34.526319    1034.7378     37594.64 
    9860     279.4974    5.4376774    65.740042    -34.87854    1084.8778     37594.64 
    9861    279.62408    5.3464629    65.763194   -35.191929    1096.9524     37594.64 
    9862    277.48986    5.2268664    67.064102   -35.462541    1068.1642     37594.64 
    9863    274.29239    5.0793743    69.149263   -35.699958    1000.3073     37594.64 
    9864    272.04606    4.9059133    71.100391   -35.926867     898.4021     37594.64 
    9865    272.78338     4.710166    71.933097   -36.169928    769.46183     37594.64 
    9866    277.70321    4.4970363    70.993002   -36.450302     621.2509     37594.64 
    9867     286.5981     4.272604    68.234743   -36.777343    462.73475     37594.64 
    9868    297.77932    4.0591709    64.274907   -37.137865    298.33213     37594.64 
    9869    308.60179    3.8684516    60.194343   -37.511074    132.29332     37594.64 
    9870    316.34182    3.6942554    57.165771   -37.876022    -31.52126     37594.64 
    9871    319.07607    3.5388746     56.04608   -38.210739   -189.89981     37594.64 
    9872     316.3302    3.4044638    57.080652   -38.505428   -337.41687     37594.64 
    9873    309.23442    3.2812018    59.827738   -38.768927   -467.42451     37594.64 
    9874    300.08874    3.1660088    63.327934   -39.017025   -575.21681     37594.64 
    9875    291.55658    3.0572727    66.451002   -39.271804   -655.98818     37594.64 
    9876    285.76956    2.9500322    68.293211   -39.553594   -708.24257     37594.64 
    9877    283.64278    2.8459331    68.477337   -39.869237   -733.06892     37594.64 
    9878    284.67459    2.7480848    67.247546   -40.212565   -733.70981     37594.64 
    9879    287.27052    2.6632984    65.330378   -40.564026   -715.46131     37594.64 
    9880    289.45972    2.5952687     63.62179   -40.901397   -686.19915     37594.64 
    9881    289.71209    2.5440366    62.827237   -41.205678   -651.36554     37594.64 
    9882     287.5271    2.5075631    63.193959   -41.470646   -615.35469     37594.64 
    9883     283.5919    2.4851463    64.437652   -41.702616   -582.34902     37594.64 
    9884    279.46436    2.4730193    65.884655   -41.919015   -553.39095     37594.64 
    9885    276.91632    2.4654916    66.762581   -42.140733   -527.72907     37594.64 
    9886    277.21747    2.4565258    66.517064    -42.38364   -504.92386     37594.64 
    9887    280.64602    2.4408442    65.026894   -42.653283   -483.89634     37594.64 
    9888    286.39248    2.4214995    62.637608   -42.944094    -461.8992     37594.64 
    9889    292.90414    2.4095777    60.011438   -43.238535    -439.9058     37594.64 
    9890    298.50219    2.4047796    57.864177   -43.522057   -417.55087     37594.64 
    9891    301.96807     2.403858    56.703464   -43.784713   -393.63155     37594.64 
    9892    302.90216    2.4026664    56.671721    -44.02553   -365.83142     37594.64 
    9893    301.73472    2.3973088    57.546471   -44.252273   -331.29828     37594.64 
    9894    299.41558    2.3851756    58.883219   -44.477399   -287.23969     37594.64 
    9895    296.93857    2.3660591    60.228785   -44.712511   -231.39031     37594.64 
    9896    294.91578    2.3441389    61.309044   -44.962195   -162.92975     37594.64 
    9897    293.38437     2.325222    62.111565    -45.22322   -83.178404     37594.64 
    9898    291.91145    2.3165273    62.833294   -45.485014    5.5128335     37594.64 
    9899     289.9494    2.3196764     63.72345   -45.733468    101.80853     37594.64 
9900        0.40675040519259131333 14.892234448700563121 0.52380952380952372494 49 -176.1015887739063146
    9900    287.23435    2.3312702    64.897823   -45.960552    201.03085     37594.64 
    9901    284.04441    2.3562946    66.215336   -46.164428    300.27702     37594.64 
    9902    281.21678    2.3997263    67.282151   -46.352196    395.34923     37594.64 
    9903    279.85328    2.4617288     67.59375   -46.538731    483.11917     37594.64 
    9904    280.82853    2.5399483    66.761091    -46.73928    560.39621     37594.64 
    9905    284.32115    2.6299603    64.723725    -46.96298    623.48901     37594.64 
    9906    289.58638    2.7259576    61.849654   -47.208372    668.22826     37594.64 
    9907    295.09921    2.8215806    58.863802   -47.463339    690.42657     37594.64 
    9908    299.04714     2.909629    56.618036   -47.708961     687.3363     37594.64 
    9909     299.9873    2.9806812    55.785168   -47.929453    657.15025     37594.64 
    9910    297.40359    3.0331183    56.596912   -48.114611    601.03572     37594.64 
    9911     291.9585    3.0680653    58.731836   -48.266854    521.56168     37594.64 
    9912    285.31087    3.0883106    61.403238   -48.400385    424.87113     37594.64 
    9913    279.54112    3.1059791    63.621571   -48.533652    318.74194     37594.64 
    9914    276.41902    3.1311715    64.541586   -48.686161    208.15045     37594.64 
    9915    276.75916      3.16911    63.767712   -48.868864    98.450005     37594.64 
    9916    280.08169    3.2227597    61.510662   -49.080306   -6.8490725     37594.64 
    9917    284.73651    3.2921094    58.535203   -49.306569   -106.09079     37594.64 
    9918    288.45325    3.3740906     55.91129   -49.525571   -198.87975     37594.64 
    9919    289.14031    3.4632239    54.648661   -49.714309   -285.12129     37594.64 
    9920    285.66942     3.551266    55.337675   -49.855295   -362.93933     37594.64 
    9921    278.34997    3.6250527    57.922801   -49.948302    -430.7497     37594.64 
    9922     268.9141    3.6840251    61.691825   -50.002507   -486.16899     37594.64 
    9923    260.02277    3.7319553    65.490949   -50.039902   -525.33825     37594.64 
    9924    254.43692    3.7726913    68.098774   -50.083996   -543.89208     37594.64 
    9925    254.11812    3.7972788    68.630986   -50.158861   -539.52209     37594.64 
    9926    259.54886    3.8027846    66.837004    -50.27012   -513.82767     37594.64 
    9927    269.54201      3.78803    63.184759    -50.40902   -469.63962     37594.64 
    9928    281.61111    3.7468613    58.704576   -50.557714   -411.52743     37594.64 
    9929    292.73212    3.6788019    54.652261    -50.69133   -347.02434     37594.64 
    9930    300.26282    3.5866235    52.109819   -50.790436   -281.89545     37594.64 
    9931     302.7131    3.4739328    51.660597    -50.84616   -220.37604     37594.64 
    9932    300.10252    3.3482085    53.240721   -50.863071   -163.55296     37594.64 
    9933     293.8452    3.2215148    56.202691   -50.853498    -112.2349     37594.64 
    9934    286.22663     3.098738    59.555591   -50.838035   -65.419922     37594.64 
    9935    279.63911    2.9826845    62.295413   -50.835751   -21.286422     37594.64 
    9936    275.84424    2.8741665    63.716281     -50.8593    21.256673     37594.64 
    9937    275.49112    2.7691117     63.60812   -50.911167    63.219964     37594.64 
    9938    278.00275    2.6594138    62.288153   -50.983536    103.41958     37594.64 
    9939    281.83989    2.5395343    60.466364   -51.060807    138.56333     37594.64 
    9940    285.06383    2.4072415    58.993611   -51.124488     165.8276     37594.64 
    9941     286.0003    2.2616795    58.577038   -51.159341    183.05521     37594.64 
    9942      283.784    2.1035438    59.554517    -51.15777    189.31782     37594.64 
    9943     278.6205     1.935086    61.796826   -51.121677    185.39439     37594.64 
    9944    271.69779    1.7602878    64.761751   -51.060917    173.35387     37594.64 
    9945    264.79745    1.5841108    67.673241   -50.989729    155.97526     37594.64 
    9946      259.747    1.4118533    69.760523     -50.9217    136.52598     37594.64 
    9947    257.88941     1.248691    70.479488   -50.865823    117.53397     37594.64 
    9948    259.72539    1.1013844     69.65181   -50.823025    100.24455     37594.64 
    9949    264.82322   0.97295641    67.490144   -50.788246    83.674832     37594.64 
    9950    271.97839   0.86308062    64.517448   -50.751304    66.672151     37594.64 
    9951    279.55514   0.77059804    61.412488   -50.700694    47.460944     37594.64 
    9952    285.91441   0.69350281    58.831613   -50.626501    25.321744     37594.64 
    9953    289.79734   0.62928675    57.255813    -50.52438   -1.3522194     37594.64 
    9954    290.58456   0.57971183    56.896299   -50.393576   -33.947969     37594.64 
    9955    288.38689   0.54728358     57.67526   -50.237877   -72.463564     37594.64 
    9956     283.9621   0.52797588    59.278256   -50.065107   -114.80189     37594.64 
    9957     278.4714   0.51687988    61.255659   -49.883338   -160.75672     37594.64 
    9958    273.16362    0.5123603     63.14386    -49.69949   -208.88631     37594.64 
    9959    269.09487   0.51256972    64.571495   -49.517395   -258.00289     37594.64 
    9960    266.92544   0.51236463    65.327766   -49.338495   -305.64273     37594.64 
    9961    266.81001   0.51614089    65.384027   -49.157936   -351.34092     37594.64 
    9962    268.42555   0.53248103    64.873422   -48.970655    -396.9455     37594.64 
    9963    271.11425   0.56744757    64.040594   -48.770261   -443.08801     37594.64 
    9964    274.05098   0.62537972    63.180044   -48.550998   -490.18987     37594.64 
    9965    276.43015   0.70928509    62.573178    -48.30799   -538.24668     37594.64 
    9966    277.64055   0.82010707    62.429749   -48.038623   -586.04398     37594.64 
    9967    277.40341   0.96199359    62.838865   -47.738429    -629.4765     37594.64 
    9968    275.86286    1.1246171    63.737686   -47.413803   -665.65753     37594.64 
    9969    273.57528    1.3011558    64.909488   -47.065202   -693.01027     37594.64 
    9970    271.38941    1.4809017     66.02072   -46.698493   -707.25879     37594.64 
    9971    270.24376     1.654908    66.694355   -46.320488   -703.26483     37594.64 
    9972    270.92654    1.8210606    66.603617   -45.932591   -677.92208     37594.64 
    9973    273.86513    1.9718979    65.561962   -45.537195   -629.34888     37594.64 
    9974    278.98213    2.1010518    63.585259   -45.131035   -556.09265     37594.64 
    9975    285.66101    2.2024014    60.907798   -44.710889   -460.03163     37594.64 
    9976    292.84112    2.2800687    57.946284   -44.269245   -345.09211     37594.64 
    9977    299.23985    2.3408046    55.219075   -43.799056   -215.66585     37594.64 
    9978    303.63507    2.3878411    53.237067   -43.298367   -78.309386     37594.64 
    9979    305.13842     2.429712    52.389434   -42.765694    59.564543     37594.64 
    9980    303.42149    2.4773279    52.847319   -42.203738    191.48979     37594.64 
    9981    298.83738    2.5398837    54.511126   -41.619462    310.41346     37594.64 
    9982    292.37531    2.6228178    57.023151   -41.022966    410.88967     37594.64 
    9983    285.43942      2.72716    59.852497   -40.424776    489.66396     37594.64 
    9984    279.49399    2.8462127    62.434873   -39.836867    543.56749     37594.64 
    9985    275.66699     2.978502    64.326903   -39.262284    570.28144     37594.64 
    9986    274.46507    3.1201568    65.321459   -38.699787    568.01898     37594.64 
    9987    275.67849    3.2682053    65.485109   -38.140198    537.50627     37594.64 
    9988    278.50206    3.4180221    65.107109   -37.572186     478.5338     37594.64 
    9989    281.82755    3.5639461    64.582584   -36.985033    393.71523     37594.64 
    9990    284.58529     3.700998    64.278968   -36.372723    287.49705     37594.64 
    9991    286.02912    3.8251027    64.433318   -35.735487    166.21413     37594.64 
    9992    285.88647    3.9331325     65.10734   -35.078815     37.85333     37594.64 
    9993    284.36373     4.022801    66.198151   -34.410845   -88.477522     37594.64 
    9994    282.04706    4.0924586    67.482672   -33.739662    -203.3026     37594.64 
    9995    279.75255    4.1409034    68.671301   -33.071883   -297.51933     37594.64 
    9996    278.36211    4.1684797    69.458735   -32.411514   -363.02549     37594.64 
    9997    278.65953    4.1738666    69.574344   -31.762001   -395.22292     37594.64 
    9998    281.15626    4.1552413    68.840492   -31.125348   -391.52305     37594.64 
    9999    285.92518    4.1119259    67.235386   -30.502241   -352.52598     37594.64 
10000        0.4087792581167741246 14.892210110129575185 0.52380952380952372494 49 -162.41205576786234133
   10000    292.48682    4.0480925    64.942921    -29.89121   -281.22231     37594.64 
Loop time of 22.3381 on 1 procs for 10000 steps with 153 atoms

Pair  time (%) = 1.62634 (7.28055)
Bond  time (%) = 0.20078 (0.898821)
Neigh time (%) = 0.01143 (0.0511683)
Comm  time (%) = 0.0103238 (0.0462159)
Outpt time (%) = 5.39099 (24.1336)
Other time (%) = 15.0983 (67.5896)

Nlocal:    153 ave 153 max 153 min
Histogram: 1 0 0 0 0 0 0 0 0 0
Nghost:    0 ave 0 max 0 min
Histogram: 1 0 0 0 0 0 0 0 0 0
Neighs:    4041 ave 4041 max 4041 min
Histogram: 1 0 0 0 0 0 0 0 0 0
FullNghs:  8082 ave 8082 max 8082 min
Histogram: 1 0 0 0 0 0 0 0 0 0

Total # of neighbors = 8082
Ave neighs/atom = 52.8235
Ave special neighs/atom = 2.64052
Neighbor list builds = 13
Dangerous builds = 0
