LAMMPS (9 Oct 2012)
# 3d protein simulation

units real

timestep 5

dimension	3

boundary s s s
#boundary p p p

neighbor	10 bin
neigh_modify	delay 5

atom_modify sort 0 0.0

special_bonds fene

atom_style	peptide

bond_style harmonic

pair_style vexcluded 2 3.5 3.5

read_data data.5b1f
  3 = max bonds/atom
  orthogonal box = (-200 -200 -200) to (200 200 200)
  1 by 1 by 1 MPI processor grid
  387 atoms
  514 bonds
  5 = max # of 1-2 neighbors
  5 = max # of special neighbors

pair_coeff * * 0.0
pair_coeff 1 1 20.0 3.5 4.5
pair_coeff 1 4 20.0 3.5 4.5
pair_coeff 4 4 20.0 3.5 4.5
pair_coeff 3 3 20.0 3.5 3.5


velocity	all create 300.0 9849853

group           alpha_carbons id 1 4 7 10 13 16 19 22 25 28 31 34 37 40 43 46 49 52 55 58 61 64 67 70 73 76 79 82 85 88 91 94 97 100 103 106 109 112 115 118 121 124 127 130 133 136 139 142 145 148 151 154 157 160 163 166 169 172 175 178 181 184 187 190 193 196 199 202 205 208 211 214 217 220 223 226 229 232 235 238 241 244 247 250 253 256 259 262 265 268 271 274 277 280 283 286 289 292 295 298 301 304 307 310 313 316 319 322 325 328 331 334 337 340 343 346 349 352 355 358 361 364 367 370 373 376 379 382 385
129 atoms in group alpha_carbons

group           beta_atoms id 3 6 9 12 15 18 21 24 27 30 33 36 39 42 45 48 51 54 57 60 63 66 69 72 75 78 81 84 87 90 93 96 99 102 105 108 111 114 117 120 123 126 129 132 135 138 141 144 147 150 153 156 159 162 165 168 171 174 177 180 183 186 189 192 195 198 201 204 207 210 213 216 219 222 225 228 231 234 237 240 243 246 249 252 255 258 261 264 267 270 273 276 279 282 285 288 291 294 297 300 303 306 309 312 315 318 321 324 327 330 333 336 339 342 345 348 351 354 357 360 363 366 369 372 375 378 381 384 387
129 atoms in group beta_atoms

group           oxygens id 2 5 8 11 14 17 20 23 26 29 32 35 38 41 44 47 50 53 56 59 62 65 68 71 74 77 80 83 86 89 92 95 98 101 104 107 110 113 116 119 122 125 128 131 134 137 140 143 146 149 152 155 158 161 164 167 170 173 176 179 182 185 188 191 194 197 200 203 206 209 212 215 218 221 224 227 230 233 236 239 242 245 248 251 254 257 260 263 266 269 272 275 278 281 284 287 290 293 296 299 302 305 308 311 314 317 320 323 326 329 332 335 338 341 344 347 350 353 356 359 362 365 368 371 374 377 380 383 386
129 atoms in group oxygens

group		asp id 174 258           
2 atoms in group asp
group           lys id 162 174
2 atoms in group lys

fix		  1 all nvt temp 300.0 300.0 100.0
fix		  2 alpha_carbons backbone beta_atoms oxygens fix_backbone_coeff.data 5b1f.seq
Chain flag on
Chi flag on
Rama flag on
Rama_P flag on
SSWeight flag on
ABC flag on
Dssp_Hdrgn flag on
P_AP flag on
Water flag on
Burial flag on
Helix flag on
Fragment_Memory_Table flag on
DebyeHuckel on

Reading fragments...
Computing FM table...
#fix		  3 all fixprueba 10

variable      biasinge equal f_qbias
# output wham.dat, a file with collective variables that can be used to compute pmfs
compute     qw alpha_carbons qwolynes rnative.dat 2 0.15
variable    qw equal c_qw
compute     rg alpha_carbons gyration
variable    rg equal c_rg
compute     qo alpha_carbons qonuchic cutoff 12.0 nativecoords.dat 1.2
variable    qo equal c_qo
compute     tc beta_atoms totalcontacts 6.5 2
variable    tc equal c_tc
variable    step equal step
variable    E_P equal pe

fix         wham all print 500 "${step}        ${qw} ${rg} ${qo} ${tc} ${E_P}"
fix         verga asp spring tether 10000 x y z 6.5
fix         verga2 lys spring tether 10000 x y z 9.0

#variable    stepq equal step
#variable E_bond  equal emol
#fix energy all print 10 "${stepq} ${E_bond}"



thermo		5
dump		1 all atom 500 dump.lammpstrj

dump_modify	1 sort id




#minimize 1.0e-4 1.0e-6 100 1000

reset_timestep	0
run		10000
Memory usage per processor = 0.959568 Mbytes
Step Temp E_pair E_mol TotEng Press Volume 
       0          300    215.55632    2128.1552    1292.6896   -18528.997     45448.57 
       5    230.96508    564.42425    70614.944    104967.53   -114381.05    54076.993 
      10    85.905777    840.44991    58029.934    85876.255   -98282.274    54076.993 
      15    58.160072    843.16509    50086.203    74385.721   -87538.657    54076.993 
      20     44.08184    860.20913    43971.216    65720.474   -79232.912    54076.993 
      25    35.397255    922.71197    39218.863    58876.753   -73539.932    53500.819 
      30     28.90706    1019.4543    35424.398    53314.877   -68244.497    53500.819 
      35    24.021792    1109.2242     32332.23    48747.839   -63863.898    53500.819 
      40    20.500653    1172.3167     29749.28     44910.32   -60094.666    53500.819 
      45    17.899967    1199.3984    27530.989    41602.591    -56896.69    53500.819 
      50    15.826875    1199.7508    25592.132    38707.776   -54102.909    53500.819 
      55    14.136089    1185.6195    23871.136    36144.106   -51598.292    53500.819 
      60    12.706639    1164.5827    22329.411    33856.958   -49238.574    53500.819 
      65    11.477038    1147.0147    20941.704    31811.179   -47022.724    53500.819 
      70    10.381558    1137.0738    19683.964    29973.343   -44932.926    53500.819 
      75    9.4932612    1132.6959    18539.198    28314.952   -43420.276    52998.862 
      80    8.7004558     1133.348     17492.86    26807.153   -41576.713    52998.862 
      85    8.0278329    1140.5712    16534.044    25436.855   -39918.071    52998.862 
      90    7.4461837    1152.7704    15649.391    24177.289   -38344.993    52998.862 
      95    6.9345002    1168.4886    14832.601    23017.365   -36864.827    52998.862 
     100    6.4581311    1186.8792    14076.311    21947.873   -35457.401    52998.862 
     105    6.0385686    1206.9961    13374.785    20960.466     -34142.8    52998.862 
     110    5.6715992    1228.5896    12721.718    20044.233   -32951.586    52998.862 
     115    5.3445131    1251.2567    12111.356    19190.839   -31785.508    52998.862 
     120    5.0624194    1274.4043    11539.859    18393.156   -30626.304    52998.862 
     125    4.8035614    1297.7173    11003.497     17643.91   -29522.143    52998.862 
     130    4.5339449    1320.1031    10501.128    16943.614   -28532.003    52998.862 
     135    4.3202639    1340.4781    10029.643    16285.773   -27553.399    52998.862 
     140    4.1437183    1357.7942    9584.9861    15664.372   -26611.639    52998.862 
     145    3.9792952    1371.9167     9165.232    15073.535   -25693.885    52998.862 
     150    3.8361019    1382.2762    8768.3152    14511.397   -24819.185    52998.862 
     155    3.7132235    1388.4321    8392.0606    13972.415   -23968.084    52998.862 
     160    3.5866254    1390.5016    8034.8814    13457.457    -23174.85    52998.862 
     165    3.4768655    1387.9924    7695.9277    12965.301   -22425.896    52998.862 
     170    3.3927012    1380.3388    7373.3972    12491.509   -21685.725    52998.862 
     175    3.3267675    1367.2348    7065.8107    12031.894   -20954.992    52998.862 
     180    3.2396254       1348.7    6772.6891    11588.996   -20294.763    52998.862 
     185    3.1534254    1325.4002    6494.3595    11162.327   -19650.225    52998.862 
     190     3.081784    1298.9848    6229.6809    10750.232   -19073.078    52998.862 
     195    3.0019166    1270.5097     5977.728    10352.618   -18504.303    52998.862 
     200    2.9195093    1240.9682    5737.6966    9970.0692    -18025.55    52730.281 
     205    2.8395264    1211.1359    5509.0102    9602.2119   -17466.551    52730.281 
     210    2.7496103    1181.7682    5291.2545    9249.2903   -16937.887    52730.281 
     215    2.6539132    1152.8544    5083.1958    8912.3025   -16427.318    52730.281 
     220    2.5632438    1125.5787    4885.7485    8590.9425   -15928.125    52730.281 
     225    2.4768033    1100.4722    4699.2457    8283.9286   -15441.647    52730.281 
     230    2.3821387    1076.8141    4521.7362    7991.5662   -14959.297    52730.281 
     235    2.2913374    1054.5621    4352.4655    7713.8115   -14493.852    52730.281 
     240    2.2090567    1033.8854    4191.7754    7449.5028   -14042.725    52730.281 
     245     2.129561     1014.584    4039.4245     7197.597   -13605.897    52730.281 
     250    2.0532367     996.3391    3894.4956    6957.7775    -13180.89    52730.281 
     255    1.9840736     978.9994    3756.4601    6729.0741   -12780.279    52730.281 
     260    1.9159923    962.51701    3624.8928    6510.7006   -12380.038    52730.281 
     265     1.857442    946.82604    3499.5158    6301.7022   -12037.787    52730.281 
     270    1.8022183    931.97267    3379.7827    6101.6169   -11689.791    52730.281 
     275    1.7475096    917.79109    3265.4274    5909.9153   -11338.901    52730.281 
     280    1.6921095    904.34209    3156.1369     5726.314   -11003.706    52730.281 
     285    1.6390037    891.52102    3051.7305     5550.071   -10687.252    52730.281 
     290    1.5910276     879.2304    2951.8315    5381.8933   -10388.726    52730.281 
     295    1.5460748     867.3353    2856.1603    5220.4918   -10108.802    52730.281 
     300    1.5042783    855.69528    2764.4826    5065.4372   -9845.2937    52730.281 
     305    1.4683334    844.23193    2676.5387    4915.8239   -9596.4154    52730.281 
     310    1.4380115    832.80149    2592.0091    4771.5169   -9363.5598    52730.281 
     315    1.4080265    821.39473    2510.6205    4631.8859   -9144.4471    52730.281 
     320    1.3778653    810.04593    2432.2607    4496.8485   -8928.4481    52730.281 
     325    1.3509794    798.75697     2356.779    4366.1479   -8715.0511    52730.281 
     330    1.3285665    787.51558    2283.9789    4239.3034   -8500.0381    52730.281 
     335    1.3069073    776.30442    2213.6907    4115.9142   -8298.0169    52730.281 
     340    1.2799589    765.10969    2145.8603    3996.2734   -8121.0592    52730.281 
     345    1.2539519    753.96293    2080.4578    3880.5175   -7952.3848    52730.281 
     350    1.2302733    742.88658    2017.3355    3768.3581   -7784.1102    52730.281 
     355    1.2078143    731.87364    1956.3878    3659.5696    -7612.826    52730.281 
     360    1.1855482    720.92041     1897.543    3554.0206   -7446.0396    52730.281 
     365    1.1626914    710.05895    1840.7609    3451.6848    -7292.025    52730.281 
     370     1.139696    699.30407    1786.0065    3352.5522   -7148.2245    52730.281 
     375    1.1177758    688.66863    1733.2108    3256.0594   -7010.5438    52730.281 
     380    1.0971741    678.16069    1682.3076    3162.9447   -6877.5095    52730.281 
     385    1.0779478    667.77251    1633.2175    3072.5968   -6748.1714    52730.281 
     390    1.0593046    657.47045      1585.85    2984.8715   -6623.5178    52730.281 
     395    1.0404851     647.2831    1540.1505    2899.7239   -6503.2731    52730.281 
     400    1.0212373     637.2356    1496.0848    2817.1262   -6386.1626    52730.281 
     405    1.0007914    627.36408    1453.6177    2737.1021   -6268.0783    52730.281 
     410   0.97935715    617.70968    1412.7233    2659.7042   -6144.7512    52730.281 
     415   0.95892802    608.29422    1373.3372    2584.8802   -6022.9666    52730.281 
     420   0.94053942    599.13302    1335.3721    2512.4436   -5909.0682    52730.281 
     425   0.92362423    590.23178    1298.7427     2442.207   -5802.5052    52730.281 
     430   0.90744796     581.5894    1263.3844    2374.0466   -5700.1788    52730.281 
     435   0.89100705    573.20705    1229.2523    2307.9158   -5602.1041    52730.281 
     440   0.87472651    565.07257    1196.3122     2243.786   -5507.3122    52730.281 
     445   0.85835073    557.18248    1164.5119    2181.6063   -5417.8536    52730.281 
     450   0.84202911    549.53805    1133.7844    2121.3558   -5333.3031    52730.281 
     455   0.82694757    542.10722    1104.1003    2062.9444   -5254.1109    52730.281 
     460   0.81323374    534.85232    1075.3995    2006.2456   -5185.9924    52730.281 
     465   0.80386803    527.69943    1047.6201    1951.0434   -5138.2267    52730.281 
     470    0.8020786    520.55829    1020.6463    1896.8219   -5095.6466    52730.281 
     475   0.79339919    513.51884    994.41505    1843.5434    -5021.466    52730.281 
     480   0.77971652    506.70098    968.98148    1791.7152     -4939.66    52730.281 
     485   0.76381942    500.13424    944.37899    1741.4962     -4859.41    52730.281 
     490   0.74869485    493.84409    920.63987    1692.9295   -4782.1334    52730.281 
     495   0.73590733    487.79131    897.72717    1645.8505   -4704.8931    52730.281 
500        0.82869407932853889065 14.335905530447293543 0.81721194879089620322 214 1599.2120139451176328
     500   0.72573557    481.88456    875.58585     1600.047    -4626.745    52730.281 
     505   0.71551999    476.09426    854.18822    1555.4364   -4548.8047    52730.281 
     510    0.7052312    470.42662    833.50812    1512.0025   -4472.7447    52730.281 
     515   0.69527546    464.87067    813.51024    1469.7184   -4399.6329    52730.281 
     520   0.68604198    459.41144    794.15583    1428.5274   -4328.8393    52730.281 
     525   0.67760119    454.02766     775.4062    1388.3607   -4259.4382    52730.281 
     530   0.66945428    448.68945    757.22705    1349.1667   -4207.3049    52516.138 
     535   0.66069002    443.38028    739.59123    1310.9407   -4138.5864    52516.138 
     540   0.65176978    438.10432    722.48042    1273.7063   -4074.7551    52516.138 
     545   0.64496002    432.90791    705.88124    1237.3777   -4014.9345    52516.138 
     550   0.64043529     427.7899    689.74254    1201.7981     -3950.31    52516.138 
     555    0.6373348    422.67776    674.00099    1166.8452   -3881.2014    52516.138 
     560   0.62874727    417.57902    658.71262    1132.6205   -3828.4896    52516.138 
     565   0.61896111    412.63318    643.93901    1099.3597   -3780.9375    52516.138 
     570   0.61117217    407.85718    629.58473    1066.9652   -3730.2976    52516.138 
     575   0.60470404     403.2128    615.58951    1035.3422   -3677.2027    52516.138 
     580   0.59904531    398.66065    601.92766    1004.4142   -3623.6927    52516.138 
     585   0.59395761    394.17953    588.58819    974.14647   -3569.9968    52516.138 
     590   0.58904224    389.75476      575.572    944.50023   -3516.8167    52516.138 
     595   0.58401395    385.36856    562.90331     915.4736   -3464.3026    52516.138 
     600   0.57926782    381.01889    550.57166    887.04757   -3412.2577    52516.138 
     605   0.57477419    376.70457    538.55915    859.19655   -3360.9775    52516.138 
     610   0.57051328    372.42532    526.85071    831.90066   -3310.0349    52516.138 
     615   0.56640881    368.18032    515.43579    805.14223   -3259.7941    52516.138 
     620   0.56271036    363.96789    504.30467    778.90072   -3209.2793    52516.138 
     625   0.55950558    359.77679    493.45037    753.14049    -3158.472    52516.138 
     630   0.55652728    355.60628     482.8627    727.84094   -3107.4771    52516.138 
     635   0.55393869    351.45425    472.53659    702.98206   -3056.7196    52516.138 
     640   0.55159474    347.31895    462.46055     678.5401   -3006.7349    52516.138 
     645   0.54934944    343.20023    452.62106    654.50239   -2957.5023    52516.138 
     650    0.5463046    339.10416    443.01465    630.87704   -2908.0353    52516.138 
     655   0.54294175     335.0307    433.64336    607.69367   -2860.2127    52516.138 
     660   0.54012441    330.98319    424.48981    584.93431   -2813.7201    52516.138 
     665   0.53798072    326.95079    415.54723    562.56033   -2768.4415    52516.138 
     670   0.53603908    322.93103    406.80411    540.55047   -2724.9129    52516.138 
     675   0.53422759     318.9214    398.25326    518.89402   -2683.0647    52516.138 
     680   0.53254603    314.91721     389.8943    497.57927   -2642.8227    52516.138 
     685   0.53103689    310.91576    381.71588    476.59555   -2604.2599    52516.138 
     690   0.52964033     306.9164    373.71291    455.93222   -2567.1626    52516.138 
     695   0.52823161    302.92158    365.88241    435.58151   -2531.0025    52516.138 
     700   0.52674197    298.93694    358.22415    415.54166   -2495.5448    52516.138 
     705   0.52520732    294.96876    350.74348    395.81323     -2460.16    52516.138 
     710   0.52365127    291.02197    343.42866    376.39053   -2425.3051    52516.138 
     715   0.52194309    287.10313    336.27281    357.27244   -2390.9345    52516.138 
     720    0.5200717     283.2161     329.2724    338.46165   -2357.3844    52516.138 
     725   0.51801289    279.36585    322.42509    319.96052   -2324.4808    52516.138 
     730   0.51574149     275.5582    315.72916    301.77142    -2292.333    52516.138 
     735   0.51324589    271.80031    309.18223    283.89891   -2260.8611    52516.138 
     740   0.51059398    268.09609    302.78337    266.34512   -2230.1946    52516.138 
     745   0.50785207    264.44851    296.53073    249.10879   -2200.1463    52516.138 
     750   0.50513643    260.85602    290.42078    232.18598   -2170.6125    52516.138 
     755   0.50244702     257.3152    284.45599    215.57113   -2140.9946    52516.138 
     760   0.49974046    253.81817     278.6476    199.25907   -2112.2315    52516.138 
     765   0.49603911    250.37537    272.98523     183.2559   -2083.1181    52516.138 
     770   0.49175126     247.0097    267.45671    167.59478   -2054.3449    52516.138 
     775   0.48760298       243.72    262.06099      152.271   -2026.2519    52516.138 
     780   0.48355512    240.50553     256.7947    137.27197   -1999.0338    52516.138 
     785   0.47963693    237.36626    251.65419    122.59151   -1972.3708    52516.138 
     790      0.47594    234.30142    246.63747    108.21848   -1946.0368    52516.138 
     795   0.47242469    231.31063    241.73974    94.140421   -1920.2217    52516.138 
     800   0.46918767    228.39342    236.95764    80.347258   -1894.3407    52516.138 
     805   0.46635885    225.54181    232.28389    66.822066   -1868.1624    52516.138 
     810   0.46365781    222.75983    227.72266    53.553803   -1841.2692    52516.138 
     815   0.46116741    220.04763    223.27573    40.534179   -1814.1658    52516.138 
     820   0.45902526    217.39979     218.9402     27.75026   -1787.4174    52516.138 
     825   0.45716358    214.81478    214.71151    15.190436   -1761.1695    52516.138 
     830   0.45552876    212.29139    210.58704    2.8452449   -1735.3672    52516.138 
     835   0.45410604    209.82631    206.56512   -9.2971885    -1709.887    52516.138 
     840   0.45267821    207.41712    202.64002   -21.241423   -1685.3575    52516.138 
     845   0.45116021    205.06263    198.80871   -32.990004   -1661.9208    52516.138 
     850   0.44952482    202.76153    195.06933    -44.54043   -1639.4325    52516.138 
     855   0.44796882    200.50988    191.41108   -55.896089   -1617.5546    52516.138 
     860   0.44628701    198.30459    187.83716   -67.060304    -1596.468    52516.138 
     865   0.44454046    196.14473    184.34778   -78.031101   -1576.4147    52516.138 
     870   0.44275443    194.03068     180.9392    -88.81067   -1557.2989    52516.138 
     875   0.44090155    191.96217    177.60752   -99.401811   -1538.9594    52516.138 
     880   0.43892528    189.93795    174.34721   -109.80357   -1521.1473    52516.138 
     885   0.43684643    187.95622    171.15347   -120.01593    -1503.796    52516.138 
     890   0.43472039    186.01426    168.02459   -130.03935   -1486.4041    52516.138 
     895    0.4327763    184.10907      164.962   -139.87887    -1469.508    52516.138 
     900   0.43107631    182.24072    161.96814   -149.54318   -1453.2333    52516.138 
     905   0.42961443    180.40961     159.0413   -159.03889   -1437.7019    52516.138 
     910   0.42838436    178.61546    156.18013   -168.37412   -1422.7241    52516.138 
     915    0.4273756     176.8581    153.38212   -177.55713   -1408.3008    52516.138 
     920   0.42657495    175.13686    150.64508   -186.59235   -1394.4717    52516.138 
     925   0.42598738    173.45105    147.96637   -195.48772   -1381.1054    52516.138 
     930   0.42561686    171.79974    145.34376   -204.24807   -1368.1558    52516.138 
     935    0.4254839    170.18189    142.77488   -212.88137    -1355.569    52516.138 
     940   0.42560376    168.59619    140.25938   -221.39253   -1343.2318    52516.138 
     945   0.42599607    167.04167    137.79486   -229.78875   -1331.0409    52516.138 
     950   0.42651525    165.51809    135.37992   -238.07417   -1318.3156    52516.138 
     955   0.42719417    164.02509    133.01474    -246.2529   -1304.8549    52516.138 
     960   0.42807612    162.56234     130.6999   -254.32979   -1290.9116    52516.138 
     965   0.42901783    161.12999     128.4317   -262.30846    -1276.277    52516.138 
     970   0.42987345    159.72615    126.20794   -270.18856   -1260.7375    52516.138 
     975   0.43054041    158.34804    124.02714   -277.96803   -1244.3843    52516.138 
     980   0.43108925    156.99232    121.88743   -285.64478   -1227.1193    52516.138 
     985   0.43152324    155.65731     119.7867   -293.21829   -1209.5108    52516.138 
     990   0.43186146    154.34178    117.72513   -300.68677   -1191.8941    52516.138 
     995   0.43216432    153.04394    115.70242   -308.05085   -1174.1839    52516.138 
1000        0.79930655395096239513 14.500685512061615157 0.79587482219061167488 209 -315.80450057887651383
    1000    0.4320778    151.76263     113.7157   -315.30736   -1155.9389    52516.138 
    1005   0.43216078    150.49643    111.76255   -322.45461   -1137.7917    52516.138 
    1010   0.43249663    149.24306    109.84689    -329.4985   -1119.7974    52516.138 
    1015   0.43303979    148.00082     107.9676   -336.44408   -1102.1582    52516.138 
    1020   0.43384809    146.76839    106.12324   -343.29467   -1084.6317    52516.138 
    1025   0.43495311    145.54418    104.31297   -350.05714   -1067.3889    52516.138 
    1030   0.43642146    144.32542    102.53717   -356.73491   -1050.2796    52516.138 
    1035    0.4383076    143.10951    100.79614   -363.33689   -1033.3353    52516.138 
    1040   0.44054899    141.89448     99.08996   -369.86896   -1016.4971    52516.138 
    1045   0.44284525    140.67956     97.42049   -376.33336   -999.55355    52516.138 
    1050   0.44544312    139.46367    95.791013   -382.73134    -981.0928    52516.138 
    1055   0.45059501    138.24009    94.209163   -389.08184    -958.8458    52516.138 
    1060   0.45951121    136.99831    92.684808   -395.43838   -938.25191    52516.138 
    1065   0.45502485     135.7577    91.207068   -401.74269   -940.76947    52516.138 
    1070   0.44741558    134.56632    89.719984   -407.83175   -942.25166    52516.138 
    1075   0.44573519     133.4146    88.221917   -413.76578   -934.02333    52516.138 
    1080   0.44626216    132.28411    86.740659   -419.59936   -922.28452    52516.138 
    1085    0.4477135    131.16663    85.288777   -425.34984    -909.3694    52516.138 
    1090   0.44987777    130.04193    83.882866   -431.03061   -895.81761    52516.138 
    1095    0.4523184    128.90843    82.526198   -436.64873   -882.45067    52516.138 
    1100   0.45498856    127.76763     81.21209   -442.20312   -869.51091    52516.138 
    1105   0.45800809    126.62237    79.931428   -447.69883     -857.103    52516.138 
    1110   0.46143894    125.47418    78.678826   -453.14022    -845.3265    52516.138 
    1115   0.46530123    124.32432    77.451372   -458.53078   -834.09959    52516.138 
    1120   0.46953938    123.17358    76.247016   -463.87514   -823.34733    52516.138 
    1125   0.47415227    122.02256    75.065918   -469.17674    -812.6785    52516.138 
    1130   0.47933192    120.86901    73.909783   -474.43891   -801.84608    52516.138 
    1135   0.48473935    119.71308    72.775429   -479.66587   -791.48242    52516.138 
    1140   0.49033194    118.55644    71.661257   -484.85889   -781.26743    52516.138 
    1145   0.49610931    117.40034    70.565781   -490.01791   -771.33356    52516.138 
    1150   0.49943001    116.25641    69.491311   -495.13363   -760.42981    52516.138 
    1155   0.50163985    115.14368    68.436635   -500.17748    -749.3421    52516.138 
    1160   0.50476479    114.05717    67.399175   -505.15399   -738.31528    52516.138 
    1165    0.5092557    112.98188    66.386953    -510.0729   -727.23617    52516.138 
    1170   0.51479435    111.91054    65.404642   -514.94683   -716.42957    52516.138 
    1175   0.52136367    110.84421    64.450037   -519.78473   -705.82857    52516.138 
    1180   0.52900443     109.7832    63.520651   -524.59441   -695.40713    52516.138 
    1185   0.53778376    108.72738    62.614652   -529.38292   -685.13119    52516.138 
    1190   0.54777358    107.67642    61.730696    -534.1588   -675.10753    52516.138 
    1195   0.55908479    106.62975    60.867299    -538.9327   -665.22464    52516.138 
    1200    0.5718967    105.58646    60.022553   -543.71109   -655.49971    52516.138 
    1205   0.58644951    104.54467    59.194563   -548.50369   -646.02484    52516.138 
    1210     0.603096    103.50176    58.380204   -553.32361   -636.83663    52516.138 
    1215   0.62177482    102.45468    57.577129   -558.18262   -628.38462    52516.138 
    1220   0.64074096    101.39923    56.786964   -563.08629    -621.0833    52516.138 
    1225   0.65665595    100.33046    56.016976   -568.01754   -614.33519    52516.138 
    1230   0.66957764    99.247409    55.274467   -572.94408   -606.81532    52516.138 
    1235   0.68253348    98.154411    54.554213   -577.85131   -598.15277    52516.138 
    1240   0.69697302    97.054324    53.847811   -582.74187   -588.83365    52516.138 
    1245   0.71292564    95.946297    53.151432   -587.62457    -579.6159    52516.138 
    1250   0.73033376    94.830833    52.461187    -592.5031   -570.62441    52516.138 
    1255   0.74925173     93.70701    51.777538   -597.38274     -562.065    52516.138 
    1260   0.76982102    92.576722    51.102014   -602.27026   -553.94359    52516.138 
    1265   0.79191672    91.445861    50.438086   -607.16832   -545.82448    52516.138 
    1270   0.81538935    90.317507    49.779023   -612.08041   -537.61278    52516.138 
    1275   0.84098547    89.185996    49.121367   -617.01006   -529.49074    52516.138 
    1280   0.86781343    88.056854    48.464313   -621.95961   -520.43305    52516.138 
    1285   0.89762498    86.937126    47.806648   -626.93304    -511.3487    52516.138 
    1290   0.93132481    85.819888    47.160656    -631.9416   -502.38131    52516.138 
    1295   0.96947881    84.702067     46.52763   -636.99874   -492.93105    52516.138 
    1300    1.0128601    83.585833    45.904621   -642.11872   -483.04387    52516.138 
    1305    1.0622632    82.469813    45.285766   -647.31677   -472.60009    52516.138 
    1310    1.1180327    81.353449    44.675416   -652.61191   -461.82968    52516.138 
    1315     1.180598      80.2311    44.071823   -658.01803    -450.7798    52516.138 
    1320    1.2494901    79.099919    43.470121   -663.54934   -439.00957    52516.138 
    1325    1.3236953    77.958124    42.861724   -669.21053   -426.40174    52516.138 
    1330    1.4044773     76.80238    42.247005   -675.00731    -414.1067    52516.138 
    1335    1.4915687    75.624239    41.635646    -680.9415   -402.21108    52516.138 
    1340    1.5839359    74.419161    41.022667   -687.01311   -390.76078    52516.138 
    1345    1.6797431    73.191605    40.405437   -693.21148   -379.04342    52516.138 
    1350    1.7788718    71.947298    39.780353   -699.52235   -367.09141    52516.138 
    1355    1.8814499    70.684984    39.154914   -705.92896   -355.67652    52516.138 
    1360      1.98769    69.393059    38.528693   -712.41359   -345.12381    52516.138 
    1365    2.0986414    68.077999    37.901237   -718.95859   -335.72852    52516.138 
    1370    2.2194015    66.745966    37.275785   -725.55633   -327.76627    52516.138 
    1375    2.3573073    65.403495    36.646254    -732.2111   -321.25752    52516.138 
    1380    2.5284755    64.044967    36.006165   -738.95275   -313.92772    52516.138 
    1385    2.7958526    62.665127    35.336767   -745.88441   -301.09424    52516.138 
    1390    3.1507532    61.275963     34.66056   -753.32139   -303.70802    52516.138 
    1395    3.3031186    59.884301    33.983369   -760.79755   -293.69785    52516.138 
    1400    3.6277775    58.461435    33.287272   -768.34298   -279.29974    52516.138 
    1405    4.0753184    56.988512    32.505709    -776.1796   -272.43312    52516.138 
    1410    4.6625519    55.424697    31.689109   -784.44107   -266.19051    52516.138 
    1415    5.4402733    53.723015    30.815865   -793.26467   -261.02245    52516.138 
    1420    6.4503923    51.817178    29.858018   -802.81454   -260.29903    52516.138 
    1425    7.6786944    49.627684    28.772112   -813.16624   -263.04457    52516.138 
    1430    9.3250711    47.067058     27.55231   -824.38713   -244.79442    52516.138 
    1435    11.644731    44.215578    26.196831   -836.85752   -250.72421    52587.337 
    1440    13.244497    41.117702    24.793821   -849.99878   -253.46242    52587.337 
    1445    14.411805    38.260655    23.396587   -862.58415   -270.89431    52587.337 
    1450    15.499673    36.094217    21.485761   -873.49081   -268.83385    52587.337 
    1455    16.538349    34.788215    19.759217    -883.6825   -237.98573    52587.337 
    1460    18.088548    33.673548    18.475148   -892.38743   -197.72684    52587.337 
    1465    19.979229    32.551453    17.298223   -899.38042   -125.43131    52587.337 
    1470    23.187811    30.834962    16.131873   -904.38637   -31.340987    52587.337 
    1475    29.384236    28.724046    15.446215   -907.04201   -1.3529486    52587.337 
    1480    38.926004    27.010698    14.707491   -906.08804   -60.022862    52587.337 
    1485    52.866904    25.543344    14.143917   -899.16496   -104.62426    52587.337 
    1490    74.718943    23.975789    13.624458   -881.79586   -96.536849    52587.337 
    1495    111.09239     22.36134    13.535836   -847.28522   -62.564403    52587.337 
1500        0.75087559998695396768 14.735780373213019701 0.75675675675675679877 197 -978.45774432122846065
    1500    170.09032    20.941186    13.966532   -782.75307   -50.334738    52587.337 
    1505    265.95686    20.129023    15.216755   -670.02356    30.133815    52587.337 
    1510    415.49704    21.860933    18.081747    -489.1568    136.07074    52587.337 
    1515    600.47019    32.051752    22.777301   -245.59963    319.42081    52587.337 
    1520    756.49778    47.287016    29.729783   -15.758418    417.90731    52587.337 
    1525    804.76759    60.440757    27.948039    82.260783    473.94452    52587.337 
    1530    723.21034    56.122072    26.529515   -2.8133839    490.58592    52587.337 
    1535    562.32508    44.475112    25.781406     -202.622    133.99132    52587.337 
    1540    388.74148    38.094706    24.000249   -407.12438   -222.88161    52587.337 
    1545    266.51957    35.463538     19.74393   -563.34665    -120.8236    55821.589 
    1550    178.06885    34.774945    23.558952   -665.58043    111.06591    55821.589 
    1555    134.33934    33.435614    21.116078   -728.89013     200.7428    55821.589 
    1560    114.28908     29.76605    18.959018   -769.83979    113.77632    55821.589 
    1565     106.2562    25.488971    17.382126   -796.65994    48.430741    55821.589 
    1570    102.27612      21.1679    16.943678   -811.27891    73.330271    55821.589 
    1575     105.8071    18.355605    14.653028   -816.64786   -12.287308    55821.589 
    1580    114.80085    17.099699    15.675338   -811.89733   -100.61778    55821.589 
    1585    136.48457    15.651538    14.029864   -796.13439    2.3537157    55821.589 
    1590    168.45215    14.176721    16.076744   -765.22704    37.234812    55821.589 
    1595     209.0293    18.052978    19.509079   -714.93652   -192.00565    55821.589 
    1600    265.22893    24.281651    17.292642   -642.13218   -108.17111    55821.589 
    1605    339.58126    25.601699    19.454809    -544.2929    97.931955    55821.589 
    1610    425.73477    20.959295    24.133126   -427.71295   -10.913802    55821.589 
    1615    491.15196    20.827386    29.657976   -314.89465   -242.07503    55821.589 
    1620      527.946    26.330281    31.459333   -235.44616   -212.13045    55821.589 
    1625    537.02221    32.462806     29.85204   -210.33784    88.880157    55821.589 
    1630    493.39075    35.712006    31.349839    -243.1128    184.90999    55821.589 
    1635    439.31496    29.288458    31.117428   -316.18343    204.33728    59746.945 
    1640    376.77858    29.876726    30.670467   -406.90416    243.82114    59746.945 
    1645    309.69699    26.526885    27.814339   -496.24829   -110.37588    59746.945 
    1650    250.53596    23.141803    30.943304   -568.70406   -723.85033    59746.945 
    1655    225.38063    16.213915    25.933175   -626.21666   -430.29199    59746.945 
    1660    200.20214    12.546999    22.365095   -670.31422     28.45865    59746.945 
    1665    174.97669    11.748434    23.156684   -700.19804   -178.43096    59746.945 
    1670    165.13477    16.209212    23.193514   -717.00493   -27.729468    59746.945 
    1675    169.52071    20.433521    22.219657   -722.79058   -127.72053    59746.945 
    1680    185.96857    19.562412    20.226422    -718.0824   -192.51269    59746.945 
    1685    197.62264    17.409207    25.199486   -702.11639     32.84013    59746.945 
    1690    223.22471    15.094693    23.945773   -674.87276     -37.4585    59746.945 
    1695    260.68024    13.365787    23.735355   -634.54154    83.157263    59746.945 
    1700    307.28172    14.198677    21.747714   -582.19981   -193.51013    59746.945 
    1705    354.08638    14.951494    29.275031    -522.5394   -93.983968    59746.945 
    1710    388.47036    27.609211     28.77291   -464.53289     200.7439    59746.945 
    1715     394.3733    44.769355    28.890731   -419.81375    420.46486    59746.945 
    1720    409.64355    40.696726    32.921793   -392.48564    966.88958    59746.945 
    1725    404.79444    26.740901    37.726351   -385.61543    465.34911    59746.945 
    1730    387.73172    19.794262       36.443   -398.35017   -284.01855    59746.945 
    1735    364.18608    15.047494    37.063522   -426.28322     9.775842    64336.152 
    1740    343.79117    15.317923    28.360814   -463.71391    15.462935    64336.152 
    1745    314.49762    15.322405    34.152821   -504.87476   -62.360251    64336.152 
    1750    293.34992    13.228687      33.8847   -545.84147   -62.209446    64336.152 
    1755    261.36851    14.721773    29.559521   -582.11896   -243.72163    64336.152 
    1760    234.07137     13.27219    30.829962   -609.68203   -105.73993    64336.152 
    1765    220.09799    13.085999    32.874413   -628.12083   -36.923504    64336.152 
    1770    219.85547     11.66338    25.349204   -637.53845    135.08446    64336.152 
    1775    222.77843    10.987519    26.941083   -638.51876   -70.166831    64336.152 
    1780    232.00761    9.8134945    31.776587   -631.32876   -43.141238    64336.152 
    1785    244.85081    9.5509571    29.215621   -615.85371    -252.5524    64336.152 
    1790    271.19248    10.320689    26.943336   -592.55813    96.794112    64336.152 
    1795      307.235    10.094816    30.793605   -562.71369    194.74031    64336.152 
    1800    310.74722    11.281684    34.606184   -530.93539     34.79001    64336.152 
    1805    313.15055     18.15142      31.7639   -501.10411    113.16248    66731.117 
    1810    327.97261    26.189766    43.562996   -472.63466    654.47547    66731.117 
    1815    360.43395    30.968222    34.138305   -447.46062    387.95795    66731.117 
    1820    354.87316    27.270222     39.34576   -429.96495    67.368436    66731.117 
    1825    360.16711    20.201361    44.369607    -422.1663    54.263713    66731.117 
    1830    365.77707    15.137127    35.537894   -424.86252     437.9351    66731.117 
    1835    350.07504    17.121575    41.524169   -438.52289    180.53848    66731.117 
    1840    336.42171    16.391383    35.965492   -460.43877    225.01922    66731.117 
    1845    311.33479    10.037732    41.005079   -485.72815   -241.51134    66731.117 
    1850    292.38881    7.9519899    39.096993   -511.72319    171.25695    66731.117 
    1855    267.21646    8.2816523    40.240009   -534.89905    -253.2184    66731.117 
    1860    261.88759    8.2958612    35.660735   -552.90018   -155.14737    66731.117 
    1865    255.24206    9.2695959    32.614711   -565.73258    353.69665    66731.117 
    1870     239.1512    10.413768    38.361591   -572.26447   -37.577496    66731.117 
    1875    249.61276    9.4836513     35.49621   -572.15066   -276.70508    66731.117 
    1880    269.61043    7.9513316    33.264386   -566.01809   -63.840299      70561.4 
    1885    265.85229    8.9224713      40.5546   -554.90263   -356.65615      70561.4 
    1890    275.04822    10.076258    36.182105   -540.00077   -112.91212      70561.4 
    1895    300.25327    10.331991    36.026028   -521.06921   -15.679845      70561.4 
    1900    316.77419    15.759424    36.476171   -500.55929   -49.340379      70561.4 
    1905    332.76679    17.248235     35.80597   -481.46501     299.1873      70561.4 
    1910    317.40293    16.956454    49.610108   -466.03994    578.08646      70561.4 
    1915    321.20676    15.599597    40.542929   -454.82356    503.74494      70561.4 
    1920    343.47336    12.529298    40.441159   -447.02805   -170.56371      70561.4 
    1925    338.95772    12.979493    42.169852   -445.06426    121.87759      70561.4 
    1930    332.17717     14.75878    33.557001   -450.18306    352.25923      70561.4 
    1935    311.14015    13.329288    46.890934   -458.48032    155.56009      70561.4 
    1940     315.3823    13.758335    40.525508   -469.43152    137.22351      70561.4 
    1945    296.70592    17.784613    42.157481   -481.25703   -23.749719      70561.4 
    1950    281.39194    22.515382    40.876354   -491.78716   -87.609746    74192.536 
    1955    293.71779    25.199538    39.361686   -499.89502    238.44829    74192.536 
    1960    299.21805    22.519423    41.561543   -507.59767    341.72119    74192.536 
    1965    291.32176    17.339274    44.578616   -514.83979     135.0243    74192.536 
    1970    285.96097    16.275003    42.448095   -520.90343     77.17996    74192.536 
    1975    273.31407    16.027133    40.837228   -524.60855     73.79283    74192.536 
    1980    275.92291    12.259428    41.753319   -525.67359   -20.942704    74192.536 
    1985    268.65318    10.283165    45.714739   -522.92927   -144.78042    74192.536 
    1990    281.35875    9.5946756    40.932949   -516.25028    14.774815    74192.536 
    1995    278.83521    12.980125    39.916328   -506.47431   -101.61902    74192.536 
2000        0.46799266019593799282 17.290437395342962645 0.53840682788051208441 139 -822.04556917207105471
    2000    284.39263     12.03179    35.714798   -494.82549   -186.44253    74192.536 
    2005    294.71578    9.5481423    49.897989   -480.09424     11.40619    74192.536 
    2010    317.00515    8.6578535    40.304254    -464.3927   -19.050562    74192.536 
    2015    319.82585    9.2300804    49.466329   -450.04792    150.81421    74192.536 
    2020    334.70183    7.6200995    41.803167   -439.11007   -362.87211    74192.536 
    2025    335.93283    7.6796995    50.819737   -432.91845   -232.70509    74192.536 
    2030    328.81677    8.5824764    51.913111   -432.32646    38.046656    74192.536 
    2035    318.93781    7.7822981    46.142527   -436.63555   -22.077718    74192.536 
    2040    309.16201    7.8866895    52.716402   -443.52142   -162.57739    82333.179 
    2045    317.02691    10.030475    46.441395   -452.17989    85.932448    82333.179 
    2050    304.86642    11.896134    55.249541    -462.5127    66.092917    82333.179 
    2055    319.82082    13.895475    36.922161   -475.10215   -170.15581    82333.179 
    2060    298.23898    9.5356105    45.839473   -488.89922   -128.89198    82333.179 
    2065    279.62262    10.397813    44.143165   -501.91286    144.28346    82333.179 
    2070     281.7224    8.1175546    40.834773    -512.0452    307.73254    82333.179 
    2075    279.96298    7.5447395    44.439581   -518.76591   -254.55955    82333.179 
    2080    277.15446    9.8117866    49.816333   -523.41709   -57.701039    82333.179 
    2085    270.21536    13.402171    53.029216   -524.82386    94.378071    82333.179 
    2090    275.98195    13.174061    43.738556   -522.42749    390.55258    82333.179 
    2095    285.39653    10.350247    45.367735    -516.9156    215.42401    82333.179 
    2100    290.28552    8.3961479    50.620068     -508.894    171.16893    82333.179 
    2105    299.93207    10.530299    50.623672   -499.18742    168.79158    82333.179 
    2110    305.67592    14.632154    46.016465   -489.26371   -358.01525    82333.179 
    2115    315.34211    13.550928    54.776415   -479.96252   -246.81022    82333.179 
    2120    324.79042    11.079553    54.922865   -473.00925   -181.47592    82333.179 
    2125    328.47655    9.0441339    48.608271   -470.95571    107.96498    82333.179 
    2130    324.70479    9.2820458    52.591185   -472.05979   -52.027199    82333.179 
    2135    319.72246    8.1815012    50.038309   -477.20314   -137.41358    85198.563 
    2140    320.76368     8.812193    49.735681   -484.01348    140.31916    85198.563 
    2145    314.85127    9.7027096    60.453893   -494.08512    373.75335    85198.563 
    2150    309.97038    11.824858    40.701637   -507.28354     -405.199    85198.563 
    2155    286.00069     10.89873    57.319867   -519.91698   -131.09617    85198.563 
    2160    293.35369    12.767613    39.737097   -531.77908    187.17022    85198.563 
    2165    270.34395    13.830377    54.458156    -540.5748    245.19406    85198.563 
    2170    267.92247    14.213321     46.74694   -545.76853   -320.56573    85198.563 
    2175    268.36323    12.464273     54.45893   -546.69321   -114.88386    85198.563 
    2180    267.39646    15.734255    49.021957   -543.08158   -274.82944    85198.563 
    2185    264.45157    17.348105    50.089291   -535.65107    -29.66403    85198.563 
    2190    267.48036     11.99536    58.488681   -523.53219   -10.214824    85198.563 
    2195    290.02362    8.4330672    56.297281   -506.56831    153.13678    85198.563 
    2200       310.09    7.8516589    52.451593   -486.67754   -84.859532    85198.563 
    2205    315.67027    7.6279408    60.790687   -467.83283   -14.975417    85198.563 
    2210     338.2926    11.134862    45.290903   -451.59119    -250.6299    85198.563 
    2215    331.15271     16.10786     62.29883   -439.04686    186.70418    85198.563 
    2220    347.19588    16.798979    55.413782   -433.07115   -53.437747    85198.563 
    2225    343.83386      14.0206    57.197483   -434.23994    -91.98899    85198.563 
    2230    344.27701    13.105502     59.69197   -442.50772     -6.37449    86783.504 
    2235    332.86088    13.803062    57.810838   -457.88407    121.43809    86783.504 
    2240    301.31819    13.379583    62.402355   -476.70082    317.03149    86783.504 
    2245    288.07739    12.988553    53.531574   -494.68728    29.064442    86783.504 
    2250     276.4077    11.155926    54.443011   -509.58966     -85.4928    86783.504 
    2255    282.57237    11.972687    46.881127   -522.23345    8.4627544    86783.504 
    2260    256.82435    14.547133    60.318392   -530.80413   -111.18171    86783.504 
    2265     264.4479    16.278755    52.767218   -534.50213   -16.201127    86783.504 
    2270    264.61921    10.215661    57.179767   -533.22318   -56.422582    86783.504 
    2275    272.51059    10.567674    52.271709    -527.7215   -77.089071    86783.504 
    2280    286.54165    13.846166    53.607065   -517.95089   -140.38974    86783.504 
    2285    282.46675    14.629673    61.186887   -505.67927   -96.877094    86783.504 
    2290    292.74642    16.959417    48.922645   -492.02612    80.231147    86783.504 
    2295    304.43329    16.189838    56.436999   -475.70287    40.841109    86783.504 
    2300     326.8614    9.0970455    54.150972   -460.05873    122.40923    86783.504 
    2305    320.07172    7.7016601    66.007507   -446.46041   -447.83671    86783.504 
    2310    331.41615    9.6340977    66.279907   -437.57795    -432.7288    86783.504 
    2315    325.29584    10.723001    63.705549   -432.38547   -687.02449    86783.504 
    2320    328.20528    12.831967     68.99272   -432.60386   -156.04145    86783.504 
    2325    305.80046    13.856491    63.801068   -436.44409   -184.67079    86783.504 
    2330    298.81187    12.209994     56.66805   -442.46479    39.730894    86783.504 
    2335    286.67798      13.5057    71.138372   -447.38779    118.39264    89719.778 
    2340      292.943    14.683052    67.629412    -450.4162    30.169351    89719.778 
    2345    293.19119     13.43239    71.758449   -451.97065   -187.21293    89719.778 
    2350    289.16764    13.344364    61.198871   -453.10805   -50.460835    89719.778 
    2355    291.97207    10.967027      63.0975   -453.38585   -131.09075    89719.778 
    2360    297.97145    9.2130099    71.635165   -452.25235   -45.207039    89719.778 
    2365    316.65397    7.6151922    70.404504    -452.0447   -24.506266    89719.778 
    2370    326.39115    11.338037    58.048409   -454.69239    62.589002    89719.778 
    2375    313.10932    15.178839    70.184325   -459.88345    180.50115    89719.778 
    2380    308.36801    13.671545    64.149577    -467.8385   -341.48854    89719.778 
    2385    297.70497    10.557411    64.037345   -476.85245     160.3997    89719.778 
    2390    292.78542    9.8039118    65.684871   -484.95373    268.05342    89719.778 
    2395     270.7706    18.065463    74.327322   -489.87403    254.22344    89719.778 
    2400    285.99976    18.590422    61.126903   -493.59577   -145.97498    89719.778 
    2405    285.91643    12.399527    59.228472    -494.8051   -336.03784    89719.778 
    2410    281.34033    8.9686319    61.902733   -493.33626   -184.87135    89719.778 
    2415    275.45148     8.647899    69.949182   -489.30443   -129.56167    89719.778 
    2420    268.88553    12.174785    66.961621   -482.60497   -138.87631    89719.778 
    2425    288.78906    12.127929    69.309062   -471.75008   -86.916063    89719.778 
    2430    320.17313    11.132171    65.065668   -458.98765   -305.23468     90504.35 
    2435    315.16747    12.616688    81.663916   -447.31229     5.980291     90504.35 
    2440     315.9238    11.258784    73.435323    -438.7658   -3.7486899     90504.35 
    2445    332.51287     9.010624    63.224305    -434.4664    235.19694     90504.35 
    2450    326.27633    8.8051801    72.470031    -433.1459   -121.26016     90504.35 
    2455    315.60036    6.7001576    79.190075   -434.92941    -36.20346     90504.35 
    2460    318.50287    6.6807592    65.794386   -441.21724    -197.7769     90504.35 
    2465    299.17845    8.0492611    75.905107   -448.10673    32.575643     90504.35 
    2470    296.87233    9.7544927     71.37001   -454.48297   -14.963915     90504.35 
    2475    304.65776    9.5977101    74.106071    -462.2909     162.3944     90504.35 
    2480    293.00017    7.7904294    70.706635   -469.75686   -171.01184     90504.35 
    2485    280.88091    12.948236    73.258575   -476.50162   -281.66008     90504.35 
    2490    287.16804    19.365115    61.977855   -481.71857   -151.56099     90504.35 
    2495    291.89223    17.100201    70.238114   -483.31377   -245.46614     90504.35 
2500        0.41141477944201682027 19.259748782952222257 0.46941678520625890192 135 -826.02481803633327218
    2500    297.52296    11.726584    61.730325   -483.69708    37.037155     90504.35 
    2505    285.69653     9.361553    75.403625   -483.99832    39.434681     90504.35 
    2510    300.53319    11.641052    58.058576   -483.95299    63.627518     90504.35 
    2515    277.75353    9.3175036    77.746126   -481.30379   -318.75468     90504.35 
    2520     285.0015    9.1460126    72.655236   -477.70291    110.89607     90504.35 
    2525    293.94303    9.1608622    72.952981   -472.03984   -234.46825     90504.35 
    2530    293.86041    8.3766218    70.104605   -464.27331    63.028712    91022.933 
    2535    301.44883     10.38724    74.334261   -456.12266    512.90878    91022.933 
    2540    313.48535    8.9171974      75.4817   -448.21312    167.41345    91022.933 
    2545    323.67123    6.9726972    79.251321   -442.57045    29.771224    91022.933 
    2550    335.42301    6.9286729    67.907573   -440.90699    -228.5326    91022.933 
    2555    308.24538    8.7882237     81.86628   -443.84904    69.167846    91022.933 
    2560    309.03978    9.9038134    79.061705   -448.50641   -101.42027    91022.933 
    2565    312.21248    8.1015141    71.799251   -454.32829   -9.1074543    91022.933 
    2570    302.53602    7.6121196    66.954727   -461.40549   -277.93144    91022.933 
    2575     292.5619    10.817933    68.961696   -468.11562   -112.68583    91022.933 
    2580    277.64128    13.896249     77.69914   -473.48183    210.81117    91022.933 
    2585    278.99152    12.557734    86.968753   -475.77287    130.07338    91022.933 
    2590    293.89468    9.3182706    77.772251   -476.07839    385.21022    91022.933 
    2595    296.58699    10.105132    77.680299   -476.63123   -202.55737    91022.933 
    2600    295.90588    12.140095    67.032034   -477.00863   -56.627012    91022.933 
    2605    272.62038      11.0711    84.383591   -476.17655   -143.30961    91022.933 
    2610    295.79287     11.55679    71.791499   -473.71765    180.21998    91022.933 
    2615    296.05728    12.174776    80.181832   -469.78873   -196.62111    91022.933 
    2620    297.42308    7.7557882    82.324272   -465.65396    289.55222    91022.933 
    2625    299.60701     8.044584    76.116782    -461.0362    233.82024    91022.933 
    2630    289.62818    8.6935009    88.666499   -456.89574    5.5905771    91022.933 
    2635    306.87103    6.5342428    77.022238   -452.78858   -298.48669    94040.362 
    2640    306.33609    5.8435354    77.345752   -447.97027   -246.85795    94040.362 
    2645    309.81344    8.1636931    75.833525   -444.88402   -83.898531    94040.362 
    2650    305.01748    9.6330967    82.581079   -442.30884    465.04302    94040.362 
    2655     308.6061    9.2597439    76.635878   -440.05548    269.46003    94040.362 
    2660    302.76822    11.838436    86.228542   -439.18648    299.34808    94040.362 
    2665    298.85279     12.62933    92.513796    -439.6505   -421.30508    94040.362 
    2670      295.497    11.179574    89.877605   -440.67044   -118.19119    94040.362 
    2675    315.65057    10.027214    73.477644   -442.73466    -334.9207    94040.362 
    2680    317.22003    11.461457    81.812995   -446.01714    2.9198793    94040.362 
    2685    313.82276    9.8912215    85.344823   -452.35194    397.34356    94040.362 
    2690    309.13903    10.272661    74.746144   -459.75519   -10.760329    94040.362 
    2695    282.77112    10.383782    85.806622     -467.043   -45.922775    94040.362 
    2700    296.85391    9.1787548     76.61271   -473.73383   -1.3515651    94040.362 
    2705    291.76288    8.1726694    82.544258   -479.85371    247.86568    94040.362 
    2710    297.75482    7.2247681    77.776515   -485.71009   -453.11424    94040.362 
    2715    307.26316     7.476095    69.108986   -491.64868   -193.17828    94040.362 
    2720    296.64886    9.4136199    75.205658   -496.43076    163.43956    94040.362 
    2725    284.19345    10.467329    71.884153    -499.8859    167.84039    94040.362 
    2730    269.45024    10.313504    84.223587   -500.24889     86.73014    94040.362 
    2735    260.95134    10.250602    82.074717    -497.9523    69.038471    94040.362 
    2740    280.60069    10.741499    72.434643   -492.07297    63.652706    94040.362 
    2745    283.62519    10.079067    76.502144   -481.85755   -104.05185    94040.362 
    2750    288.76526    9.1387569    84.315805   -469.87832   -343.80489    94040.362 
    2755    301.23493     12.93678    84.571907   -455.96367    349.00092    93168.261 
    2760    301.41976    16.890026    83.951507   -441.03247   -168.55615    93168.261 
    2765      312.325    15.424031    88.285897    -426.3557    80.258746    93168.261 
    2770    313.72694    13.768918    97.754139   -413.64196    330.87588    93168.261 
    2775    336.94389    12.067047    83.359356   -404.38526   -19.552974    93168.261 
    2780     335.6246    8.7879149    94.519003   -399.12772    159.15108    93168.261 
    2785    319.51543     8.302107    103.08144   -400.05553    155.58691    93168.261 
    2790    321.03829    8.1872253    83.904126   -405.04834   -76.628443    93168.261 
    2795    309.99692    9.6142823    87.198976   -412.12706   -180.89697    93168.261 
    2800    321.02186    9.8379424      92.9748   -420.68245   -349.21157    93168.261 
    2805    334.71367    8.5702603    83.084632   -433.20172   -424.76317    93168.261 
    2810    315.28234    8.9904712    84.203345   -452.08873   -231.17654    93168.261 
    2815    292.46537    10.165492    84.333643   -471.71946   -57.598118    93168.261 
    2820    265.70956    11.658926    89.699636   -488.26618     -143.711    93168.261 
    2825    278.26311    10.209312    71.073024   -499.98942    129.15735    93168.261 
    2830     266.4641    9.6419054    85.438852   -508.11174    119.71939    93168.261 
    2835    277.10803    10.114905    75.101747   -513.53206   -70.261814    93168.261 
    2840    286.58374    9.4184667    64.451703   -514.03124   -41.898262    93168.261 
    2845    272.59771    11.098327    81.692561   -511.40707    152.60654    91667.819 
    2850    273.54908    13.627006     80.18168   -505.96105    -90.28153    91667.819 
    2855    277.44019    11.543147    89.849917   -497.27887    16.059682    91667.819 
    2860     288.9373    11.924235    83.323681   -486.20119   -77.180779    91667.819 
    2865    299.97726    13.781995    85.278896    -472.8309     94.47173    91667.819 
    2870    315.21932    13.753412    84.029319   -459.90759    266.04638    91667.819 
    2875    316.94824    16.284899    85.971409    -447.9832   -118.65206    91667.819 
    2880    314.60949    16.642083    90.318037   -439.74273    187.02621    91667.819 
    2885    307.48912     10.91722    88.048152   -433.91572    107.21801    91667.819 
    2890    323.84527    9.1624831    80.004441   -428.86107   -210.86645    91667.819 
    2895    304.70983    9.1457348    101.95977   -426.29719    123.21321    91667.819 
    2900    333.66237    8.6587893    82.004312   -427.62004    15.507232    91667.819 
    2905    328.90367    8.2044551    75.461027   -431.88752   -64.066677    91667.819 
    2910    335.95101    9.1811715    77.477313    -440.5373    249.01894    91667.819 
    2915    292.89483    12.677878    84.047612   -452.03009    281.28935    91667.819 
    2920    282.16265    13.281492    84.075024   -463.92608   -313.01676    91667.819 
    2925    300.69241    14.467021    67.242145    -473.4307    9.2735448    91667.819 
    2930    281.08891    13.070455    80.749792   -480.10481   -289.89155    91667.819 
    2935     279.5746    13.865043     78.02975   -485.49959    130.64408    91667.819 
    2940    275.13482      13.6725    80.876814   -487.88128   -482.73644    91667.819 
    2945    287.82457    11.526722     75.71093   -487.89324    393.05843    91667.819 
    2950    281.30704    12.651788    87.472606   -485.75386    295.37698    91667.819 
    2955     285.6405     13.81309    75.453526   -481.37569   -147.10295    91667.819 
    2960    310.43453    15.876334    74.449644   -476.41355   -120.43656    91953.491 
    2965    286.28993    17.883305    93.201801   -470.70593   0.96455065    91953.491 
    2970    283.92259    13.015184    77.477223   -464.02885   -147.81413    91953.491 
    2975    280.27045    12.472258    96.767335   -455.71241    480.08735    91953.491 
    2980    300.42777    9.5926396    80.487805   -445.61153     450.4567    91953.491 
    2985    305.20491    10.638027    87.075513    -435.7278   -121.06308    91953.491 
    2990    313.53544    16.802871    81.934834   -426.88855   -191.72038    91953.491 
    2995    304.65367    17.484252    95.284798   -418.32864    121.04484    91953.491 
3000        0.42068560479211813963 19.665008280824839204 0.48862019914651494412 141 -787.37883810449466182
    3000    324.53116     15.95287    78.523329   -413.97566   -56.719981    91953.491 
    3005    321.55351    12.241584    83.962189   -410.79685   -214.78036    91953.491 
    3010    328.70219    11.193284    84.598478   -411.77225     482.7147    91953.491 
    3015    326.20215    13.119373    89.106571   -417.52823    290.74917    91953.491 
    3020    311.11764    13.890844    86.408684   -426.59767   -33.471212    91953.491 
    3025    305.42191    12.329008    83.704241   -437.57288   -377.06595    91953.491 
    3030     298.1282    12.418674    81.319588   -451.21583    162.84375    91953.491 
    3035    287.67772     11.84387    80.499601    -462.7394   -88.796758    91953.491 
    3040    285.51282    9.2763475     83.93069   -472.54115    136.03166    94870.264 
    3045    274.80644    12.705088    81.016835    -481.2433    129.03363    94870.264 
    3050    275.79822    14.751012    83.966567   -486.29806    254.62005    94870.264 
    3055    276.76046    11.784151     79.57521   -488.97757    216.09515    94870.264 
    3060    278.69857    7.7970283    80.592059   -487.87991   -220.16263    94870.264 
    3065    278.28217    7.5771302    83.110786   -483.21208    -2.452577    94870.264 
    3070    282.01137    10.469885    75.916523   -477.12378   -69.148869    94870.264 
    3075    293.66123    10.984781    78.998379   -467.69496   -99.373768    94870.264 
    3080    296.67094    10.678466    86.274434   -457.28427    124.87367    94870.264 
    3085    303.11171    8.1920243    92.547894     -445.438    237.17305    94870.264 
    3090    326.19863    8.1867654    80.752864   -435.47915    149.26374    94870.264 
    3095    323.19565    7.4856929    86.935403   -427.75003   -118.39835    94870.264 
    3100    309.59978    11.128157    94.309742   -423.97414   -371.55965    94870.264 
    3105    322.61116     14.82773    83.697988   -422.60259   -97.624429    94870.264 
    3110    317.24948    12.777489    92.684472   -425.65592    36.865055    94870.264 
    3115    303.94092     9.039015    83.125451   -431.20118   -378.83109    94870.264 
    3120    299.18825      6.81074    81.446865   -438.15828    190.76137    94870.264 
    3125    300.68604    8.0248793    80.970666   -443.65732    340.82337    97091.834 
    3130    302.57285     10.08206    88.404078    -447.5282    31.379896    97091.834 
    3135     313.9799    13.415698    75.785109   -455.16495   -221.04556    97091.834 
    3140    301.73973    18.387215    77.829155   -460.45551    -248.2822    97091.834 
    3145    293.16996    20.186589    78.197121   -467.88481   -166.99596    97091.834 
    3150    290.83734     11.09448    83.330065   -470.86243   -110.81171    97091.834 
    3155     276.5299    9.2456952     94.29738   -474.24719    524.17499    97091.834 
    3160    272.44715    11.491759    80.674811   -474.99779    430.07088    97091.834 
    3165    280.16345    11.027473    87.739201   -472.35433    28.173363    97091.834 
    3170    295.64175    11.132519    92.187774   -466.24458   -139.80541    97091.834 
    3175    300.10504    12.001618    81.034768   -461.33941   -113.32123    97091.834 
    3180    294.79371    8.1926451    94.044048   -454.49783   -75.023832    97091.834 
    3185    305.26753    6.7740874    90.298561   -450.51246    230.04946    97091.834 
    3190    305.80385    7.8308182    79.243749   -444.19689   -44.628188    97091.834 
    3195    316.04054    9.5125392    82.118736   -440.21361   -424.48513    97091.834 
    3200     309.5674    10.025793    87.536003   -438.25845    183.71807    97091.834 
    3205     297.7218    8.5806469    88.161978   -435.95621    131.80576    97091.834 
    3210    312.60247    6.1655632    85.070942   -434.02498   -141.75502    97091.834 
    3215    323.07036    7.3436734    86.250436   -433.05059   -364.79584    97091.834 
    3220    318.11865    7.3178986    85.530947   -434.72138   -177.87667    97091.834 
    3225    296.64179    7.8781373    98.896597   -437.46295    181.81521    97091.834 
    3230     308.0149    10.416783    85.568959    -443.9993    303.19457    97091.834 
    3235    302.63796    12.794269    94.790633   -449.20146    42.401007    97091.834 
    3240     301.0379    11.523164    85.736476   -455.20756   -346.07689    97091.834 
    3245    285.58047    7.9745336    102.27932   -462.18051    -422.5556    97091.834 
    3250    307.89569    8.0284482     80.09991   -469.70386     377.9084    97196.704 
    3255    297.72369    9.8122225    98.484088   -474.51088    69.939273    97196.704 
    3260    303.26861    14.834167    83.040637   -480.94763    305.83065    97196.704 
    3265      295.842     13.32088    81.307172   -488.62054    261.35583    97196.704 
    3270    292.61021    12.524718    80.150943   -492.97391   -120.58598    97196.704 
    3275    278.78547    12.959502    83.906985   -496.84373   -553.41765    97196.704 
    3280    284.91554      12.8699    92.329281    -497.2955   -100.72264    97196.704 
    3285    296.04598    11.884172    79.186575   -497.15365    446.09463    97196.704 
    3290    285.14789    10.966407    77.622129   -495.18537    374.67439    97196.704 
    3295    281.92126    13.565578    83.983711   -489.53329    149.97823    97196.704 
    3300    289.88418    19.919831    86.130367   -481.59328    457.26087    97196.704 
    3305    311.25591    18.312586    81.586542   -471.63942   -306.52506    97196.704 
    3310    320.37078    14.415769    88.647556   -462.11211   -676.23345    97196.704 
    3315    334.66298     14.96253    77.150523    -456.2963   -2.2723789    97196.704 
    3320    313.11824    15.285638    89.809843   -453.33577    393.79463    97196.704 
    3325    313.26812    13.840896     88.77101   -453.61343   -20.616188    97196.704 
    3330    316.14865     10.29072    95.104444   -456.18187    129.98815    97196.704 
    3335    304.59769    9.1123991    85.102298   -461.29438    83.806862    97196.704 
    3340    283.23856    12.453936     95.09552   -466.06065     9.460058    87310.031 
    3345    285.27403    11.874555    86.200709   -469.95574   -239.42936    87310.031 
    3350     286.3257    10.869595    97.088846   -471.66497   -339.72728    87310.031 
    3355    280.48705     11.55259    98.428804    -470.9846    551.67253    87310.031 
    3360    282.34011    10.272061    90.539445   -468.88567    -123.7248    87310.031 
    3365    293.54193    11.629035    96.420099   -465.52437    147.62729    87310.031 
    3370    297.02751    16.639648    95.589773   -460.72691    -79.73787    87310.031 
    3375    299.30905    16.993121    82.289225   -455.46312   -385.61091    87310.031 
    3380     302.0256    14.178527    98.446119    -448.3783    205.95238    87310.031 
    3385    309.88622    10.339274    101.30371   -443.11378    686.00021    87310.031 
    3390    313.54695    13.039356    84.834741   -440.11868    727.26112    87310.031 
    3395    317.22214    14.270846     84.54679   -437.94166   -168.16718    87310.031 
    3400    311.94611    11.604171    100.05808   -437.25037   -980.20416    87310.031 
    3405    311.04433    11.005667    100.94957   -438.91694    70.578395    87310.031 
    3410    324.94349    9.2705434     84.07793   -443.41482    321.49895    87310.031 
    3415    306.49199    9.5426532    102.54059   -448.99425   -255.74156    87310.031 
    3420    307.45242    11.997762    91.563095   -456.72401   -64.178503    87310.031 
    3425    314.28481    12.329465    87.479559      -467.68     343.8134    87310.031 
    3430    301.66719    13.347422    87.269352    -479.3081    266.76574    87310.031 
    3435    293.42082    10.328409    92.178412   -488.47558    209.61813    87310.031 
    3440    282.19112    11.004556    95.173649   -497.65186   -357.58161    87310.031 
    3445    280.56263    12.224389    86.528454   -505.41973   -89.778654    87310.031 
    3450    265.86395    12.410088    85.467452   -508.68695   -382.84158    86801.584 
    3455    266.31581    13.213555     91.99952   -508.51027    290.64413    86801.584 
    3460    285.05865    11.429259    80.525708   -504.69514     642.7582    86801.584 
    3465    279.05811    10.720355     92.99017   -495.70853   -114.32835    86801.584 
    3470    291.73785    10.471841    80.403743     -486.441   -152.30314    86801.584 
    3475    294.94084    11.230315    98.928346   -471.79763   -61.405804    86801.584 
    3480    304.13037    10.984246    90.818287   -457.99094    -56.22518    86801.584 
    3485    302.43615     7.689147     96.09434   -445.45476   -91.034344    86801.584 
    3490    317.63186    5.8688919    104.88635   -430.23017   -160.07364    86801.584 
    3495    341.07368    8.0874911    91.433058   -419.27954   -168.37247    86801.584 
3500        0.42969685242064714625 19.941164745918435131 0.48221906116642959672 141 -787.10528843424583556
    3500    326.25123    8.9211155    102.01134   -411.72301     240.3727    86801.584 
    3505    328.50151    9.7635518    105.01087   -408.82202    266.36052    86801.584 
    3510    318.48404     12.28745    111.72767   -411.37672    121.55507    86801.584 
    3515    315.85686    12.471432    106.66169   -415.99407    -83.70917    86801.584 
    3520    318.10449    11.038759    102.60387   -424.68742    85.555798    86801.584 
    3525    304.49599    7.9217955     99.87968   -436.18137   -408.01206    86801.584 
    3530    303.57594     7.219232    91.943134   -449.99995   -746.00199    86801.584 
    3535    286.97672    9.7749533    103.00091   -461.68974   -245.74775    86801.584 
    3540    296.79832    10.944337    87.981079   -472.00226    119.57844    86801.584 
    3545    283.47131    11.699937    95.843007    -482.0845    229.00126    86801.584 
    3550    266.44292    12.691343    99.978955   -488.23415      618.268    86801.584 
    3555    271.58693    11.898327    94.202247   -491.65913    195.13083    86801.584 
    3560    272.10347    13.427011    91.564483   -491.29274   -217.99344    86801.584 
    3565    278.26502    14.458411     92.17985   -487.46316   -269.71106    85183.194 
    3570    282.08634    12.313925    88.324421   -480.12239    297.72428    85183.194 
    3575    289.40088    10.598744    98.160433   -468.80474   -268.11542    85183.194 
    3580     289.2749    11.228164    101.04236   -455.57716   -603.18396    85183.194 
    3585    310.69675    10.961624    94.967756   -443.15419    353.88712    85183.194 
    3590     301.2289     10.16225    108.77989   -431.16875    645.68867    85183.194 
    3595    316.32976    11.475216    104.57154   -422.48562    148.71857    85183.194 
    3600    327.83005    15.198913    92.668028   -414.28205    -438.8021    85183.194 
    3605     333.2689    15.652804    97.443329   -411.10536    457.09815    85183.194 
    3610    329.98162    12.946731    91.689475   -414.08533   -141.18705    85183.194 
    3615    324.42668    12.504771    91.674518   -420.06083    132.21437    85183.194 
    3620     305.2482    17.745713    94.647396   -428.31124    147.83994    85183.194 
    3625    293.17628    13.524283    104.67136   -437.89774    432.89738    85183.194 
    3630    298.17758    12.855462    86.415218   -447.64036   -673.61269    85183.194 
    3635    297.28441    8.5480141    97.634016   -456.77751   -96.502194    85183.194 
    3640    300.19474    9.1319615    87.255324   -465.94816    126.78264    85183.194 
    3645    290.51726    8.0455726    96.899761   -473.75429   -89.246207    85183.194 
    3650     293.4653    9.3936145    79.904351   -481.10202    270.12921    85183.194 
    3655    276.46255    9.9853764     95.04089   -486.64791   -110.57885    85183.194 
    3660    272.35611    11.442858    97.962521   -488.51239   -69.353925    85183.194 
    3665    284.54518     12.24545     77.12396    -487.9609    28.300341    85183.194 
    3670    288.38709     9.059711    83.818101   -484.83111    101.51634    85183.194 
    3675    292.89057    7.3153133    89.041065   -478.88777    309.82622    85183.194 
    3680    293.02462    6.9639629    93.461162   -471.25178    219.84502    85183.194 
    3685    308.54421    8.7224606    79.637877   -464.52591    269.35713    85183.194 
    3690    301.66094    11.075694    96.694165   -454.42964   -478.86615    80607.863 
    3695    312.21313    13.909054    84.756197   -446.75523    129.72048    80607.863 
    3700    311.56852    13.341396    87.281076    -440.0599    35.103515    80607.863 
    3705    316.61195    11.961263     91.16895   -432.29667    321.42601    80607.863 
    3710    311.65184    13.856671    94.901251   -429.49255     120.6088    80607.863 
    3715    317.36066    12.127393    92.909719   -425.97349   -46.109014    80607.863 
    3720    329.66088    13.097536    101.43805    -423.6159   -498.05291    80607.863 
    3725    314.98779    13.247637    112.24794   -426.58879    105.96935    80607.863 
    3730    315.36988    11.660223    100.32137   -432.10097    235.93394    80607.863 
    3735    301.62391    10.437027    102.08551   -441.46437     325.9445    80607.863 
    3740    304.15116    10.304381    86.461743   -448.79262    118.13716    80607.863 
    3745    302.19059    8.6507982    93.852612   -454.82249    174.70767    80607.863 
    3750    283.01055    9.8504918    93.929714   -463.87091    221.88427    80607.863 
    3755    275.93677    9.6408838    102.68404   -467.29039   -144.76551    80607.863 
    3760     282.4223    7.9802424    103.44507     -467.993   -475.91407    80607.863 
    3765    291.97039    8.2574613    85.181971   -469.76271   -50.884394    80607.863 
    3770    273.64462      9.49594    100.73032   -468.28302    702.83872    80607.863 
    3775     290.5711    9.6781063    83.431674    -466.2527    214.24913    80607.863 
    3780    288.03939     10.49047    95.800136   -460.60313   -422.49864    80607.863 
    3785    307.07494    12.833968    90.336174   -453.13029   -36.439564    80607.863 
    3790    313.05828     13.24603    99.945494    -447.5757    163.14131    80607.863 
    3795    318.33006    13.841619    101.16674    -442.9331   -175.83568    80607.863 
    3800    309.15778    12.346735    94.160059   -440.93894    143.05473    80607.863 
    3805    306.35462    9.1753228     99.29085   -441.64391   -198.82854    80607.863 
    3810    317.72531    7.7939273     85.44808   -444.16286    164.06639    80607.863 
    3815    305.84685    11.592629      97.3594   -446.67904    170.60113    80607.863 
    3820    285.83388    14.602083    110.25685   -448.67575    175.60131     81501.44 
    3825    299.24668     13.08978    98.319922   -452.51999   -89.343553     81501.44 
    3830    303.51476    9.8496386    103.93655   -457.20541   -356.03333     81501.44 
    3835    306.51611    9.6857877    95.821274   -463.82685    191.91558     81501.44 
    3840     305.1611    10.525731     84.16311   -469.67493    418.01835     81501.44 
    3845    291.62344    12.124793    99.162241   -474.48671   -33.243582     81501.44 
    3850    289.73976    13.405361     96.17676   -479.01178   -35.100009     81501.44 
    3855    281.77862    12.419733    91.664141    -482.3355   -625.36456     81501.44 
    3860    280.51229    9.6007637    105.47755   -482.94554   -108.12075     81501.44 
    3865    284.81776    11.118538    94.111427   -482.36834    23.951909     81501.44 
    3870    296.31633    10.844302    90.513104    -478.6887   -91.311283     81501.44 
    3875    298.41109    11.674324    100.96248   -474.06415   -102.24364     81501.44 
    3880    300.50267    12.509878    94.510135   -471.06124    381.60635     81501.44 
    3885    306.62744    10.071029     90.09047     -467.189   -30.855898     81501.44 
    3890    306.76488      10.8331    102.16005   -463.43957    125.64193     81501.44 
    3895    310.64332    12.185152    94.262605   -461.06419   -184.64561     81501.44 
    3900    302.00573    12.538921    90.278036   -460.37168     -749.348     81501.44 
    3905    295.18803    14.382942    107.70428    -457.9786   -878.60261     81501.44 
    3910    297.32921    13.622697    105.16637   -455.72837    862.24283     81501.44 
    3915    302.58696     13.33068    95.551967   -455.97392    608.23263     81501.44 
    3920      317.816     17.37704    88.574355   -457.10838    542.76975     81501.44 
    3925    308.48059    17.667632    97.980371   -455.60236   -234.30288     81501.44 
    3930    311.51792    13.447194    99.235013   -455.90475   -309.71262     81501.44 
    3935    296.48486    11.795161    104.42212   -458.56385   -186.21278     81501.44 
    3940    298.26576    12.557448    92.877242   -461.71542   -280.78085     81501.44 
    3945     286.9993    10.063884    95.338998   -462.91476    -43.67843    87497.553 
    3950    299.21604     7.518776    105.75444   -463.14961    3.7990835    87497.553 
    3955    296.62077    6.2279017    96.084791   -462.91781   -467.91004    87497.553 
    3960    298.00534    8.1526206    91.020625    -463.9059    123.25676    87497.553 
    3965    285.68066    8.7123027    103.82708   -463.12836    260.91214    87497.553 
    3970      294.385    7.8962041    97.820673   -461.38707    56.299126    87497.553 
    3975    297.64967    7.9230704    99.709104   -457.70832    13.080629    87497.553 
    3980    307.18342    8.6436513     94.47906   -455.05909    -127.0223    87497.553 
    3985    305.28418     10.27351    96.042779   -451.68548    138.47018    87497.553 
    3990    296.14829    13.424196    113.97582   -449.56574    8.1806241    87497.553 
    3995    306.45189    15.809658      97.5383   -450.04892    135.57101    87497.553 
4000        0.43122629671054735212 20.020546459474751089 0.49715504978662877766 141 -792.26569689003508756
    4000    299.66416    14.737082    104.57089   -447.47431    574.03039    87497.553 
    4005    305.73356    11.726886    104.87963    -446.8085   -74.370099    87497.553 
    4010    309.63893    11.690969    90.682593   -448.31706   -570.22812    87497.553 
    4015     313.5475    11.058556    96.921472   -449.87853   -87.849551    87497.553 
    4020    302.91853    11.080918    88.473198   -455.28274   -281.96043    87497.553 
    4025    292.23625    13.513704    102.35531   -457.80287   -350.55655    87497.553 
    4030     276.1996     15.62377    107.31626   -459.59949    103.28978    87497.553 
    4035    303.65209    12.475665    90.551721   -462.37435    551.43255    87497.553 
    4040    288.68865    10.600588    100.29927   -462.90139    -13.69598    87497.553 
    4045    288.06299    9.6696966    90.563622   -464.72814   -38.539141    87497.553 
    4050    307.65832     9.334989     75.32186   -465.27679    366.99448    87497.553 
    4055    291.55704    8.4897313    101.64474   -459.85553    120.90563    87497.553 
    4060    300.34416    8.2682431     95.48843    -457.2483   -438.67339    87497.553 
    4065    306.62113    11.098387    94.967212   -455.02981   -5.8054068    87497.553 
    4070    308.01641    12.889865    99.500225    -451.6122    345.16227    87497.553 
    4075    301.26956    10.037034     97.09008   -451.97792   -58.869171    87497.553 
    4080    305.79368    10.326235    82.693771   -451.20695   -325.16154    92046.102 
    4085    298.88229    10.556198    103.87281   -449.65436    7.5818956    92046.102 
    4090    311.32073    9.5121794    95.379565   -450.64023    492.06692    92046.102 
    4095    298.45461     9.710156     97.45681   -451.08331    -475.9534    92046.102 
    4100     293.2143    9.8524994    96.840263   -449.95211   -120.85011    92046.102 
    4105    287.95774    11.548326    99.190175   -448.19021   -47.817584    92046.102 
    4110    298.64927    12.689475    93.896267   -445.83649    256.39148    92046.102 
    4115    298.31574    8.4871671    99.218975   -442.04451   -154.79457    92046.102 
    4120    317.01306    10.878053    102.33505    -438.5248    313.38514    92046.102 
    4125    325.25177    14.499785    93.794376   -439.29636   -5.7984756    92046.102 
    4130     325.3543    10.273886    95.922019   -441.54922   -119.22827    92046.102 
    4135     304.9066     7.991952    105.50433   -447.20215   -249.63884    92046.102 
    4140    310.32104    9.1783598    99.938348   -454.86186    158.62214    92046.102 
    4145    313.10592    7.6908013    87.738222   -462.87988    222.70342    92046.102 
    4150    293.47187    8.6595839    95.247511   -471.52557    -127.1257    92046.102 
    4155    295.39609    11.530273    87.595987   -478.96951   -444.79851    92046.102 
    4160     285.9464    13.541575    99.761533   -485.27738    518.95841    92046.102 
    4165    294.06164    12.863273     88.54782    -490.6467    204.24128    92046.102 
    4170    276.79682    10.999597    103.33572   -492.38017   -366.43138    92046.102 
    4175    271.31503    11.272098     99.99896   -492.98913   -130.27215    92054.712 
    4180    277.81719     12.16506     97.28052   -489.78003    739.70438    92054.712 
    4185     274.5401    10.026365    99.092133    -483.4675   -151.25104    92054.712 
    4190    291.25209    9.4178445    97.190931   -474.98462    -214.3164    92054.712 
    4195    290.51821    10.873067    100.42435   -465.08598   -457.41538    92054.712 
    4200    304.29174     8.838634    97.196391   -454.11074    61.183916    92054.712 
    4205     306.0222     8.020064    112.99758   -443.83467     -602.791    92054.712 
    4210    331.49258    10.680205    88.927415   -435.45463    321.53785    92054.712 
    4215     325.4456    13.117382    103.79652   -430.66718    356.45287    92054.712 
    4220    328.29886    13.944986    96.409554   -430.22523    515.39829    92054.712 
    4225    310.20752    13.526635    109.54298   -432.11564    -100.5413    92054.712 
    4230     318.2812    16.721986    99.530944    -438.7303    3.0810668    92054.712 
    4235    322.90309    13.252586    95.945044   -448.38771     91.31154    92054.712 
    4240    308.48633    12.650801    100.65912   -459.23144   -542.11706    92054.712 
    4245     291.2078      14.1603    104.33032   -471.60896   -47.222104    92054.712 
    4250    289.56272    18.656779    95.443903   -484.04919    415.06195    92054.712 
    4255     292.5994    17.827455    101.62853   -494.70825    217.60592    92054.712 
    4260    279.87339    11.051611    102.06276    -504.9301   -384.53797    92054.712 
    4265    272.69492     11.67317    88.418194    -513.0679   -314.10476    92054.712 
    4270    257.74416    13.555726    103.43313   -516.14039    351.85981    92054.712 
    4275     280.4011    10.436164    92.600448    -515.8134    31.672295    90993.934 
    4280     282.3527    10.722741    88.261924   -512.72118    127.38293    90993.934 
    4285    271.62097     11.74067    99.384237   -506.35079    571.71724    90993.934 
    4290    273.66445    13.279532    99.951494   -497.57865    35.846453    90993.934 
    4295    274.30566    15.271115    95.475123   -485.57052   -431.07309    90993.934 
    4300    283.33276    16.905445     108.7309   -468.47568   -333.64439    90993.934 
    4305     314.8423    9.6930304    103.51511   -450.98619    149.56024    90993.934 
    4310    314.23034    7.8523347    110.59085   -434.02267   -187.26881    90993.934 
    4315    314.67039    7.4964505    110.66547   -418.34957    38.685491    90993.934 
    4320    321.88046    13.809847    108.12955   -405.78126    -281.6823    90993.934 
    4325    326.66578    17.959297    109.77191   -395.32266   -341.43866    90993.934 
    4330    335.50439    21.537447    111.91363   -389.37509   -286.24596    90993.934 
    4335    324.25318     21.95433    124.45764   -388.56306    91.866141    90993.934 
    4340    330.76541    16.399647    105.31652   -393.84434    156.65891    90993.934 
    4345    331.39861     14.50918    117.63998   -403.67685    306.94174    90993.934 
    4350    341.44101    12.638088    95.860463    -419.5218    389.81832    90993.934 
    4355     307.6268    10.905267    103.42168   -436.67714   -43.175898    90993.934 
    4360    294.71843    11.152924    99.833066    -455.7871   -304.70154    90993.934 
    4365    284.20976    11.624644     92.94861   -472.74206   -197.92744    90993.934 
    4370    281.99105    10.172516    92.933355   -486.81325   -21.565833    90993.934 
    4375    269.01165    6.7261344    101.34388   -499.20583    274.57575    90993.934 
    4380     266.2736     7.288471    94.838222   -508.62816    43.709406    90993.934 
    4385     249.9942    12.083346    111.03104    -512.3858     129.7086    90993.934 
    4390     268.3721    15.636808     95.32987   -511.36987    197.24212    90993.934 
    4395    284.00338    12.384491    96.816832   -506.59105    28.126718    90993.934 
    4400    277.24568    10.316805    96.602639    -499.9139   -570.76157    90993.934 
    4405    276.97911     9.412398    102.03084    -489.9204   -2.3121285    83826.322 
    4410    293.70397    9.9698064    101.83195   -476.18814    -493.6288    83826.322 
    4415    300.83675    11.257654    97.672892   -461.84312    -131.3785    83826.322 
    4420    303.95733    11.249179    106.47587   -447.75911   -10.904589    83826.322 
    4425    326.74782    12.386056    105.39591    -434.7388    779.85191    83826.322 
    4430    331.63266    15.380504    100.25911   -423.66632   -487.45517    83826.322 
    4435    332.73728    15.145116    108.05741   -419.08978   -66.888194    83826.322 
    4440    319.37814     15.76354    104.24354   -416.25793    369.37358    83826.322 
    4445    329.87217    13.072698     94.98787   -419.81336    393.52063    83826.322 
    4450    318.77717    12.699916    105.00479   -425.57226   -414.84852    83826.322 
    4455    312.08561    13.333831    108.97265   -433.10982    227.17321    83826.322 
    4460    300.56891    13.976731    110.29278   -442.93272    191.86991    83826.322 
    4465    292.99459    14.620204    106.16298   -453.11516    287.56481    83826.322 
    4470    283.49683    16.556285    101.90522   -462.37669   -197.55452    83826.322 
    4475    296.43373    15.902001    94.396728   -471.24806    309.51436    83826.322 
    4480    280.04119    16.612793     105.8457   -476.08826    70.777108    83826.322 
    4485    280.59525    19.063026    92.309943   -478.71875   -83.232677    83826.322 
    4490    274.22188    20.714061    106.66187   -477.65718    156.71975    83826.322 
    4495     293.2826    16.807587    95.349873   -475.06227    579.36892    83826.322 
4500        0.44734916311404238076 19.068933801222808455 0.5312944523470839453 158 -802.20418446552412206
    4500    289.46004    17.874783    100.60605   -469.15358    -15.99602    83826.322 
    4505    276.53093    20.780563    114.09106   -461.89777   -315.80119    83826.322 
    4510    291.75358    22.798249    101.15281   -454.14668   -36.579571    83826.322 
    4515    297.29139    16.789992     105.9266   -443.56571   -287.53851    83826.322 
    4520    302.59049    12.203768    105.81366   -433.55343    502.43208    82112.325 
    4525    321.89844    10.109936    96.952437   -422.76122   -193.95549    82112.325 
    4530    305.82497    9.2108224    121.56139   -412.23017    67.961619    82112.325 
    4535     320.4505    8.9175459    112.82348   -405.01067    490.80332    82112.325 
    4540    319.56155    8.1635647    118.89867    -399.8485   -42.598738    82112.325 
    4545    329.73266    8.5797316    110.11064   -399.66513    115.28223    82112.325 
    4550    326.11503    12.223308    110.99999   -404.94636    282.10566    82112.325 
    4555    322.30358    13.716228    96.658344   -413.43825    225.19503    82112.325 
    4560    308.50634     17.84904    112.05834   -423.63772      405.259    82112.325 
    4565    301.85036    18.774875    103.71124   -433.52824    168.70499    82112.325 
    4570    289.38581    14.682325    116.25628   -445.06916    465.29217    82112.325 
    4575    292.57361    8.7143628    99.568891   -455.78881   -123.50188    82112.325 
    4580    279.87559     10.64879    96.873819    -464.4403   -461.82703    82112.325 
    4585    282.78116    11.781709    101.42069   -469.49789    63.899346    82112.325 
    4590    280.49009    11.956569    109.04309   -472.06438    250.91398    82112.325 
    4595    286.64327    9.8156205     99.03361   -473.79828   -166.36465    82112.325 
    4600    279.26479    10.892996    99.134657   -473.03861    106.99871    82112.325 
    4605    266.53277     15.19117    111.41654   -470.20168    311.09582    82112.325 
    4610    288.37035    12.813622    99.718629   -463.92857    226.75839    82112.325 
    4615    303.88745    11.876351    99.660298   -456.67094   -112.34528    82112.325 
    4620    296.58662    13.300279    104.34386   -446.45916    24.489883    82112.325 
    4625    296.08459    12.894671    108.58177   -435.55102   -492.23689    82112.325 
    4630     314.1042    12.171412    94.300433   -426.55983   -445.54878    82112.325 
    4635    315.27211    11.968612     107.9993   -417.76856    -422.3645    82112.325 
    4640    335.93719    10.886241    93.661852   -412.64628    71.308088    82112.325 
    4645    310.35772    13.580285     111.1156   -410.63034    47.747764    83477.893 
    4650    315.81947    13.450442    94.888871   -411.28729    37.308913    83477.893 
    4655    304.27746    14.434264    117.79694   -414.02567    116.71104    83477.893 
    4660     317.7422    17.859874    92.694319   -417.65835      620.653    83477.893 
    4665    288.27172    15.095955      118.289   -422.87764    -647.4711    83477.893 
    4670    298.21076    15.003724    94.433578   -427.28161   -244.93766    83477.893 
    4675    293.43107    15.230618    108.85203   -431.65397   -40.133012    83477.893 
    4680    306.45135    12.094022    97.585938   -435.63185    269.26042    83477.893 
    4685    298.84006    14.770199    105.61806   -438.42034    246.10062    83477.893 
    4690    291.80882    17.713937    104.86725   -442.80851   -110.79137    83477.893 
    4695    285.04724    16.431914    116.19993   -444.93663    193.83984    83477.893 
    4700    299.48808    15.527053    94.835075   -446.38955   -358.96198    83477.893 
    4705    286.21446    12.118262    116.72411   -448.07217    78.800377    83477.893 
    4710    288.40103    12.076884    94.322911   -446.78149    -167.5938    83477.893 
    4715    293.50947    14.904506    101.43323   -445.18503   -168.96549    83477.893 
    4720    296.66857    17.368506    99.080602   -442.37392    84.087179    83477.893 
    4725    280.52572    17.998345    109.18403   -437.23212   -58.438605    83477.893 
    4730    300.81778    15.401798    99.145605   -431.71435    254.28081    83477.893 
    4735    306.12593    12.548667    102.48812   -424.05653   -13.261128    82291.116 
    4740    309.84903    12.395357    113.36037   -417.72808   -11.126882    82291.116 
    4745    314.38948    16.297225    103.45844   -413.06673    55.518645    82291.116 
    4750     312.1289    20.797931      106.429   -410.28474   -135.48881    82291.116 
    4755    309.26912    15.296072    122.52302   -409.05504    -51.13404    82291.116 
    4760    316.63089    20.867496    108.06093   -412.31299    685.05886    82291.116 
    4765    303.81218    22.618534    107.13711   -416.67859   -531.05198    82291.116 
    4770    300.91913    22.334467    118.45062    -423.9443   -216.47946    82291.116 
    4775    300.46589    20.508507     109.0459   -432.50804    98.300473    82291.116 
    4780    293.48741    21.964367    118.52554   -442.22536      141.892    82291.116 
    4785    286.45687      16.8467      114.734    -453.2252   -441.71594    82291.116 
    4790    289.12595    16.083782    112.93067    -462.9076    495.96203    82291.116 
    4795     296.5878    18.365361    95.949892   -471.39874    -92.19184    82291.116 
    4800    287.91693    18.207774    93.419764   -479.55468    383.39971    82291.116 
    4805    279.56966    20.586685     93.43864   -484.10771    591.56733    82291.116 
    4810    269.21572    16.786041    98.337947   -485.20658   -114.33469    82291.116 
    4815    276.37994    11.628924    98.550813   -483.10653   -370.67308    82291.116 
    4820    290.44091    11.183171    97.764124   -477.37435   -418.28209    82291.116 
    4825    288.20943     10.41388     107.0796   -469.09503   -47.260054    82291.116 
    4830    297.71055    9.4451147     96.98192   -461.23801    95.305511    82291.116 
    4835    299.05428    11.635497    101.71374   -451.76512    177.04883    82291.116 
    4840    300.82714    11.247822    104.88731   -440.08628    150.46888    82291.116 
    4845    288.75818    10.510283    115.59013   -428.26363    256.19595    82291.116 
    4850    290.59957    10.242319    126.30929   -418.64769    598.44249    82291.116 
    4855     311.3928    8.4990722    105.69931   -409.43285   -83.746118    82291.116 
    4860    325.11758    7.9372229    104.07314   -401.35994   -520.87393    82291.116 
    4865    340.57385     5.578202    111.48627     -395.109   -204.04698    80096.777 
    4870     328.7548    10.845956    110.18883   -395.17672   -177.02848    80096.777 
    4875     317.4614    19.175304    105.26544    -400.5038     275.8493    80096.777 
    4880     309.9529    21.127612    117.82793   -407.24089    448.99037    80096.777 
    4885    308.26192     16.33814    117.48856   -417.87134   -64.984571    80096.777 
    4890    305.12744    12.674234    101.80278    -429.0296   -258.04394    80096.777 
    4895    292.40335    12.003761    108.44338   -438.25038     169.0051    80096.777 
    4900    310.85837    16.221284    94.958325   -448.83666    390.06468    80096.777 
    4905    281.09267     18.99558    102.76614   -459.91047    8.9723155    80096.777 
    4910    270.28023    18.144891      103.467   -468.33124   -297.69985    80096.777 
    4915     261.0795    21.562052    104.93177   -471.59467   -269.22054    80096.777 
    4920    280.71006    22.035277    94.193727   -472.90948   -104.05023    80096.777 
    4925     286.4667    14.422965    97.306299   -467.06726    -18.32278    80096.777 
    4930    269.30997    14.794697    112.57654   -460.22481    217.29833    80096.777 
    4935     290.0177    16.478218    95.559942   -452.11223     415.9157    80096.777 
    4940    299.18109    15.708323    103.49893   -440.10522    -763.3616    80096.777 
    4945    318.81122    14.338781    100.33758   -427.75537   -364.94157    80096.777 
    4950    307.98386    15.862512    116.08231   -418.01931    -457.0128    80096.777 
    4955     310.5935    14.826188    111.12525   -409.20999    368.64967    80096.777 
    4960    331.93252    12.577267    104.03368   -404.69787   -187.92803    80096.777 
    4965     322.6475    13.633274    105.41351   -403.11425    232.38665    80096.777 
    4970     310.1771    13.979546    114.42667   -405.47924   -25.560827    80096.777 
    4975     303.0086    21.722955    106.96877   -409.58628    22.495429    80096.777 
    4980    321.56356    18.905632    104.44143   -414.21171   -196.61784    80096.777 
    4985    307.61285    13.213455    113.46898   -422.12182   -309.05949    80096.777 
    4990    312.35037    14.611136    98.455938   -432.47683    231.44518     77182.26 
    4995    299.76773    13.927701    106.57218   -440.76566    96.508155     77182.26 
5000        0.45947305284602507625 18.000845472695406357 0.53058321479374115359 163 -783.02802876013436162
    5000    290.28018    15.931487    105.59711   -449.03377      135.367     77182.26 
    5005    304.93719    13.510791    91.930974   -457.32862     740.8928     77182.26 
    5010    283.13597    11.355431    110.92716   -462.64142      451.728     77182.26 
    5015    285.96449    9.9953297       92.925   -468.27042    98.994143     77182.26 
    5020    279.71849    10.926882    103.20608   -471.21948    221.81971     77182.26 
    5025     289.7684    11.388897    97.632994   -470.16624   -52.653202     77182.26 
    5030    279.12919    11.748886    98.097633   -467.42649   -991.87719     77182.26 
    5035    283.48657    9.1697654    106.41053   -460.62515   -567.48541     77182.26 
    5040    287.70148    11.798752    109.83477   -452.43901    611.20246     77182.26 
    5045    293.18584    11.913207    103.86463   -442.43063    562.07914     77182.26 
    5050    290.33818    11.728699    117.13297    -428.8681    72.117856     77182.26 
    5055    299.24931    11.017426    118.37633    -416.5167    171.46633     77182.26 
    5060    307.94214    13.887473    117.88718   -403.98304   -233.66668     77182.26 
    5065    319.39979    11.514972    116.91431   -389.98277    -559.8265     77182.26 
    5070    328.47024    7.4612958    118.27081    -378.3405    255.95543     77182.26 
    5075    325.33446    7.1103866    119.60918   -369.34674    376.37558     77182.26 
    5080    343.24714    7.7706355    121.52896   -365.87307    326.33381     77182.26 
    5085    324.23207    12.156363    131.08533   -366.86334    65.783975     77182.26 
    5090    329.34734    13.025034    116.21499   -375.45829   -324.47894     77182.26 
    5095    329.39785    13.193249    127.76871   -387.48164    492.14256     77182.26 
    5100    314.88538    14.160198    120.85041    -403.7784   -357.19772     77182.26 
    5105    317.00092    15.102072    102.14079   -423.49003    -270.4182     77182.26 
    5110    298.98399     15.55233    109.06342   -443.88269    -193.2161    73802.424 
    5115    278.72776    18.865618    105.13059   -461.67962    495.62633    73802.424 
    5120    258.46076     24.09489    107.00057   -475.94743   -39.301789    73802.424 
    5125    260.99879    25.676282    90.800012   -485.67732   -10.730659    73802.424 
    5130    271.62777    16.279694    97.597662   -487.97095   -173.84959    73802.424 
    5135    275.79308     14.41983    102.71519   -485.81046    215.80614    73802.424 
    5140    266.19346     14.99134    103.56865   -481.93469    -523.9803    73802.424 
    5145    287.86246    11.515362    99.702009    -473.4652    546.07183    73802.424 
    5150    292.68093    13.408692    110.04838    -462.4711    230.54988    73802.424 
    5155    304.29475    13.502437    107.78548   -450.60478    429.34197    73802.424 
    5160    313.85148    11.287634    102.54171   -438.49191   -236.62943    73802.424 
    5165    315.57354    10.600497    107.62861   -427.76169   -90.622857    73802.424 
    5170    313.79527    13.044364    106.68103   -418.23251    247.28466    73802.424 
    5175    308.58641    11.517966    121.00925   -410.57982   -754.73198    73802.424 
    5180    330.24881    9.7515273    103.82433   -407.44861    316.75441    73802.424 
    5185    324.21157    7.6575604    121.20975   -405.52652    60.974822    73802.424 
    5190    313.69245    10.606246    120.77029   -406.53546   -193.68124    73802.424 
    5195     308.1283     10.57044    124.72142   -412.01788    122.10349    73802.424 
    5200    313.64233     11.32718     116.3158   -419.46194   -330.25101    73802.424 
    5205    297.89275    10.886574    124.72926   -428.92134   -400.43653    73802.424 
    5210    292.33162    11.887398    116.14059   -439.89248    711.11545    73802.424 
    5215    290.57692    10.546713    109.17632   -448.69964    462.04293    73802.424 
    5220    275.70511    8.8378516     110.3371   -454.59194    274.04713    73802.424 
    5225     277.5198    10.392818    118.61367   -459.29008   -111.00121    71070.622 
    5230    290.19385    11.675683    106.50011   -461.48626    -454.3763    71070.622 
    5235    290.38166    11.890938     102.4765   -461.77153    146.08111    71070.622 
    5240    300.56149    12.063578    105.43954   -459.83162    266.01806    71070.622 
    5245    284.70957    13.825551    119.95649   -456.21253    421.47093    71070.622 
    5250    300.06004    13.328118    102.57343   -451.69693   -129.68571    71070.622 
    5255    297.69216    11.284859    120.16117   -448.46954    360.21164    71070.622 
    5260    316.92952     11.37246    104.91611   -444.95171   -284.24208    71070.622 
    5265    301.74983    13.436062    129.58485   -440.66027   -113.96487    71070.622 
    5270     288.7461    15.202989    112.84003   -439.81624    -111.2911    71070.622 
    5275    305.36686    12.938192    114.45957   -437.96894    293.90327    71070.622 
    5280    306.70363    12.136287    118.25589   -435.34548   -327.83173    71070.622 
    5285    311.33595    13.880938    103.95324   -434.46764    247.35853    71070.622 
    5290    310.01439    14.432057    109.68957   -434.54543     -189.993    71070.622 
    5295      305.598    14.033054    119.57281   -435.54667   -112.16255    71070.622 
    5300    297.80654    15.981507    123.18544   -438.37612   -320.14386    71070.622 
    5305    309.30677    17.441584    111.73249   -442.83099    537.53678    71070.622 
    5310    315.17493    18.267494    106.89695   -447.24289   -255.68001    71070.622 
    5315    295.66113    13.490417    126.43816   -452.08405    381.68854    71070.622 
    5320    291.10973    8.9135902    120.55844   -457.00722     229.3472    71070.622 
    5325    300.37934    10.755462    110.84133    -461.9303   -335.46765    71070.622 
    5330    295.45134    17.324783     103.7429   -467.33361   -203.51498    71070.622 
    5335    288.04416    16.530674    111.77135   -470.51976   -362.73314    71070.622 
    5340    283.22555     15.82767    101.96453   -471.85504    311.77187    71070.622 
    5345    270.39243    10.708133    123.69033   -470.61432    176.72999    71070.622 
    5350    284.79411    11.318161    120.76753   -466.29178    199.78064    72402.563 
    5355    299.60706    10.743598    105.83563    -461.5593    903.41072    72402.563 
    5360    285.02958    10.920452    120.47673   -453.96299   -674.74751    72402.563 
    5365    300.51114    11.337843     111.7801   -443.43467   -237.29772    72402.563 
    5370    293.84353    9.5837732    139.09603   -435.39698    -68.83717    72402.563 
    5375    302.13789      11.7319    120.64154    -426.9071   -120.52278    72402.563 
    5380    315.69302    12.375328    111.28454   -418.17009   -75.493114    72402.563 
    5385     321.1039    16.250954    119.56872   -411.48584   -190.94035    72402.563 
    5390    314.92636    17.861922    125.97816   -406.48257    330.63753    72402.563 
    5395    320.28703    15.537442    117.53956   -404.27388   -275.19278    72402.563 
    5400    317.03392    13.863558    125.23301   -406.59291    373.24265    72402.563 
    5405    318.85156    15.336074     116.4503   -411.11993    412.55925    72402.563 
    5410    310.56069    14.594801    119.15053   -416.90492    474.18015    72402.563 
    5415     293.6463    12.529668    137.11235   -424.82018   -534.86265    72402.563 
    5420    284.49655    15.991227    128.34184   -431.87591    124.16598    72402.563 
    5425    289.10537    15.061274    113.12181   -440.79146    265.13554    72402.563 
    5430    286.49452    14.226153    108.06856   -445.55381    62.733703    72402.563 
    5435    267.44307    18.058298     124.3344   -445.70169   -82.139753    72402.563 
    5440    292.58348    14.624024    103.47445   -445.62268    180.93936    72402.563 
    5445    299.92553    10.517334    108.64321   -442.02922   -213.23794    72402.563 
    5450    299.03802     11.76923    119.68968   -436.76654   -252.03476    72402.563 
    5455    301.39693    14.325906    117.66425   -430.98492   -191.16447    72402.563 
    5460     303.3732    11.386869    125.84612   -424.90408    960.50317    72402.563 
    5465    318.19901    11.626563    118.27112   -421.30064    486.36936    72402.563 
    5470    317.11215    13.966842    103.69855   -420.00627    -164.5283    72402.563 
    5475    319.43427    13.355953     110.2774   -415.18851   -385.46673    72402.563 
    5480    307.30598    14.825741    126.99587   -411.83955   -464.92735    72402.563 
    5485    298.00023    16.915855    123.54656   -411.11203   -141.10686    72402.563 
    5490    310.64214    11.275942    122.43721   -409.94724   -147.65293    72402.563 
    5495    313.38108     7.184624     128.0245    -410.0541    689.67557    70617.902 
5500        0.48597502057902136618 16.805280340607712475 0.52347083926031301448 150 -767.10144593810616698
    5500    307.29972    14.444731    119.03936   -413.52464    384.27759    70617.902 
    5505     301.6215     13.69625    126.06693   -419.56493   -360.64109    70617.902 
    5510    295.66925    9.2543188    127.68816   -424.79341   -414.08811    70617.902 
    5515    282.15032     9.019719    126.59178   -429.01555   -50.403536    70617.902 
    5520     289.4729    9.9907446    118.56909   -429.78083    232.16091    70617.902 
    5525    291.46727    11.882043    123.71446   -428.25612   -175.42199    70617.902 
    5530    302.07463    12.263232    114.22159   -427.27727    325.16437    70617.902 
    5535    278.02888    12.140317    129.23978   -425.09823    6.8688167    70617.902 
    5540    301.69431    15.272456    116.74134   -422.96574    197.16999    70617.902 
    5545    301.99668     14.38747     122.2148   -419.96123   -425.17322    70617.902 
    5550    319.78123     12.06795    116.09592   -418.22696     747.3648    70617.902 
    5555    322.13331    11.511817    113.06855   -418.28723   -145.72652    70617.902 
    5560    303.98704    10.681836    128.85524   -419.47328   -216.73682    70617.902 
    5565    301.23202    12.313203    112.87474   -421.53535   -669.85178    70617.902 
    5570    299.92912    15.150958    110.04895   -423.45093    36.550949    70617.902 
    5575    301.82997    16.006619    123.84262   -423.89573    494.66917    70617.902 
    5580    299.67326    11.471969     131.3205   -423.84426   -852.47057    70617.902 
    5585    308.55599    10.565971     113.6055   -427.35552   -17.363311    70617.902 
    5590    303.42684    10.314891    117.22733   -429.72506    690.78815    70617.902 
    5595    306.78141    10.470409    119.10535   -432.39402   -130.84833    70617.902 
    5600    313.95115    15.367116    113.66398   -435.33042    398.81565    70617.902 
    5605    299.66309    15.748219    131.28225   -437.18227    440.64659    70617.902 
    5610    297.77792    11.347663    117.43594   -441.07571   -721.81363    70617.902 
    5615    296.50767    12.291346    111.43133   -445.39668   -358.40025    70617.902 
    5620    290.70398    12.348126    133.76554   -446.68632    680.35652    70617.902 
    5625    309.67675    13.903818    113.04112   -450.26025   -392.84769    69591.757 
    5630    289.97764    14.009056    123.49523   -455.41783   -403.29084    69591.757 
    5635    284.25672    14.630404    118.01389   -459.13737  -0.67200378    69591.757 
    5640    289.93598    16.781551    122.50365    -462.6174    134.56577    69591.757 
    5645    276.10013    14.735251    122.05197    -462.5084   -252.46842    69591.757 
    5650    279.59066    11.585805    127.09316   -462.16253    391.82022    69591.757 
    5655     280.0387    11.074647    112.98561   -459.64368    101.45174    69591.757 
    5660    279.83188    17.353519    108.83233   -455.97122    232.45376    69591.757 
    5665    274.86325     15.44255    133.26993   -448.36354   -273.66374    69591.757 
    5670    288.20825    14.365862    125.77979   -436.51497    7.4920568    69591.757 
    5675    295.86019    12.199958    118.03985   -425.98726    203.76081    69591.757 
    5680    307.14969    11.008808    133.61508   -414.94456   -240.85825    69591.757 
    5685    331.59845    13.746353      110.933   -406.11048   -404.70584    69591.757 
    5690     313.9454    12.912558    134.34146   -398.80095   -289.51567    69591.757 
    5695    305.51036    14.083996    137.64749   -396.26309   -218.90098    69591.757 
    5700    307.94569    14.703803    128.56484   -396.06536    686.03827    69591.757 
    5705     302.8731    13.928643    125.58251   -397.56477   -528.17146    69591.757 
    5710    300.57608    11.470697    123.47259   -400.37773    276.95475    69591.757 
    5715    323.64808    12.928205    120.96608   -403.91928    296.62142    69591.757 
    5720    322.29519    10.621975     120.7481   -411.28465   -32.032105    69591.757 
    5725    307.47667    10.037419    118.59831   -419.69494   -240.44563    69591.757 
    5730    301.80929    10.416238    128.44491   -430.04725   0.63882735    69591.757 
    5735     293.1516    10.742668    115.15645   -441.38098    928.33805    69591.757 
    5740    290.35757    8.7952118    117.75714    -448.9243    471.57657    69591.757 
    5745    285.71365     10.85206    121.45873   -453.88612   -591.68354    69591.757 
    5750    281.85569    11.925387    118.46548   -460.24384    98.133938    69591.757 
    5755     277.7895    10.553984    124.05261   -465.41234   -365.08927    69591.757 
    5760    281.97838    10.903335    114.07828   -467.74607   -474.91865    69591.757 
    5765    293.60822    11.379306    117.44045   -468.11561    -132.1563    69591.757 
    5770    285.83849    11.939314    119.13867   -467.27912    336.75999    69591.757 
    5775    282.56442    11.966336    113.68109   -464.61426     24.82661    69591.757 
    5780    292.22703    16.504941    110.18134   -460.61406   -237.31674    64783.029 
    5785    306.45932    16.592799    107.84193   -453.61332    924.50207    64783.029 
    5790    292.49265    17.933435      129.574    -445.0615    750.61667    64783.029 
    5795    280.17916    19.080916    128.83852   -437.20667   -227.77998    64783.029 
    5800    303.55387    13.012903    108.49856   -430.25518   -415.56341    64783.029 
    5805    308.54769     10.41835    131.40799   -418.89528   -654.37603    64783.029 
    5810    311.56366    8.8525919    139.30573   -409.12947   -448.55204    64783.029 
    5815    330.36865    11.247496    119.63949   -403.82465    165.42066    64783.029 
    5820    310.48476      17.8695    138.40024   -399.86126    466.67777    64783.029 
    5825    329.15757    15.391319    116.38941   -400.20437    619.89881    64783.029 
    5830    304.75646     12.65038     132.1265   -402.34544   -595.37253    64783.029 
    5835    312.35794    13.854522    126.98594   -407.28852   -316.82546    64783.029 
    5840    300.78982    13.593446    132.99555   -414.16024    -639.4647    64783.029 
    5845    306.87798    12.237422    116.36678   -421.97123   -126.97147    64783.029 
    5850    298.45022    12.456223    120.87527   -427.57056   -591.97088    64783.029 
    5855    278.73465    14.611198    120.07963   -433.36639    708.13441    64783.029 
    5860    291.53034    15.822043    115.65221    -436.0946    388.19655    64783.029 
    5865    281.08622    12.902228    133.73643    -435.2866    616.33983    64783.029 
    5870     294.0365    10.303352     120.5262   -434.74105   -148.45416    64783.029 
    5875    316.65954    12.117618    120.04786   -433.27012   -180.55987    64783.029 
    5880    313.37386     10.96161    125.54448   -432.22544    46.052286    64783.029 
    5885    306.17074    12.059337    128.76496   -434.17083   -818.25635    64783.029 
    5890    310.92931    11.860898    125.94314   -436.70414    382.17867    64783.029 
    5895    308.30259    13.223069    127.32719   -440.17427    77.788179    64783.029 
    5900    297.89966    11.462805    131.94964   -446.06284    289.05372    64783.029 
    5905    290.00025    10.666533    115.48804   -452.49179   -595.10917    64783.029 
    5910    274.97474    12.051024    127.92265   -455.78744    453.66535    64783.029 
    5915    268.71262    12.943297    136.56495   -456.40525    206.37642    64783.029 
    5920    297.40997    11.718086    116.48789   -455.04603    678.11775    64783.029 
    5925    283.55542    15.234304    130.96719   -449.75673   -212.94185    64783.029 
    5930     285.7419    15.232896    144.28729   -444.96712    631.52873    64783.029 
    5935    305.96552     13.70457    116.14254   -440.10193    285.52772    64783.029 
    5940    298.78695    14.023792    128.50247   -433.26575    107.31345    61519.471 
    5945    300.82931    14.170666    125.12134   -429.76598   -216.96579    61519.471 
    5950      316.548    13.074353    109.50329   -427.51833    642.50548    61519.471 
    5955    296.35713    12.860753    129.63843   -421.54104   -195.17347    61519.471 
    5960    300.51266     13.25999     122.5647   -415.19552    399.92444    61519.471 
    5965    310.60231    11.082148    128.95429   -407.95664    203.84934    61519.471 
    5970    322.49754    9.0573725    129.66005   -403.27966   -658.41291    61519.471 
    5975    324.37137    12.225552    115.45497   -403.23963    -636.0975    61519.471 
    5980    307.71782    14.238123    126.41916   -402.28928     364.1776    61519.471 
    5985    323.12148    15.099325    123.00264   -404.41803    244.16485    61519.471 
    5990     315.8821    12.829351    140.44289    -408.8685   -449.86016    61519.471 
    5995    317.36733    12.985863    122.56831   -417.00895    142.09273    61519.471 
6000        0.49798362680698782246 15.81493227191238482 0.5312944523470839453 154 -785.42780185968138085
    6000    310.46248    16.650146    133.15218   -428.21194    239.04375    61519.471 
    6005    310.64352    18.759458    125.99226   -441.21843   -292.54377    61519.471 
    6010    300.95609     15.90985    117.31805   -455.06367   -262.29664    61519.471 
    6015     268.3301    19.500157      127.391     -466.099   -339.93695    61519.471 
    6020    281.49988    17.999344    105.32616   -474.98551    5.8383632    61519.471 
    6025    288.42427    12.992102    120.03789   -481.27674      1058.44    61519.471 
    6030    270.27706    10.570515    129.99802    -484.5208    991.09534    61519.471 
    6035    286.38533    10.894455     112.8591   -485.80887    716.21645    61519.471 
    6040    276.31007    12.905791    124.11128   -483.18267   -595.97546    61519.471 
    6045    293.73956    11.997948    123.82967   -479.03601   -366.74096    61519.471 
    6050    293.40696    10.223524    113.71874   -474.55744   -168.54317    61519.471 
    6055    290.18064    12.332448    124.63906   -468.09634   -453.99508    61519.471 
    6060    272.49461     14.42874    137.29113   -459.46094   -320.56828    61519.471 
    6065    283.24182    17.811357     129.6994   -448.84418    686.67437    61519.471 
    6070       289.77    16.228534     126.5678   -435.56772    993.43034    61519.471 
    6075    309.87359    12.650987    122.43292   -421.57119   -439.12158    61519.471 
    6080    312.01431    7.7548658    128.16328   -407.42593    -154.5775    61519.471 
    6085    322.60575    9.1427946    135.55625   -393.80323   -256.07849    61519.471 
    6090    334.56146    9.4372074    128.95489   -386.46391   -774.49708    61519.471 
    6095    329.88594    11.251871    143.55656   -380.47875    89.340354    61519.471 
    6100    325.15077    13.963897    123.90387   -380.11703    16.329485    61519.471 
    6105    316.55151    14.298966    135.97679   -385.09981   -66.180032    61519.471 
    6110    321.72526    11.620262     133.4474   -392.61547    85.502507    62554.744 
    6115    305.28542    12.455484    124.24464   -404.84964      460.056    62554.744 
    6120    285.39931    15.474014     133.8502    -411.5148    98.752334    62554.744 
    6125    291.69214    13.910979    131.37391   -420.91555    881.45435    62554.744 
    6130    300.56041    16.016552    115.78144   -430.86507   -326.12265    62554.744 
    6135    270.95079    13.704853    154.83947   -437.16355   -168.58656    62554.744 
    6140    293.72826    11.620593    114.02121   -443.28192   -276.61855    62554.744 
    6145    287.10859    12.899345    138.92638   -446.99764    371.31546    62554.744 
    6150    293.24869    16.801801    115.58673   -452.87256    -653.7977    62554.744 
    6155    295.14121    17.593949    117.84998   -454.61673   -88.870848    62554.744 
    6160    280.26259    15.010852      126.777   -453.89677    450.71493    62554.744 
    6165    279.39845    12.212517    128.23981   -454.29986    245.73961    62554.744 
    6170    289.98692    10.067342    117.84401   -449.43311   -55.574238    62554.744 
    6175    276.63233    11.031063    130.55767   -444.78022   -209.61975    62554.744 
    6180    304.55838    14.335577    113.12888    -440.8171   -554.65571    62554.744 
    6185    292.34038    16.519102    143.55783   -427.78088   -120.38197    62554.744 
    6190    313.11929    10.865784    130.14127   -420.02845    462.41234    62554.744 
    6195    304.56239    6.4171245    135.04263   -412.42344     247.0372    62554.744 
    6200    293.56404    10.920333    133.12845   -405.55536    548.31475    62554.744 
    6205     302.6963    17.242298    130.45004   -399.20591   -284.89581    62554.744 
    6210    305.39297    20.522459    137.85188   -392.49782    172.67501    62554.744 
    6215     317.8811      18.8404    130.47833   -389.25636   -352.75889    62554.744 
    6220    321.16091    15.820371     138.3479   -387.69539    358.65843    62554.744 
    6225    323.23026    11.898242      130.041   -387.91834    263.04961    62554.744 
    6230    308.06014     7.550695    141.51283   -391.45385    485.62723    62554.744 
    6235    302.24051    8.9280798    137.30088   -396.70627   -685.22337    62554.744 
    6240    300.41796    14.364716    129.70835   -403.06896   -287.44631    62554.744 
    6245    291.68106    18.510137    124.37886   -409.65989   -236.26956    62554.744 
    6250    298.35106    12.567727    130.37626   -414.23094    101.16083    62554.744 
    6255     310.6082    13.256855    123.19566   -420.19605   -347.78729    62554.744 
    6260    300.72966    14.187301     114.5358   -424.94819    592.18011    62554.744 
    6265    289.51902    16.647639     132.4086   -428.36776   -163.82133    62554.744 
    6270      300.069    17.056037    116.91484     -432.858   -722.26567    62554.744 
    6275    289.45004    14.875795    126.54297   -435.13472   -29.584828    62554.744 
    6280     297.1186     11.82399     112.9954    -436.5199    943.46529    62554.744 
    6285    283.27201    7.3677726    134.39453   -434.35871    504.69775    62554.744 
    6290    297.84216    5.2074836    118.12652   -431.72812   -227.11108    64586.592 
    6295    309.65843    9.5101801    120.60178   -427.81861   -171.08007    64586.592 
    6300    295.36215    12.030045    127.83775   -422.44224   -277.76555    64586.592 
    6305    289.08083    11.084079    131.78781   -416.58116    10.390492    64586.592 
    6310    301.29187    11.016577    126.25965   -409.87222    267.29788    64586.592 
    6315    306.78263    9.7739757    133.97984   -401.08019     564.0434    64586.592 
    6320    316.79407    8.5099922    128.93024   -396.21657    96.270914    64586.592 
    6325    302.08457    7.4087694    139.18757   -390.12746    -525.0837    64586.592 
    6330    314.85527    8.8645921     133.8734   -385.99631   -664.24702    64586.592 
    6335    306.99904    11.749408    144.95409   -383.13498   -21.685663    64586.592 
    6340     313.8461    13.973998    136.53408   -381.32906    -211.7618    64586.592 
    6345    315.88395    14.422315    125.01918    -385.8305    65.623134    64586.592 
    6350     328.9014    13.705248    120.30642   -390.13433    264.42302    64586.592 
    6355    312.38064    10.888877    136.65892   -395.03304    256.98955    64586.592 
    6360    314.64393    9.6599134    115.59979   -405.57236    -166.7864    64586.592 
    6365    293.21127     10.59309    120.45276   -414.85494   -544.42342    64586.592 
    6370    280.09493    10.753672    131.07779    -420.5223   -132.33758    64586.592 
    6375    291.10571    12.962819    127.22831   -425.13112   -248.62635    64586.592 
    6380    275.04341    16.687817    129.05247   -427.94893    -842.0491    64586.592 
    6385    274.47625    20.167634    123.95749   -428.14601    754.85115    64586.592 
    6390    283.67656    18.121222    129.53513   -424.21969     1888.528    64586.592 
    6395    291.80488    18.964846    125.78624   -419.74064   -37.895529    64586.592 
    6400    280.58746    18.127488     127.7348   -412.10607   -315.39025    64586.592 
    6405    269.02879    16.274218    133.48932   -402.93597   -221.78944    64586.592 
    6410    290.97369    18.211153    133.65569   -391.32661   -261.13171    64586.592 
    6415    297.66677    18.986826    132.34837   -376.94884   -367.40556    64586.592 
    6420    313.88643    20.968164    133.07634   -360.84465    286.32463    64586.592 
    6425    325.14947    16.993441    146.62476    -343.6886    264.22428    64586.592 
    6430    334.85286    13.747272    137.08459   -332.45331   -338.14894    64586.592 
    6435     332.9356    11.980367    139.78627     -324.998    184.70344    64586.592 
    6440    343.45846    11.587294    139.65712   -322.22905   -440.35207    64586.592 
    6445    327.11045    12.355879    150.19155   -323.91291    77.849235    64586.592 
    6450    341.19236     6.976288    135.40603   -333.22861   -320.21156    64586.592 
    6455    320.52028    9.9846962    150.67081   -347.85172    21.780462    64586.592 
    6460    297.34023    12.406542    149.33237   -364.72503   -333.04351    64586.592 
    6465    305.99921    11.870223     130.9845   -384.27275    547.78968    64586.592 
    6470    290.02901    10.246772    131.69219   -402.03735   -421.76721    64586.592 
    6475    290.06868    10.353015    128.29706   -417.96202    284.35228    64586.592 
    6480    285.90812    11.767398    130.34904   -433.28031   -342.64638    64586.592 
    6485    296.83713    7.0410403    110.42743   -448.79356    319.57601    64586.592 
    6490    280.77531    5.2992341    114.92549   -463.92508    30.737084    64586.592 
    6495    264.65638    5.7761559    114.03723   -471.35037     20.49156     63770.58 
6500        0.46953772825846673555 15.70132519602199217 0.48221906116642959672 132 -779.81462745295561945
    6500    264.95028    9.9533158    115.67009   -474.96477    322.09147     63770.58 
    6505    274.31359    11.521566    121.47573   -476.16677   -225.50919     63770.58 
    6510     275.0316     15.60539    114.39432   -473.22029   -1227.7694     63770.58 
    6515    272.85903    18.227173    123.88046   -466.30456    319.50188     63770.58 
    6520    275.45481    17.482364    119.97782   -456.20236    256.30474     63770.58 
    6525     280.8499    13.804213    117.61405    -443.7803    199.94817     63770.58 
    6530    283.42469    15.372512     138.8208   -426.62626    735.95128     63770.58 
    6535    297.80917     14.11452    130.27277   -409.07907    715.00567     63770.58 
    6540    319.97348     11.29245    125.16029   -391.04342   -1185.0383     63770.58 
    6545    339.57399    10.172168    122.45213   -375.73026   -768.21397     63770.58 
    6550     320.1629    12.088438    134.34686   -363.39679    106.73559     63770.58 
    6555     321.6225    11.539371    145.20413   -353.27206   -21.133129     63770.58 
    6560    348.18077    13.305069    133.04568   -348.93452    673.93918     63770.58 
    6565    321.56276    16.849267    137.96259   -349.24808    223.39536     63770.58 
    6570    309.76772    12.509487    142.44902   -353.15616     234.9266     63770.58 
    6575    308.05682    8.6217336    149.65387    -361.0879    187.29121     63770.58 
    6580    320.97227    8.6826649    125.67361   -371.19006   -662.56686     63770.58 
    6585    297.91309     8.428523     144.5757   -382.95802    16.029708     63770.58 
    6590    305.38029    9.7800158    119.40177   -395.83896    365.12535     63770.58 
    6595     286.6632     10.99534    127.79481    -406.3091   -403.42135     63770.58 
    6600    295.91531    7.4417931    119.10472   -417.01193    124.12883     63770.58 
    6605    296.50157    6.4356994    122.43732   -426.74195    434.80367     63770.58 
    6610     287.8873    8.5889229    115.37064   -433.69384    66.917323     63770.58 
    6615    261.33191    14.495385    125.71581   -438.14245   -338.01974     63770.58 
    6620    268.48539    17.300591    122.29487   -437.99813    35.260349     63770.58 
    6625    276.87517    16.178396    128.50683   -433.51641   -1007.2191     63770.58 
    6630    285.20696    13.493296    130.33621   -426.53646   -126.57798     63770.58 
    6635    289.08918    10.894028    115.67897   -419.05175   -17.858511     63770.58 
    6640    288.51969    8.7041865    137.39955   -407.78429    626.75451     63770.58 
    6645    311.42855    5.7896121     120.9228   -395.76995    40.515365     63770.58 
    6650    315.06313    6.5401777    129.40607   -384.23837   -427.44667     63170.46 
    6655    317.12009    7.8680154    130.64691   -373.65548   -463.12013     63170.46 
    6660    332.89465    8.5382797    125.75551    -368.5276    196.50381     63170.46 
    6665    317.70257     11.34924    133.08105   -364.00024    574.24831     63170.46 
    6670    309.84614    11.378859    134.44421   -361.34522    185.34704     63170.46 
    6675    313.61522    11.694921     142.1013   -363.35416    91.060789     63170.46 
    6680    314.91306    9.2409752    131.62506   -366.11208   -59.050762     63170.46 
    6685    300.73996    6.9030413    131.16589   -371.25675   -1169.2226     63170.46 
    6690    309.90187    7.4912523    136.65476   -374.81109   -334.31158     63170.46 
    6695    309.62405    8.8176825    120.11684   -379.48026   -60.370058     63170.46 
    6700    308.40366    10.821072    133.64181   -385.24778    167.82729     63170.46 
    6705    315.92835    11.885803    130.28164   -391.14957   -328.55995     63170.46 
    6710    305.29764    12.963085    113.31697   -399.54951    97.645741     63170.46 
    6715    278.58835     13.78402    137.06282   -404.93969    883.82704     63170.46 
    6720    291.38047    13.564829    125.14002   -410.15457    10.261702     63170.46 
    6725    275.55107    15.282259    139.56174   -412.77881   -804.62686     63170.46 
    6730    288.23342    11.715913    134.96434   -413.32926    638.63652     63170.46 
    6735    296.42217    8.9588238    125.93052   -414.12022    462.81384     63170.46 
    6740    298.99067    7.8491838    134.40489   -410.73492   -1349.0934     63170.46 
    6745     302.9078    6.8844156    127.36144   -409.27005   -943.35799     63170.46 
    6750    294.52989    8.3611011    134.14685   -408.73657     699.0713     63170.46 
    6755    293.84653    10.636744     127.4227    -406.7038    69.717901     63170.46 
    6760    305.11998    9.2674591    136.27971   -406.16238   -28.423684     63170.46 
    6765    316.76685    13.046155    132.32221   -405.49914    426.56658     63170.46 
    6770    298.16591    22.203075    128.81342   -406.48052    744.64046     63170.46 
    6775    284.45819    17.907005    128.40942    -407.8263   -755.67638     63170.46 
    6780    295.88207    14.096009    135.65109   -407.51101   -1361.5447     63170.46 
    6785    312.49144    13.083541    116.68233   -408.31163    595.09024     63170.46 
    6790    303.94325    17.250004    125.79428   -407.10097    716.11737     63170.46 
    6795    289.52214    11.205585    140.74262   -407.20606   -254.03477     63170.46 
    6800    316.21153    12.075564    117.16414   -407.96611    1324.6447     63170.46 
    6805    296.22043    9.5026225    141.49081   -407.67793    790.32589     63170.46 
    6810    314.45518    10.011184    120.84336   -410.24563   -143.99329     63170.46 
    6815    297.27965    16.467017    133.68665   -411.77906   -795.97868     63170.46 
    6820    308.07878    24.467847    110.54295   -412.81527   -708.14856     63170.46 
    6825    303.33235    19.609939     131.9398     -414.449    586.38739     63170.46 
    6830    311.36718    14.035599    127.87139   -416.11964    49.657987     63170.46 
    6835    301.18542    11.689326    135.79317   -418.47809    692.04634    61106.793 
    6840    297.92518    7.9329182    133.17573   -423.53093    -188.5433    61106.793 
    6845    298.95933     8.699303    124.10696   -427.33922    157.36996    61106.793 
    6850    292.31703    13.630587    129.16928    -429.4888   -804.86176    61106.793 
    6855    296.59248    15.021642    128.78305   -433.32342   -122.27444    61106.793 
    6860    294.04758    12.562041    125.48408   -436.32935   -305.76281    61106.793 
    6865    280.67765    12.317873    143.21181   -438.33609    754.44161    61106.793 
    6870      291.975    11.472483     120.2034   -439.58581   -112.07182    61106.793 
    6875    283.31064    12.040194    130.99974   -438.40419   -228.08787    61106.793 
    6880    289.31031    14.485113     129.3193   -434.69308    816.46156    61106.793 
    6885     301.5528    13.973715    123.37628   -429.69699    300.27492    61106.793 
    6890    297.71551    11.803872    125.31541   -424.07293   -1344.5337    61106.793 
    6895    302.37202    10.926472    130.98218   -416.70911    707.56163    61106.793 
    6900    294.76397    10.920816    146.13434   -410.23127    298.67884    61106.793 
    6905    304.21048    12.176689    130.76124   -404.45005   -864.77781    61106.793 
    6910    336.61115    16.392407    118.30472   -400.18938   -795.53922    61106.793 
    6915     320.6248    19.317737    129.80224   -398.56784    1436.5869    61106.793 
    6920    305.22366    16.585986    125.89333   -398.73058    57.014099    61106.793 
    6925    309.55632    12.767835    133.45177   -399.06612    388.12417    61106.793 
    6930    320.41264    12.044219    126.54038   -400.48481    430.08984    61106.793 
    6935    296.48918    9.9345468    137.70139   -404.60521    539.50331    61106.793 
    6940    323.10114    8.1506492    117.04346   -410.85994   -584.97059    61106.793 
    6945    282.14552    12.622774    136.63496   -415.20304   -977.01411    61106.793 
    6950    291.90424    10.705994    136.21406   -419.49566    204.93271    61106.793 
    6955    284.91168    8.1677613    144.17488   -422.42287   -639.84036    61106.793 
    6960    280.20906    10.284392     130.6385   -423.11996   -428.22235    61106.793 
    6965      300.105    12.246532    122.61427   -421.88411     203.3004    61106.793 
    6970    297.40891     13.76966    137.25585   -419.04955    348.21202    61106.793 
    6975    318.68735    13.169468     122.4626   -417.24025    349.40485    61106.793 
    6980    309.32472    16.142645    132.88133   -416.29192    810.52079    61106.793 
    6985    305.45752    14.528106    136.28361   -416.67745   -121.99932    61106.793 
    6990    299.69245    13.835413    133.67273   -417.25983   -90.811046    61106.793 
    6995    306.97516    13.954339    125.66873   -417.57653   -504.30953    61106.793 
7000        0.47237048055423402904 15.524075519102654042 0.4935988620199146526 142 -772.48994766231032827
    7000     306.3944    7.3846366    138.50559   -419.95479    202.14472    61106.793 
    7005    305.71162    8.6495972    124.14466   -423.37544    303.62651    61106.793 
    7010    286.78429     9.670232    128.20548   -427.70517   -627.08057    61106.793 
    7015    290.87734    10.261603    115.83607   -430.83057   -379.36225    63515.812 
    7020    299.24765     11.96389    124.14228     -431.723    276.29021    63515.812 
    7025    282.60502    15.449982     136.8119   -431.03661    -277.4199    63515.812 
    7030    286.45999    16.329306    130.02967   -430.38526    163.93958    63515.812 
    7035    287.15722    17.654791    124.11642   -428.56622    683.17845    63515.812 
    7040    287.49653    23.126274    125.73159   -422.79171    178.36322    63515.812 
    7045    294.97407    21.628709    125.78941   -418.05222    487.37999    63515.812 
    7050    297.59645    16.132742    129.24934   -412.93871    245.30671    63515.812 
    7055     298.7098    13.268421    128.74137   -407.49187    224.02405    63515.812 
    7060    305.95346    13.743094    131.99423   -401.59284   -590.14255    63515.812 
    7065    313.82792    13.475128    124.04679   -396.37338   -260.47622    63515.812 
    7070    307.51352    16.956292    124.16636   -393.46264     337.2685    63515.812 
    7075    307.24159      23.8071    129.14995   -390.48127   -215.98183    63515.812 
    7080    314.04687    22.337112     135.9277   -390.01283    309.79769    63515.812 
    7085    323.82387    18.589471    133.93563   -392.81559   -111.85526    63515.812 
    7090    329.12519    13.800089    115.73398   -398.88554    418.53612    63515.812 
    7095    312.92299    11.432775    132.47221   -407.07685    439.88782    63515.812 
    7100     308.7366    11.287579    121.25364   -417.42314    262.84823    63515.812 
    7105     291.8976    10.095508    130.20521   -427.53292    386.55129    63515.812 
    7110    299.69855    9.9195599    121.49466   -436.74783    11.181988    63515.812 
    7115    274.09285    8.6292985    147.08849   -446.97154   -515.84279    63515.812 
    7120    282.70715    14.075932     112.9298   -455.65276    869.11175    63515.812 
    7125    275.58227    11.512366    111.35995     -459.562    112.66099    63515.812 
    7130    288.47919    9.6549315    120.92757   -460.13525    -872.2877    63515.812 
    7135    285.49931    9.1117591     123.3044   -458.40903    -158.4754    63515.812 
    7140    283.47947    8.1370856    122.73934   -455.15244    382.47492    63515.812 
    7145    287.16032     9.351219    123.68648   -450.83296   -34.826721    63515.812 
    7150    294.05337    9.4194151    131.10991   -445.21103    121.08891    63515.812 
    7155    306.02146    8.1763462     115.3973    -438.8467   -460.92645    63515.812 
    7160    292.78054    8.6254507    131.24768   -431.82695   -397.66033    63515.812 
    7165    303.10919    7.5920813    122.55939   -425.32726    125.07094    63515.812 
    7170    305.74407    8.3103736    133.20635   -418.29276   -205.73768    63515.812 
    7175    308.18099    14.761106    123.29745   -413.48015    453.54835    63515.812 
    7180    305.47987    14.159214    139.67701   -409.91145   -430.18736    63515.812 
    7185    313.15165    11.251187    123.99528   -406.62503   -325.18958    68225.515 
    7190    305.31655    11.316621    138.38309   -404.39919    749.88669    68225.515 
    7195    308.09953    10.959146    142.00622   -403.68261     145.2823    68225.515 
    7200    305.29559    13.358815    141.77326   -404.11405   -176.32344    68225.515 
    7205    313.76091    10.759912    126.02171   -407.24676   -119.60173    68225.515 
    7210    312.35118    9.0452807    133.82958   -412.11109    161.67126    68225.515 
    7215    304.73003    10.966824    130.00166   -416.42416   -602.38729    68225.515 
    7220    294.06277    12.951469    141.88983   -422.36538    691.71203    68225.515 
    7225    303.94089     11.51199    121.67174   -429.41477    487.09563    68225.515 
    7230     298.4598    16.523362    130.62235   -434.09989    62.916265    68225.515 
    7235    305.01806    16.158068    120.65823   -438.65869   -536.11105    68225.515 
    7240    295.45456    14.309837    130.33357   -444.67028    -154.7838    68225.515 
    7245    302.85658    10.170034    116.43373   -451.17603   -28.804605    68225.515 
    7250     298.6858    13.044274    107.47378   -455.22331    62.556099    68225.515 
    7255    266.02751    14.869679    132.74012   -454.76166     231.1325    68225.515 
    7260    275.21887    14.225634    124.78641   -453.36844    649.92483    68225.515 
    7265    284.96108    12.117656    125.92377   -448.81463   -633.26871    68225.515 
    7270    297.51088    9.3382909    130.49746   -441.59844    411.97649    68225.515 
    7275    292.90708     8.461142    138.17248   -433.60214   -576.07757    68225.515 
    7280    295.30056    9.1668082    138.72684   -424.40458   -360.61146    68225.515 
    7285    309.04351    10.923696    119.64412   -416.84964   -51.895952    68225.515 
    7290    295.95544    9.9959527     141.7813   -406.98318    233.97301    68225.515 
    7295    299.86669    10.072497    142.29842   -396.79208   -210.79554    68225.515 
    7300    304.13432    11.941474    153.87981   -388.39535    -561.2908    68225.515 
    7305     325.2648    10.900926    136.00684   -382.03688   -469.77572    68225.515 
    7310    326.15892    12.000331    134.34441   -378.10545    217.15285    68225.515 
    7315    313.02324     13.36071    146.86402    -375.4002   -171.49425    68225.515 
    7320    308.03439     11.28867    140.15238   -378.06957    575.45524    68225.515 
    7325    328.16777    10.295382    133.11256   -383.73613   -349.92344    68225.515 
    7330     333.8328    8.5483774    131.21026   -391.36307   -377.97761    68225.515 
    7335     301.3077    8.5036675    138.66124   -401.96554   -366.50389    68225.515 
    7340     302.4523     9.530924    132.57052   -414.55134    385.94307    68225.515 
    7345    284.73625    11.496907    141.10757   -424.55017    121.84438    68911.499 
    7350    295.60787    13.973074    123.50881   -434.71387   -26.297187    68911.499 
    7355    284.76498    15.894349    122.85546   -442.31048    304.77341    68911.499 
    7360    271.09671     17.03148    141.62621   -446.37624    263.28742    68911.499 
    7365    284.41486    16.118064    120.60471   -448.75618   -128.81391    68911.499 
    7370    281.88855    13.628499    131.38445    -447.0892    210.09913    68911.499 
    7375    285.19162    13.249332    121.03009   -443.27845    152.69061    68911.499 
    7380    276.18008    13.470869    135.38138   -435.74503   -225.43659    68911.499 
    7385    295.60016    12.387183    126.04746   -428.36903   -318.00704    68911.499 
    7390    307.78298    11.942261    121.58309   -418.37274   -6.5668755    68911.499 
    7395    294.29159    12.034734    138.50565   -407.66309    22.818267    68911.499 
    7400    310.73637    10.749282    131.71146   -396.92117    12.740802    68911.499 
    7405    310.62912    11.416305    139.21244   -384.62556     320.5278    68911.499 
    7410    323.67505    10.609931    141.75344   -377.24444   -132.12228    68911.499 
    7415     334.5294    14.078143    132.95541   -371.96481   -213.69317    68911.499 
    7420    312.86668    14.136338    149.35795   -371.45467    -142.1284    68911.499 
    7425    322.25856    10.833471    132.36151   -375.73176   -26.616118    68911.499 
    7430    277.10024    7.8976298    164.38968   -379.33193   -225.66793    68911.499 
    7435    313.33105    5.3786261    122.50578   -387.60902    21.139565    68911.499 
    7440    313.91897    7.8028093    143.98316   -391.63537    -64.28499    68911.499 
    7445    296.08149    12.879836    145.06241   -398.38066    145.28378    68911.499 
    7450    292.38851    15.501125    138.19064   -408.76376   -987.86611    68911.499 
    7455    321.72114    15.760394    120.82009   -417.51445   -522.81746    68911.499 
    7460    298.17619     15.31904    137.03839   -427.32283    97.035868    68911.499 
    7465    282.58004    12.436082    137.18356   -437.32767    593.67189    68911.499 
    7470    290.05296    11.356711    124.83048   -446.68682     891.9616    68911.499 
    7475    275.51431    13.583562    125.59267   -454.55727    176.48241    68911.499 
    7480    283.77819    12.972072    124.54112   -456.89183   -433.26811    68911.499 
    7485    277.08734    12.104344    130.33301   -458.57051   -522.35529    68911.499 
    7490    282.97784    8.5683719    115.75881    -458.7694   -380.07797    68911.499 
    7495    278.84608    9.4204951    123.96219   -454.87686   -98.082817    68911.499 
7500        0.48670851014196225837 15.367758089192184556 0.5128022759601706948 155 -767.52273884470059784
    7500     277.2027    10.639375    136.02744   -448.57535    416.94934    68911.499 
    7505    283.64156    16.406507    129.42181   -438.52666    483.08606    68911.499 
    7510    293.70935    14.731796    140.49966   -428.16741    301.94628    68911.499 
    7515    300.07568    11.719605      127.976   -416.30351   -530.09092    68911.499 
    7520    299.97369    9.7171041    138.60682   -403.09924    -103.5063    68911.499 
    7525    302.19331    9.8380576    146.36433   -390.63733    -196.9269    68911.499 
    7530    307.50553    8.0489303    130.48022   -380.98758    34.817578    68911.499 
    7535    297.36049    9.9816703    147.77086   -369.58258   -320.30758    68911.499 
    7540    301.31998       16.746    147.47152   -358.05494   -120.78837    68911.499 
    7545    327.27903    13.328151    134.62591   -349.89458    732.12602    68911.499 
    7550    324.61091    11.290663    154.54096   -341.63512   -161.92025    68911.499 
    7555    337.09025    13.230077    153.34276   -338.66321    1295.4625    68911.499 
    7560    324.34692    15.546375    152.64108   -341.74419    170.06071    68911.499 
    7565    313.88491    15.720564    144.65375   -347.84827   -1047.8062    68911.499 
    7570    325.38787     14.46153    129.49827   -357.70118   -926.41097    68911.499 
    7575    325.46259    16.022729    146.42912   -367.54357    593.87171    68911.499 
    7580    291.88397    17.553291    156.75668   -381.73129    489.18368    64863.007 
    7585    301.07525    14.500581    142.16113   -398.58793    103.29266    64863.007 
    7590    294.43563    14.056939    145.37185    -414.7394    1107.6135    64863.007 
    7595    278.21825    15.833735    135.56308   -430.81338    104.97126    64863.007 
    7600     277.8385    16.687312    129.55855   -442.23788   -437.20286    64863.007 
    7605    276.11634     12.44649    128.11672    -450.9469   -35.684808    64863.007 
    7610     287.1327    10.933127    110.54106   -456.86942    368.37056    64863.007 
    7615    272.74578    8.3233123    137.52878   -458.02999    226.35668    64863.007 
    7620    282.25238    8.4392231    117.53935   -456.98933   -1107.2771    64863.007 
    7625    266.09768    13.935664    135.61746   -454.00955   -263.28013    64863.007 
    7630    289.20935    14.469841    128.43193   -446.98311   -199.32038    64863.007 
    7635     296.2994    10.474734    128.50405   -436.87123    120.05848    64863.007 
    7640    300.02894    7.0528867    126.71412   -426.19102   -512.19525    64863.007 
    7645    291.97636    5.7859301    145.22778   -412.89629    561.42051    64863.007 
    7650    307.20307     7.200717    148.21882   -400.21065   -366.58326    64863.007 
    7655    319.93573    9.9427855    131.28774   -390.96681    482.76894    64863.007 
    7660    299.00408     13.79264    138.27205   -383.47744    501.70964    64863.007 
    7665     316.8434    13.513913    147.55563   -374.25066   -213.82399    64863.007 
    7670    311.50153    13.540169    140.03041   -366.90927   -1307.7368    64863.007 
    7675    312.01967    13.036833     151.9226   -360.74248   -531.14174    64863.007 
    7680    330.84335      12.9834    144.90089   -357.32233    312.06381    64863.007 
    7685    326.50148    12.195547    151.95988   -358.38319    844.49081    64863.007 
    7690    316.25894    11.854885    155.21682   -364.33953   -229.25468    64863.007 
    7695     302.2593     15.65732    156.38874   -371.58446    967.53067    64863.007 
    7700     306.4849      14.7196    140.82694    -382.3686    415.24277    64863.007 
    7705    305.83214    13.461655    144.96188   -393.10927   -341.74102    64863.007 
    7710    291.31269     9.564138    147.46636   -402.91108   -416.95978    64863.007 
    7715    300.36988    9.7263618    137.94918   -415.76697    696.28238    64863.007 
    7720    278.48322    8.4423979    148.36379   -425.36391    -286.5585    64863.007 
    7725    292.30689    8.4831652    130.81117    -436.1993   -999.82536    64863.007 
    7730    300.26363    10.190577    118.24556   -445.14144    543.57797    64863.007 
    7735    277.60864    13.248397    132.21208   -447.67156    1134.4519    64863.007 
    7740     265.6834    13.567753    116.34928   -450.74107   -775.28902    64863.007 
    7745    259.93288    10.306335    140.00493   -447.78319    259.10956    64863.007 
    7750    280.82389     10.04974    128.59697   -440.04063    241.78602    64863.007 
    7755    290.25615     9.987948    133.53192   -429.25848   -256.75288    64863.007 
    7760    304.00867    10.067101    131.90205   -415.03179   -949.08396    64863.007 
    7765    296.64565    13.033385    143.34833   -399.91342   -253.33979    64863.007 
    7770    316.81837    12.058862    144.27524   -386.56366    743.81653    64863.007 
    7775    330.35393    11.734813    135.23519   -374.41003    344.35458    64863.007 
    7780    332.69854    9.8002163    140.25643   -362.48275   -172.75705    64863.007 
    7785      334.129    9.6361382    140.92474   -356.42919    537.81229    64863.007 
    7790    324.09956    9.5033792    146.96252   -355.41123    731.71822    64863.007 
    7795    321.62346    9.2410372    146.03935   -356.88947   -335.16348    64863.007 
    7800    306.93914     11.65314    155.69034   -362.36657    -401.1564    64863.007 
    7805    328.33483    14.094188    132.55264   -370.79299   -106.05257    64863.007 
    7810    319.37848    12.843372     146.5748   -379.79737    306.87923    64863.007 
    7815    307.89232    10.788811    142.63908   -393.66642    789.09807    64863.007 
    7820    297.77943    8.5804371    137.52626   -406.80642   -405.05306    64863.007 
    7825    298.02731    8.6141956     140.5664   -418.30104   -731.80935    63751.498 
    7830    301.58732    11.312182     116.6737   -431.83084   -359.40964    63751.498 
    7835    267.58475    12.980864    132.95775    -439.7644   -1003.9163    63751.498 
    7840    264.15815    12.338762    146.92452   -445.18074   -133.16851    63751.498 
    7845    281.96928    6.7450433    128.97682   -449.69893    440.38954    63751.498 
    7850    274.78068    5.9170202    127.65033   -448.08095    367.05411    63751.498 
    7855     268.7224    7.1716418    132.70582   -444.32403    468.18719    63751.498 
    7860    277.95156    14.553415    128.82026   -436.18526    807.00975    63751.498 
    7865    279.51131    19.731408    147.19253   -421.67901   -338.79935    63751.498 
    7870    316.41014    15.929919    132.32071   -408.65345   -508.55356    63751.498 
    7875    330.57978    13.367028    133.11751   -394.80829   -300.14669    63751.498 
    7880    313.87196    11.676121    157.66473    -382.2712    110.72911    63751.498 
    7885    317.35655    9.4124354    140.09052    -374.4564    1155.2695    63751.498 
    7890     316.9619    9.1444133    149.20107   -369.72314    143.55758    63751.498 
    7895     324.4598    13.937952    152.48249    -367.1715   -198.53179    63751.498 
    7900    314.50354    18.968693    159.72754   -367.41629    45.286739    63751.498 
    7905    312.32314     17.64673    144.46727   -370.86066   -917.92458    63751.498 
    7910    304.86399    14.701807    145.29756   -376.23442   -636.62433    63751.498 
    7915    313.65968    10.697683    140.75021   -382.85183    579.81527    63751.498 
    7920     305.5166    10.002974    148.57405   -390.60548    591.98737    63751.498 
    7925     291.9111    7.8279785    147.37504   -400.74607   -842.16301    63751.498 
    7930    308.34137    8.4059652    135.11023   -412.16711   -131.23757    63751.498 
    7935    293.23019    12.196404    141.48477   -421.79648    1063.3501    63751.498 
    7940    280.24975    12.975173    131.81513   -429.54692   -575.55605    63751.498 
    7945    278.96735    9.1686426     140.6958   -435.03031   -863.50062    63751.498 
    7950    289.59267     9.977362    128.76404   -440.14319    487.44566    63751.498 
    7955     274.5921    10.603428    137.73193   -441.81512    610.08161    63751.498 
    7960    279.53533    10.262577    137.80303   -439.02821   -503.70918    63751.498 
    7965    290.40533    9.0389483    137.21517   -434.22593   -443.70006    63751.498 
    7970    308.09846    9.6555935    121.79796   -430.08578   -485.10402    63751.498 
    7975    300.00169      9.92303    132.90986   -424.56479    194.78188    63751.498 
    7980    289.18554    10.076491    137.69726   -419.01367    123.56179    63751.498 
    7985    298.90381    8.3926887    135.95318    -412.8591    402.65627    63751.498 
    7990    297.88052    10.018459    134.45597   -407.49221   -264.51725    63751.498 
    7995    313.09882     10.98032    129.80669   -400.11598    124.15928    63751.498 
8000        0.49797382106161608428 15.428582232393265983 0.51351351351351348651 159 -743.79193656500660836
    8000    304.76392    12.296327    142.23052    -393.1328    285.70577    63751.498 
    8005    307.00615    13.341028    139.02889   -387.66292    510.12019    63751.498 
    8010    312.70655    13.574546    138.77039   -384.49859   -427.72733    63751.498 
    8015    320.72882    13.649959    135.44022   -382.34121   -170.60978    63751.498 
    8020    319.36972    12.544288    145.31695   -381.97793    482.30398    63751.498 
    8025    317.29961    11.021436    135.34886   -386.43293   -101.84251    63751.498 
    8030    321.88845    8.4044139    134.75177   -391.82776   -685.98898    63751.498 
    8035    313.67103    9.2305089    129.53609   -401.31655   -510.00239    63751.498 
    8040    294.08088    10.737686    135.74398   -410.85886    66.149734    63751.498 
    8045    294.04969    9.2162873    128.17703   -420.71286     248.1146    63751.498 
    8050    287.32411    13.463925    134.37478   -428.96175    288.61137    64137.474 
    8055    295.87121    15.450236    130.42427   -435.05601    810.61959    64137.474 
    8060    298.49463     18.02622    135.04192   -442.99803    591.65194    64137.474 
    8065    285.31603    15.825497    123.27037   -450.21798    64.253433    64137.474 
    8070    272.83435    15.244056    125.03952   -453.86307   -126.13065    64137.474 
    8075    260.25088    13.363334    142.53258   -453.57781     222.6464    64137.474 
    8080    285.41903    11.958684    119.79393   -451.09435   -346.38583    64137.474 
    8085    280.99798    11.993863    123.58943   -444.69077   -511.03955    64137.474 
    8090    286.46573    12.754332    138.94841   -436.05063    -230.5584    64137.474 
    8095    290.17552    15.748818     137.9277   -424.77664    207.55313    64137.474 
    8100    296.93153    16.264942    136.28797   -413.57143    20.781299    64137.474 
    8105     309.7553    10.063862    134.26413   -401.85228   -314.12244    64137.474 
    8110    318.30635    10.503703    138.01769   -390.42617   -499.21838    64137.474 
    8115     311.4454     8.667559     144.9761   -381.17444    571.54067    64137.474 
    8120     321.7187      6.66055     139.4807   -372.26656     377.0526    64137.474 
    8125    318.03008       13.012    145.25942   -364.87883   -709.84828    64137.474 
    8130    322.81914    14.046715    145.04224   -363.42215    647.96219    64137.474 
    8135     315.1526    15.351808    142.48687   -364.54505    392.14707    64137.474 
    8140    319.41794    12.174441    138.57168   -368.75845    -238.4184    64137.474 
    8145    302.61102    11.896841    157.86369   -374.45318   -773.82083    64137.474 
    8150    316.12706    11.107698    139.20846   -383.09547    430.00816    64137.474 
    8155     326.2833    11.591958    135.96418   -393.41296    151.84603    64137.474 
    8160    302.47984    12.857507    136.31934   -406.06157   -173.74699    64137.474 
    8165    292.46584    11.745574    126.26225   -420.05218    190.49277    64137.474 
    8170    286.94585    8.3180921    138.58332   -431.26222    406.32011    64137.474 
    8175    293.57703    8.5102746    131.09331   -440.25142   -424.49482    64137.474 
    8180     291.4094    7.5909103    115.66433   -449.22723   -865.09485    64137.474 
    8185    280.73812    9.0465574    121.50002   -455.93186   -125.03815    64137.474 
    8190     275.9087    7.6786589    125.90766   -458.99029    932.94461    64137.474 
    8195    294.52261    6.9576721    111.83268   -460.43256   -78.248385    64137.474 
    8200    285.29793    10.325066    130.62499   -456.97414   -172.67454    64137.474 
    8205    293.63296    13.144556    120.74375   -452.51591   -459.29058    64137.474 
    8210    291.50089    12.588534     133.3117   -446.91486    281.76562    64137.474 
    8215    295.60841    11.531823    126.48001    -439.4184   -248.40854    64137.474 
    8220    280.64939    13.111758    133.84511    -431.4473   -446.15577    64137.474 
    8225    289.15417    13.702212    140.41973   -419.93564     713.5195    64137.474 
    8230     279.4562    10.469469    151.63448   -409.62157     326.9057    64137.474 
    8235    294.71524    13.739662     132.5629   -399.17385   -250.04264    63023.103 
    8240    310.93546    14.279915    142.89285   -386.36282   -641.73275    63023.103 
    8245    328.04034    14.913273    139.21214   -374.12303    287.07244    63023.103 
    8250    329.04188    15.821641    144.47715   -366.66625    334.09884    63023.103 
    8255    320.21993    16.279463     140.8305   -363.32423   -489.47438    63023.103 
    8260    314.90051    14.424654     138.5329     -363.587    942.33892    63023.103 
    8265    300.70692    13.955756    148.21022    -365.2192    300.34108    63023.103 
    8270     310.6916     9.717814    145.42219   -368.90143   -261.98679    63023.103 
    8275    314.16721    11.637206    128.08189    -374.7567   -1107.5059    63023.103 
    8280    305.13166    11.215762    142.67022   -380.74942    302.78328    63023.103 
    8285    287.51452    10.044706    142.15821   -386.75687   -162.19573    63023.103 
    8290    281.05162    13.268345    131.40577   -391.48111     180.8955    63023.103 
    8295    294.40307     9.672236    136.71804   -395.17824    605.16903    63023.103 
    8300    290.61521    11.333091    146.32687   -395.37846    1434.5338    63023.103 
    8305    288.85829    12.922697    128.16174   -396.94619   -844.79618    63023.103 
    8310    306.17384    13.276376    134.36233   -398.00637   -550.31794    63023.103 
    8315    296.77617    15.428559    143.58505   -397.01951   -86.517099    63023.103 
    8320    286.79498     11.16371    153.04047   -398.34255   -129.21904    63023.103 
    8325    301.38233    10.623489    133.82845   -399.65287    534.95642    63023.103 
    8330    288.64241    11.049084    139.51183   -399.40864    973.69285    63023.103 
    8335    283.27767    11.877439    146.59126   -396.72687   -316.23453    63023.103 
    8340    296.66474    10.947686    144.41161   -395.69357    653.12899    63023.103 
    8345    314.34718     11.90604    125.61455   -392.24454   -345.38578    63023.103 
    8350      305.085    12.156645    148.50197   -390.42687    144.97732    63023.103 
    8355    295.50976     13.53827    147.55489   -390.23411    437.58758    63023.103 
    8360     295.6136     13.49068    137.84552   -392.78108   -56.302347    63023.103 
    8365    287.99831    15.530128    144.17422   -391.98913    14.577882    63023.103 
    8370     297.8583    12.952839    136.78969   -393.55023   -171.00037    63023.103 
    8375    304.10787    13.972071    136.22822   -391.26658   -875.11619    63023.103 
    8380    291.64431    19.678156    137.58171   -390.26319    407.22145    63023.103 
    8385    294.66323    18.472995    141.74576   -389.75613    764.97608    63023.103 
    8390    297.64413    18.857073    134.75216   -389.52847    249.34865    63023.103 
    8395     294.8908    17.260416    146.03174   -385.66086    503.19176    63023.103 
    8400    289.15056    12.410789    140.84822   -382.68949     283.7217    63023.103 
    8405    298.20258    12.399799    139.77981    -380.4403   -1100.9239    63023.103 
    8410    299.59946    11.149394    145.25244   -378.61054   -293.44361    63023.103 
    8415    303.20687    12.810024    143.53884   -373.94467    -256.6088    63023.103 
    8420    300.75718    14.647098    149.99818   -372.22703   -498.04032    63023.103 
    8425    289.37062    18.937977    147.04237   -368.80677   -426.65192    63023.103 
    8430    305.24641    16.326177    141.73848   -365.50017   -71.368285    63023.103 
    8435    313.03542    12.927695    146.46088   -361.84655    424.40228    63023.103 
    8440    310.40498    16.324508    162.26298   -360.06117    566.27031    63023.103 
    8445    306.28573    16.383708    139.30128   -361.49282   -507.57747    63023.103 
    8450    303.22797    17.339926    138.78623   -365.36306    903.16458    63023.103 
    8455    310.65408    16.893739    139.50561    -368.3056    222.39288    63023.103 
    8460    300.97485    17.994242    137.67078   -373.00678    177.37044    63023.103 
    8465    288.37997    14.811142    141.14691   -377.04227    596.94271    63023.103 
    8470    289.02893    13.814443    148.06628   -381.28806   -266.98665    63023.103 
    8475    304.57604    17.832149    135.96964   -382.77816    41.460444    63023.103 
    8480    296.42758    12.703724    150.97855   -384.44565   -786.14159    63023.103 
    8485    291.09646    11.333941    145.51654    -388.7007   -285.76747    63023.103 
    8490    306.07648    13.282677    119.36591   -391.97698    990.15474    63023.103 
    8495    301.75375    14.571377    131.41086   -393.30309    -95.22855    63023.103 
8500        0.48138008692536410349 15.539896742726263312 0.51778093883357045879 146 -716.91322839988424676
    8500    282.08445     12.59322    131.02211   -392.34892   -469.49117    63023.103 
    8505    273.03365    12.207657      144.914   -390.91206   -97.260913    63023.103 
    8510     305.2254     13.45521    124.33128   -386.95352   -199.36823    63023.103 
    8515    310.74874     11.45161    139.20994   -378.40301    51.403167    63023.103 
    8520    321.15955    8.8175952    142.46495   -373.19823    81.852282    63023.103 
    8525     304.0751    15.528164    143.74362   -372.14331   -186.18764    63023.103 
    8530    309.78762    21.973214    134.54015    -370.8694    170.21428    63023.103 
    8535    320.87796    19.657731    144.82442   -368.69736   -965.50503    63023.103 
    8540    306.60581    15.472057    149.21501   -369.50315   -557.81473    63023.103 
    8545    321.53839    13.452331    125.09721    -376.1179    560.95343    63023.103 
    8550    295.36343    12.278283    149.23336   -378.71312    160.95668    63023.103 
    8555    299.29675    8.9851329    131.20802   -386.08178   -518.32051    63023.103 
    8560    316.80843    10.314941    128.83892   -390.22714    356.52331    63023.103 
    8565    300.96568    11.784854    141.05443   -396.55654   -553.92947    63023.103 
    8570    302.20246    10.698079    131.66699   -400.01032   -564.92454    63023.103 
    8575      294.912    9.9983035    140.13483   -406.23962   -433.70629    63023.103 
    8580    299.63463    11.436106    128.00114   -411.34793   -27.517147    63023.103 
    8585    275.66069    9.3683704     145.4993   -416.99727    -67.53176    63023.103 
    8590    292.54125    7.0015645    127.12268   -419.29478    16.400723    63023.103 
    8595    279.36132    10.632779    137.56886   -419.17425    14.690169    69538.515 
    8600    283.99673    12.128436    123.29653   -416.39413   -199.78124    69538.515 
    8605    286.79418    12.381388    140.63569   -410.74514   -13.875832    69538.515 
    8610    289.66557    14.352761    137.96998   -404.12754   -25.035545    69538.515 
    8615    286.41779     19.58677    134.88968   -395.80861   -73.895313    69538.515 
    8620    298.06137    15.299495    144.33185   -384.38367   -282.57961    69538.515 
    8625    325.57714    9.1243408    139.62493    -374.7897    894.62468    69538.515 
    8630    307.84648     10.92962    129.73696   -369.59259    151.08919    69538.515 
    8635    302.23023    15.285015    153.73532   -361.92475   -394.98774    69538.515 
    8640    318.39287    18.871335    148.06841   -358.65611    114.55248    69538.515 
    8645    311.50948     15.41587    153.75464   -354.94009    553.51634    69538.515 
    8650    319.01947      12.4066     142.2627   -354.30565    -911.1643    69538.515 
    8655    310.62731      13.5253    152.40563   -358.36066    581.35973    69538.515 
    8660    321.31923    11.825314    141.12815   -363.75903    235.60358    69538.515 
    8665    304.05219    10.197335    140.04715   -370.42429   -596.24117    69538.515 
    8670    294.15873    14.174537    151.89251   -375.14182    386.42433    69538.515 
    8675     287.5283    15.002412    154.97749   -381.21493    179.11557    69538.515 
    8680    296.68814    10.370092    132.02163   -389.01135   -279.33527    69538.515 
    8685    287.58417    8.3195272    150.35244    -390.4563   -91.395594    69538.515 
    8690    303.79342    9.9341385    143.59448   -395.16738   -976.53417    69538.515 
    8695    314.16121    12.430678    133.97239   -399.03474   -144.50731    69538.515 
    8700    297.33606    10.433619    138.98698   -402.18604    81.092004    69538.515 
    8705    285.76561    14.933918    146.29113   -405.35567    683.38445    69538.515 
    8710    291.05803    14.176723    133.55314    -405.8484     90.23724    69538.515 
    8715    296.22189    11.166028    143.28148   -405.72747   -22.753666    69538.515 
    8720    302.87203    10.798074    136.47032   -403.23509    -121.8941    69538.515 
    8725    286.88456    10.333148    151.60236    -402.5776    186.59321    69538.515 
    8730    308.78175    11.612552    133.17624   -401.32428   -117.80934    69538.515 
    8735    300.59838    12.434093    146.83177   -397.89839   -56.206663    69538.515 
    8740    312.12702     14.24259    142.79815   -396.97472    215.75314    69538.515 
    8745     315.3102    13.951752    141.26192   -397.68801      1018.57    69538.515 
    8750    300.70721    13.231203    150.76499   -398.97211    93.582093    69538.515 
    8755    299.44787     11.09222    141.34783   -400.96406   -330.52969    69538.515 
    8760    286.73786    12.937968    141.15951   -405.21524   -126.72979    69538.515 
    8765    308.28178    13.533187    134.33369   -407.11243   -131.13864    69538.515 
    8770    293.12663    12.993612     142.1544   -409.19362    115.81967    69538.515 
    8775    308.89533     11.46352    138.04222   -411.43284    450.48979    69538.515 
    8780    286.60197    14.359838    152.53792   -412.65122    116.49356    69538.515 
    8785    289.11153    13.871707    136.67806   -416.65104   -159.63617    69538.515 
    8790    297.30398    13.509876    133.13215   -416.44372     115.0333    69538.515 
    8795    313.55665    8.4885569    122.66669   -417.60272    493.17985    69538.515 
    8800    297.34697     7.793782    134.72352   -416.90503    369.65246    69538.515 
    8805    293.06931    10.004216    131.77811    -415.7838    -456.4724    69538.515 
    8810    293.66558    10.477083    146.27866   -416.01169   -39.699256    69538.515 
    8815    293.29838    10.407927    136.17984   -413.07243   -613.89847    69538.515 
    8820     292.0507    12.804874    143.67958   -411.73349   -185.40146    69538.515 
    8825    292.79301    11.551702    147.00109   -407.43141    430.38932    69538.515 
    8830    300.38616    12.520269    141.08252     -403.975    132.65499    69538.515 
    8835    300.88922    16.935448    137.36765   -400.45263    39.924563    69538.515 
    8840     297.1071    20.287509    140.30459   -393.99643   -384.48871    69538.515 
    8845    302.60026    14.176061    142.71952   -390.43366   -11.901822    74083.248 
    8850    292.51435    11.886199    159.63547   -386.04491   -110.97153    74083.248 
    8855    290.87748    12.381861    148.42706   -381.84087   -145.93635    74083.248 
    8860    308.60863    14.551682    138.38203   -379.58841    560.87967    74083.248 
    8865    300.33742    18.120292    147.19117   -375.72459    99.828031    74083.248 
    8870    294.40884    18.581672    154.89597    -371.0062   -601.83381    74083.248 
    8875    309.64004    17.077579    141.19386   -368.82513   -66.807796    74083.248 
    8880    311.89498    16.072725    149.98248   -367.32239   -418.52721    74083.248 
    8885     315.2864    14.397202     137.0004    -367.7331   -114.84641    74083.248 
    8890     285.1546    16.948808    156.33058   -368.53533    1040.2777    74083.248 
    8895    303.03521    17.023931    150.17129   -369.90411    48.512025    74083.248 
    8900    307.91168    10.637816    146.26211   -373.44746    441.19386    74083.248 
    8905    309.72748    10.448448    148.74767   -377.77515   -967.74587    74083.248 
    8910    303.70746    13.381006    150.67868   -383.06212    -202.3195    74083.248 
    8915    299.42417    10.891819    154.30932   -390.34782    516.45576    74083.248 
    8920    302.00249    10.770321    135.18146   -398.90935    257.27479    74083.248 
    8925    296.63161    16.348133    135.93984    -407.1228   -283.08327    74083.248 
    8930    294.37936    20.251213    136.62953   -414.89338    1056.4404    74083.248 
    8935    296.07455    15.246978    138.93561   -422.06017   -260.48569    74083.248 
    8940    299.47675     11.10669    117.03699    -427.5638    -939.7996    74083.248 
    8945    289.96907        9.501    132.94633   -431.45597   -54.083019    74083.248 
    8950    292.27291    8.1640644    130.13164   -433.45566    418.84194    74083.248 
    8955    291.19545    11.271445     132.5934      -433.91   -378.05469    74083.248 
    8960    280.29043    13.255715    134.30797   -431.61497   -365.72835    74083.248 
    8965    285.06488    13.324824    151.17883    -426.6904    438.56764    74083.248 
    8970    298.18613    11.445127    137.32868   -421.95459   -219.09183    74083.248 
    8975    299.83775    9.4852191    140.38259   -416.19979   -657.14435    74083.248 
    8980    302.81299     12.33601    144.88212   -411.13672   -33.541929    74083.248 
    8985    295.47644    11.858918    152.02387   -404.13045    619.97349    74083.248 
    8990    291.67683    9.7129368    148.81189   -399.32068    1001.4408    74083.248 
    8995    304.94131    8.7291958    143.83614   -396.76186   -596.95201    74083.248 
9000        0.48219931303712837423 15.53403439606100811 0.53413940256045522315 153 -746.70686653792768084
    9000    308.05656    12.308009    144.54062   -392.25924    809.48169    74083.248 
    9005    290.63639    13.876001     152.3698   -387.57152    309.81415    74083.248 
    9010    294.26412    13.194461    149.53999   -385.16575   -507.99013    74083.248 
    9015    307.89182    9.7686829    146.68324   -384.02044   -538.21516    74083.248 
    9020    310.75052    12.234175    144.31404   -381.99571    348.59858    74083.248 
    9025    302.22316    9.1403658    141.71568   -381.71812    146.27546    74083.248 
    9030    281.88193    9.2981587    171.73632   -381.25347   -298.01519    74083.248 
    9035     306.7632    13.947351    139.76267   -381.35272   -176.83792    74083.248 
    9040    303.20275    14.224707    148.46255   -381.99718    649.91315    74083.248 
    9045    294.24477    12.368553    154.52929   -382.36391    -219.0898    74083.248 
    9050    305.58677    12.121688    149.29988   -382.67132    -745.7034    74083.248 
    9055    306.75227    11.446843     149.1462   -385.23034   -3.4517708    74083.248 
    9060    310.76569    12.245652    143.74184   -387.90698    590.61443    74083.248 
    9065    303.16402    13.650631    151.48173   -392.82716   -102.06319    74083.248 
    9070    292.10156    15.672996    140.68593   -399.12149    22.070716    74083.248 
    9075    287.88502    11.439565     136.7025   -404.53901   -310.40122    74083.248 
    9080    291.49676    7.8678992    146.76461   -406.28028   -499.25505    74083.248 
    9085    283.10392    11.808661    157.51702   -407.70292   -6.3564114    74083.248 
    9090    301.46614    14.210578    137.23283    -410.2285    310.72727    74083.248 
    9095    289.42123    14.114477    147.22546    -410.3612    82.751536    74083.248 
    9100    289.95211     15.60713    141.48988   -409.09309     261.8521    74083.248 
    9105    284.62166    19.214391    148.94817   -407.33117    394.33199    74083.248 
    9110    308.80826    14.341746     133.5312   -405.06661    141.71206    74083.248 
    9115    313.66904     11.00948    139.26664   -402.06236   -518.14558    74083.248 
    9120    302.83015    14.021821    145.07775   -398.16783   -416.12973    74083.248 
    9125    290.36243    14.628477    147.72429   -397.05308   -165.89111    70951.732 
    9130    297.75167     10.31052    136.04961   -394.62524    280.00748    70951.732 
    9135    291.82294    11.219739    150.80293   -390.17934   -235.74932    70951.732 
    9140    291.37194    12.871716    141.07881   -384.19163   -221.26325    70951.732 
    9145    298.48701    13.820378    142.31539   -379.89305   -423.56897    70951.732 
    9150    302.79126    13.659231    145.31597     -373.788   -300.66132    70951.732 
    9155    306.12704    14.635333    145.45469   -365.72669   -312.98378    70951.732 
    9160    306.90392    15.616975    149.62101   -361.11055   -102.09452    70951.732 
    9165    301.32671    18.666079    151.79823    -358.4159    1796.1306    70951.732 
    9170    323.69595    13.365839     130.9928   -356.11073    32.141212    70951.732 
    9175    309.70512    12.906538    157.55298   -353.89929   -53.314914    70951.732 
    9180    318.28611    11.024854    148.49602   -354.75899   -95.257609    70951.732 
    9185    322.09911    9.9547198    136.50312   -359.21385    78.354145    70951.732 
    9190    311.34514    8.8957339    144.27901    -364.5127   -1804.6168    70951.732 
    9195     301.1343    11.690386    158.03471   -373.10907    432.80061    70951.732 
    9200    295.10728    14.153418    137.13026   -382.81226   -456.12258    70951.732 
    9205    296.69022    13.069941    138.30996   -389.20686    654.40529    70951.732 
    9210    290.20612    12.883419    148.55751   -396.51867    44.929812    70951.732 
    9215    293.23405    13.424267    135.97669    -403.2057    805.00285    70951.732 
    9220      285.283     11.59533    132.94967   -409.52713   -89.872035    70951.732 
    9225    277.32051    8.2448739     143.5178   -412.28886    442.82728    70951.732 
    9230    281.94668    7.5662967    138.06603   -411.08203   -823.06744    70951.732 
    9235    288.38432    8.6868835    142.15143   -410.83922       640.29    70951.732 
    9240    283.69434    11.159841    148.75049   -407.10012   -367.01452    70951.732 
    9245    287.83635    8.7488927    146.97905   -401.63989   -588.26554    70951.732 
    9250    293.33165    9.8999319    144.89735   -395.07295   -17.128991    70951.732 
    9255    284.95479     12.71836    155.68939   -388.61898    291.76267    70951.732 
    9260    324.28718    13.011023     140.5382   -380.52018   -13.269756    70951.732 
    9265    305.32942    18.203162    155.04871   -372.97729   -152.74051    70951.732 
    9270    305.42763    19.507168    144.16702   -369.62611    92.828095    70951.732 
    9275      309.159    15.182899    149.54744   -366.41743    77.891398    70951.732 
    9280    309.81374    12.873948    148.72299   -363.08795   -415.50954    70951.732 
    9285    306.04969    12.379275    152.58388   -360.37112     228.3046    70951.732 
    9290    299.39531    15.029387    151.92609   -362.56302    618.24361    70951.732 
    9295    304.16884    22.636043    148.10122   -365.37808    231.85423    70951.732 
    9300    299.67912    21.036824    149.46643   -367.80567    234.07127    70951.732 
    9305    294.24062    16.936815    168.60319   -370.75135    188.62997    70951.732 
    9310    308.31174    13.659603    154.06935   -375.73445   -881.84806    70951.732 
    9315    312.97405    14.141978    139.31023     -382.585    -481.8666    70951.732 
    9320    312.95134     9.638293    151.82226   -393.55905    82.795403    70951.732 
    9325    295.28394    8.0868363    138.29639   -404.15385    302.80473    70951.732 
    9330    285.44493    9.2902817    140.96635   -414.78163    51.792626    70951.732 
    9335    290.87812    7.3182145    133.83847   -422.19054   -336.80034    70951.732 
    9340    280.43255    7.8890074    145.97005   -426.28445   -159.06083    70951.732 
    9345    297.20862    10.732363    128.79426   -432.10371   -227.36235    70951.732 
    9350    282.51581     13.44089    142.54465   -434.26332    424.49875    70951.732 
    9355    287.91336    13.269471     143.1413   -434.14443   -940.33839    73714.884 
    9360    288.67669    11.244084    134.00424   -435.00066    158.78766    73714.884 
    9365    286.64852    11.825757    128.48645   -433.91805    544.11589    73714.884 
    9370    282.13056    12.093604    136.28556   -429.02133    284.73333    73714.884 
    9375    281.27099    9.5503296    137.97419   -421.11667   -20.203611    73714.884 
    9380    297.87163    8.9507584    143.77882   -412.97336    614.94543    73714.884 
    9385    312.91665    9.9492321    130.82362   -402.50273    75.814608    73714.884 
    9390    307.41943    13.709977    149.51675   -393.75323    171.17329    73714.884 
    9395    310.62472    12.019044    137.03322   -384.80399   -946.03983    73714.884 
    9400    290.30882    9.1509184    165.10734   -376.51239    243.30118    73714.884 
    9405    304.00517    8.1818131    143.25092    -371.3222   -211.97106    73714.884 
    9410    313.39065    9.8531802    142.96967   -364.15113   -101.83557    73714.884 
    9415    311.96639    10.372474    158.08162   -356.72431    598.16697    73714.884 
    9420     305.9948    12.776045    159.08503   -353.97582   -292.56773    73714.884 
    9425    314.54856    13.889016    149.14319   -352.42916   -105.38223    73714.884 
    9430    302.14869    11.691907    169.68298   -353.23868    384.76963    73714.884 
    9435     309.1832    12.655282    154.82616    -357.3337     539.5524    73714.884 
    9440    320.22085    14.648054    139.87409   -361.53485   -220.18695    73714.884 
    9445    297.34244    12.207224    158.02673   -365.74944    -454.9242    73714.884 
    9450    303.80086    12.597988    138.40061    -374.1965    377.13787    73714.884 
    9455    293.99067    11.939023    152.37954   -380.81498   -19.429387    73714.884 
    9460     283.8597    9.8893584    151.28214   -387.13904   -459.80912    73714.884 
    9465    301.65532    10.600644    137.10015   -390.60649    -483.4204    73714.884 
    9470    276.39465    11.586037    161.64076   -394.04033    1118.2903    73714.884 
    9475     291.2842    13.886236     140.9344    -396.0944   -182.81666    73714.884 
    9480    282.38017    14.279169    152.85379   -396.43069   -805.92972    73714.884 
    9485    292.47569    13.127291    144.54564   -395.20987    367.85505    73714.884 
    9490    312.43193    9.7185033    147.74897   -394.50883    892.18484    73714.884 
    9495    293.55631    11.076469    156.49787   -393.72558   -122.93957    73714.884 
9500        0.49661242239935649012 15.567703015865358651 0.5376955903271692927 155 -738.19499311572280931
    9500    298.96847    8.9999509    145.40865   -394.20405    251.80075    73714.884 
    9505    277.78089    10.550418    155.94829   -394.06544   -777.63255    73714.884 
    9510    292.16454    11.591859    139.11175    -391.0518    336.12309    73714.884 
    9515    301.22092    11.624587    140.05879   -389.14988    117.41906    73714.884 
    9520    306.19336    9.9813321    141.02652   -383.41554    779.55672    73714.884 
    9525    306.59381    6.9909992    162.01402   -380.38412    876.03978    73714.884 
    9530    310.38172     7.163197    148.39594   -383.05666   -250.19585    73714.884 
    9535    301.74043    9.1555561    147.23069   -382.65999   -614.47908    73714.884 
    9540    295.80042    12.030093    151.92421   -384.85956   -15.141729    73714.884 
    9545    290.18392    11.751468    147.75964   -387.49651   -550.68624    73714.884 
    9550    300.11273    8.9148824    151.43804   -386.82044   -743.92915    73714.884 
    9555    298.43857    11.642619    154.96622   -389.18432    140.03276    73714.884 
    9560    296.72168    16.484401    142.15322   -391.26319    769.03001    73714.884 
    9565    296.63815    15.503251    148.18564   -390.73758    155.63255    73714.884 
    9570    311.67256    13.974669     136.1496    -393.3737   -609.51415    73714.884 
    9575    301.53876    14.070331    131.78545   -394.48018   -323.89889    73714.884 
    9580    296.63114    8.9102654    135.86833   -395.04671    396.37943    73714.884 
    9585    319.72903    9.2269589    123.52224   -395.83164    281.70183    73714.884 
    9590    285.38765    8.9396038    146.67314   -396.13885   -338.49424    73714.884 
    9595    283.06635    9.7945773     132.9865   -395.78183    430.43624    73714.884 
    9600    289.34679    10.728727    153.01674   -392.52633    725.94847    73714.884 
    9605    308.09119    9.2477237    143.44493   -388.49319    -1033.189    73714.884 
    9610    313.73165     12.25349    133.18393   -388.03017   -840.10699    73714.884 
    9615    322.41776    9.9958289    129.24554   -388.00392    337.14797    73714.884 
    9620    299.00949    7.3540805    150.44091   -389.36963    46.144556    73714.884 
    9625    299.04578    10.852332    137.16851   -393.52049    441.03013    73714.884 
    9630    299.60323     14.95762    128.52854   -395.98999    79.891345    73714.884 
    9635    305.52979    11.707933    148.23978   -398.28293    879.97881    73714.884 
    9640    312.75441     10.43778    135.62034   -400.79485    -603.1772    73714.884 
    9645    304.05183    10.392966    129.18162    -406.5529   -881.88413    73714.884 
    9650    304.08096    8.5467107    120.96701    -413.3808    375.11687    73714.884 
    9655    281.00059    7.4704479    140.15386   -415.81831    331.48562    73714.884 
    9660    291.12182    6.6777175     124.0128    -418.6842   -455.19436    73714.884 
    9665    287.44091    7.1681055    134.96291   -421.73489   -105.21744    73714.884 
    9670    293.39624    11.575876    128.11338   -420.62552    81.177631    71664.842 
    9675    284.84108    11.980515    132.05905   -418.71021   -129.29187    71664.842 
    9680    295.97929     8.289474    124.38964   -415.45636    149.89232    71664.842 
    9685    301.18724    8.4433772     128.3014   -410.46071   -530.05614    71664.842 
    9690    304.77167    6.9929161    129.10158   -404.39696    196.50561    71664.842 
    9695    296.43524    12.514741    134.85361   -399.73143   -567.11689    71664.842 
    9700    306.29577    8.9443182    129.19551   -394.69738    -431.5869    71664.842 
    9705    296.71496    7.8064972    143.13194   -387.76632    472.59793    71664.842 
    9710    310.64229    6.5495947    131.73833   -382.10836    1076.2415    71664.842 
    9715    317.62643    6.8772246    132.82792   -376.69629   -1030.9846    71664.842 
    9720    301.42943    8.4721777    147.31468   -374.09936   -312.51713    71664.842 
    9725    310.00381    11.174381    141.20828   -375.07033    154.94496    71664.842 
    9730    317.18493    11.893251     145.1992   -375.03926   -258.80983    71664.842 
    9735    315.37372    10.885539    137.02667   -378.64933   -920.24296    71664.842 
    9740    321.09569    10.405379    122.41963   -384.30872   -792.81123    71664.842 
    9745    298.83647    10.317128    133.16306   -390.04329    108.24186    71664.842 
    9750     293.0452    10.330005    140.27077   -395.37546    50.374017    71664.842 
    9755    288.80203    13.484905    131.94107   -400.01079   -339.30783    71664.842 
    9760    293.35164    15.359974    132.98176   -402.47879      768.092    71664.842 
    9765    295.88587    9.8113098    134.96209   -404.49767    215.48661    71664.842 
    9770    287.48676    9.7616917    135.85704   -405.89876    -201.9666    71664.842 
    9775    308.60451    10.717967     125.4969    -407.4434    633.47402    71664.842 
    9780    301.19898     10.84878    134.67206   -406.94429    177.42419    71664.842 
    9785     302.5542    12.059221    129.31455   -406.17584   -294.59237    71664.842 
    9790    297.28698    14.576545    137.73283   -405.76201   -514.66193    71664.842 
    9795    303.77511    13.924018    130.07871   -406.35645    459.13839    71664.842 
    9800    302.40877    14.008465    137.78626   -406.37201    515.65899    71664.842 
    9805     293.0579     12.52531    140.99166     -406.097    153.11972    71664.842 
    9810    292.65889    12.625839     129.2548   -405.80173   -322.80295    71664.842 
    9815    293.37784    14.678304     141.8353   -404.05722    448.73671    71664.842 
    9820     308.7422    11.797276    137.02254   -399.95985   -530.14899    71664.842 
    9825    299.10254     9.089587    144.39159   -397.16457   -789.63427    71664.842 
    9830    291.09083    7.4070128    141.44714   -396.79299   -646.65001    71664.842 
    9835    300.31918    9.2012482    135.88061   -395.00264    1226.2035    71664.842 
    9840    306.74465    12.207285    138.70668   -392.45534    39.748045    71664.842 
    9845    302.41104    12.697545    147.09074   -391.83295    692.78741    71664.842 
    9850    294.43189    11.262207    140.06646   -392.02861     279.7494    71664.842 
    9855    308.47499    11.554979    135.73519   -393.41709   -6.8028584    71664.842 
    9860    306.29747    7.8270247    142.37691   -392.98617   -355.13604    71664.842 
    9865    307.90142    10.693619    133.59738   -392.41291   -379.21948    71664.842 
    9870     309.4044    13.038803    136.19911   -392.66369   -247.37233    71664.842 
    9875    304.07295    11.616719    139.87666   -394.23855   -38.062141    72169.898 
    9880    288.45691    10.281297    141.74294   -396.99704    -347.7067    72169.898 
    9885     304.0553    8.5146119    137.82307   -399.04216    103.35081    72169.898 
    9890    303.92002    9.5048128     139.6751   -401.53617    764.81144    72169.898 
    9895     298.9848    8.7074352    139.89238   -404.59911   -610.18865    72169.898 
    9900    288.98154    10.732527    138.67602   -405.23448   -676.73099    72169.898 
    9905    298.62132    13.786881    144.47321   -406.58449    254.80212    72169.898 
    9910    285.62703    13.447756    140.43543   -405.97493    205.70736    72169.898 
    9915     276.9721    12.588818    152.63658   -404.14186    431.43524    72169.898 
    9920    289.64786    9.1743237    144.70558   -400.96902    385.70917    72169.898 
    9925    304.91913    7.2765863    151.98474   -393.81512    635.48142    72169.898 
    9930    318.14565    9.0653586    141.66718   -391.87713   -301.01818    72169.898 
    9935    312.90944    9.0743601    145.25861   -390.49177    435.80575    72169.898 
    9940    289.34719    13.131841    149.26585    -390.5226    413.56606    72169.898 
    9945     310.9437    16.547318    133.08141    -392.0523   -893.22183    72169.898 
    9950    286.47521     12.29749    146.34817   -391.53604    -886.4717    72169.898 
    9955    292.50842    7.1972793    150.93915   -392.54039   -643.34239    72169.898 
    9960    297.95027    8.0198022    155.96713    -395.6039    242.94018    72169.898 
    9965    304.79384    8.9958819    140.52381   -395.91118    650.60392    72169.898 
    9970    302.86652     9.674896     153.1432   -398.42737   -532.79242    72169.898 
    9975    299.06754     12.25039    137.34956   -402.77966   -148.91728    72169.898 
    9980    281.71092     9.877066    161.87269   -405.85126    861.10079    72169.898 
    9985    299.51837    5.6962268    133.36915   -409.22044    -1270.923    72169.898 
    9990    291.26098    5.5450219    150.67156   -411.99548   -679.68238    72169.898 
    9995     299.5459    9.1192744    135.14139   -415.49446    453.05687    72169.898 
10000        0.48766814429403654296 15.661770128968779403 0.5064011379800853474 135 -751.11495175061486407
   10000    289.14874    10.400505    135.41093   -418.42252   -170.09215    72169.898 
Loop time of 183.941 on 1 procs for 10000 steps with 387 atoms

Pair  time (%) = 4.70692 (2.55893)
Bond  time (%) = 0.32431 (0.176312)
Neigh time (%) = 0.184887 (0.100514)
Comm  time (%) = 0.0147555 (0.00802185)
Outpt time (%) = 0.127113 (0.0691051)
Other time (%) = 178.583 (97.0871)

Nlocal:    387 ave 387 max 387 min
Histogram: 1 0 0 0 0 0 0 0 0 0
Nghost:    0 ave 0 max 0 min
Histogram: 1 0 0 0 0 0 0 0 0 0
Neighs:    16509 ave 16509 max 16509 min
Histogram: 1 0 0 0 0 0 0 0 0 0
FullNghs:  33018 ave 33018 max 33018 min
Histogram: 1 0 0 0 0 0 0 0 0 0

Total # of neighbors = 33018
Ave neighs/atom = 85.3178
Ave special neighs/atom = 2.65633
Neighbor list builds = 65
Dangerous builds = 1
