LAMMPS (9 Oct 2012)
# 3d protein simulation

units real

timestep 2

dimension	3

boundary s s s
#boundary p p p

neighbor	10 bin
neigh_modify	delay 5

atom_modify sort 0 0.0

special_bonds fene

atom_style	peptide

bond_style harmonic

pair_style vexcluded 2 3.5 3.5

read_data data.testeo
  3 = max bonds/atom
  orthogonal box = (-200 -200 -200) to (200 200 200)
  1 by 1 by 1 MPI processor grid
  153 atoms
  202 bonds
  5 = max # of 1-2 neighbors
  5 = max # of special neighbors

pair_coeff * * 0.0
pair_coeff 1 1 20.0 3.5 4.5
pair_coeff 1 4 20.0 3.5 4.5
pair_coeff 4 4 20.0 3.5 4.5
pair_coeff 3 3 20.0 3.5 3.5


velocity	all create 300.0 9849853

group		alpha_carbons id 1 4 7 10 13 16 19 22 25 28 31 34 37 40 43 46 49 52 55 58 61 64 67 70 73 76 79 82 85 88 91 94 97 100 103 106 109 112 115 118 121 124 127 130 133 136 139 142 145 148 151
51 atoms in group alpha_carbons

group		beta_atoms id 3 6 9 12 15 18 21 24 27 30 33 36 39 42 45 48 51 54 57 60 63 66 69 72 75 78 81 84 87 90 93 96 99 102 105 108 111 114 117 120 123 126 129 132 135 138 141 144 147 150 153
51 atoms in group beta_atoms

group		oxygens id 2 5 8 11 14 17 20 23 26 29 32 35 38 41 44 47 50 53 56 59 62 65 68 71 74 77 80 83 86 89 92 95 98 101 104 107 110 113 116 119 122 125 128 131 134 137 140 143 146 149 152
51 atoms in group oxygens


fix		  1 all nvt temp 400.0 800.0 100.0
fix		  2 alpha_carbons backbone beta_atoms oxygens fix_backbone_coeff.data testeo.seq
Chain flag on
Chi flag on
Rama flag on
Rama_P flag on
SSWeight flag on
ABC flag on
Dssp_Hdrgn flag on
P_AP flag on
Water flag on
Burial flag on
Helix flag on
Fragment_Memory_Table flag on
DebyeHuckel on

Reading fragments...
Computing FM table...
#fix		  3 all fixprueba 10

variable      biasinge equal f_qbias
# output wham.dat, a file with collective variables that can be used to compute pmfs
compute     qw alpha_carbons qwolynes rnative.dat 2 0.15
variable    qw equal c_qw
compute     rg alpha_carbons gyration
variable    rg equal c_rg
compute     qo alpha_carbons qonuchic cutoff 12.0 nativecoords.dat 1.2
variable    qo equal c_qo
compute     tc beta_atoms totalcontacts 6.5 2
variable    tc equal c_tc
variable    step equal step
variable    E_P equal pe

fix         wham all print 500 "${step}        ${qw} ${rg} ${qo} ${tc} ${E_P}"


#variable    stepq equal step
#variable E_bond  equal emol
#fix energy all print 10 "${stepq} ${E_bond}"



thermo		100
dump		1 all atom 10 dump.lammpstrj

dump_modify	1 sort id




#minimize 1.0e-4 1.0e-6 100 1000

reset_timestep	0
run		200000
Memory usage per processor = 0.857471 Mbytes
Step Temp E_pair E_mol TotEng Press Volume 
       0          300    54.408864    955.49334    706.11014    -33253.58    10890.368 
     100    564.22118    9.8536156    214.78299    146.92166    4025.3796    10890.368 
     200    387.76035    4.8214241    131.12697   -68.636879    3959.6407    10890.368 
     300    319.67976     4.879741    116.17204   -114.20736     3451.756    10890.368 
     400    446.67388    7.6533102    112.29499   -44.804571    2674.8432    10890.368 
500        0.97846946687992086833 10.154302391888775148 1 67 -229.31519591301227479
     500    400.14691    7.9434343    121.17599   -48.015382   -3846.6861    10890.368 
     600    350.08086    6.3302363    111.16647   -95.648648   -3303.1934    10890.368 
     700    396.26515    9.4519865    118.79264   -52.911791    55.582732    10890.368 
     800    443.96217    10.546003    107.74281   -46.275884    4272.2301    10890.368 
     900    399.32267    4.4366246    100.54756   -82.890203     1897.271    10890.368 
1000        0.97124232097120200002 10.175581407264056466 1 69 -235.69565549733502507
    1000    382.45107    5.4307163    119.21081   -62.413528     4998.392    10890.368 
    1100    429.40988    7.7249516    109.64716   -47.080552    1551.5521    10890.368 
    1200    384.28131    4.0054691    101.10345    -71.80073    2903.1265    10890.368 
    1300    409.27119    4.8345497    89.668119    -78.47509    3044.5929    10890.368 
    1400    419.11716    5.2120308    113.70821   -43.689731    2425.8375    10890.368 
1500        0.98488961181232959063 10.127944391874356356 0.99735449735449732689 65 -245.95337996083813437
    1500    391.84127    11.272538    92.554581    -68.41671    4052.9762    10890.368 
    1600     438.1506    5.8486191    88.901591   -67.036559   -586.93001    10890.368 
    1700    440.57917    9.1156688    113.76716   -31.166946    1966.0118    10890.368 
    1800    384.02552    4.5700246    100.13977   -60.127089   -1658.4768    10890.368 
    1900    396.83116    5.9838379    90.645464   -62.384997   -543.46067    10890.368 
2000        0.98899565294748814637 10.086735134798844982 1 72 -228.53947914867441682
    2000    382.02838    6.8312195     97.86895   -55.448867    624.22967    10890.368 
    2100    417.32657    10.802957    113.49509   -12.199922     332.9006    10890.368 
    2200    392.83822    12.512016    96.471087   -58.090239    5138.4917    10890.368 
    2300    407.59017    7.8272066    89.935213   -56.705397    5759.3888    10890.368 
    2400    422.08648    11.078541    102.84273   -26.730713   -3463.9384    10890.368 
2500        0.96870654099726671848 10.193902004212887391 1 68 -240.67349880708223964
    2500    395.48324    4.8344326    93.129085   -61.486714   -1166.2528    10890.368 
    2600    408.08282    8.1507961    85.666338   -58.677388   -1522.7415    10890.368 
    2700    421.77671    5.4238481    93.809035   -46.965879   -2006.5842    10890.368 
    2800    439.22554    3.8687056    76.291621   -50.695544   -409.03639    10890.368 
    2900    443.32445    5.3405678    110.64283   -10.837037    1926.9659    10890.368 
3000        0.97132434860273841881 10.162192257106118731 1 69 -225.6400898945728386
    3000     417.1582    5.9842268    105.77692   -36.632749    1347.1077    10890.368 
    3100     368.1189    10.816057    106.66349   -47.563594    2268.9826    10890.368 
    3200    394.43466    11.761924    94.940451   -58.124541    4341.8247    10890.368 
    3300    364.94284    6.4621224    90.496159   -70.709293    4061.9623    10890.368 
    3400     453.0152    8.1103405    89.768711   -26.162584   -2623.4715    10890.368 
3500        0.95672948935828383554 10.238891979661998377 1 69 -226.53769359685816198
    3500    391.41015    6.8513662    95.383925   -49.196358   -2608.6982    10890.368 
    3600    402.81735    3.4088928    90.218299   -51.822185    1562.5075    10890.368 
    3700    452.92636    10.093486    89.240256   -45.662941    988.17895    10890.368 
    3800    408.81107    8.2777853     77.73221   -71.578036    1587.8644    10890.368 
    3900    422.09801    6.2282656    101.15391    -21.93042   -2276.3244    10890.368 
4000        0.97450825993788969814 10.165327508388152467 1 65 -237.71555165394568121
    4000    438.20681    5.6037715    81.380828    -39.17144   -132.38908    10890.368 
    4100    410.30666    8.3650002    85.715681   -64.199652    4042.6094    10890.368 
    4200    437.64439    8.1240345    85.479411   -47.668209   -3131.4312    10890.368 
    4300    361.40348    7.0937479    89.535259   -80.532875   -1009.0648    10890.368 
    4400    388.70478     9.050443    90.177365    -60.00595    2534.6912    10890.368 
4500        0.97477194198133643166 10.185889352842810496 1 69 -223.08827038014845812
    4500     405.7436    11.127661    98.076205    -39.25269   -978.89771    10890.368 
    4600    375.20006    5.1467432    86.397585   -73.615779    417.51019    10890.368 
    4700    419.27673    9.0590361    81.398181   -46.859945    460.37206    10890.368 
    4800    437.28273    8.5958091    83.734819   -39.174902    2212.3547    10890.368 
    4900    350.22856    7.1750676    94.404963   -60.830918   -3413.4698    10890.368 
5000        0.9714580111860415812 10.125126349718739149 0.99470899470899465378 65 -199.1617324548504655
    5000    409.17117    5.3064831    101.63144    -13.77318    -2268.658    10890.368 
    5100    411.00541    8.2904193    80.465911   -49.919144   -1410.7214    10890.368 
    5200    412.52826    4.9173582    86.353774   -46.787499   -1178.0556    10890.368 
    5300    408.52823    9.2912626    91.746782   -38.140048    844.22329    10890.368 
    5400    454.71675    4.3913767    94.119199   -20.787783    553.83391    10890.368 
5500        0.96350450883725047291 10.192137315063423131 1 64 -187.61447767447469914
    5500    406.80531    14.501228    102.90913   -3.2978571   -1364.8188    10890.368 
    5600    420.35792    5.4173312    85.145758   -45.866389   -2703.9283    10890.368 
    5700    417.41486    6.4065727    78.302542    -51.61799   -1175.3775    10890.368 
    5800    463.24575    12.368683    95.124311   -7.9700093     965.9518    10890.368 
    5900    423.64884    5.8578946    85.784633    -35.13308     -1567.58    10890.368 
6000        0.96684808235884434069 10.179565459439128716 0.99735449735449732689 65 -238.10935016267387709
    6000    372.72838    4.1886503    81.237213   -69.232411   -3077.1744    10890.368 
    6100    369.24329    7.2135207    79.145647   -74.515459    -90.69548    10890.368 
    6200    412.74834    9.4560686    104.70914   -31.264965    6033.5927    10890.368 
    6300    422.98242    9.4865581    83.622642   -45.599093    2467.6355    10890.368 
    6400    377.72084    11.641352    84.464272   -72.732857    -4802.345    10890.368 
6500        0.98701363471043157549 10.118387815360053494 1 67 -221.17239484293895657
    6500    441.43924    6.9079211    97.497152   -21.163723    -806.2528    10890.368 
    6600    404.19946    4.1107386    91.581384   -50.978839   -1434.5146    10890.368 
    6700    462.80489    6.5034906    91.867617   -15.869322   -7373.2767    10890.368 
    6800    442.24839    9.8114211    93.441109   -16.954702    2520.1458    10890.368 
    6900    406.32787    9.7025555    85.618287    -41.04649    5120.1148    10890.368 
7000        0.96697412594736875668 10.170943734423511629 0.99735449735449732689 69 -217.65534312642438408
    7000    421.91055    8.0609348     92.34663    -26.49479   -493.62511    10890.368 
    7100    385.15906    5.6432266    84.944493   -40.761447    626.39174    10890.368 
    7200    402.19424      7.69117    84.894344   -57.688104    2356.2577    10890.368 
    7300    450.20448    5.9528964    85.698448   -14.815776    3348.6539    10890.368 
    7400    415.40502    10.244129    75.603865   -31.964026    20.250397    10890.368 
7500        0.96847808351482134182 10.157525483378702091 0.99735449735449732689 63 -202.45197542714180372
    7500    348.35501    4.5028955    101.17934   -44.618198    163.49889    10890.368 
    7600    419.31827    5.8408055    93.703551   -17.358946   -1180.2241    10890.368 
    7700    414.76718    5.1911573    88.398977   -35.320607   -2126.8945    11572.879 
    7800    399.24454    4.5243378    85.131861    -48.81369   -2352.8318    11572.879 
    7900    433.60075    4.8495762    98.286304   -18.361635    1672.3391    11572.879 
8000        0.96004571043836239852 10.171171043893528108 1 66 -212.94553315895740297
    8000    390.94377    10.940749    78.253322   -35.815507    2671.6548    11572.879 
    8100    430.20776    5.8681196    91.010915   -37.184741    4361.5393    11572.879 
    8200    424.23235   0.76608413    102.09808   -1.3433771    1300.5736    11572.879 
    8300    418.31387    7.4618014    88.532178   -5.6919567   -1823.9473    11572.879 
    8400    420.79276    4.3901117    79.788218   -38.220014   -124.56816    11572.879 
8500        0.96547294067755440317 10.185718614867267817 1 66 -227.00222363739686671
    8500    411.46918    12.806633    88.563763   -40.572479    1460.6535    11572.879 
    8600    415.91837    7.9274974    73.554113   -39.947558    1589.8871    11572.879 
    8700     408.0472    10.556795    94.080008   -5.7622247   -423.90381    11572.879 
    8800    401.65473    4.0594704    86.219864   -42.883988    464.28075    11572.879 
    8900     410.4836    9.5491117    87.904712   -25.643059    3065.7071    11572.879 
9000        0.97114152233685091531 10.122449803794316026 0.99735449735449732689 69 -201.66284801836209795
    9000    426.05711    5.9952721    91.542134    -8.623558   -4442.7925    11572.879 
    9100    464.96663    8.5540423    88.956253    10.242905    4051.7482    11572.879 
    9200    399.14893    5.4969544    87.601089   -29.936355   -1290.3059    11572.879 
    9300     447.9814    8.5692312    81.213407   -20.681757   -3385.4124    11572.879 
    9400    400.02811    9.3040855    81.721028   -50.054112   -47.697872    11572.879 
9500        0.97727340649108573878 10.160756565249586814 1 69 -232.31147338852088069
    9500    430.18975    5.7713184    85.864931   -37.399756    1007.8179    11572.879 
    9600    453.40377     5.612377    84.553874   -9.5445658    238.08335    11572.879 
    9700    429.11777    5.0163063    87.262398   -15.805045    1615.8535    11572.879 
    9800     489.9711     7.290888    77.485139    11.733859    3058.2022    11572.879 
    9900    430.02638    8.4784615    73.929203   -22.616921   -1632.3436    11572.879 
10000        0.96735548587248110231 10.176960492268118941 0.99735449735449732689 67 -217.22112238259978767
   10000    411.31834    5.3957734     73.64985   -30.859724   -2528.0024    11572.879 
   10100     456.7281    8.9605704    89.866895    8.1335187   -32.102724    11572.879 
   10200    401.77703    3.8581251    82.808094   -28.496549   -1061.5047    11572.879 
   10300    413.27134    8.2792122    95.096966   -28.924384   -6.4991024    11572.879 
   10400    455.56469    6.5110069    103.51118    21.941845    1184.5212    11572.879 
10500        0.92535261229917797898 10.284175504183471261 0.98412698412698407235 64 -212.11616745523826921
   10500    419.92812    5.0217082     80.80377   -21.853821   -480.07422    11572.879 
   10600    433.31636    1.9598318    89.542211    -13.69946    1079.0768    11572.879 
   10700    422.94707     3.219849     97.19768    13.963711    2460.8594    11572.879 
   10800     428.9886    3.4133022    103.87903    14.697512   -2455.3981    11572.879 
   10900    420.91312    4.5051452    84.501414   -19.803309    598.74617    11572.879 
11000        0.93007473803086315733 10.283288257640968766 0.99206349206349198067 63 -209.48826980871024261
   11000    477.20815    6.0156861    93.042124    6.7266915    1750.3436    11572.879 
   11100    450.73491    9.1276242    98.979099     7.300472     -3856.98    11572.879 
   11200    409.40873    9.8365504    79.362432   -34.315678   -2535.9693    11572.879 
   11300    380.90112    4.9706768    94.160805   -34.322927   -60.938946    11572.879 
   11400    430.07302    9.9043878    96.574283    8.2933686    1986.8958    11572.879 
11500        0.97164806911123557942 10.129110047413707463 1 65 -209.41982562504881571
   11500    415.15343    9.4927946    95.200554   -21.320812   -4365.6042    11572.879 
   11600    410.69683    2.1334321    99.857592   -13.877696   -1682.3439    11572.879 
   11700    439.13541     4.354173    97.616785    7.8894117    2206.3981    11572.879 
   11800    453.76828    6.6817047    81.968265   -8.1443883   -1868.1718    11572.879 
   11900    396.42586    8.0135519    93.970423   -26.356575   -1000.6046    11572.879 
12000        0.95793114753223274072 9.9996589030942395482 1 71 -192.25774768899685796
   12000    460.02106    11.257432    96.286235    16.170033     3512.195    11572.879 
   12100     424.4898    6.9837717    82.059779   0.41324968   -1908.1122    11572.879 
   12200     415.5246     5.061378    90.334323   -10.428154    1528.0763    11572.879 
   12300    387.37338    8.0834724    88.799917   -32.051267   -271.61221    11572.879 
   12400     411.2169    5.1089461    89.582115   -44.324289    -1086.453    11572.879 
12500        0.98027238471653788121 10.033883149205482965 1 67 -229.20793688292189927
   12500    463.38469    7.8984656    71.183169   -19.256154    765.99363    11572.879 
   12600    426.89038    14.553397    88.349653   -6.5539871   -481.40315    11572.879 
   12700    416.82055    9.9303185    73.284671   -47.716566    -1706.671    11572.879 
   12800    409.80214    11.220154     103.5673   -15.094687   -414.37815    11572.879 
   12900    427.18108     5.187699    93.564608   -5.1231083   -1499.2407    11572.879 
13000        0.94463393939732087645 10.258494193238369974 0.99735449735449732689 68 -208.37632587880597157
   13000    363.92755    6.2741855    86.875299   -43.486892   -1877.9827    11572.879 
   13100    426.51658    5.1004366    82.408358   -7.3267971    1919.8959    11572.879 
   13200    394.49595    4.4298998    99.711491    6.7708941    597.96481    11572.879 
   13300    498.27397    4.5717974    96.098827    56.418656     2162.187    11572.879 
   13400     507.0148    5.3961663    88.676911    26.076375    1657.5267    11572.879 
13500        0.92594751587438006712 10.252822807723902088 0.98677248677248674547 62 -199.89832066627795371
   13500    426.41248    4.2750851    93.766226   -6.6980208   -3921.9759    11572.879 
   13600    390.57493    5.9001068    80.234618   -21.480331   -6082.9102    11572.879 
   13700    478.35891    7.6648567    85.203406     11.39237    501.90853    11572.879 
   13800     447.0902    7.0240674    80.659099    7.1604686    833.70329    11572.879 
   13900    379.77598    6.7555174    90.136543   -29.374024   -698.68783    11572.879 
14000        0.90856700919241739633 10.378710759065315372 0.98677248677248674547 64 -202.16858398859051249
   14000    441.03896    2.7006737     91.09493   -2.3412733   -240.64419    11572.879 
   14100    438.55678    8.8275058    97.962083    5.1923039    3188.8592    11572.879 
   14200    393.31148    7.1130392    85.365848   -24.788462   -3154.5886    11572.879 
   14300    428.86472    4.4795613    79.305924   0.38784764   -250.44647    11572.879 
   14400    442.00828    3.7596197    90.398338     19.91914   -1742.3893    11572.879 
14500        0.92446118497259277547 10.226756184879356226 0.98148148148148139924 59 -205.98993517827693722
   14500    402.31521     5.631534    89.807524   -23.707701    629.54641    11572.879 
   14600    442.05044    7.8258266    83.502826    5.3065529    1688.7744    13632.393 
   14700    440.16527    13.793401    93.814467    7.6912987    2504.1601    13632.393 
   14800    425.89649    4.9817131    68.457189   -23.224075    270.00118    13632.393 
   14900    456.05128    9.0528154    93.210718     15.65293    2924.0419    13632.393 
15000        0.94743491084036102201 10.200676702768035398 0.98677248677248674547 64 -197.15900298244952182
   15000    421.61097      6.58032    83.154759   -6.1341839     271.1624    13632.393 
   15100    393.54667    7.3220117    82.538567   -30.037588   -1086.4043    13632.393 
   15200    446.99633    4.5704596    96.124161    3.5506466   -1921.0562    13632.393 
   15300    429.82129     10.83071    75.533368   -16.907534    600.00206    13632.393 
   15400    419.22823    2.7635278    84.072943   -40.286368   -994.19992    13632.393 
15500        0.96370034066367538106 10.176481413766735429 0.99735449735449732689 69 -201.85299347680890492
   15500    402.52363    9.6685715    88.868789   -19.476327    2839.5396    13632.393 
   15600    420.74913    12.847022    91.795696    5.4678695    2849.2684    13632.393 
   15700    475.25896    5.6310273    99.240711    40.459663   -2381.6919    13632.393 
   15800    414.83698    8.0370185    86.941624    8.3190185    117.74056    13632.393 
   15900     418.5901    8.1106442    83.648078    4.0260048     1337.511    13632.393 
16000        0.90199070382894719344 10.235700832734750065 0.98677248677248674547 62 -168.65369161336380444
   16000    465.63039    6.3488697    89.195289    42.315582     1194.026    13632.393 
   16100    405.96715    4.3378972    105.30184     45.11099    2015.7858    13632.393 
   16200    454.35969    7.6636158    82.887482    7.8422376    22.839732    13632.393 
   16300    410.40957    2.0958096    79.033594   -17.862326   -1449.5415    13632.393 
   16400    394.09402    4.7253556    80.272665    -10.68453   -3051.9884    13632.393 
16500        0.90144501636297424962 10.310860634743143294 0.97883597883597883715 62 -169.12621634865564602
   16500    405.14732    5.9737526    90.224646      14.4392   -2776.6141    13632.393 
   16600    430.47289     7.525148    90.599235    27.386917   -511.89524    13632.393 
   16700    421.03597    5.3650321    92.193769    11.707754    1497.2572    13632.393 
   16800    424.16084    6.8265246    86.444603    2.8889376    594.24261    13632.393 
   16900     457.9249    7.0418493    87.525793    35.936615    238.25166    13632.393 
17000        0.91523496323528630292 10.188098042668663368 0.9603174603174602364 62 -146.43815955660764416
   17000    417.38951    8.3060607    103.56752    42.673986   -1610.0877    13632.393 
   17100    402.07346    6.0222958    81.771615    4.0390607   -1000.0718    13632.393 
   17200    481.94072    3.8973187    93.861745    31.016962   -2362.5139    13632.393 
   17300     388.0588    5.4976288    78.805165   -16.795235    2153.1739    13632.393 
   17400    395.44974    5.9292836    93.695414    15.027106    1852.1302    13632.393 
17500        0.87234251845305454953 10.403394280790175586 0.91005291005291000239 60 -174.59524596841049515
   17500     448.5382    3.3534859    83.393275    28.629846   -17.220998    13632.393 
   17600    445.66997    3.5580826    70.312704   -18.906167   -292.84772    13632.393 
   17700    442.30163    3.9745784    79.787049    13.386222   -423.03783     14621.04 
   17800    414.78687     3.221579    97.693101    25.341214   -1157.1245     14621.04 
   17900    429.07899    3.8153383     90.10407    2.4233577    3016.9693     14621.04 
18000        0.90647517027841095771 10.351358771284523641 0.95767195767195767431 58 -201.62908991505801737
   18000    419.82567    5.8862529    77.524218   -11.413161   -1442.0451     14621.04 
   18100    454.25096    5.3368832    77.692107    24.969459   -278.17944     14621.04 
   18200    469.45753    9.9409127    85.037667    38.295627    357.63524     14621.04 
   18300    421.30736    7.4301044     86.35246   0.76107869    167.28984     14621.04 
   18400    409.94387    3.1840209    85.298244  -0.69875684    382.69801     14621.04 
18500        0.94730139748342501171 10.148558680175630897 0.97619047619047616404 66 -163.11068839378407347
   18500    461.90125    6.4494408    92.066245    46.168977   -199.22703     14621.04 
   18600    461.80009    6.3206219    82.252221    33.515304   -179.93798     14621.04 
   18700    366.87049     10.81213    87.921238   -7.2527208    890.28838     14621.04 
   18800     465.8777    6.9743653    85.253431     34.01434    148.60874     14621.04 
   18900    436.63196    6.4820884    85.338644    12.326176    1973.4524     14621.04 
19000        0.96421759886455593591 10.109780940279112116 1 67 -182.57915627958058735
   19000    439.79852    4.4344999     97.11404    16.686134    -681.9332     14621.04 
   19100    423.13815    8.5157158    91.423462    6.3365703    1079.6314     14621.04 
   19200    408.12492    9.5772669    79.080435   -4.2064276    4214.3855     14621.04 
   19300    482.48624     2.674984    84.853809     41.29242   -1435.4132     14621.04 
   19400    465.05788    6.8462233    82.267589     14.03422    73.073947     14621.04 
19500        0.91546190361151658088 10.369547514259775056 0.99735449735449732689 63 -186.76562089656707144
   19500    458.11349    4.0522635    91.295207    20.797874   -275.90388     14621.04 
   19600    455.11192    5.8467876    94.301628      44.6974   -977.66517     14621.04 
   19700    482.00719    4.1099689    104.39907    65.499346   -1046.5747     14621.04 
   19800    428.06364    7.3684867    95.666217    15.043454    826.53764     14621.04 
   19900      404.677    8.5326649    90.027007    22.943618    806.75342     14621.04 
20000        0.93951370069244055649 10.166024856028753831 0.99206349206349198067 64 -152.23568800529184841
   20000    458.03001    7.1679479    102.25178     55.28998    3490.2999     14621.04 
   20100     421.1533    7.9826115    88.692038    11.400794   -1307.1261     14621.04 
   20200    474.04296    3.7095455     78.57911    12.515968    2843.7055     14621.04 
   20300     448.3566    4.4163393    109.81798    49.537858   -1269.2864     14621.04 
   20400     425.3421    7.2098335     86.62397    26.288996    -901.9207     14621.04 
20500        0.9219203641752744538 10.299908616732635025 0.98412698412698407235 64 -192.43734143935091652
   20500    441.56519    2.2674675    88.935503     7.628397    248.68352     14621.04 
   20600    443.62662    7.3911235    106.18397    45.819104    215.12263     14621.04 
   20700    432.33372    8.1782353    87.838842    23.158712   -210.66288     14621.04 
   20800    412.29823    2.3505034    100.98743     15.26013    1993.6527     14621.04 
   20900    446.04275    10.907815    91.790841    47.543908   -898.52944    14123.225 
21000        0.90288459676874022186 10.356773044979252774 0.97354497354497349093 62 -150.87689609576079874
   21000      502.986    10.883117    95.450673    77.017574   -1995.6133    14123.225 
   21100    400.69603    7.3356993    95.343715    30.306406   -375.66854    14123.225 
   21200    458.93699    6.2902761    111.49853    54.885511    1089.8891    14123.225 
   21300    417.13944    9.1626697    87.794456    13.744175   -2578.7694    14123.225 
   21400    482.53803    5.2227993    86.727605    47.193012   -1182.6819    14123.225 
21500        0.92659752313765209042 10.236260003705119459 0.98148148148148139924 64 -168.32221957391905676
   21500    450.66404    11.362311    92.763444    35.866052    1151.5249    14123.225 
   21600    427.32524    6.5536705    84.309144    14.368446   -1314.8582    14123.225 
   21700    409.08415    7.6980127    93.520285    14.190772   -3227.2896    14123.225 
   21800    421.13769     3.522035      107.309     55.47849   -2646.4774    14123.225 
   21900    491.52284    11.524777    85.655166    50.269984    1792.6171    14123.225 
22000        0.90637176703063249139 10.407593739737265537 0.97883597883597883715 67 -178.88347411429421641
   22000    432.03837    8.1366729    83.578755    16.865824    1129.5005    14123.225 
   22100    495.58388      9.28392    79.425654     45.83758   -2392.5506    14123.225 
   22200    530.12894    8.6875045    98.923848     74.23982   -2604.0418    14123.225 
   22300    449.69951    4.5692993    86.877153    14.339208   -1182.8444    14123.225 
   22400    464.94864    5.8050857    93.798542    34.562943    365.50497    14123.225 
22500        0.90103433098585494765 10.494018807063104859 0.98148148148148139924 61 -157.67996581100462095
   22500    512.69985    4.8548537    87.709122    74.615684    13.920421    15893.828 
   22600    465.60222    8.9044642    98.086035      47.2493    598.35436    15893.828 
   22700    429.51999    7.9240318    92.204598    15.010311    896.78263    15893.828 
   22800    455.84397    5.5693988     88.44147    17.552848   -596.71749    15893.828 
   22900    458.42084    2.2063581     97.14111    61.718181    2176.1079    15893.828 
23000        0.88081637210126351167 10.550774999317845015 0.98148148148148139924 61 -143.45766084036330312
   23000    521.17382    13.745753    94.825028    92.677403   -953.11058    15893.828 
   23100    419.58132    5.4593552    92.191419    34.564896    950.07706    15751.004 
   23200    484.25886    5.0767154    82.310307    16.712457    1001.1738    15751.004 
   23300    414.35284    4.0985269    86.261491    5.2029151    3039.2494    15751.004 
   23400    465.26385    5.7508898    92.810462    48.645814    1797.8348    15325.555 
23500        0.85522311259987215948 10.70227592710320863 0.9550264550264550012 63 -169.87830475231919536
   23500    463.73434    5.9430568    101.39613    40.231902   -1049.1248    15325.555 
   23600    430.14591    7.8056274    84.780446    9.8050361   -1088.4978    15325.555 
   23700    485.64138    5.8254427    89.723532    50.005277    2366.7149    15325.555 
   23800    425.67375    8.0021446    84.325595    31.473423   -229.61666    15325.555 
   23900    383.50063    4.6818348     83.97392   -3.8748392       1646.8    15325.555 
24000        0.8704060060329562587 10.648223147561820312 0.96296296296296290951 64 -170.30063214941412753
   24000    429.60953    3.6891746    86.669317    24.348199    897.62128    15325.555 
   24100    465.36766    2.0994791    93.959972    60.461988   -1591.1432    15325.555 
   24200    435.76037    5.3257515    78.588623    37.863551    1687.5819    15325.555 
   24300    435.93822    2.8419887    93.356511    29.302565    1523.8813    15325.555 
   24400    439.65718     4.643303    81.400325    36.140805    254.56521    15325.555 
24500        0.89757665241927087063 10.557310565088503296 0.97619047619047616404 60 -169.58671856931917432
   24500    542.03289    5.1035471    81.104084     75.99924    3465.5619    15325.555 
   24600    437.16546    9.1807288    80.308134    36.539879   -2943.1137    15325.555 
   24700    431.82767    8.3125947    79.060661    31.491075      283.426    15325.555 
   24800    412.18565    10.100794    69.533024     7.493767    991.25874    17572.525 
   24900    473.33054    6.4497473    78.619425     46.36307    993.68278    17572.525 
25000        0.8872770199845544381 10.494859022803449733 0.9603174603174602364 63 -160.04994173565370374
   25000    513.09598    10.261122    91.970787     72.42519   -1001.4218    17572.525 
   25100    485.72851    8.2962485    72.487594    86.009454   -286.16397    17572.525 
   25200     378.1704      5.66367    99.113874     57.76681    760.16596    17572.525 
   25300    502.87834    6.6869711    99.578097    97.565609   -3242.0292    17572.525 
   25400     473.1191    6.6261379    78.510265    46.588788   -724.61875    16790.922 
25500        0.89466575135496118065 10.459076761992108118 0.97089947089947081782 63 -153.21548481477603332
   25500    456.98747    5.9363621    88.066141    53.837827    1779.1225    16790.922 
   25600    454.53371      8.44672    94.852927    84.384809   -8.9839092    16790.922 
   25700    468.12156     6.249051    72.279224    61.171206   -1242.7889    16785.732 
   25800    484.44625    2.3021475    90.144265    86.433749   -756.29571    16785.732 
   25900    448.48314    10.210796    90.879809    90.498924    1238.1857    16785.732 
26000        0.87943117419489946762 10.548552115499731485 0.9550264550264550012 64 -137.20510467336779925
   26000    384.60502    8.5488682    81.460558     37.05294    559.86502    16785.732 
   26100    427.55434    4.8252132    78.854428    69.339793   -2900.2112    16785.732 
   26200     468.5468    12.616493    93.696219    73.847426   -795.12131    15879.608 
   26300    431.99564    10.504944    80.974758    37.990287    -1392.168    15879.608 
   26400    440.72445    15.229499    73.611359     55.46586    145.29359    15879.608 
26500        0.91045061828680817761 10.384465486254759625 0.98148148148148139924 63 -142.30264879878387774
   26500    512.45131    10.101679     87.40221    89.880395    241.17856    15879.608 
   26600    466.50283    4.2584582    69.767715    61.750412   -279.29665    15879.608 
   26700    472.49188    3.2156718    100.42365    90.045579   -3132.9083    15879.608 
   26800    445.57511    5.1259554    72.875104    36.675642     2717.614    15879.608 
   26900    463.51044    7.9889733    95.011068    58.066705      471.191    15879.608 
27000        0.92143624280879243837 10.374946024407305956 0.98148148148148139924 64 -171.42590706595132133
   27000    450.29054    2.9322427    84.212454    32.593139   -1663.5698    15879.608 
   27100    427.45643    9.7173807     80.37768    31.369065   -2733.9909    14593.737 
   27200    481.62294    8.6228005    93.766253    61.401861    -339.8189    14593.737 
   27300    431.67362    6.8352511    81.343849    21.009023    1147.0353    14593.737 
   27400    439.83158    5.5107325    79.224823    42.619727    1907.4184    14593.737 
27500        0.88615343109465416482 10.414877342607237409 0.97089947089947081782 64 -132.28291730467077514
   27500    467.60577     8.951633    92.754235    79.581366    1936.6889    15499.305 
   27600     431.3168    4.5131495    82.791483     41.41373    313.07624    15499.305 
   27700    510.23064    6.1885718     83.18242    80.023448    1335.3271    15499.305 
   27800    458.98164     3.431341     100.3169     77.90993   -481.06242    15499.305 
   27900    433.84259    8.7652314    86.273854    68.125655   -93.309887    15499.305 
28000        0.87705320469091863078 10.358209104005331014 0.96825396825396814471 59 -125.14091125781871483
   28000    515.05861    11.083389    103.75002    108.22345     3575.125    15499.305 
   28100    480.81483    5.6308596    96.062922    64.101246    1671.7931    15499.305 
   28200    437.22372    8.2576793    76.490929     41.43088   -406.28331    15499.305 
   28300    489.97094    7.8033101    91.452376    85.264519    1907.2699    15158.463 
   28400     481.3406    4.7597869    90.106164    85.740757    650.23426    15158.463 
28500        0.88455894542090629518 10.471527257908521236 0.9550264550264550012 61 -158.05152056291285589
   28500     485.4527     7.626286    98.640695    61.898906   -236.66254    15158.463 
   28600    408.97905    6.0358414    83.139779      41.3451    1050.2201    15158.463 
   28700    453.26525    5.6198786    94.158589     69.69736    2758.4049    15158.463 
   28800    483.63294    7.7644475    97.062226    69.839307   -217.61198    15158.463 
   28900     460.4624    6.7828508    82.323804    49.376172    16.340129    15158.463 
29000        0.86732367929657316896 10.63486834170733708 0.94179894179894174666 57 -168.79218665505621289
   29000    408.44075    5.4841636    83.249141    16.265428    1165.3815    15158.463 
   29100    408.85376    10.496873    96.420333    50.343112    -472.1083    15158.463 
   29200    505.31695    7.5592193    69.817061    55.629361    1545.5853    16650.516 
   29300    422.21678    2.7702535    77.299919    22.395913   -10.834148    16650.516 
   29400    441.51841    4.1564262    87.665614    56.477737   -2309.6556    16650.516 
29500        0.87817112077467684994 10.506764007098290392 0.96296296296296290951 64 -126.18078041942861489
   29500    479.28791    6.7098154    101.39784    90.976486    1678.8565    16650.516 
   29600    490.90516    4.1096049    86.394777    58.418482    1252.2402    16650.516 
   29700    438.71189     4.838729    87.147214    56.259042   -839.76176    16650.516 
   29800    496.47895    11.286888    98.563253    86.036653   -768.32425    16650.516 
   29900    450.15701    7.9965005    82.585174    50.587516   -89.797855    16650.516 
30000        0.88410112901780057992 10.587271221954297928 0.97619047619047616404 62 -174.20296567635452334
   30000    477.25381    4.9026548    84.742798    42.032684    2046.3675    16650.516 
   30100    424.77622    10.513449    101.10181    49.342375    414.62014    16650.516 
   30200    467.96116    4.6086314    97.409392    81.142739    166.22988    16650.516 
   30300    453.38874    5.2085954    83.269939    50.543053    1365.0838    16650.516 
   30400    463.73839    11.031986    89.846005    64.052417     848.8592    16650.516 
30500        0.88494194385410929193 10.645054488990648878 0.97089947089947081782 58 -161.07442986229077064
   30500    504.41416    6.5027322    92.325803    67.467114    111.13345    16650.516 
   30600    502.36496    5.9645968     75.12916    51.119639    165.27345    16650.516 
   30700    430.59655    11.245528    77.931365    20.924819    779.45501    16650.516 
   30800    484.50953    3.7091865     83.48053    32.918372   -354.27428    16650.516 
   30900    459.07633    8.1666428    92.814087    69.218992   -501.95213    16650.516 
31000        0.87786219648930807757 10.535578990493196017 0.95238095238095232808 64 -134.60548768597925573
   31000    507.26834    8.4905069    94.026896    95.229239    -2514.371    16650.516 
   31100    484.52638    6.9447595    85.736537    71.552504    294.47154    16650.516 
   31200    420.25983    9.0374322    90.143196    24.911271    2426.2139    16650.516 
   31300    524.16289    9.3324096    86.315293    57.474151     440.9608    16650.516 
   31400    452.27119    9.0987438     88.21791    47.455989   -959.96517    16650.516 
31500        0.88896241417083055047 10.555380485151466985 0.97619047619047616404 64 -158.40125113235271215
   31500    474.47362    6.1660762    94.307017     56.57474   -132.07638    16650.516 
   31600    512.68072    6.4791228    92.097406    81.476402   -308.27628    16650.516 
   31700      434.987    8.4324433    86.811391    19.117072   -293.75543    16650.516 
   31800    460.57854    10.863533    106.58584    58.578793    2069.7207     16724.95 
   31900     465.2673    7.4736416    97.104919    63.539385    907.06834     16724.95 
32000        0.87766544753029585024 10.51390241909632195 0.9603174603174602364 57 -112.25596504602519587
   32000    498.13697    13.093256    107.40915    113.44149   -1074.7991     16724.95 
   32100    409.65096    8.1787482    105.70992    59.987486    201.95947    16930.427 
   32200    499.92582     4.159961    95.139743    67.333999    198.37492    16930.427 
   32300    495.31467    8.0996736    106.80709    84.423519   -2934.6962    16930.427 
   32400    483.25585    6.0142344    79.555507    34.873492    2145.0937    16930.427 
32500        0.89620742283070164991 10.391824683462695944 0.97089947089947081782 67 -167.41943830652149927
   32500    477.79872    5.1073055    86.829152      49.0631    1590.4695    16930.427 
   32600    447.11568    3.1184856    95.667916    59.321738    401.02615    16930.427 
   32700     436.3706    13.014574    83.894664    41.748557   -1372.4941    16930.427 
   32800    417.13295    9.1034674    82.541207    14.573562   -2441.7865    16930.427 
   32900    457.73028    3.9968103     96.35223    51.014479   -1313.0444    15121.759 
33000        0.89810379426105613199 10.378727672903510282 0.95767195767195767431 64 -169.34915185823282968
   33000    465.54591     6.836432    86.357949    41.581844    1868.0654    15121.759 
   33100     380.6262     11.87585    87.722058    13.231453    2479.6682    15121.759 
   33200    500.49488    6.2439323     92.83174    56.980059    3164.9331    15121.759 
   33300    444.90212    9.9744993    108.87664    67.471951   -3044.1483    15121.759 
   33400     519.5684    7.9914178    101.83978    106.73555    204.72113    15121.759 
33500        0.89741151714066436096 10.232034124747652726 0.96296296296296290951 60 -145.57132966094988547
   33500     475.8741    8.0610639    85.373371    70.039196   -672.20529    15121.759 
   33600    446.98421    5.8807197    97.039639    78.736913    188.97891    15121.759 
   33700    539.27399    8.6095164    111.07339    115.66956    2859.1236    15121.759 
   33800    436.53181    10.432523    97.823629    52.636327    2471.5782    15121.759 
   33900    466.73794    3.6811783    93.962777    63.672402   -1238.8715    15121.759 
34000        0.89049614572404289792 10.273885038899392086 0.9603174603174602364 63 -149.13335083526021663
   34000    458.13768     5.492166     98.84831      58.4411   -341.51363    15121.759 
   34100    425.23269    6.8835704    94.541468     43.65888    742.39088    15121.759 
   34200    500.94377    5.6729782    92.870188    79.933781    2359.8427    15121.759 
   34300     440.7074    2.8702577    102.42236    63.955846   -3709.5968    15121.759 
   34400    461.57482    9.0257276    90.064251    56.681992   -1189.1302    15121.759 
34500        0.86504690123609317975 10.382874897759242216 0.9550264550264550012 62 -150.97441945888456871
   34500    472.17782    8.0092876    89.679879    62.961384   -1207.6673    15121.759 
   34600     513.6083     6.744582    96.934235    87.878855   -929.94465    16223.598 
   34700     441.4516    5.0923431    98.672024    51.759725   -2409.3395    16223.598 
   34800    494.87741    2.4050623     96.04718    97.469932   -256.72949    16223.598 
   34900    485.21475    6.7433337    92.390857    81.388187   -1875.9486    16223.598 
35000        0.85288736070258530653 10.528484685946118304 0.94444444444444441977 57 -157.69336745293469448
   35000    481.77666    3.6354727     75.32824    60.591508   -540.53185    16223.598 
   35100    536.26538    3.4394823    79.575759    93.944093   -1524.9887    16223.598 
   35200     433.8331    3.3402641    103.19216    73.232582    1684.6963    16223.598 
   35300    497.90195    7.8570177    86.142983    73.791568   -305.05227    16223.598 
   35400    507.55666    12.144319    104.74932    115.31994   -3065.9404    16223.598 
35500        0.8610579466240199098 10.52329335141697797 0.93650793650793651146 59 -158.93596901725516091
   35500    509.91033    4.2112239    81.638999    72.095799    311.44166    16223.598 
   35600    465.51591    3.3998541    82.688808    69.925964    824.49277    16223.598 
   35700    512.73785    11.293485    99.661896     118.3193   -488.62881    17859.279 
   35800    434.30747    4.9445914    93.824758    74.335741   -330.46954    17859.279 
   35900    458.45552    5.7527534    88.294914    70.272214    1226.9466    17859.279 
36000        0.88374681793119602702 10.474730127977737837 0.96825396825396814471 58 -128.40998191436301568
   36000    526.22054    6.3239484    99.999606    110.01167    49.054273    17859.279 
   36100    446.55324    7.0876445    90.355602    67.622779   -1680.3914    17339.836 
   36200    483.78669    5.8896039    83.769275     68.49158   -840.21138    17339.836 
   36300    458.45479    5.8390545    87.404527    60.505447    573.94059    17339.836 
   36400    413.10946     10.22123    88.988864    39.731967    1926.3017    17339.836 
36500        0.84501710087499615209 10.622509278393529542 0.94179894179894174666 55 -121.97460252955347926
   36500    449.25584    7.8934489     91.77873    81.575639    1398.2489    17339.836 
   36600    501.55681    4.9788449    103.39369    112.28601   -1374.8299    17287.761 
   36700    473.03148    2.7345803    87.608286    95.102832   -693.21261    17287.761 
   36800    449.16415    2.9071797     103.2363    82.345495   -1495.2828    17287.761 
   36900    438.84288    6.4046084    85.160585    53.724926   -1872.9797    17287.761 
37000        0.79930454276472018282 10.769644647965479933 0.90740740740740732928 60 -152.55284045388145842
   37000    533.50229    2.6708518    81.011936    89.168044   -676.57297    17287.761 
   37100    443.35313    9.7429868    95.782098    74.365347    -131.4321    17287.761 
   37200    539.97855    4.9546207    92.072878    118.99304     964.6041    17287.761 
   37300    450.27964    8.6065798    94.073447    87.292404    1124.8742    17287.761 
   37400    419.53704    2.2028895    89.159685    46.027095    673.06051    17287.761 
37500        0.7646590467476237496 10.868848897461967695 0.85714285714285709528 56 -123.1601231472622402
   37500    444.42081     1.054332    94.088382    78.199449    1423.9433    17287.761 
   37600    497.02478    2.2276046    90.348614    116.38019    229.91709    17287.761 
   37700    454.91506    4.9454695    97.853384    93.216135   -1206.4329    17287.761 
   37800     451.0071    6.1904403    82.528179     72.21923    1011.1966    17287.761 
   37900    492.22384    7.8851583    87.836077    133.54609    923.55708    17287.761 
38000        0.80063641240492733342 10.710767200103642693 0.92328042328042325693 58 -76.502838716245719297
   38000    474.48544    4.7936619    117.56777    138.47851   -1815.0144    17287.761 
   38100    432.80104    1.6438757    102.36361    99.424534   -2233.5723    17287.761 
   38200    565.65125    7.0612647    89.043576    156.43317    285.74872    17287.761 
   38300    469.32603    5.9711868    95.352966    134.17238   -853.90527    17287.761 
   38400    441.30054    4.8739924    103.80994     103.2655    736.24654    19066.836 
38500        0.78082959485962399881 10.790949376668161008 0.90740740740740732928 58 -89.977888769856946283
   38500    481.66238    4.9653881    94.594237    128.25521   -1442.4615    19066.836 
   38600    546.66193    8.4593071    86.153709    147.47564    1708.1442    19066.836 
   38700    455.86752    4.7877619    103.63607    114.57898   -315.70626    19066.836 
   38800    464.59314    3.1512498    92.503049    96.912246    121.17127    19066.836 
   38900    489.94418    3.6145378    83.831378    79.531224   -1612.2617    19066.836 
39000        0.81402301087395911861 10.683617292312398206 0.92857142857142849213 58 -111.91535530949099098
   39000    520.35621    13.870408    94.390042    123.84926    286.85567    19066.836 
   39100    520.51252    10.211251    76.879783    87.583994    2036.1842    19066.836 
   39200    491.19647    7.2379525    103.27197     110.3711    249.15498    19066.836 
   39300    482.04753    8.6508251    89.118792    136.81528    445.98976    19066.836 
   39400    446.63452    7.9456833    89.474232    93.903324    1106.2593    19066.836 
39500        0.76811967813798720517 10.759630676656083637 0.8677248677248676767 55 -135.73569443736636231
   39500    494.74351    6.4583294    76.395877    88.424243    831.19546    19066.836 
   39600     487.9793    7.7618822    96.211727    140.36952   -1473.0238    19066.836 
   39700    483.07692    2.8113624    74.730766    96.487178   -188.11933    19066.836 
   39800    463.86127    3.9714613    96.790925    118.57351    906.29375    19066.836 
   39900    538.62464    7.3213504     85.03145    146.03941   -852.18194    19066.836 
40000        0.72052025280122611317 10.929653299047291881 0.80423280423280418816 50 -95.262950927384949296
   40000    414.05456    4.6782125    81.740769    92.338183   -181.63731    19066.836 
   40100      493.242    2.6961813    97.125827    129.96992    1728.0474    19430.735 
   40200     476.0034    1.1099106    93.840598    138.35574   -170.45832    19430.735 
   40300    423.44693    7.9425544    80.489357     97.21733    346.09894    19430.735 
   40400    507.66594    3.2614186    88.000296    128.24452   -233.23722    19430.735 
40500        0.72285718520742026083 10.935090084770875407 0.83597883597883593243 49 -66.459429509422619731
   40500    503.34585    4.7892107    95.346046    161.59808   -1018.9917    19430.735 
   40600    500.34619    2.8905865    87.969615    144.44788    123.86015     18264.47 
   40700    475.82715     2.852423    100.09337    131.85973     240.7317     18264.47 
   40800    516.70867    1.7465728    89.391199    161.07094   -15.339551     18264.47 
   40900    478.44939    6.6509323    104.33745    155.14596   -509.96287     18264.47 
41000        0.7676020172048636514 10.539333672631872929 0.88095238095238093123 55 -94.409075261659978651
   41000    510.69796    5.7205659    97.527527    136.97956   -116.55546     18264.47 
   41100    467.48924    5.7920788    87.796023    111.94802    1016.6663     18264.47 
   41200    452.89496    3.5521614    82.429833    79.588946    -94.88885     18264.47 
   41300    511.60894    1.7749814    89.597128    124.44089   -431.87289     18264.47 
   41400    442.33156    2.9039062    96.836484    115.85703    570.66033     18264.47 
41500        0.77897799852637283902 10.457361832920467393 0.90476190476190465617 53 -53.953165171185020199
   41500    480.29713    9.3491192    102.96597    163.66136     721.0575     18264.47 
   41600     488.2333    13.863508     74.33044    130.89951    210.50231    16573.871 
   41700    494.57096    5.7848771    84.806942    128.06015    949.80925    16573.871 
   41800    538.37989    5.5698947    105.50754     190.1574    509.96016    16573.871 
   41900    437.26856    5.0698142    104.66311    147.53175   -1788.6442    16573.871 
42000        0.8033435473032890517 10.371600008253880176 0.86243386243386233048 57 -63.644393254345004607
   42000    457.73959    5.8268413    94.532003    143.74969   -1972.8885    16573.871 
   42100    542.84094    4.2468917    107.71489    184.62473    652.57954    16573.871 
   42200    478.71295    1.4788926    100.19898    153.37403   -775.85567    16280.903 
   42300     456.2189    1.9728537    89.689045    147.10282   -177.33402    16280.903 
   42400    541.85976    8.6801171    112.22504    191.72484       -166.5    16280.903 
42500        0.8027278151332887246 10.439751296647420631 0.87301587301587302292 51 -81.795931697983533581
   42500    498.14827    7.7644559    104.63653    143.90665    492.66142    16280.903 
   42600     498.9419   0.98266092    90.526668    142.80097    1877.1837    17881.147 
   42700    579.19906    7.7840954    93.096332     199.6145    745.02674    17881.147 
   42800    490.17758    13.638529    102.42656    164.71653    509.59325    17881.147 
   42900     492.1454    1.7266945    91.894876    148.45258   -1018.5081    17881.147 
43000        0.80087159958179832131 10.449575623886582676 0.88095238095238093123 59 -85.304231044512178528
   43000    422.95737    5.7568628    91.075172    106.33062    1179.2757    17881.147 
   43100     477.8983    9.6888518    110.74532    148.37349    1342.1275    17111.553 
   43200    506.24888    9.3521673    87.087563    146.81347   -925.39423    17111.553 
   43300    442.05584    1.6859131    89.557209    110.12748    478.80381    17111.553 
   43400    482.26065    2.1113306    99.085878    151.31848   -2004.0881    17111.553 
43500        0.71818850745026407978 10.359684956895103269 0.85978835978835976839 55 -41.810837800505254336
   43500     509.6644      4.24654    109.77276     189.1095    69.154781    17111.553 
   43600    483.00725    3.7477486     97.55326    147.25305    1050.6843    19071.959 
   43700    470.30879    7.1124005    109.49321    164.61802    2507.1954    19071.959 
   43800    508.38168    4.3276579    94.738093    156.47401    93.428468    19071.959 
   43900    504.09197    9.6984618    91.845687    158.59206    641.94245    19071.959 
44000        0.68590959583144472944 10.364495195579248588 0.79629629629629627985 46 -59.244492795201736612
   44000    510.44389    4.1095147    99.880484    172.02902    776.62728    17033.749 
   44100    443.52013    1.9177301    96.976795    122.39375    760.51125    17033.749 
   44200    490.34184    8.3536512    99.409661    158.22877    21.220519    17033.749 
   44300    506.27562    3.9315711    82.114547    155.16799   -2262.7869    17033.749 
   44400    433.95066    2.6449422    103.61447    113.12009   -1772.5029    17033.749 
44500        0.74563770339307411383 10.161953786349481987 0.84920634920634918696 51 -82.897823019711665893
   44500    472.08324    2.6332297    92.594079    130.99513   -266.76822    17033.749 
   44600    509.80411    6.5046085    105.90892     145.5926   -1228.3166    17033.749 
   44700    474.56159    6.1475438    84.446301    113.35765   -397.06117    15078.334 
   44800    442.35801    8.8372614    99.225193    128.37075   -2021.2168    15078.334 
   44900    489.06826    4.9527944    107.71746    168.47041   -1421.7645    15078.334 
45000        0.75456963222445905259 10.067098919307484906 0.85185185185185186008 57 -47.489397401298006685
   45000     531.8959    2.1376346    98.691327    193.50366   -1808.8339    15078.334 
   45100    479.79112     7.896308    104.21501    167.50885   -26.477397    15078.334 
   45200    508.67915    1.8996528    96.699239    157.65763   -373.18544    15078.334 
   45300    513.53384    5.3131473    88.507096    151.31903   -1139.1292    14687.556 
   45400    476.93597    10.830505    97.287179    135.70937    1786.2696    14687.556 
45500        0.75823068146863459305 9.7524753173264002726 0.88624338624338616643 53 -87.585632851042063862
   45500    547.02812    5.1092436    99.847507    160.26358     241.6807    14687.556 
   45600    426.28111    2.0846424    105.40779    127.74418   -37.949909    14687.556 
   45700    495.57755    4.9319846    94.807661    153.58955    661.96732    14687.556 
   45800    545.07546    4.3725946    102.61305    193.56895   -1357.2187    12885.446 
   45900     499.8359    8.1661688     115.0328     198.3427   -107.65569    12885.446 
46000        0.72479083876983452228 9.7858876828289940164 0.83068783068783069723 62 -46.126569763545077763
   46000    469.43047    3.4224226    96.854434    166.56446   -1720.4706    12885.446 
   46100    517.71091    2.7400136    104.37559    173.82795    92.094643    12885.446 
   46200    432.03864    1.7984823    96.502481    124.59027    827.96813    12885.446 
   46300     497.0901    1.9309778    104.99889    168.30449    2275.6855    12885.446 
   46400    444.05097    4.4256835    110.31106     171.1822    1273.6506    12885.446 
46500        0.73907419990202016802 9.89776904027629989 0.83862433862433860554 62 -20.791486004952588473
   46500    517.39323    6.9073359    121.65727    213.63066   -1698.1475    12885.446 
   46600    446.94895    3.1138244    106.38136    152.33363   -1663.7964    12885.446 
   46700    481.33872    4.4870295    111.21482     165.7507   -928.83535    12885.446 
   46800     490.1322    3.4953273    94.271496    159.79936   -976.23004    12885.446 
   46900     463.9543    4.4597943    98.180242    146.53644    -224.3853    12885.446 
47000        0.75842335485469758449 9.9487947078538727652 0.83597883597883593243 55 -58.054025003076105804
   47000    555.54261    7.5595798    87.774735    193.65296    77.639296    12885.446 
   47100     470.5072    5.3795325    90.901371    150.17093    749.90432     13721.28 
   47200    471.73021    5.5457043    102.17398    170.39402    611.41003     13721.28 
   47300    520.01889    9.6555789    99.276531    177.96995    1401.0942     13721.28 
   47400    457.14615    7.0534588    89.100968     126.4294   -719.28614     13721.28 
47500        0.79596579669243205934 10.031049423402649268 0.91534391534391534861 57 -72.485278961275071197
   47500    499.64846    5.0795339    92.091446    153.89701   -2168.3192     13721.28 
   47600    535.49166     7.181912    84.007079     155.8216   -1395.3188     13721.28 
   47700    483.78119    1.5098915    85.965554    122.80063   -1424.3348    14468.415 
   47800    527.75338    6.9319511    94.359293    160.72934    1947.4271    14468.415 
   47900    486.39459    9.7510671    96.947728    148.01726    161.35838    14468.415 
48000        0.73790112251304873503 10.343561486274387207 0.83597883597883593243 54 -78.749239622199766586
   48000    514.43091     9.291704    101.88276    154.33072    1297.2785    14468.415 
   48100    459.69562    2.6987479    88.298372    108.08572   -470.10201    14468.415 
   48200    525.93474    7.8996036    100.95199    146.78958   -598.98785    14468.415 
   48300    471.57952    1.5913734    82.263974     110.9313    1001.0692    16053.504 
   48400    455.75849    1.6303614    87.877981    93.039393    1206.2335    16053.504 
48500        0.6696417553294654601 10.522989926506550518 0.73280423280423279131 50 -96.121941016277332892
   48500    535.42205    1.5647082    93.969695    146.46875    1284.4082    16053.504 
   48600    502.67117    2.5095267    106.12161    137.22977    -179.4317    16053.504 
   48700    489.19845     9.699145    82.129763    115.65398   -813.60447    16053.504 
   48800    557.52263    1.6853096    95.866684    151.36515    111.80639    15336.234 
   48900    424.58998    1.0518407    82.918018    83.525072    1240.5384    15336.234 
49000        0.61642111117551323662 10.859795984157761595 0.67460317460317453797 48 -101.80105438804366713
   49000    454.38106    3.8183218    91.744303    104.07134   -2088.1453    15336.234 
   49100    477.17422    4.0530262    105.56857     147.8527   -1230.8863    15336.234 
   49200    504.40237    5.8224054    93.004917    148.03199    54.054047    15336.234 
   49300    456.46508    1.7137895    87.946886    105.99386    324.44138    15336.234 
   49400     473.1751    2.1070702    99.883627    141.17428   -1597.1409    15336.234 
49500        0.62494745804753937257 10.923595841987127741 0.70634920634920628224 55 -100.0099935062314529
   49500     547.9657    3.6072981    95.382817    148.26402    512.76476    16704.762 
   49600    432.78579    2.2847209     99.24621    107.47458   -989.44035    16704.762 
   49700    487.61187    9.0872026    116.83278    167.59909   -838.72372    16704.762 
   49800    484.98029     3.961967    98.185854    143.07756      2299.95    16704.762 
   49900    524.54582    3.2194105    108.26475     166.2395   -1997.0227    16704.762 
50000        0.58419783698817084883 11.132967060274518545 0.65079365079365070201 48 -77.038950411207508751
   50000    508.62944    7.9488547    97.069268    153.41247    -436.6349    16704.762 
   50100    455.08395   0.48499085     116.1646    147.65069    321.70908    16704.762 
   50200    531.39442    6.1831224    112.73946    183.96474    1015.5012    16704.762 
   50300    495.12482     2.271968     100.8902    138.94034    1597.5089    16704.762 
   50400    548.46548    3.5597822    109.28304     173.2286    1054.4902    16945.503 
50500        0.56193574670839507856 11.215830087313689134 0.64814814814814813992 53 -38.669636704349017009
   50500    490.57258    5.0385445    123.21872    183.60052   -566.09363    16945.503 
   50600    467.28446    1.6819843    103.68725    127.97094   -858.93187    16945.503 
   50700    526.42708    4.3798775    98.737373    153.44732   -2010.6701     18389.19 
   50800    537.65929     4.582803    108.58022    175.79821   -1690.0128     18389.19 
   50900    458.50044     6.908307    104.90332    116.66091    463.92011     18389.19 
51000        0.58804563051785474492 11.18215387151505702 0.65873015873015872135 53 -89.136392783401547035
   51000     526.0336    4.0310189    92.585407    149.20055   -852.55483     18389.19 
   51100    462.34035    2.8024886    134.62934    157.56862   -887.04107     18389.19 
   51200     430.9441    1.5177635     98.24277    113.73942   -428.47726     18389.19 
   51300    501.16127    6.1916347    113.14623    173.81059   -1373.4424     18047.33 
   51400     469.5074    3.0354913     102.6898    160.00752   -1405.3864     18047.33 
51500        0.61021876536334052066 11.161349163062888934 0.67724867724867721108 58 -57.84149897229245596
   51500    570.15163    5.7570074    108.59823    200.48458   -755.27957     18047.33 
   51600    502.88953    6.6828971    102.58604    152.91254    569.64603     18047.33 
   51700    480.95607    1.7812236    101.37229    144.32586   -406.20687     18047.33 
   51800    495.87156    1.6918155    112.96975    183.46634     696.5976     18047.33 
   51900    500.46109    1.5640151    108.70407    178.20764   -123.22073     18047.33 
52000        0.62024033240388587451 11.076506049570250312 0.71693121693121686366 51 -65.769524694337874848
   52000    530.78568    4.5987648    99.211896    174.72051   -44.908899     18047.33 
   52100    502.37309    3.3694043     108.6344    159.51706   -611.87979     18047.33 
   52200     484.0784    2.5210017    95.118009    132.58795    158.61735     18047.33 
   52300    524.62364    3.3520314    108.23995    163.54723    1350.4515     18047.33 
   52400    515.51554    7.8519808    95.467376    161.22455     -1394.66    17058.977 
52500        0.61998655574082195407 10.996573901809806983 0.68783068783068779251 50 -70.927307662261100063
   52500    564.66975    3.0260219    107.32546    184.91503   -955.74508    17058.977 
   52600    449.14416     4.391735    104.32029    136.88224     1585.293    17058.977 
   52700    535.35158    3.4914131     111.6415    198.60414    170.20555    17058.977 
   52800     519.9164    6.9765046    110.57634    184.28137    329.51783    17058.977 
   52900    469.09373    3.1257613    103.20168    154.83357   -963.65119    17058.977 
53000        0.58549173124061903994 11.123727148282357646 0.64814814814814813992 48 -56.845742004518498902
   53000    557.17671    5.1102333    105.14077    195.60163    280.98713    17855.384 
   53100    512.14924    7.6628219    115.70424    191.14287    1432.1795    17855.384 
   53200    497.13926    1.5801458    92.625617    148.95003   -162.32863    17855.384 
   53300    520.04338    8.5485036    113.72699    206.50627   -488.00437    19537.007 
   53400    499.28299    6.6408525    104.03662    167.47357    932.19496    19537.007 
53500        0.53635789380715181984 11.166918203433375822 0.61375661375661372254 52 -72.484296106052184427
   53500    502.41265    3.1355245    91.425521     155.1504    849.11371    19537.007 
   53600    493.10262     3.719074    103.85714     162.4122    2474.0323    19537.007 
   53700     557.4019    2.2721515    99.109748    204.67637    -217.0484    18953.862 
   53800    462.35674    2.5022916    93.152793    164.53027   -338.04168    18953.862 
   53900    513.74597    6.0968523    95.948063    174.30592    2948.7032    18953.862 
54000        0.54541466659199389078 11.120836028659374151 0.65343915343915337512 51 -50.329836240666338654
   54000    504.40106     8.225326    114.99282    178.20577    2369.1557    18953.862 
   54100    509.25139    6.6834769    116.97305    217.30502    627.10551    18953.862 
   54200    516.45422    6.5241996    108.88956    215.95713    401.57821    19450.569 
   54300    488.02504    1.8870538    105.58314    193.39974    1334.9783    19450.569 
   54400    442.17402    6.8148609     98.55724    141.17968      1052.32    19450.569 
54500        0.53619677545268862318 11.317225783899978353 0.60317460317460314112 44 -55.29855528157986555
   54500    487.40135    3.6586908    98.866953    165.53477   -390.12438    19450.569 
   54600    520.89523    4.4923138    106.59202    206.00925   -863.70382    19450.569 
   54700    450.90851    1.2834299    106.57358     186.0518   -1255.9419    19992.614 
   54800    497.56709    10.877073    105.10135    206.24181    1836.1624    19992.614 
   54900    512.62182    4.4731831    94.157598    205.84758    1775.7368    19992.614 
55000        0.50198931219681908189 11.220546866693652532 0.58994708994708988659 47 -2.1823573996665999175
   55000    451.55633    9.7950518    110.52419     202.4102   -559.97664    19992.614 
   55100    514.76244    2.4153311    106.23362    201.68712    396.50579    19992.614 
   55200    550.53776    6.3613109    94.171942     196.8733    922.31892    19992.614 
   55300    547.75941   0.96790994    110.82103    234.15984    382.17722    19992.614 
   55400    487.81704    1.2970337    107.56135    194.81914   -930.09303    18853.897 
55500        0.50400210052195759669 11.186426581218261944 0.57407407407407406996 42 -54.236004109272712981
   55500    551.59117    6.7204474    86.363239    195.68065   -6.8719229    18853.897 
   55600    526.24545    2.5823629    108.36126     227.2077   -447.06921    18853.897 
   55700    546.81052    6.1751424     104.6274    219.87183     1013.588    18853.897 
   55800     539.0844    4.4855696    91.604982    214.36449    513.61927    18853.897 
   55900    556.25751    2.7690957    114.22495    239.99867    -974.0728    18853.897 
56000        0.52368335712467706244 11.041323107423069771 0.58730158730158721347 42 -2.0901541263099829848
   56000    530.79993    5.1844035    100.84148    238.40634   -1617.8057    17138.006 
   56100     477.5656    5.6552046    105.71427    212.03642    -1464.158    17138.006 
   56200    576.35184    5.3382381    96.541295    247.20188   -881.91927    17138.006 
   56300    463.53825     3.832136    105.48181    186.35486   -802.06872    17138.006 
   56400    572.76801    2.6270066    100.68813    225.30067    1530.5476    17138.006 
56500        0.50736606161192243647 10.825567548830953513 0.56349206349206348854 52 -22.692987698704200739
   56500    500.91049    5.3364916      95.4851     204.2611    1470.1581    17138.006 
   56600    453.68707    1.3076339    116.76194     202.0908    757.40641    17138.006 
   56700    550.37875    1.7993075    110.34596    244.20157    156.27735    18128.367 
   56800    461.69127    1.4545318    104.71847    207.59768   -1616.4445    18128.367 
   56900     570.8477    2.8349821    107.57769    262.01474   -1298.7649    18128.367 
57000        0.48804712702226654697 10.945762929529145424 0.55291005291005290712 43 -2.4148039629872926071
   57000    486.15359    2.3763045    103.65258    217.85319    174.41139    18128.367 
   57100    542.23842    1.3834147    103.66681    233.80796   -1874.2162    17818.128 
   57200    551.36322    4.3050801    117.40193    281.28901   -718.74307    17818.128 
   57300    495.22472    1.6017427    108.45201    233.86632    99.767141    17818.128 
   57400    522.73696    7.6488049    109.49933    229.25558    875.11045    17818.128 
57500        0.56020677396821372263 10.73690778290671588 0.6428571428571427937 52 -28.300665102695546693
   57500    466.19195     1.754653    103.92555    182.92304    541.48641    17755.876 
   57600    487.31885    5.4556629    106.21787    216.96933   -149.30197    17755.876 
   57700    519.81559    1.4316987     101.3756    212.70738    428.05958    17755.876 
   57800     496.9852    4.4202008    99.654118    190.15131   -158.20888    17755.876 
   57900    548.03219    3.8734941    106.10755     236.6443    404.01361    17755.876 
58000        0.53679741424274129979 10.662005702829102205 0.62698412698412697708 50 -24.731005574550010806
   58000    492.85791    3.5481489    111.60136     198.5746   -186.81459    17755.876 
   58100    512.71271    2.0266832    100.21507    215.54875    392.36557    18429.582 
   58200    511.83282    3.1432312    103.90192    226.78538   -850.81305    18429.582 
   58300    543.98087    7.0812123    123.50154    278.06493   -1342.6033    18429.582 
   58400    560.13449    5.4630789    99.781446    233.03997    827.01698    18429.582 
58500        0.49463071450182360955 10.692023181237603424 0.56349206349206348854 47 -11.489095622526193097
   58500     528.3776    3.3988064     105.0954    227.90988    244.35615    18429.582 
   58600    575.51353    4.3775639     120.7721    283.10915    599.75123    18429.582 
   58700    493.26195    2.9546498    114.78376    229.21559    1553.9986     16032.35 
   58800    518.05291    5.4384803    103.31056    222.01593   -1123.7778     16032.35 
   58900     496.0726    6.7468277    128.23046    254.20899    1491.6729     16032.35 
59000        0.47067349326429203105 10.661359311045309539 0.52645502645502639805 47 16.101380423144505016
   59000    520.43186    3.0959111     112.0134    251.90028   -1666.6773     16032.35 
   59100    505.43502   0.82785494    102.70684    228.82914    708.53943     16032.35 
   59200    529.71757    2.1696121     110.9956    242.82071   -978.37067     16032.35 
   59300    579.19764     5.113858    117.21026    287.11286    781.67691     16032.35 
   59400    547.26081    1.5105341    104.20641    249.55555   -1583.0022     16032.35 
59500        0.47541642409127954361 10.599633197185720945 0.56613756613756605063 46 26.280661738007253803
   59500    498.32246    3.2073286    121.99998    252.06216   -751.73104     16032.35 
   59600     553.8588    3.6862441    131.08152    299.12515    1205.8616     16032.35 
   59700    495.27842    7.2307875     120.0221    235.92339    2290.8864    14204.395 
   59800    543.74597    2.7161873    101.80933    229.28949   -1154.8295    14204.395 
   59900    581.71104    3.2599458     107.0349     271.0822   -976.18734    14204.395 
60000        0.47004427596709530413 10.713755649970670092 0.53174603174603174427 49 -5.2964372908544987695
   60000    521.54133    3.1181205     94.75172    231.00514     105.7302    14204.395 
   60100    508.77178    2.4267282    105.35043    238.47263   -655.01277    14204.395 
   60200    579.60108    3.4627542    114.63757    293.75362   -327.07818    14204.395 
   60300    547.90339    1.4644396    116.77689    261.70006    337.19627    16046.947 
   60400    499.63008    2.3957633     102.9291    245.34856    168.94285    16046.947 
60500        0.45777217265268937973 10.813251280890778361 0.53439153439153441738 50 44.070107615026898884
   60500    568.57671    4.8131608    117.40674    301.68262    1642.0571    16046.947 
   60600     539.4533    2.3425992     104.0288    264.35901    933.78584    16046.947 
   60700    496.07623     2.757033    91.293784     238.9169    1011.0617    16046.947 
   60800    573.85464    2.3230288    92.566941     268.5475   -1037.1121    17010.864 
   60900     526.3846    1.6553213    106.43294    257.48937   -58.072855    17010.864 
61000        0.43187258189005639508 10.802019416384075257 0.5052910052910052352 45 -4.6842128186948599478
   61000    466.65577     4.281172     96.57725    206.74964   -222.56301    17010.864 
   61100    550.10344     2.867682    98.122715    250.92289    -805.9131    17010.864 
   61200    534.95903    2.8401687    100.87554    248.10085     324.1947    17010.864 
   61300    476.09332    2.9753607     111.2735    246.54831     60.76577    17119.409 
   61400    610.93176    2.8019908    99.950996    291.59252   -409.95167    17119.409 
61500        0.42032450007461108488 10.67648363027803704 0.50793650793650790831 49 25.903772674828076106
   61500    498.31243    3.5130634    109.23006    251.68073   -790.34405    17119.409 
   61600    485.31937    5.2786593    124.33705    260.40959    1488.4507    17119.409 
   61700    528.03692    3.4224332    95.530711    251.80367    371.79745    17119.409 
   61800    485.32723    2.4386091      100.883    244.86293   -2387.3302    14891.178 
   61900     572.3862    7.4647478    102.95183    277.68198   -2740.3317    14891.178 
62000        0.40857003566331834277 10.201909393560192996 0.52116402116402116285 48 5.4342057563830366007
   62000    526.53223    8.6338013    97.474814    243.99707    -1083.288    14891.178 
   62100    570.17803    4.4799476    102.95702    299.84935    849.25077    14891.178 
   62200    537.85478   0.57259075    116.57358    272.21119   -692.32554    14891.178 
   62300    479.88589    7.3983859    104.56259    237.49277   -1101.7807    14891.178 
   62400    536.10629    5.2777682    116.46053     286.6073   -2.2891681    12487.726 
62500        0.41244586045775311067 10.098718219318261191 0.51058201058201058142 46 19.130306006574258504
   62500    538.82377    2.1869941    124.37525    263.26227    404.22341    12487.726 
   62600     529.2997    2.4263011    87.139259     239.2609   -3180.8441    12487.726 
   62700    474.14872     7.671561     87.89414    214.79089    161.57087    12487.726 
   62800    574.87371    3.1586408    95.218037    273.22336    78.786675    12487.726 
   62900    512.02192    3.2986109    94.279035    243.63511    1104.8034    12487.726 
63000        0.37295035344784599474 10.303679870103007232 0.45238095238095232808 35 6.4612074880918299868
   63000    484.78693    3.6721064    90.718261    226.10999    930.97233    15153.169 
   63100    523.06196    4.0228669    111.29099    272.06828    2603.7309    15153.169 
   63200    491.48529    4.1261351    81.927975    226.27011   -237.39644    15153.169 
   63300    529.59981    2.5793204    80.034055    250.00804   -719.27252    15153.169 
   63400    500.92453    1.8816398    111.64384    249.38875   -1389.8895    15153.169 
63500        0.36807255909299452235 10.309378277502602828 0.44179894179894174666 42 -6.0806869341377307592
   63500    504.07018    1.6533849    89.903894    222.30501   -84.235523    15715.945 
   63600    544.23601    8.5238512    95.989202    266.40359   -812.86128    15715.945 
   63700    472.63105    1.1271563    100.47559     233.8878   -161.13413    15715.945 
   63800    564.89264    7.6475775    96.738725    280.99472    2728.1412    15715.945 
   63900    524.22197    6.2503887    102.84941    264.90312   -478.07044    15715.945 
64000        0.34444165654397890242 10.208881714711568023 0.44444444444444441977 41 18.454159663210703002
   64000    441.74236    5.2569389    92.698983    218.60017   -920.95599    15715.945 
   64100    513.47053    5.3446921    100.45111     260.8455    832.32903    15715.945 
   64200    569.90668    2.6196708     84.35284    276.05689    1555.8365    13146.329 
   64300    465.36011    2.1641241    101.62742     237.0346   -3.4187609    13146.329 
   64400    559.72477    4.8842879    94.450557    297.64229    251.91549    12660.774 
64500        0.31442619897273010876 10.268163021290250825 0.40476190476190476719 34 26.781991368392667141
   64500    524.83922    2.9108175    96.723981    264.57779    1216.8183    12660.774 
   64600    519.82845    2.1146128    102.47518    267.15409    2695.8966    12660.774 
   64700    554.27482    3.1392163    116.14676    299.10799    -1461.189    12660.774 
   64800    526.15259    5.9282281    89.420055    252.63778   -1455.5186    12660.774 
   64900    566.72894    1.4643044    109.44798    287.68166   -1843.2466    12660.774 
65000        0.30861702340739899375 10.39994026607640798 0.39417989417989418577 42 40.437526642512253261
   65000    533.31594    4.0758074    109.05997    282.07398   -730.64899    12660.774 
   65100    493.18812     4.192859     106.2047    281.31629   -1354.5641    16264.811 
   65200    547.51608    4.2037313     124.9553    302.91737     904.5969    16264.811 
   65300    491.04562    0.4559255    109.88916    265.44473    800.93526    16264.811 
   65400    550.65849     3.141602    105.70789    273.39223    109.30287    16264.811 
65500        0.32715358851303205645 10.310581198444271678 0.4126984126984126755 36 26.481600543268228876
   65500    539.24999    3.3933285    97.012201    270.80667    118.95773    16264.811 
   65600    488.69779    8.1953933    101.44878    251.88745     823.1742    16264.811 
   65700     534.5494    1.9969683    103.03334    302.60707   -2925.9745    14903.694 
   65800     490.7685    6.2607948    119.76343    273.38973    -518.5235    14903.694 
   65900    494.67498    7.8072201    94.718469    264.82183   -948.68962    14903.694 
66000        0.32365049844622734154 10.192355030448171149 0.43121693121693116524 33 41.601453652917072645
   66000    595.64152    5.7496048    102.32598    311.47658    135.81622    14903.694 
   66100    472.43957    8.2166047     95.74879    257.33151   -2401.8728    14903.694 
   66200     532.5678    4.7292804    102.47385    262.51564   -2005.7295    14903.694 
   66300    540.24349    6.4102763    101.62856    266.25735    1369.8551    12629.922 
   66400    577.52423    3.0812174    96.968872    276.00329    -862.8493    12629.922 
66500        0.36881438586247067279 9.9306231965518030336 0.47883597883597883715 42 32.38481055669113573
   66500    454.74304     7.834603    103.98741    238.42121   -540.29519    12629.922 
   66600    544.34412    1.5799402    110.35831    276.59739    163.74418    12629.922 
   66700    526.36123    9.5466833     95.64597    264.82855   -2151.6645    12629.922 
   66800    532.62375    5.2360843    85.285885    246.48565   -2009.6427    12629.922 
   66900    534.85911    12.627651    105.83126    278.04445     797.2895    12629.922 
67000        0.35792699439704239728 9.8746817623071869718 0.48148148148148145475 45 23.79008901915908325
   67000    535.19381    2.5217263    103.18425    266.27737    2441.7189    12629.922 
   67100    606.37551      8.46527    115.74934    317.56873    1186.9927    12791.438 
   67200    555.22389    4.2147859    84.531543     258.7949     1061.607    12791.438 
   67300     542.7349    4.2876109    112.52559    288.24584   -94.073854    12791.438 
   67400    517.23712    5.9923718     107.7653    275.93534    167.76084     13220.36 
67500        0.33870346804351963987 9.9568002560374644361 0.44179894179894174666 49 47.52219742993474938
   67500    491.61513    4.4252802    109.30459    270.26472   -1944.7363     13220.36 
   67600    560.90133    7.7050067    117.84731     302.7862     2654.125     13220.36 
   67700     442.6918    2.7243754    115.16789    243.55043    910.95137    12059.203 
   67800    556.76872    3.6924358    106.29534    273.89332   -2323.8616    12059.203 
   67900    558.02548    1.6174018      110.898    292.55329    1119.5008    12059.203 
68000        0.33173586083716727346 9.84378876324946539 0.43386243386243383835 47 53.668197445886136165
   68000    537.06299    4.4799328    114.49252    297.00238    706.52682    12059.203 
   68100    505.00292    2.8046259    107.60178    265.35848    581.45816    13257.669 
   68200     508.6675    10.216544    119.31341    292.14282     387.5133    13257.669 
   68300    565.88853    4.4360572    113.75417    294.57184   -306.00542    13257.669 
   68400    528.28562    1.2649886     85.83458    240.49558   -26.166167    13257.669 
68500        0.33480655363020772608 10.101920373470875347 0.41798941798941796621 45 37.274052580698509018
   68500    560.68397    3.4160648    108.71974     291.3105    410.76406    13257.669 
   68600    536.21212    1.1752289     121.2481     317.8037   -116.42988    13257.669 
   68700    504.00549    4.0002954    115.76321    296.72701   -2082.0116    13257.669 
   68800    490.71793    4.8710472    107.27016    252.81635   -561.46511    13257.669 
   68900    536.80976   0.45813632    114.47246    300.79538     1369.589    13257.669 
69000        0.34320492143416092556 10.303262761869278918 0.41005291005291000239 40 32.690292956412690728
   69000    610.37958    2.1536989    102.94984    309.24298    1026.7248     14503.26 
   69100    523.08363     3.020149    97.944796    269.25967   -16.405647     14503.26 
   69200    575.01558    2.9910539    118.42677    325.04602   -275.93317     14503.26 
   69300    537.07255    1.3624761    108.90033    286.05678    649.41611     14503.26 
   69400    545.74166    1.1443857    98.868014    273.49528   -87.956474     14503.26 
69500        0.36185242662845773509 10.149782615546021347 0.42063492063492058382 40 61.161850567783289989
   69500    524.18012    4.6658793    126.26768    298.65902   -2309.7463    12835.187 
   69600    553.71523    8.0438551    123.24072    305.83961    2611.6319    12835.187 
   69700    521.32035    4.8793896    107.55845    255.75728    1064.9048    12835.187 
   69800    550.90128    4.4437759     106.3211    287.98273    1089.6497    11907.486 
   69900    541.40865      6.01484    106.05462    288.42407    715.70305    11907.486 
70000        0.34568535559335655805 9.9146403733209975684 0.42857142857142854764 44 23.405839243315142539
   70000    489.14296    2.9707083    103.04938    245.02826   -315.72556    11907.486 
   70100    571.60568     2.915183    110.35361    297.49449    793.51277    11907.486 
   70200    590.86518    8.1263809    115.30849    316.07563    1862.1793    12613.581 
   70300    544.95877    1.1930242    99.939214    266.43298   -1579.7458    12613.581 
   70400    516.24363     8.699733    114.18264    279.77454   -880.04393    12613.581 
70500        0.34778666004751140894 10.126948867259621068 0.42328042328042325693 38 39.6272499742779587
   70500    569.18695    2.2544099     108.7527    297.51625   -3177.7224    12613.581 
   70600    625.86589    2.9571987    87.938011    303.79198   -687.62188    13794.525 
   70700    523.35656    1.8342663    95.935166       265.54    1917.7988    13794.525 
   70800    639.83756    2.3613885    101.70262    314.12921   -288.21054    13794.525 
   70900    503.81472    4.8103593    107.76222    265.97541   -460.11757    13794.525 
71000        0.3405429623752612156 10.211773943353582794 0.42857142857142854764 34 63.643966878752735283
   71000    481.89716    7.0061331    118.31024    281.98344    713.33496    13272.292 
   71100    547.55861    6.5846319    108.46909    307.75978   -1049.3947    13272.292 
   71200    506.27051    6.9649845    101.53343    248.67164    79.499445    13272.292 
   71300    570.16009     2.136228    95.648994    285.22877    1440.6389    13272.292 
   71400    516.86424    2.6930102     110.0783    293.89424   -597.61584    13272.292 
71500        0.3096297229194348577 10.660854597317198866 0.35449735449735447768 37 58.507978121190241438
   71500    600.23354    4.5678788    111.99137    330.46367    -907.4155    15009.463 
   71600    491.86589    1.1004283    119.10144    274.73861    774.22123    15009.463 
   71700    524.72706   0.94824654    102.32392     276.5339    1794.8412    15009.463 
   71800    541.87642    4.2215126    120.07678    325.92125      2797.68    15009.463 
   71900     559.3285    3.0621243    128.44268    316.21645   -720.01545      18083.4 
72000        0.27233630812009818056 11.072289483705187507 0.30952380952380953438 33 51.551204928203588906
   72000    522.60541   0.48369215    99.199263     288.3349   -1976.4266      18083.4 
   72100    584.03639    1.6814953    124.32068    348.17761    65.140038      18083.4 
   72200    590.17118    3.3498668    95.605307    318.63742    631.50462      18083.4 
   72300    537.48218    4.1695511    110.68569    300.95715   -1911.9215      18083.4 
   72400    505.85799     1.433331    94.894651    253.61278     1520.637     19879.29 
72500        0.28103766738223623367 11.567812770026952407 0.30158730158730157056 32 55.523098536253542079
   72500     553.1325    5.0603575    118.48461     306.1381    1314.5496     19879.29 
   72600    578.71809     1.612984    109.29865    316.55496    -695.1259     19879.29 
   72700    590.76417    1.4838337    109.35968    330.23709   -96.766078     19879.29 
   72800     508.7499    1.1851732    114.59304    289.66093   -1365.6087    21067.092 
   72900    593.17846   0.84762231    133.01475    347.81627   -933.62607    21067.092 
73000        0.29022468512446819577 11.726308075199984415 0.29629629629629627985 34 65.775548012038512979
   73000    498.20083    2.3511582    107.08375    291.50194   -2163.9433    21067.092 
   73100    535.05991     6.083707    103.52866    302.62648   -761.69621    21067.092 
   73200    626.36659    2.1171305    105.87804    328.00218      -630.94    21067.092 
   73300    528.19479    2.6474207    106.95378    277.64939   -1019.5901    21067.092 
   73400    569.34325    5.0152548    114.88952    304.92992    618.01726    21067.092 
73500        0.29289480409843615671 11.495818464697231676 0.30158730158730157056 29 63.853952489102177026
   73500    637.01928    2.9190931    121.04866    352.47664    494.33002    20675.012 
   73600    521.69882    5.8520317    121.30987    301.14577   -343.51545    20675.012 
   73700    580.96443    3.6707307    118.48567    310.32634    -663.3848    20675.012 
   73800    500.52672    2.1840837     105.2242    263.04837   -1931.8847    20675.012 
   73900    541.89509    8.7005701    107.57668    294.65209    70.116361    20675.012 
74000        0.29747845933739225366 11.200456063349690794 0.31216931216931215198 31 45.170868086022593957
   74000    589.91474      1.83718     107.3388    312.45128     811.3994    20675.012 
   74100    544.61285    7.5803045    106.73795    283.72179   -468.75888    17487.497 
   74200    555.65077    1.9409265    112.79227    307.68615    1569.9981    17487.497 
   74300    560.78304    3.1172047    119.18101    335.13909   -1058.6234    17487.497 
   74400    468.27767     5.629551    123.81752    284.59396     313.7045    17487.497 
74500        0.27544853853151707312 11.208685311399317897 0.29629629629629627985 19 80.545658912985800271
   74500     520.0836    0.9965519    120.11657    316.18676    1146.9393    17487.497 
   74600    589.82704  0.038231994      116.823    323.63287    1132.9629    17487.497 
   74700    522.51917    1.8944569    105.65879    283.55745   -958.29834    16867.303 
   74800    539.54181    14.009896    120.67252    331.82733    873.33432    16867.303 
   74900     549.7185    3.7090846    125.89164    336.96245   -1472.9194    16867.303 
75000        0.29048296827408026655 10.815637670181279972 0.32010582010582011581 36 51.345181537492692314
   75000    518.79087    6.1666326    105.73722    286.40057    1364.8532    16867.303 
   75100    564.79889    2.4981463    115.89342    327.26763   -100.72854    16867.303 
   75200    507.21313    1.3980487    104.13359    270.58079    1553.9775    16867.303 
   75300    541.48033    4.3598896    113.04541    300.93541     820.6427    15213.102 
   75400    577.53184    5.1287568    112.08586    311.77092    111.68283    15213.102 
75500        0.29042885055572670305 10.157475553513602762 0.39682539682539680337 42 27.88175363692211306
   75500    508.11542    4.2670918    102.75249    258.10028    213.26619    15213.102 
   75600    549.18352    2.3940095    126.47023     315.2824    41.976111    15213.102 
   75700    587.35518    12.401539    110.56202    313.65233    2797.1416    15213.102 
   75800    523.29745    2.9906657    119.23929    294.70141    484.58785    15213.102 
   75900    594.79709    3.9069128    133.41387    348.19946    1383.5717    15213.102 
76000        0.30483252434797647457 10.073950328247303077 0.41798941798941796621 44 66.449340009232429338
   76000    525.33012    4.4398684    112.37601    304.46756    1476.1082    14022.129 
   76100    590.06234    5.0232472    99.907627    305.32901    98.154494    14022.129 
   76200    547.91159    4.3112785    102.39432      283.213   -152.47806    14022.129 
   76300    530.14174    7.1314695    104.03663    282.72389    280.17523    14022.129 
   76400    576.52277    9.2810761    119.86747    322.13017    387.07017    13115.399 
76500        0.28966792218833914418 10.424422484557169355 0.3650793650793650591 40 42.58605793269283879
   76500    505.54123    2.7420749    109.46214    271.63826   -3377.4667    13115.399 
   76600    518.81058     2.390061    104.89851    273.20644   -1835.5164    13115.399 
   76700    564.38362    2.9214467    122.10467    310.77721    1160.8009    13115.399 
   76800    538.34686    1.1423557    107.00799    303.02375   -193.85692    13115.399 
   76900    500.30569     1.941668    112.88347    280.38137    718.93525    14175.374 
77000        0.28939089486141605922 10.671119105269474048 0.3650793650793650591 39 69.083733968992461882
   77000    570.59778     5.158551    130.13901    327.61196   -849.92175    14175.374 
   77100    523.58391    3.5584311    108.57102    280.45779    698.43029    14175.374 
   77200    565.24862    3.2028588    103.84658    299.47784    608.23124    14175.374 
   77300    633.90567    2.2683672     132.2903    348.19326   -761.90177    14175.374 
   77400    528.33287    4.6477731    97.347247    283.20957   -839.56196    14175.374 
77500        0.29340995777074702078 10.86936355783785757 0.37037037037037034981 34 48.789816128465801626
   77500    559.55115    8.4769797    113.09627      302.313    567.51902    16456.253 
   77600    601.50726     5.475308    117.22129    326.74807   -441.93976    16456.253 
   77700     534.1876    5.1749926    111.28135    273.73628    1247.5995    16456.253 
   77800    583.19775     2.608343    106.94754    295.72119    79.523387    16456.253 
   77900    491.07771    4.9442083     96.62628    242.53597   -1669.3008    16456.253 
78000        0.31705717752081413741 10.742457550679642253 0.40211640211640209408 43 18.211910980730962706
   78000    603.99391    6.2671384    100.37501    291.87136    2746.3127    16456.253 
   78100    548.75312    5.1669953    119.33391    297.12254    824.66055    16042.536 
   78200    527.91752    3.5582884    99.745743    260.84784     221.2129    16042.536 
   78300    620.69378   0.41708592    111.50642    313.74576   -1675.2234    16042.536 
   78400    522.04655    3.7778565    108.03683    277.75799    789.91327    16042.536 
78500        0.31724974585091575419 10.768909185328544353 0.42592592592592593004 35 43.669581951743168702
   78500    583.19798    2.5979401    113.55939    307.90675   -358.95339    13137.635 
   78600    593.54591    4.3282865    108.27455    312.81447   -653.97259    13137.635 
   78700    520.83239    3.0398517    114.97407    270.71947   -1980.5508    13137.635 
   78800    599.76991    4.9135558    104.08467     320.2954   -137.09191    13137.635 
   78900    601.65784    4.0744068    97.123335    311.72172    591.52427    13137.635 
79000        0.30818788132985180939 10.81531018623274143 0.35185185185185186008 34 44.749074410488617559
   79000    547.03143    3.8201695    106.30716    292.59979   -1537.6531    14456.227 
   79100     606.2379    3.5197349     112.1036    334.91312   -1659.4141    14456.227 
   79200    538.28807    4.3439264    100.30298    280.11279   -1125.3061    14456.227 
   79300    536.85615     0.934235    106.92107    299.56337    1155.3418    14456.227 
   79400    569.93427    3.1882336    118.84572    313.55408    1461.3373    14456.227 
79500        0.28014123679339747452 11.010611867685565102 0.32804232804232802412 36 37.767720681475367428
   79500    572.60176    1.3712383    105.65423    297.20392    625.07363    15699.473 
   79600    587.49268     2.979662    95.218299    299.56306    505.72617    15699.473 
   79700    632.62311    1.4485462    93.666902    331.40444   -1837.5877    15699.473 
   79800    566.92057    7.7266406    91.267781    279.67806    1776.3806    15699.473 
   79900    540.84183     5.329883    105.27809     285.9725    2100.9795    15699.473 
80000        0.26216419565056642282 11.027530198827600216 0.32010582010582011581 40 48.348270584918680015
   80000    648.04091    4.6437136    112.44321    341.96467    2873.3594    15798.281 
   80100    547.48203    3.6501191     107.0233    287.17842    321.31277    15798.281 
   80200    621.25771     4.203257    83.822822    308.42173   -1437.3086    15798.281 
   80300    609.55869    2.1390081    106.45881    345.20158   -92.923783    15798.281 
   80400     505.8643    3.2742502    95.018131    273.74828   -1276.7647    18270.185 
80500        0.26071624410719762555 11.294788145438445781 0.32804232804232802412 30 47.886883900156476557
   80500    584.11662    4.8231453     103.8179    312.54027    709.37139    18270.185 
   80600    531.39335     6.082632    95.198188    282.70428    519.86827    18270.185 
   80700    534.88777    5.4764477    103.66146    274.33454   -1547.8739    18270.185 
   80800    568.98498    2.1564304    124.72632    325.14872   -758.77498    18270.185 
   80900    507.81057    3.0621279    90.165296    270.83903    7.0762667    18270.185 
81000        0.28345211075574688886 11.370691723066498113 0.3624338624338624415 31 50.806669437876884388
   81000    579.48957    3.3716765     93.30021    313.36362    109.01818    18270.185 
   81100    591.51752    2.8552019     114.3151    347.10959    657.93137    19186.693 
   81200    595.08503    5.0457175    114.46534    356.81687   -684.52272    19186.693 
   81300    522.33508    6.3025618     99.58898    306.16298   -918.85522    19186.693 
   81400    637.98225    3.8558609    84.641137    332.23771    589.33684    19186.693 
81500        0.2859950402399859537 11.539618666024415106 0.33862433862433860554 30 72.700891090803580141
   81500    524.14367    3.1870655     109.4245    310.18155    1492.9098    19765.748 
   81600    552.74086    5.4542096    95.937323     313.0443     1740.232    19765.748 
   81700    564.37793    1.9810938    125.65174    325.67376   -1644.5526    19765.748 
   81800    525.24205    2.3412406    96.217891      296.836    -162.0744    19765.748 
   81900    583.73051    8.8391209     101.0189    336.33993    5.7766568    19765.748 
82000        0.3028475072677065949 11.554055516505213674 0.37301587301587302292 37 58.137340313415471371
   82000    502.14516    3.4372841    103.49254    285.65084   -1790.2221    19182.103 
   82100    557.17198     5.785759    96.562081    306.30187   -597.75308    19182.103 
   82200    566.62206    4.2767325    107.66722     314.7836    200.58429    19182.103 
   82300    516.53194    3.8515037    88.807235    253.25786   -1165.5335    19182.103 
   82400     530.5796    3.3786697    104.62906    282.25477   -1091.3691    21274.072 
82500        0.27524902615660884475 11.86329728369774017 0.34656084656084651385 28 65.336535919532366279
   82500    546.43284    7.6701104    109.10732    312.91604    674.18876    21274.072 
   82600    584.42834    7.5503461    109.90282    339.56741    395.22543    21274.072 
   82700    513.88711  0.022246777     111.8527    296.25191    548.33644    21274.072 
   82800    632.07228    1.9538324    104.01272    338.90581    -421.8085    21274.072 
   82900    515.30745    6.1601985    95.393014    271.81928    142.89788    19909.424 
83000        0.29493937681907522741 11.846270011988861981 0.33068783068783069723 25 51.719807691592187382
   83000    571.47608    1.4969462    107.59732    310.64598   -2251.8518    19909.424 
   83100    532.55818    14.259821    110.49346    308.79021   -406.69524    19909.424 
   83200    528.39052   0.70863285    95.099412    271.64233    2066.3285    18673.992 
   83300    589.11019    3.0118706    111.04814    330.13189    -634.7734    18673.992 
   83400    574.46394    5.7955899    116.97562    326.79305    1325.7346    18673.992 
83500        0.31347236019602930934 11.606993416738808023 0.34656084656084651385 28 27.066460445538638169
   83500    564.01633    1.8713659    93.904435    282.61274   -1292.0774    18673.992 
   83600    585.92726    3.6324364     107.6418    334.82234   -797.09236    17520.277 
   83700    517.94202    4.5722573    104.44164     295.3566     776.4804    17520.277 
   83800    565.42091    8.6275408    102.32025    316.68756   -1483.3589    17520.277 
   83900    613.80489    4.7924976    104.91998    333.20093   -1205.8331    17520.277 
84000        0.31782250948173246252 11.193579272440201677 0.37037037037037034981 34 32.074398311364710423
   84000    579.89016    4.1896523    89.575614    294.81284    310.15255    17139.923 
   84100    531.08455    1.7895136    94.638479    286.98147    -1210.037    17139.923 
   84200    639.84826    4.6271103    104.31158    346.99146    213.12562    17139.923 
   84300      533.133   0.75244192    104.88138    296.12356   -1021.7293    17139.923 
   84400    596.86778    14.298419     89.03883    319.71539   -137.57818    17139.923 
84500        0.3039215516223800484 11.026972853921392925 0.3650793650793650591 30 68.840187596543756854
   84500    601.02837    6.0160586    108.30105      341.156    286.56678    17139.923 
   84600    552.65303    6.0620958    120.69868    312.02317     1001.484    17139.923 
   84700    615.68594    6.3686349    113.12193    336.87562   -2226.9434    20188.641 
   84800    618.47944    1.3268955    127.53115    355.13799    699.22029    20188.641 
   84900    554.32889    4.0028375    92.098958    299.05704   -484.08457    20188.641 
85000        0.31292657661670719715 11.074218038192679359 0.39153439153439151266 27 81.25699061754504271
   85000    591.93374    2.6602158    110.19401    349.45218    879.22607    20188.641 
   85100    607.28727    3.6327816    111.46579    339.05877    950.70241    20188.641 
   85200    519.97585   0.79941557    113.97374    302.32212    1222.1435    20188.641 
   85300     516.6565    2.1334228    113.37979    287.68533   -8.0043389    20188.641 
   85400    619.35288    2.3684862    105.87363     331.7026    564.48882    18531.883 
85500        0.28412783051505463572 11.41936279472897553 0.31746031746031744269 26 62.735380582018372309
   85500    513.88464 0.0030168521    110.88665    295.56784   -738.35981    18531.883 
   85600    591.81889    4.3191579    114.03241    333.73506    1104.4318    18531.883 
   85700    579.72887    7.5329168    113.78417    323.53635   -929.27136    18531.883 
   85800    525.86103    1.0522903    100.94502    288.14508   -1639.9349    18531.883 
   85900    630.09862    2.7278164    112.56396    341.99932   -224.85632    18531.883 
86000        0.28548675586814992178 11.431556162071862204 0.33068783068783069723 36 58.840647150864434423
   86000    590.66915    7.2530513    109.74339    326.46288   -2044.4259    17393.932 
   86100    552.34226    6.2719805    120.84393    333.09251    784.01915    17393.932 
   86200    588.85574    3.5105065    114.31355    347.26748   -1576.0773    17393.932 
   86300    554.94578    3.3201179    92.915021    301.40119    -589.2369    17393.932 
   86400    620.65106    4.1650194    107.68036     355.7158    600.43654    17393.932 
86500        0.28222998927754783249 11.487609205263854761 0.31216931216931215198 29 74.09093550356317337
   86500    540.01654    7.0942529     115.2849    318.76332   -1529.5175    17393.932 
   86600    594.61168    4.1422238    118.43481    355.96236   -1053.9676    21006.847 
   86700    596.86032     1.681847    123.55384    349.29189   -536.43178    21006.847 
   86800    519.07656    4.8454807    123.05653    320.99681   -228.29499    21006.847 
   86900    615.30701    2.6196994    109.12926    332.36437    955.59185    20117.586 
87000        0.26916300001316878499 11.521844757292040384 0.29100529100529098914 24 63.132390502338687099
   87000     627.9987    3.8146901    113.55777    347.66801    37.031752    20117.586 
   87100    515.24116    4.2606044    111.71081    293.93696   -881.49801    20117.586 
   87200    610.86867    1.2108574     112.9185    326.09946    968.03379    20117.586 
   87300    621.06574    8.8710061    133.09973    392.96346    2275.3358    21195.074 
   87400    589.23517    3.0833197    106.10706    328.83517    389.73066    21195.074 
87500        0.27855064213362629166 11.234973222322270914 0.29365079365079360674 29 43.311332011401532327
   87500     571.5698    4.6203644    109.21907    302.27997    171.84222    21195.074 
   87600    531.17456    4.4070627    97.953099    273.02771   -1829.4989    21195.074 
   87700    572.91841     2.094606    123.82174    329.28985    1660.9267    20229.514 
   87800    552.35556    1.3446363     123.2618    324.70747     1105.619    20229.514 
   87900    601.45728    4.0684768    120.28573    365.31005   -1149.6836    20229.514 
88000        0.25630028621247014087 11.587747053461770363 0.25661375661375662727 24 54.70071148028230823
   88000    551.26975    3.1915362     112.6206    304.47173   -403.98529    20229.514 
   88100    551.94929    1.6053998    119.66776    335.65679     341.0598    21043.254 
   88200    561.58469    4.2634683    122.72553    347.76028   -950.05213    21043.254 
   88300    583.56762   0.92644865    131.07829    345.71218   -698.71839    21043.254 
   88400    560.32878    0.4454996    98.954898    296.39877   -1798.6685    20618.196 
88500        0.25401013358864754643 11.510751311792573048 0.26719576719576720869 26 73.296347088957404026
   88500    601.51155     3.687251    120.00938    345.83108    441.48824    20618.196 
   88600    551.11088    2.9526069    113.21145    319.87349   -270.29397    20618.196 
   88700    482.21309    1.8671971    102.48186    262.01213    382.91692    20618.196 
   88800    578.73563    1.0578536    114.23022    316.63357   -231.32894    20618.196 
   88900    561.62628    3.0080608     103.0572    304.77861   -1302.1368    20618.196 
89000        0.25091337002505181841 11.097230847575458412 0.30158730158730157056 33 42.84680531833542716
   89000    565.60162      3.59192    107.71547    299.11135    611.65333    22374.565 
   89100    585.45428    7.5945343    120.14534    357.21195    1633.7348    22374.565 
   89200    568.28609    1.7782787    110.62318    318.00142   -504.13157    20084.757 
   89300    559.59672    12.050338    108.12185    308.74753    581.24645    20084.757 
   89400      564.471    1.2409421    120.71123    358.15973   -1197.3145    20084.757 
89500        0.26996026745327211804 10.953590445399051134 0.30687830687830686127 34 79.22820773085163637
   89500    545.79068    1.2735249    108.13242    326.51676   -1883.2992    19625.522 
   89600    550.72727    6.1658907    117.01476    324.20295   -222.90995    19625.522 
   89700    574.14408    0.1724928    119.21124    342.95149    2193.5719    19625.522 
   89800    550.39449    4.5455377    98.667767    307.55186   -457.24878    19625.522 
   89900    583.44506    8.9616312    111.71054    336.37949    522.04023    19625.522 
90000        0.26130990872563625294 10.72010012293147696 0.30158730158730157056 26 59.92382943608738799
   90000    637.47501    4.5350194    106.85884      348.753   -515.18505    20907.498 
   90100    535.80615    3.8301235    120.21925    305.75964    1318.9516    20907.498 
   90200    624.61043   0.73949417    125.48844     370.7421    -100.9708    20907.498 
   90300    650.01381    2.0645712    112.73668     352.7796    432.64628    20907.498 
   90400    553.57067    1.9976607     109.8699    316.69797   -284.13339    20907.498 
90500        0.26988808980183859321 10.576094479992239172 0.32275132275132273341 37 54.397523011174250485
   90500    615.17822    6.3608101    104.05617     333.1244   -1286.7098    19154.623 
   90600    504.34773    11.357708    105.97621    280.34737    1278.8516    19154.623 
   90700    550.93732    6.7911424    107.14855    322.95408    1468.2225    19154.623 
   90800    564.33313    3.6969373    132.03721    350.42597    321.62327    19154.623 
   90900    558.51504    6.6241405    108.84964    317.45368   -178.30619    19154.623 
91000        0.25828625395509674512 10.727136259643350158 0.31216931216931215198 34 69.506997221032023049
   91000    510.56012    1.9123305    121.87141    300.83317    1456.9995    19154.623 
   91100    561.69729    5.4433753    126.10589    334.95109   -694.56279    17487.913 
   91200    571.76817     1.876581      118.873    303.35452    350.79118    17487.913 
   91300    550.61663    4.3912756    117.58058    300.79158   -1413.3543    17487.913 
   91400    615.34364    5.0153008    116.25235    338.72055   -613.37778     16994.27 
91500        0.28126969126288475787 10.6880991440108577 0.33862433862433860554 43 49.995390336273977994
   91500    500.77745    3.6051425    107.61009     276.8892   -1030.7344     16994.27 
   91600    615.16209    2.4701723    109.42984    312.49885   -2013.9312     16994.27 
   91700    616.68461    6.4050017    130.58102    338.15938   -268.66187     16994.27 
   91800    497.63814    7.7690738    132.29052    293.04304    823.28715     16994.27 
   91900    591.81446    3.1861852    95.361575    297.13274   -628.83323     16994.27 
92000        0.2716382579755782789 10.941899371608482028 0.30952380952380953438 33 60.867479355882146308
   92000    646.67008    4.9547286    111.89846    353.86278   -390.66109    16247.053 
   92100    557.21977    5.7682106    106.83982    302.45686    320.10551    16247.053 
   92200    616.30141    3.3514552    111.19361    327.88713    1799.0762    16247.053 
   92300    616.17009    4.1405654     109.7126    341.11225    -1028.673    16247.053 
   92400    568.51401    5.0304383      104.753     306.0663   -1616.2255     16322.88 
92500        0.26767257307008429645 10.9979585728010818 0.29629629629629627985 36 79.310170096083425051
   92500    652.55774     14.65031    128.10179    374.97307    -1169.592     16322.88 
   92600    580.15073   0.46927974    103.11779    335.92579   -2164.1155     16322.88 
   92700    573.40292    4.8348398    118.52195    328.95787   -1326.7031     16322.88 
   92800    528.58013    4.2569221    94.344377    272.15878    333.85288     16322.88 
   92900    615.29974    4.1633757    94.499848    320.14468   -106.40185     16322.88 
93000        0.26738327051751725749 11.076773543082296669 0.30423280423280418816 29 87.810919657669245453
   93000    589.63963    1.3793426    112.23367    354.96669   -7.9661092    15559.249 
   93100    570.17889    3.4767551    116.56577    342.72894     -1029.93    15559.249 
   93200    571.08041   0.72857134    115.00678    328.15197    1061.9987    15559.249 
   93300    585.66957     4.978855    116.37454    364.64712    70.854175    15559.249 
   93400    480.90698    3.4748759    112.36762    295.71509   -800.96561    15559.249 
93500        0.26315374744522973538 11.18248003887076969 0.28306878306878302531 27 74.861726940511687189
   93500    597.05338    2.9781375    117.07423    345.37654   -467.78285    18365.145 
   93600     618.0211  0.065888605    127.48363    361.00029    1758.1978    18365.145 
   93700    549.09738    3.1830534    101.91225    302.97812   -1038.9786    18365.145 
   93800    595.16761    5.2976679    129.90732    345.73132     767.0338    18365.145 
   93900    568.92253    2.9719529    126.11685    353.93028   -114.02959    18365.145 
94000        0.2588558664483988081 11.157719445481564691 0.28042328042328040771 26 91.626640251468302267
   94000    550.71207     9.866137    118.88201    341.14499    338.65866    20689.897 
   94100    552.22259    3.3019059    128.43583    322.57049   -236.81371    20689.897 
   94200    592.78342    4.7637975     141.1375    388.84317    1119.3969    20689.897 
   94300    560.86357  0.072233456    138.51209    362.96808    103.00335    20689.897 
   94400    547.76235    4.0190217    146.73177    369.09993    1040.1672    20689.897 
94500        0.25709885128960635603 11.149217714819805281 0.29894179894179895296 31 118.22067153271920859
   94500     633.0622    4.6334358    130.33819    405.05047    1166.7055    22521.238 
   94600    558.95967    1.6974029    149.28965    366.91742     735.2438    22521.238 
   94700    567.32826    4.9824454    112.04317    327.99294   -283.44909    22521.238 
   94800    631.64853    3.0224869    133.18475    391.34201    -321.3838    22521.238 
   94900    610.49959    2.7286872    121.48683    356.50071    897.57541    22521.238 
95000        0.28156065350649950307 11.312635122759314044 0.32010582010582011581 32 75.492500980936668498
   95000    552.19678    3.6066154    130.60521    325.68355   -393.79975    22521.238 
   95100    633.30784    3.5065184    130.59876    386.88376   -2183.4405    22521.238 
   95200    614.11261     1.347729    117.83277    368.40401    1011.3262    23026.061 
   95300    599.65282   0.10688046    108.01217    340.74937    1247.9093    23026.061 
   95400    627.25109    2.3804154    120.21868    371.54176   -1138.4483    23026.061 
95500        0.29727543484702101395 11.612877626688073107 0.32539682539682535101 31 84.380595477383025127
   95500    607.41355    6.0378689    110.76024    359.58943   -606.05077    23026.061 
   95600    557.70995    3.2649231    112.49153    336.75294   -452.19498    21743.622 
   95700    573.61157     2.027582    126.26185    365.25517   -1905.9309    21743.622 
   95800    617.68708     3.894453    112.77599    368.92631   -275.26655    21743.622 
   95900    486.48894    10.518702    120.72507    310.78949    728.65471    21743.622 
96000        0.27626109784658936519 11.6463659072061958 0.33333333333333331483 38 72.757193085600604832
   96000    619.19338   0.10725623    115.77698    353.30326   -791.78297    21066.696 
   96100    574.17852    1.0063892    127.14595    360.93233    498.70233    21066.696 
   96200    593.81889     8.459564    118.08665    350.06486   -1383.0363    21066.696 
   96300    589.38925    1.5436904     118.6704    346.13696    1128.5914    21066.696 
   96400    602.40396    5.1608737    125.67513    361.91354    684.40102    21066.696 
96500        0.28067505355799121647 11.81157232563150572 0.34126984126984127865 38 63.89675019971804204
   96500    590.59919     4.542276    105.79473    331.48728    1418.9945    21066.696 
   96600     637.4145    5.5321865    138.73244    387.10174   -1075.6128    21066.696 
   96700    623.75169   0.91211144    108.67488     364.1936    -618.8213    20698.632 
   96800    545.81702    4.0094222     119.9314    344.86801     1940.768    20698.632 
   96900    696.17972    1.4028512    116.95074     402.1708   -253.46901    20698.632 
97000        0.28257194850560257704 11.889756738905800759 0.33333333333333331483 28 108.34869196344322972
   97000    595.78416    5.1786656    133.57494    378.28844   -308.71977    20698.632 
   97100    568.80479    3.5910186    126.12619    343.44755   -1092.5748    20698.632 
   97200    546.37687     6.917919     116.9532    324.00406    885.37286    20698.632 
   97300    621.22908     8.836704      128.379     385.9204   -1024.4245    20642.923 
   97400    604.22657    7.9122704    110.87461     349.5016   -531.78038    20642.923 
97500        0.26603315176161435041 12.115336633029658131 0.28835978835978837154 30 51.043339269341018394
   97500     584.7898    4.3138928     105.0012    316.00173    498.70884    20642.923 
   97600     578.2829    9.1670511    123.50688    349.72671    817.35149    20642.923 
   97700     593.5594    8.8002013    118.98068    355.42026   -1262.5343    20642.923 
   97800    519.17085    5.1273864    115.92147    301.90629    1205.0208    20436.309 
   97900    608.30327    4.4340009    112.64754      353.636    379.33384    20436.309 
98000        0.24213677845415643164 12.533123604588228162 0.24338624338624337273 15 100.92345491923867939
   98000    558.15321    2.4645772    139.68635    353.81326     1249.788    20436.309 
   98100    499.26356    2.1180393    101.89335    292.98818    1027.6506    20826.295 
   98200    591.12657    8.2513143     113.0068    338.46794   -554.74196    20826.295 
   98300    595.15109    3.7494089    130.34693    360.07271   -709.19316    20826.295 
   98400    594.21038    5.2124061    103.92409    308.57038    946.16694    20826.295 
98500        0.25698340918661971566 12.121423227565440328 0.31746031746031744269 27 64.411376389344098925
   98500    568.29862     6.189108    111.90226    321.89789   -493.94707    20826.295 
   98600    597.38376    5.8671609     117.9391    346.53324   -23.711645    20264.593 
   98700    553.20055    10.274443    110.38696     333.7749    562.51254    20264.593 
   98800    648.97752    2.8259554    128.01937    398.07187   -177.39156    20264.593 
   98900    578.71753    5.0071634    120.70008    351.58841   -3463.2361    20264.593 
99000        0.26487062864298349663 12.113786721218577469 0.35714285714285709528 36 62.789864755664666518
   99000    611.96398    1.0848881     119.5746    340.06042   -2011.4296    20301.971 
   99100    570.79899    4.0700734    107.67624    306.35462    1084.7563    20301.971 
   99200    629.20025    4.9188964     112.4469     350.2448     146.1477    20301.971 
   99300    623.31528    5.4692969    119.66059    360.40634    386.35105    20301.971 
   99400    531.19689    6.5263012    122.51564      304.957    342.59154    22379.291 
99500        0.26364231782553526617 12.338102391429979221 0.32804232804232802412 31 65.90632612022216108
   99500    621.87681    1.0979733    107.12897    347.66822    -695.9335    22379.291 
   99600    627.09872    2.8277943    98.177381    352.13429    1068.6218    22379.291 
   99700    647.83666   0.81520568    106.56664    365.46753   -246.62331    22379.291 
   99800    615.95201    1.8181974     117.1233    356.12338    1263.4598    22379.291 
   99900    568.25227    1.3021478    121.71245    323.69424    887.55144    22379.291 
100000        0.28236746486769931375 12.379106345754340879 0.33597883597883593243 27 90.397352130314359897
  100000    662.71654    3.3437727    120.56864    390.66303    -645.6447    24341.327 
  100100    606.07745    2.8464541    117.50657    347.44901    2199.4628    24341.327 
  100200    604.20099    4.7564026    127.03638    344.92178   -1188.0666    24341.327 
  100300    654.38176    8.9472048    129.21612    419.48772    414.58434    24341.327 
  100400     650.9127     9.868936    122.83251    379.30759   -265.07715    21274.699 
100500        0.29649716387436469978 12.380247683851317575 0.33068783068783069723 32 68.474861652404740653
  100500    582.76455    10.625587    109.09871    332.51565    959.60599    21274.699 
  100600    627.24277    6.0789919    129.82002    375.54725    1055.3881    21274.699 
  100700    610.02328    4.0121493    129.02338    364.76951   -994.82707    21274.699 
  100800    640.47766    2.7325363    106.49383    337.22885    1204.5684    21274.699 
  100900    577.42227    2.7511511    102.26725    298.93684    517.32165    21274.699 
101000        0.3162156757099457427 12.410543132847102754 0.33333333333333331483 30 66.622218312295970577
  101000    568.62917    4.5275327    113.20968     324.2585   -510.42231    24729.681 
  101100    623.65632    3.8738862    117.36269    353.35817   -453.89414    24729.681 
  101200    555.97048    2.0683879    105.47724    312.81355    1121.0659    24729.681 
  101300    653.24057    3.2662268    111.28984    377.06177   -35.684587    24729.681 
  101400    590.90302    3.1700392    96.195085    325.32766    738.83163    24729.681 
101500        0.30259793045338789774 12.579210242640414208 0.31216931216931215198 37 60.983012384790335147
  101500    616.33684    6.6932325    106.71242    340.23483    597.69018    24729.681 
  101600     618.5912     5.095075    126.78738     377.3192   -240.64818    24729.681 
  101700    603.12363    5.3832601     130.9429    399.60551    328.90386    26835.214 
  101800    602.13785    5.2295791    108.29934    346.03355    707.84657    26835.214 
  101900    650.61566    3.5124801    122.68472    375.31799   -71.911763    26835.214 
102000        0.28292927934715950133 12.896819348485948353 0.30687830687830686127 33 106.74895395512433538
  102000    594.04255    6.7121561    131.61344    375.89961    891.09586    26835.214 
  102100    601.75009    2.2525176    113.68852    338.73457    55.097326    30957.366 
  102200    688.02499    2.6703756    133.24323    394.96962    506.88277    30957.366 
  102300    580.97076    7.9954753    111.52618    354.29782    1310.3136    30957.366 
  102400    638.13697   0.81244588    113.51697    367.54724   -262.77125    30957.366 
102500        0.25324369460697127021 13.160471985280763008 0.29100529100529098914 32 135.14723358203406178
  102500    607.04984    9.0075993     141.3529    410.19127    442.36281    30957.366 
  102600    616.22374    2.0715634     108.1689    372.31485   -512.52012    30957.366 
  102700    580.71711    2.0879443    109.10047    349.89987    389.86371    34803.427 
  102800    570.36097    3.8810451    110.82584    339.67364    -111.4066    34803.427 
  102900    689.58288    3.4648592    125.32304    391.60875   -63.225825    34803.427 
103000        0.2439109060484486724 13.510982870859185923 0.26455026455026453558 32 76.510138202882700398
  103000    600.93017    2.5877005    116.42245    348.78146   -36.528763    34803.427 
  103100    655.20333    2.6681935    134.71846    411.03911   -92.230426    34803.427 
  103200    666.38716    6.4136877    117.71486      371.631    637.57178    34803.427 
  103300    530.40924    3.2667154    128.95271    357.64162   -319.56409    34803.427 
  103400    600.26176    10.036259    148.16163    384.16523    68.207638    35764.644 
103500        0.24317420917053722551 13.680396325959254256 0.24867724867724866344 23 85.55521451734679772
  103500    595.90384    3.1424813    126.27559    355.54919    102.37709    35764.644 
  103600    611.63278     2.875676    128.23536    376.85323    491.12812    35764.644 
  103700    619.31996    0.8391432    128.78492    369.94194    1328.0237    35764.644 
  103800    590.05291   0.21346201    116.14303    338.10641    639.39214    35764.644 
  103900    621.67589    2.7517654    132.35115    389.38758   -907.95456    35764.644 
104000        0.23993840740551908297 14.045128049489465027 0.2275132275132275006 17 97.1399750694345272
  104000    596.30191   0.73753915    121.42321    367.31431   -1310.9902    33134.793 
  104100    531.91129    1.0091391    130.72126    333.83583   -1367.9609    33134.793 
  104200    621.05553    6.4633762    138.75133    393.55432     -362.197    33134.793 
  104300     609.9795    4.1596138    145.43165    391.52994    -218.6384    33134.793 
  104400    596.53111    2.0875983    106.47117    340.76632   -184.62544    33134.793 
104500        0.23923529315164149267 14.014130930997598767 0.22486772486772485524 19 99.340860258760329771
  104500    613.43238    8.4235187    129.67124    377.27672    323.18622    30962.836 
  104600    576.46177     10.73063    130.00724    372.25518     -321.824    30962.836 
  104700    640.78304    2.0645292    127.53944    402.28184   -485.82456    30962.836 
  104800    604.44251    2.1524389    132.73156    394.73474    -263.4107    30962.836 
  104900    613.99227    3.5262585    118.97011    356.06936    731.18325    30962.836 
105000        0.22663220729693994704 13.696092439057620638 0.22222222222222220989 25 96.010200058412465296
  105000    605.29887    2.6895953    126.23707     370.2609     694.6451    30962.836 
  105100    677.91529    3.8211624    129.10334    409.38511    737.34219    30962.836 
  105200    661.60107    5.4668757    136.49628    406.41926    491.21336     33578.15 
  105300    600.19821    1.7837467    121.20224    364.24216   -1289.8247     33578.15 
  105400    690.20371    7.7874311     120.1616    406.36225   -873.45821     33578.15 
105500        0.21017309366211539556 13.727746518417070831 0.20634920634920633775 22 96.224286602856963668
  105500    528.58572    5.1091042     117.9173    335.71756   -267.95845     33578.15 
  105600    656.49438    3.0626445    116.93951    385.57982   -86.976681     33578.15 
  105700    595.35162    3.9270173     117.7065    386.46544   -604.67538    33726.265 
  105800    556.42532    4.9934918    157.09899    403.05623    580.99456    33726.265 
  105900    589.51821    6.9033739    119.37694    364.41817    191.88584    33726.265 
106000        0.24207941413201042313 13.240032018535911718 0.25925925925925924487 28 85.696514311671450059
  106000    570.41427    3.1687443    128.22452     344.1416   -78.713831    33726.265 
  106100     623.4486    1.6824809    133.14111    404.32598   -130.93565    33726.265 
  106200    595.04569    4.2227136    117.26377    358.16333   -100.48327    33726.265 
  106300    668.51362    3.7561214    126.00117    408.15683   -21.872173    33726.265 
  106400    614.26404    5.3945806    116.98261     371.6839   -96.009406    29505.029 
106500        0.23853086893096883681 12.94166430318030514 0.23809523809523808202 21 86.333315427082169435
  106500    597.13166    4.5818493    120.32051    356.88359   -331.33203    29505.029 
  106600    695.37058   0.78856381    133.10206    428.74018   -216.72823    29505.029 
  106700     645.8954    6.4536558    113.61179    386.65545    860.37483    26314.909 
  106800    578.65605    3.9170723    113.90927    364.84622    1297.7105    26314.909 
  106900    676.36002   0.92507207    126.01908    395.37725   -917.31625    26314.909 
107000        0.23711594348520220743 12.77324832756760209 0.24867724867724866344 24 74.035859974454908183
  107000    614.05083    3.6441512    115.75869    352.25193   -806.71986    26314.909 
  107100    676.93542    3.2515859    116.44665    411.92929    -744.2983    26314.909 
  107200     693.5663    1.0724828    118.70667    402.91718   -1021.8249    27924.876 
  107300    585.12376    4.3826499    120.80855    364.86287   -461.49734    27924.876 
  107400    592.88608    3.0464793    119.42266    347.85868    899.64008    27924.876 
107500        0.25623911358852452524 12.540203194561589939 0.28571428571428569843 28 97.658218133030516128
  107500    634.12292    3.7603235    140.07872    384.96861     792.8216    27924.876 
  107600    603.56114     1.088085    117.63309    350.10842   -247.36045    27679.482 
  107700    621.52719    3.0840696    108.00234    351.97548     1.751627    27679.482 
  107800    635.75215    8.1823178    120.00914    399.94218   -743.78877    27679.482 
  107900     654.4953     10.41619     123.4575    399.04637    583.39632    27749.896 
108000        0.25802132951917283732 12.58105833170421306 0.25661375661375662727 22 110.36396237139885557
  108000    609.16202    2.8843522    120.58113      386.365    10.279331    27749.896 
  108100    670.19216     4.024032    122.86329    426.49542    165.54505    27749.896 
  108200     573.9477    12.911823    138.80058    423.66807    1882.8159    27749.896 
  108300    618.39387   0.82385858    107.44326    390.26206   -54.604575    27749.896 
  108400    627.40328    5.9853159    138.37854    422.27586    178.94565    28148.847 
108500        0.25646401031820353911 12.493842884346507915 0.24603174603174601809 26 129.21534930093926619
  108500    649.52643    2.2115194    144.15311    423.50482    155.95025    28148.847 
  108600    614.75182   0.42570132    121.95865    378.23343    273.41815    28148.847 
  108700    663.93318     7.631785     126.7057    421.57115   -435.42482    28148.847 
  108800    594.08063    4.4476714    136.00339    378.61954   -2053.2333    24451.925 
  108900    608.01491    3.2235045    116.24561    369.30606     -533.446    24451.925 
109000        0.26295729408170781527 11.926083510660108189 0.28306878306878302531 29 120.93588085728499948
  109000    655.06552     3.859919    124.68478    417.73501   -505.40312    24054.169 
  109100    553.67165    1.6115149    132.02348    358.30349    476.05926    24054.169 
  109200    558.94239    7.2831678    107.88102    330.30798    296.51125    24054.169 
  109300    697.60367     9.698469    117.65819    402.45947    1045.5432    24054.169 
  109400    646.01334    3.4455985    139.96868    394.83005    -2086.624    24054.169 
109500        0.27782683556708626105 11.572903351279455464 0.31216931216931215198 30 85.839994145961114214
  109500    589.64961     2.924994    122.38482    353.00028   -1109.9464    20730.259 
  109600    626.52424    3.2186827     139.8376    399.84321   -335.37467    20730.259 
  109700    684.90258    3.6382021    118.58989    393.36846    941.05633    20730.259 
  109800     580.9704    3.6025162    132.54571    345.88181    262.90983    20730.259 
  109900    658.82259    5.5920632    137.03248    399.04555    88.608011    20730.259 
110000        0.2997634405916674849 11.263238271584855354 0.34920634920634918696 37 84.491550254583302149
  110000    637.23421    7.9643917     130.8123    373.21162    269.94722    19009.124 
  110100    588.06168    1.6562902    130.90992     352.5138   -1359.1752    19009.124 
  110200    686.98948    7.1001921    105.56492    360.81721    67.908167    19009.124 
  110300    664.79511    10.169746    140.38929    411.56779    1919.5598    19416.454 
  110400     593.9671    3.7736948    122.17372    353.88103    33.793282    19416.454 
110500        0.30663395906521190293 11.24853676850989892 0.34391534391534389625 32 105.57366945603499175
  110500    557.58664    5.6937269    145.78553    358.20677   -1650.7809    19416.454 
  110600    695.48058    7.5754573    150.89961      431.127    442.12306    19416.454 
  110700    599.15002    1.9921237    136.26273    364.02715   -978.99036    19255.638 
  110800     605.2114    5.0226505    126.73632    350.38704    1351.5141    19255.638 
  110900    661.61719    16.043519     134.8892    404.04554   -1876.0614    19255.638 
111000        0.29767819612795315409 11.033787569922321126 0.33862433862433860554 38 78.156334717788993771
  111000    596.96616    1.0378028    122.53516    348.63163   -698.84457    17740.682 
  111100    621.51239    5.0929661    112.80182    351.77617   -2078.8219    17740.682 
  111200    675.82533    2.6908059    140.86412    411.63245   -303.33106    17740.682 
  111300    629.72756    2.5172009    123.40642    368.36677    436.49659    17740.682 
  111400    609.42703    16.205179    145.09551    382.20489    1070.2848    17740.682 
111500        0.29485579677392687037 11.087230405674331379 0.31746031746031744269 32 78.888386733586628452
  111500    602.43218    6.0226917    113.59703    351.84024    457.27031    18848.648 
  111600    613.93199    1.7715166    124.32802    352.57331   -3.0712684    18848.648 
  111700    680.76442    1.4886026    136.59253    406.96683   -1100.3946    18848.648 
  111800    572.75623   0.99264323    144.29014     362.6145    121.79351    18848.648 
  111900    541.96982    2.3728754     110.6412    306.59495    -83.45691    18848.648 
112000        0.30605475871503790009 10.917407368004178991 0.34126984126984127865 25 73.523547263900468351
  112000    647.96832    5.3765872    111.11586    367.10706   -1954.8022    15802.813 
  112100    597.60705     3.775173    121.86161    335.17606    1653.5301    15802.813 
  112200    650.89257     6.636598    128.53448    376.32301   -1339.4384    15802.813 
  112300    652.95727    9.9166588       119.65    383.80373   -385.79809    15802.813 
  112400    610.06709    4.4320927     126.5374    353.70407   -547.98384    14909.603 
112500        0.30573930545571376127 10.730226178157721506 0.38359788359788360435 42 76.673553531373698888
  112500    742.79337    1.4221997    127.05926     413.2207    3501.6703    14909.603 
  112600    640.15208    3.3385446    112.33355    358.41198    814.28063    15425.942 
  112700    651.70602    6.2556328    126.46509    377.64023    915.79824    15425.942 
  112800    634.65201    1.5255084    129.98461     391.4969   -612.12711    15425.942 
  112900    639.53025    9.5840792    120.95443    393.20262    1470.9009    15425.942 
113000        0.28667485581068985478 10.891535176820775987 0.3677248677248676767 41 74.757814278918417017
  113000    579.59909    2.5979237    115.03969    337.36438    1166.3587    15425.942 
  113100    615.05348   0.81370884     134.3536    369.57397    1221.0422    13100.798 
  113200    620.32638    7.9180188    127.41468     379.1297    1613.9813    13100.798 
  113300    557.90832    3.5618824    124.43871    337.92038    1392.9326    13100.798 
  113400    747.79435   0.71330297     125.3166     412.1279    1646.8539    16801.076 
113500        0.27636292188760580579 11.056170164588428051 0.33862433862433860554 34 57.341308266162762663
  113500    631.65779    3.3634092    114.67683     343.5348   -469.13306    16801.076 
  113600    643.87811    1.3084593    105.06175     335.9303    67.589522    15941.844 
  113700    645.11673   0.98444434     120.9442    395.62398   -491.61432    15941.844 
  113800    594.00719    5.0841803    110.35577    361.75869   -2899.2106    15941.844 
  113900    636.36649     7.845375    108.76044     358.4589     47.84308    15941.844 
114000        0.27088014449717401355 10.997898984869081573 0.35449735449735447768 43 57.683999875192405682
  114000    590.94227    3.3403221    103.00922    325.42997   -657.20057    14712.016 
  114100    540.86089    13.583643    127.10283    344.35888      1338.19    14712.016 
  114200    572.68953    3.4145986    132.26811    385.69194   -1046.4371    14712.016 
  114300    628.48849     3.858758     121.5825    401.84855    104.68749    14712.016 
  114400    572.17003    7.3169197    121.09613    348.43462   -730.81267    14712.016 
114500        0.28892643134770090718 10.948089456269086028 0.34920634920634918696 39 122.54840134015680064
  114500    618.74463    8.9607726     133.4527    402.89115    2860.7429    14712.016 
  114600     655.4207     2.942505    103.53259    383.33349    309.51195    13770.106 
  114700    570.98335    6.9891929    114.28316    337.44522   -201.18529    13770.106 
  114800    673.15658    8.7290858    118.96533    387.44167   -131.82557    13770.106 
  114900    656.07802    2.5062938    109.80598    391.47808   -1930.8745    14315.041 
115000        0.29292407704929623868 11.124665529759152349 0.31481481481481476958 42 93.174150947469001949
  115000    577.90294    4.7740697    118.61852    355.01222   -1840.7102    14315.041 
  115100     651.9557    3.0771645    105.78234    395.75713    1070.3449    14315.041 
  115200    670.43978    12.292546    120.66163    433.04861    382.99329    14315.041 
  115300    626.35889    1.9895093    103.93133    378.46465   -1393.2117    14315.041 
  115400    607.92949    4.3660458    117.54298    372.34806    1603.4887    14315.041 
115500        0.26925059031069664695 11.259658797903378868 0.28042328042328040771 33 98.379052794291240502
  115500    722.64453    5.7081014    113.26889     425.7971   -2695.1838    16172.578 
  115600    607.96278    6.2045061    99.673909    360.63304    197.50605    16172.578 
  115700    640.45232    5.5596322    114.71222    384.77273   -439.43217    16172.578 
  115800    609.33061   0.31635027    101.66268    363.80594   -465.00198    16172.578 
  115900    604.31838   0.80929568    107.13062    370.28007    817.65387    17201.975 
116000        0.25268872189219776514 11.678313945161164611 0.24867724867724866344 38 105.70062433029585236
  116000    659.18098    1.7461209    99.974865     404.3644   -2356.4636    17201.975 
  116100    656.74165    5.4135143    109.12822    388.96564   -485.69228    17201.975 
  116200    635.52341    8.8420293    110.16761    394.01683    1977.3789    18934.213 
  116300    700.98751     5.258198    118.46764    431.15524    1660.5943    18934.213 
  116400    581.66227   0.76609679    115.19298    367.23412   -1977.3187    18934.213 
116500        0.24844931728675859195 11.928829346077094442 0.23809523809523808202 26 71.123101721207135029
  116500    711.76422    3.1343098    107.07884    393.61146    225.54064    18934.213 
  116600    657.29283    7.9528888     130.9452    432.25971   -1137.6574    18934.213 
  116700    632.73126    4.4814837    95.430473    367.87122   -980.01891    20329.248 
  116800    725.14535     4.203457     115.1868    400.30416   -481.44712    20329.248 
  116900    565.82141    4.2459314    114.24603    335.79833    337.97067    20329.248 
117000        0.26318150945026408394 11.853818055779056451 0.25661375661375662727 18 74.603956004808964053
  117000    657.24525    5.8660028    114.02449    372.39069    -892.6162    20473.593 
  117100    636.50223    8.9406377    103.02414    393.07779   -226.03195    20473.593 
  117200    660.62192    4.5840257    94.100363    362.33934   -776.16273    20473.593 
  117300    599.65739     4.771903    110.76967    352.91291   -90.589462    20473.593 
  117400    710.45183    3.3739201    106.65689    393.21299   -831.58717     21848.02 
117500        0.25742483963282963844 11.80100136372820252 0.28042328042328040771 25 93.491354910866832029
  117500    583.09448     2.531965    110.80973    357.68162    -531.0087     21848.02 
  117600    662.64251     3.305085    108.11211    379.23394   -566.34388     21848.02 
  117700    569.74387    6.2403115    111.98652    326.27388    727.85669     21848.02 
  117800    624.91999      1.51042    127.59993    386.78432   -234.93406    22844.241 
  117900    650.08952    2.0623242    110.50981    371.43477    1206.7881    22844.241 
118000        0.28196812859136527463 11.491085944963144172 0.31481481481481476958 31 55.188207443426506416
  118000    563.36625    4.8779605    107.72908    310.43995    930.34968    22844.241 
  118100     601.3551    9.0186376    102.19869    356.54463   -647.16739    20062.837 
  118200    641.62347    6.6704547    116.43669    378.01767    267.23952    20062.837 
  118300    596.59526   0.30489127    93.567825    356.48782    1787.1897    20062.837 
  118400    684.94331    2.1533175    107.17921    402.82684   -347.06743    20062.837 
118500        0.27027146473709817709 11.43286613515490302 0.28835978835978837154 32 79.513877267552203421
  118500    687.90647    3.9332102     122.3668    391.19269    432.32623    18641.823 
  118600    597.53027    2.3269125    115.09839    360.99685    172.41781    18641.823 
  118700    666.09566    3.8883272    131.24059    396.45902    221.97311    18641.823 
  118800      551.043    9.3071342    131.29105    350.04275    2564.7762    18174.924 
  118900    616.64165    4.2029374     121.2843    385.72797    -1047.231    18174.924 
119000        0.25998653185731573911 11.186043587115268139 0.30952380952380953438 35 91.26177579557288766
  119000    642.70987    1.9092723    110.78218    382.46278    3503.9661    18174.924 
  119100    660.95151     4.825009    103.85099     384.5052    211.41168    18174.924 
  119200    639.34732    4.8240593    135.00217    398.41346    601.66768    18174.924 
  119300    635.21039   0.33208248    97.672709    342.73398    1480.9463    18174.924 
  119400    670.17364    5.7285649    129.87388    393.12333    439.80496    17287.548 
119500        0.27360507582606902188 10.899901777221421284 0.29365079365079360674 25 114.82579163811391254
  119500    613.60794    1.0253281    124.25048     392.8412    913.12536    17287.548 
  119600    618.79406    5.9374374    120.54456    381.09819    1151.1939    17287.548 
  119700    656.00353    1.1660126    122.07852    400.29603    1001.6147    17287.548 
  119800    599.43696    1.3450962    120.10987    365.48461   -2583.0039    15596.988 
  119900    682.19464    2.5097245    121.69506    389.07302    2724.0206    15596.988 
120000        0.28534801397665154887 10.519236582294142934 0.3677248677248676767 51 104.68071126988692754
  120000    646.80722    2.3410504    129.36613    397.73815    3431.0572    15596.988 
  120100    628.69588     2.323527    115.55769    363.04431   -807.48872    15596.988 
  120200    621.53261    9.5759212    111.50653    386.71994   -285.44606    14279.703 
  120300    752.74603    16.671291    121.62344    440.59655    2877.5696    14279.703 
  120400    668.61435    3.7876289    110.76626    383.49958   -839.78328    14279.703 
120500        0.30041519663658289296 10.577740800018460732 0.35449735449735447768 43 80.936256907351364021
  120500    609.87975    5.6024963    108.89592    357.26248    3253.9082    14279.703 
  120600    670.10151    7.4847534    128.60017    414.36002   -2384.7332    13881.626 
  120700    597.99736    2.8393776    119.51549     366.8797    82.081668    13881.626 
  120800    648.07619    3.9058641    100.32048    376.64816   -649.26193    13881.626 
  120900    662.90203    6.6348499     126.1254    414.48943   -157.66722    13881.626 
121000        0.2863157691053174192 10.755934629350994314 0.32275132275132273341 30 100.37036114208653714
  121000    633.70659    1.6212321    105.17734    387.49213    1654.4787    16051.167 
  121100    693.16988    4.0049028    130.71411    437.35536   -164.74734    16051.167 
  121200     642.4999    7.7336606    119.13838    401.78955    3014.8019    16051.167 
  121300    654.15672   0.37874044    96.515239    388.61965   -492.66304    16051.167 
  121400     730.5821    3.6128655    146.60293    458.14482   -2381.6409    16051.167 
121500        0.27301025584897559151 10.77497909340799076 0.31481481481481476958 29 134.3161180248562232
  121500    635.39344    4.0483516    133.75699    422.20217    946.61398    16051.167 
  121600    652.82041    4.2000423    122.01146    377.36217    1808.6231    16051.167 
  121700    586.37131    4.8215981    128.36617    374.88206    2780.8311    13194.414 
  121800    689.71815    7.8270483          138    434.82446    1405.7229    13194.414 
  121900    594.52954    5.1473804    125.16294    370.76965   -922.99457    13194.414 
122000        0.25728858072791821465 10.990051655537795838 0.28042328042328040771 29 106.05308537600819818
  122000    623.83958    5.5378706    130.99199    388.70427     944.2858    13194.414 
  122100    678.23618    7.3365184    119.00078    421.13874    795.35038    13194.414 
  122200     633.7634     6.269692    114.45966    354.40204   -215.09294     14907.42 
  122300    628.45811    2.4513462    118.56496    372.64128   -2204.0229     14907.42 
  122400    666.30038    1.5969823    130.32152    400.30644    1204.1818     14907.42 
122500        0.21698256644356320177 11.389540172548656471 0.31481481481481476958 33 84.873799548093799672
  122500    623.67353    3.5145988     117.2985    367.44975    1814.0888     14907.42 
  122600     593.6436    5.7124738    124.35467    342.13217    553.21265     14907.42 
  122700    668.71174    8.7309464    127.52303    413.21674   -783.26823    17432.411 
  122800     687.5636    5.0584441    116.05227    394.71399    2115.5489    17432.411 
  122900    598.77837     7.135296    120.12928     341.8906   -417.45333    17432.411 
123000        0.23344507871232264562 11.7151858663660704 0.34391534391534389625 40 90.82531405370323796
  123000    699.17652    18.173211    127.31226     407.6104   -724.36393    17432.411 
  123100    610.59969    2.9542359    109.71353    346.06029   -975.33455    22131.865 
  123200    648.15602    4.9348511    131.12786    370.55926     351.6158    22131.865 
  123300    692.61563    3.2832527      129.036    401.22343   -2079.8478    22131.865 
  123400    582.22636     5.634855    121.99784    373.62422   -2704.6714    22131.865 
123500        0.23031527171568344503 12.423296776551705278 0.29365079365079360674 29 80.990011336305158807
  123500    544.52462    3.0297248    124.25349    327.70493   -407.76085    23025.225 
  123600    654.75325   0.61445453    117.31304    395.94215    399.29919    23025.225 
  123700    616.02142    2.0482914    120.59321    382.73884    597.58611    23025.225 
  123800    682.54714    3.0269314    135.44779    427.56955    1358.8011    23025.225 
  123900    610.95905    3.1247531     137.2659    398.54052   -73.376297    21216.162 
124000        0.2202679591454340946 12.533750195877820133 0.30423280423280418816 30 76.796269759618979833
  124000    668.47615    2.8392592    129.86568    379.67154   -237.76541    21216.162 
  124100      644.273    3.1114498    116.24449    370.36503   -671.70993    21216.162 
  124200    735.17789    8.4118131    117.48057    436.90939    509.32222    21216.162 
  124300    620.15266    4.7736552    123.09533    376.94838    1069.3815    20223.569 
  124400    645.64053    3.6706239    122.11629    405.18554    492.31145    20223.569 
124500        0.22098289062998563437 12.638462595365975716 0.28835978835978837154 30 122.10214205632742335
  124500    684.63305    9.1195869    136.50662    432.29782   -477.08487    20223.569 
  124600    637.45167     4.718879    105.01905    370.65419    166.12273    22568.187 
  124700    748.59315    3.5129047    105.88797     388.6286    647.45168    22568.187 
  124800    641.18869    1.5712789    121.49464    381.50802   -234.53859    22568.187 
  124900     668.6767    1.3681507    129.87279    426.81695   -937.00593    25885.899 
125000        0.22744645328551610364 13.138856378267444569 0.28571428571428569843 28 104.79648289391479921
  125000     664.3694    9.0481743     130.0725    405.81105    603.38877    25885.899 
  125100    615.02824    3.7549304    138.16602    397.46083   -1465.1272    25885.899 
  125200    694.79828    5.6053667    113.70312    411.49473   -798.96693    29718.516 
  125300    708.40638     4.197243    124.12422    441.99064   -79.350129    29718.516 
  125400    618.34849    4.1663504    112.81548    377.02572    649.07596    29718.516 
125500        0.20684353328483248702 13.377921392654586796 0.26190476190476186247 19 97.765563951546809562
  125500     697.1644    4.4828195    122.10363    413.63899    495.30996    29718.516 
  125600    708.00324     1.943859    141.27926    452.14753   -719.81405    29718.516 
  125700    627.93037    6.2895874    128.62526    392.79632    148.50329    32270.416 
  125800    664.63349    4.8675514    124.84196    403.84975    510.08487    32270.416 
  125900    667.37396    3.8214236    114.50119    422.73939    251.56763    32270.416 
126000        0.18995664355619937269 13.600536254857399143 0.27248677248677244389 27 113.92122879864882634
  126000    655.44856    2.5165178      129.294    410.89391    930.19436    33268.348 
  126100    735.91639    2.5124037    109.59483    419.64107    481.02874    33268.348 
  126200    665.05957     10.83022    115.86422    412.61318    1024.5994    33268.348 
  126300    614.94526    8.4993224    123.51216    407.09064   -881.56955    33268.348 
  126400    665.52049    4.5944452    137.87504    436.09737   -1019.9299    37494.659 
126500        0.20497619136237765769 13.828789454377243828 0.26455026455026453558 21 116.67011740454354651
  126500    650.15729    4.8446158    123.01558    411.24542    481.32108    37494.659 
  126600     644.6005    4.6030222    115.12259     420.7114   -625.30594    37494.659 
  126700    774.59519    7.5991181    132.81753    496.71804    650.72872    36372.451 
  126800    659.58757     1.447358    124.06787    415.42881   -225.36555    36372.451 
  126900    655.76265    8.5401712    134.69712    417.21727   -162.26074    36372.451 
127000        0.20807531539920251507 14.144885818521109044 0.24603174603174601809 20 152.66978428147706381
  127000    715.28035    4.8826859    140.51676    476.75124    453.67625    36372.451 
  127100    640.13369    5.5724526    119.34181    395.27125    633.91328    36372.451 
  127200    658.03654    2.3977719    117.39513    409.79788   -298.64248    36372.451 
  127300    717.49048    2.0406125    134.61256    447.00896     129.7017    38256.071 
  127400    655.04906      4.69094    137.39573    412.30644    817.55242    38256.071 
127500        0.19977253228593835899 14.390625836608363031 0.23280423280423279131 23 94.854916821560792073
  127500    679.53492    3.9257017    114.92348    402.74072   -1040.5191     39406.43 
  127600    707.57945    4.0567946    138.25977    432.75944   -1097.7243     39406.43 
  127700    618.25138    5.3811209    126.00557    392.25659    343.44151     39406.43 
  127800    653.42099    3.2184564     119.1811    395.36929    925.57685     39406.43 
  127900    692.03083     7.493668    132.38945    411.74846    57.790834     39406.43 
128000        0.20915925614601416083 14.511326298148583547 0.23015873015873014595 17 113.981577125134379
  128000    614.86926    12.727558    136.15303    392.56846    1010.4267    42835.214 
  128100    597.25765    6.4291329    131.41978    400.68154    360.50883    42835.214 
  128200    687.40595    4.4653621    125.12165    443.04733   -367.67625    42835.214 
  128300       625.36    5.1940375    118.38917    387.05149    95.566514    42835.214 
  128400    618.55797    1.3692846    133.67439    410.28168    131.69922    43495.443 
128500        0.20004491533482646193 14.660365851467281217 0.20899470899470898311 19 125.38441876342868397
  128500     616.9977    2.3952544    127.83905    404.93567   -449.38471    43495.443 
  128600    628.71315   0.44345374     114.5606    361.72261    278.29188    43495.443 
  128700    659.43429    5.8596519    126.33449     420.6734   -216.06319    43495.443 
  128800    584.39887     6.410383    125.34957    396.95887   -348.14961    43495.443 
  128900    727.82353    9.0427773    116.41029    454.15325    230.46377    45753.518 
129000        0.18591204289915050363 14.832096870966978486 0.18783068783068782026 19 130.58075121901376292
  129000    681.34831     1.550561    123.72503    439.28818    304.96993    45753.518 
  129100    632.23203    2.1505867    120.29116    412.91698   -666.91358    45753.518 
  129200    640.56427    8.3183665    154.49661    460.07534   -730.71841    45753.518 
  129300    601.73362    8.3784223    138.73943    425.48673   -231.98246    45156.873 
  129400    653.84745    4.2457491    117.00844    411.49112    415.41383    45156.873 
129500        0.17811850144786164907 14.961187602126688745 0.17195767195767194813 17 123.27111314914452578
  129500    689.07769    5.6334935    119.90197    435.48059    -157.1751    45156.873 
  129600    668.91099    4.0265269      129.966     453.0451   -9.6009343    45156.873 
  129700    665.76514    7.1910497    100.11772    393.65949    553.72737    45156.873 
  129800    626.41553      4.13276    135.93981    430.01184   -552.80039    45000.523 
  129900    673.94545    4.7265494    142.99504    449.28897    138.56613    45000.523 
130000        0.16506214857382414674 14.954511562465780727 0.16666666666666665741 19 141.62057644560400149
  130000    656.92738    7.1457739    121.55861    439.26329   -20.223408    45817.731 
  130100    679.22067    3.0238694    110.84412    397.93157    782.91647    45817.731 
  130200    703.43299    4.5271023    115.77229    434.16165    247.99077    45817.731 
  130300    723.76847     5.668493    119.27752    456.33677   -360.56274    44865.009 
  130400    613.84244   0.58819323    113.09057    392.45764   -1225.1529    44865.009 
130500        0.16078939588426971463 15.129702784593098031 0.12962962962962962243 11 156.56942549880460547
  130500     658.1945    4.3248195    133.56465    454.78625    566.41479    44865.009 
  130600    642.00141    6.2476275    133.69255    428.69129   -54.457998    44865.009 
  130700    618.15869    8.4289108    121.04815    417.51314    602.07537    44865.009 
  130800    721.97187    5.3628972    125.49322    473.86154    579.06797    44865.009 
  130900    693.28227    5.5080493    120.46048    416.53204   -424.51399    48044.717 
131000        0.15781863675467794339 15.229916010630489609 0.12962962962962962243 11 132.99060896975800006
  131000    606.78701    5.8658643    138.55117    407.91556    -1240.667    48044.717 
  131100    720.46575     2.720766    132.23372    465.73233   -64.588759    48044.717 
  131200     687.4341    1.0889885    112.03231    401.86073   -94.987179    48044.717 
  131300    715.69583    1.6660598    118.10199    418.53428    154.57274    48044.717 
  131400    602.62283    2.8200222    107.56711    368.30456   -363.61966    45673.472 
131500        0.15035377429973953434 14.890278524078027544 0.14021164021164020386 14 103.54922759542252209
  131500    724.95605    3.4066602    125.56175    432.01458   -245.99799    45673.472 
  131600    664.55902    2.4126352    133.16958    414.61094   -254.83977    45673.472 
  131700    606.80286    4.7612652    120.13123    356.27948    471.24386    41472.392 
  131800    627.43507    7.4655623    114.21603    388.98986   -194.95192    41472.392 
  131900    631.40236    10.386013    131.80696    414.18351    103.34069    41472.392 
132000        0.17069629176867934239 14.416182585866829768 0.15608465608465607599 18 79.659411866904520139
  132000    600.86093    7.5335339    110.45239    351.89936   -517.15464    41472.392 
  132100    607.36918    9.4099096    119.76329    387.46916    658.14322    41472.392 
  132200    698.91732     2.652724    117.67978     426.5351   -105.88207    37732.735 
  132300     639.0741    1.1721765    123.92832    392.84573   -58.083729    37732.735 
  132400    627.46854    5.0473893    118.45541    400.92473   -535.38536    35566.359 
132500        0.18589400571121741934 14.158150553498808577 0.16402116402116401206 13 130.98962724848263406
  132500    684.64575    1.0419107    134.62573    441.19107   -231.03236    35566.359 
  132600    612.00185    2.8598094    124.47323    388.76243   -102.59186    35566.359 
  132700    684.39963    5.2238708    134.06888    460.13432     135.4655    35566.359 
  132800    690.47195    3.6363596    128.32973    426.35778   -1503.5074    35566.359 
  132900    647.12516    3.4996766    116.54062    418.18356   -86.695684    34580.366 
133000        0.19082497008864945931 13.797728838014354125 0.18253968253968252955 15 131.63430938295047667
  133000    660.37916    5.2021152    139.05533    430.84097    880.33313    34580.366 
  133100    680.44378    3.8110412    130.32625    435.35178    960.41648    34580.366 
  133200    629.46326    3.2501669    131.70157    397.76056   -875.12649    34589.035 
  133300    666.56739    1.0477481    147.64195    466.40709   -543.25472    34589.035 
  133400    671.50961    4.5111661    120.78156    423.78758    746.82428    34589.035 
133500        0.20611253996239048414 13.697797396159996808 0.17460317460317459348 18 98.08048006215879866
  133500    638.53305     4.863551    123.32672    387.38903    575.84724    32604.729 
  133600    721.57829    1.5100724    116.39692    436.64062   -534.77681    32604.729 
  133700    629.56049    6.2865604    119.22227    383.05711     1141.648    32604.729 
  133800    661.88878    3.4588285    127.47891    404.84767   -931.98349    32604.729 
  133900    675.76095    1.8884763     132.0148    424.79195   -24.949511    32604.729 
134000        0.22680463980450257799 13.311491371631813507 0.21957671957671956453 21 142.42134557763955627
  134000    726.83081    12.034655    145.82718    471.73612   -333.15031    25846.558 
  134100    741.90786    3.9961207    121.08758    452.11694   -1161.2266    25846.558 
  134200    627.56997    7.2596152     123.1282    405.58431    -1396.223    25846.558 
  134300    696.32503    3.8305237    148.61002    463.07115   -1963.7397    25846.558 
  134400    687.64887    5.6202768    127.86992    421.54216    2275.4299    24638.562 
134500        0.24729495001409287913 13.197612718804817789 0.25661375661375662727 22 106.48495593651468027
  134500    676.27785    1.5054076    118.24992    412.89504    201.30007    24638.562 
  134600     763.1355    6.9486855     132.5652    493.28135    308.39015    24638.562 
  134700    685.05345    4.1196549    114.87529    426.78087    977.79969    24638.562 
  134800    690.66278     4.829983    115.58744    418.92748    6.3489675    24638.562 
  134900    733.06723    2.9726261    132.36934    449.74615    748.38511    23950.824 
135000        0.25046519051542448508 13.07877756899930155 0.27777777777777779011 29 83.580954490121314393
  135000    664.22671    5.1344198    115.36484    384.53087   -78.030493    23950.824 
  135100    637.93146    4.7426813    139.05469    400.98543   -334.36426    23950.824 
  135200     669.0557    2.0842132     131.1648    436.18715   -1116.5323    23950.824 
  135300    681.49247    5.3041873    140.03157    424.83491    862.45396    23950.824 
  135400     636.4933    4.2992144    141.48844    399.46315    1162.3271    25347.202 
135500        0.24152245718537440622 13.003722596380395515 0.28306878306878302531 30 100.65103975692349536
  135500    668.92171    2.6185733    135.76378    403.72818   -1406.8862    25347.202 
  135600    772.78822    9.2759896    124.69546    442.32293    494.61987    25347.202 
  135700    669.18569     3.103407    125.17049    387.02695   -1569.7058    25347.202 
  135800    656.26327    4.0252926    124.20204    384.92932   -757.14391    25347.202 
  135900    750.84691    13.690739    123.95338     438.1173    735.65498    25941.907 
136000        0.21579343752250523814 13.481440078531282012 0.21164021164021162846 25 65.542642545354482309
  136000    752.43688     1.592986    109.96366     406.4591    810.98562    25941.907 
  136100    641.66612    4.4501355    130.83871    386.57343    741.93979    25941.907 
  136200    709.69549    1.8801481    127.54087    439.24143   -1111.3406    25941.907 
  136300    611.82199   0.35009528    127.19462    376.64093   -837.60035    29766.841 
  136400     704.5943    4.1877219    123.55397    414.40764    -705.2795    29766.841 
136500        0.20301908744826011044 13.835001443452602743 0.16666666666666665741 15 106.29476396766449398
  136500     657.5451   0.86415379    131.30215    404.21735    867.98179    29766.841 
  136600    624.64447    7.1574621    123.43741    396.38042   -738.72218    29276.297 
  136700    697.59208    3.0261785    135.18785    445.63184   -124.75411    29276.297 
  136800    634.49141    1.1321549    117.60346    402.93431    -818.6847    29276.297 
  136900    686.03485    3.4636416    146.17368    473.23664   -260.38386    29276.297 
137000        0.20415666296573717342 14.099054722897063741 0.16666666666666665741 21 117.60408963490434076
  137000    657.44047    3.5792262    116.29253    415.47927   -1038.2606    30907.715 
  137100    625.95502    4.3626747    142.53401    407.63416   -708.51147    30907.715 
  137200    714.78908    6.2739181     144.2854     481.1504   -690.77667    30907.715 
  137300    723.57826    6.7542503    117.93448    439.28493    561.48017    30907.715 
  137400    718.55381    4.3895032    127.44365    423.02357   -883.32897    30907.715 
137500        0.19492862554781828499 14.179364073307484162 0.16931216931216930277 24 95.259318048009063773
  137500    648.42511    9.0502066    118.81617     389.0498   -584.63054    31675.899 
  137600    684.25623    6.9545993     136.4738     462.8702    309.58808    31675.899 
  137700    608.64225     1.814952    129.80999    411.35553    251.28033    31675.899 
  137800     656.0359    3.8427373    118.98107    427.27562    484.82813    32007.731 
  137900    677.11591    2.5053516    115.10392    423.26214   -570.82363    32007.731 
138000        0.18011202997442038454 14.34533149920040529 0.1613756613756613667 21 120.32881320971273453
  138000    704.03052    4.0204975    119.23393    439.31316   -178.28767    32007.731 
  138100    627.36568    4.3521785     100.8529    375.71073    1047.1491    32007.731 
  138200    693.23669    1.8955147    125.03436    434.81094    357.79994    32007.731 
  138300    744.23643    4.3533086    112.90946    449.97844    222.50552    32493.926 
  138400    645.75855    5.5302604    115.73708    384.57108    359.76905    32493.926 
138500        0.17601747325078795359 14.379920291487529482 0.16666666666666665741 18 134.03446251300366043
  138500    667.15079    4.2946371    124.84033    436.30923    114.73103    32493.926 
  138600    684.58064    5.7358252    128.14087    432.69883   -89.215139    32493.926 
  138700    648.43055    4.4560249    129.47527    420.96786    186.30478    32493.926 
  138800    757.45995    5.7043199    144.96315      465.465   -242.62545    31910.667 
  138900    609.38929    6.1745071     135.3416    398.41354    1198.9946    31910.667 
139000        0.17931148843131139436 14.504568671409137082 0.18253968253968252955 22 88.9950965991359908
  139000     765.7829    4.3549357    112.69797    435.95841   -148.35369    31910.667 
  139100    562.94185     6.032151    127.41485    376.56765   -308.91617    31910.667 
  139200    635.34052    2.9676164    136.76609    414.34424    716.26119     33096.07 
  139300    676.28295    4.0346589    128.32422    431.44085    823.01277     33096.07 
  139400    632.48479     7.628085    109.80324    382.91845   -476.35888     33096.07 
139500        0.2044605892089590149 14.670921323147180004 0.22486772486772485524 21 126.66714807723246849
  139500    719.04377    7.5695378    131.80206    452.45375    -224.5419     33096.07 
  139600     670.7872    13.278281    116.33591    410.67358    256.84142    33788.634 
  139700    679.42181    4.5139855      126.969      422.774    410.71154    33788.634 
  139800    644.92383    8.3130054    131.10147    430.24569    708.58329    33788.634 
  139900    651.65919    5.3508999     149.1014     463.6794    314.99338    33788.634 
140000        0.20022803537948097308 15.19887641709236803 0.22486772486772485524 24 153.44011063981335496
  140000    746.04258    6.8878991    147.65738    491.45942    160.73044    29439.015 
  140100    626.74559   0.69500301    127.66794    436.43687   -159.93997    29439.015 
  140200    748.51402    6.2530437    134.65062    461.45853   -558.39496    29439.015 
  140300    631.26535   0.90931302    113.05654     389.3112   -834.28841    29439.015 
  140400    670.52273   0.43153861    134.97446    428.00933   -82.264269    31826.961 
140500        0.16906868089143031741 15.995774527409466259 0.19312169312169311097 17 127.76847546794138566
  140500    691.13872    3.5431623    129.86933    440.91177   -929.65347    31826.961 
  140600     725.7691    1.0023911    139.01747    465.54032   -855.68346    31826.961 
  140700     736.0677     1.535237    105.76959     450.5462    28.201624    31826.961 
  140800    629.81578    2.7115262    145.06159    425.43966   -138.32415    37466.602 
  140900    712.94543     2.660329     144.9564    483.22994   -678.49433    37466.602 
141000        0.14702727513202878962 16.481621506742598626 0.17460317460317459348 14 133.21315382062337562
  141000    700.97493    7.6107561    141.96543    450.81307    755.27394    37466.602 
  141100    644.29934    10.206105    123.36517     408.3625    681.25026    37466.602 
  141200    757.73041    2.8061146     143.6013     473.1874   -667.54495    37466.602 
  141300    685.67467    2.3473017    126.65852    431.09503   -56.257963    41618.161 
  141400     706.3539    1.0810457    131.61135    435.93096   -407.23997    41618.161 
141500        0.15717743632739428206 16.724050533002479568 0.19576719576719575633 14 124.61224075340601303
  141500    692.54604    1.9680002    147.01641    438.39317    280.27436    41618.161 
  141600    692.63923    2.6517932    132.57144    424.07774    400.49453    41618.161 
  141700    597.46337   0.61578135    104.85104    352.35879   -518.27633    42420.647 
  141800    633.02358    10.611082    119.14862    407.99262   -26.547896    42420.647 
  141900    673.22757   0.49538842    130.65244    463.22938   -31.663957    42420.647 
142000        0.16477287005087287719 16.963793270623209963 0.20105820105820104704 20 133.25106830353885812
  142000     694.3069    4.4077463    134.26921    447.82981     374.4489    45494.057 
  142100    651.62272    2.4450489    137.49202    407.82331    622.87867    45494.057 
  142200    741.43649     0.678789    123.65215    459.09991   -127.23388    45494.057 
  142300    773.19678    2.4043175    159.75687     523.3305   -235.40476    45494.057 
  142400    701.88174    5.3625009    124.60279    416.11599    291.40991    47729.427 
142500        0.15622896940170358238 17.198952508803849071 0.18783068783068782026 23 109.30687856906448019
  142500    655.12068    3.7249709    119.57347      406.131   -117.80987    47729.427 
  142600    757.16049    6.2722387    116.94018    469.54328    225.00326    49447.502 
  142700    717.32572    4.1130407    110.66262    419.77966   -385.64248    49447.502 
  142800    682.02499    5.9228651    121.51977    427.84914   -582.90159    49447.502 
  142900    723.26666    7.2685073    120.73151    435.14603    35.770931    52278.458 
143000        0.13969291181747148234 17.872685541845445556 0.16666666666666665741 15 144.44074748631493321
  143000    609.17973    2.4366181    130.54154     420.4498   -394.52254    52278.458 
  143100    775.69149     8.135762    122.76755    472.74645   -116.18612    52278.458 
  143200    620.87676    4.4541197    129.30119    421.38674   -569.34437    52278.458 
  143300    733.27484    1.1746376    117.20898    434.17059    408.94587    56568.999 
  143400    712.49122    2.4559731    126.79247    446.72472   -78.561046    56568.999 
143500        0.13382354931686465949 18.233126550685582856 0.15608465608465607599 19 178.77541281183081878
  143500    715.66503    12.265909      154.349    503.03117   -59.295276    56568.999 
  143600    642.54076    3.5232719    129.40835    422.59732    -72.80622    56568.999 
  143700    680.78718    2.7309749    153.84277    456.60672    118.81677    56568.999 
  143800    612.59089      4.52071    154.62549    430.09744   -19.646334    59407.155 
  143900    661.27102    4.3022149    124.74797    441.03736   -111.82736    59407.155 
144000        0.11204689121240875294 18.762920924481544915 0.13227513227513226779 11 104.93615353348491226
  144000    786.35014   0.60180537    127.66438    461.21813   -669.70852    59407.155 
  144100    704.30388    2.7268915    117.04602    428.56923    196.37793    61359.151 
  144200    698.59467    12.925238    135.63061    468.39713    602.30142    61359.151 
  144300    721.67122    4.2415509    127.01136    456.66954    331.12968      58885.5 
  144400    673.79279    4.7109112    122.73784    441.01906      258.215      58885.5 
144500        0.10863601703239600393 19.149323873543451668 0.12698412698412697708 13 136.92712771838054664
  144500    724.76106    1.9979892    133.88466    465.30413    265.65033      58885.5 
  144600    643.63453    1.7585505    110.18457    383.98791   -173.68475      58885.5 
  144700    628.57913    3.1382222    135.69137    442.03035   -680.53807      58885.5 
  144800    724.44969    9.1331931    147.66703    491.85574    405.47368    59110.782 
  144900    657.96683    3.4755882     123.1237    429.72056   -214.47843    59110.782 
145000        0.10786505004687940712 19.750879483901748301 0.11904761904761904101 11 144.75941966080065981
  145000    683.75306    6.2931107    133.41948     454.5564   -212.44542    59110.782 
  145100    743.76189    5.9297874    130.50322     466.9112    78.762806    58475.026 
  145200     702.6011   0.76897087    128.67091    444.24856   -280.60937    58475.026 
  145300     721.4581    4.5122651    113.21147    447.33489    115.70517    58475.026 
  145400    750.46993    1.6583364     144.1574    508.14846    326.38059    58475.026 
145500        0.11448675802450057615 20.141325667774015784 0.12698412698412697708 12 146.88917921437410996
  145500    654.44712    3.5936867    136.28265    443.40813   -128.33517    60096.481 
  145600    669.46857     0.173187    137.54079    450.71352      156.013    60096.481 
  145700    765.83122    1.7273671    149.75641     501.2913    423.42007    59035.282 
  145800    685.60922    4.8058815    128.45973    425.86301    659.90488    59035.282 
  145900    688.66656    2.0958608    146.77254    439.84308    172.82356    59035.282 
146000        0.11211363579359896747 20.263716858148981714 0.14814814814814813992 15 171.61578719747336663
  146000    667.88497    4.0617559    138.73803     474.2232    -140.4251    59035.282 
  146100    647.01034    7.3303689    118.76544    406.22728    149.10395    60122.933 
  146200    713.39027    1.3678191    132.15674    441.23403    824.94781    60122.933 
  146300    616.45645    8.2484399    113.17385    379.21204    277.95458    60122.933 
  146400    653.65953    1.8894202    129.97607    446.47901   -197.74109    60122.933 
146500        0.11327080894671526234 20.567782853639926088 0.15608465608465607599 12 161.35894496654677255
  146500    697.34158    4.9102167    152.79259    477.31265   -228.16625    60122.933 
  146600    688.52237    1.3541604    125.72014    440.14469   -18.033337    62587.834 
  146700    667.11334     6.239732    138.16819    433.79382   -527.71175    62587.834 
  146800    729.56787    3.0413684    117.02885    468.44575   -147.77797    62587.834 
  146900    690.69288    4.1852771    132.11484    421.07718   -288.50279    69345.258 
147000        0.10192119586480750948 21.182407664281797111 0.13492063492063491315 10 113.98101120533370079
  147000    668.68763   0.85270268    135.18593    416.95209   -251.76524    69345.258 
  147100    691.75396    5.5009983    133.50707    453.37217   -124.83535    69345.258 
  147200    718.94647    1.1349314    111.70855    440.02343   -281.00964    69345.258 
  147300     579.8422     3.563682    149.06179     430.0873    161.56096    69334.354 
  147400    705.52868    2.1392379    154.56498    468.41031    127.89207    69334.354 
147500        0.10194367961206807216 21.627638329923986049 0.13227513227513226779 16 104.37152890046161247
  147500    661.01436    1.9362304    112.13861    403.86598    59.456805    69896.159 
  147600    782.82334    2.1861719    129.83813    478.99088    167.17681    69896.159 
  147700    675.12573     7.007377    132.66783    447.94149   -42.182377    69896.159 
  147800    683.06155    2.9993601    156.76978    461.67323    77.989848    69896.159 
  147900    703.01816     5.494803    153.86399    487.82019   -551.31087    69926.637 
148000        0.1044994806720340591 21.880716352414985693 0.14550264550264549457 16 131.98779903147143955
  148000    698.48706    8.3843649    137.40205     448.4605    25.420374    69926.637 
  148100    661.90463     8.609957    144.40478    466.22055   -302.96657    69926.637 
  148200    788.29162    2.2757687    152.47005    506.14085   -428.75253    69926.637 
  148300    642.29522    3.9155796    157.10664    437.59801    406.97267    75061.601 
  148400    751.48871    4.0555991    143.87869    493.17326    18.643135    75061.601 
148500        0.11124965709189471585 22.135990500734290976 0.11640211640211639565 11 146.45418007554633277
  148500    668.80072    3.6287498    145.55628     449.4765   -251.40541    75061.601 
  148600    670.58217     7.807325    152.29287    445.72804    75.581024    75061.601 
  148700    707.71447    5.3010274    143.14172    464.39924     541.7152    80649.389 
  148800    718.44159    4.5852286    133.34207    456.14214     308.3898    80649.389 
  148900    703.03022    1.9280599    140.78947    470.93615    189.26597    80649.389 
149000        0.10178279371446338764 22.201284483068199904 0.12962962962962962243 8 120.541918427215478
  149000     763.6154    1.7068576    118.41152    466.52317    102.22593    80649.389 
  149100    642.98587    3.8563475    142.66521    447.36374   -532.80781    76605.847 
  149200    738.73049    7.4791724    149.24068    496.97572   -229.82506    76605.847 
  149300    736.79751    2.4095594    115.22903    446.44045   -607.75832    76605.847 
  149400     710.0017    6.2336631    125.58311    446.60445    20.135174    76230.049 
149500        0.10726417765658249892 21.959767567830279944 0.14021164021164020386 11 155.26167790349165898
  149500    647.02783    2.2354379    134.76915    448.41907   -271.55988    76230.049 
  149600    679.06782    6.8594598    180.89773    509.67955    443.50514    76230.049 
  149700    712.80348    11.039386    131.87827    445.12147   -128.82447    76230.049 
  149800    692.78202    3.2699948     146.5931    459.20023   -337.84617    76230.049 
  149900    646.19374    10.621681    151.37142    445.80464    -23.99588    76230.049 
150000        0.11614464849586245143 21.597388357828990024 0.15608465608465607599 14 121.68322144879512337
  150000    698.94208    5.8221935    127.41918    438.36208   -223.91516    71215.178 
  150100    759.22549    8.4301781    166.26962    500.51823    78.299762    71215.178 
  150200     682.4129     7.164618    144.75266    432.87806     203.0916    71215.178 
  150300    708.75251    7.4176451    141.55499    456.93123   -211.49886    71215.178 
  150400     776.2738    1.6820001    160.55148    517.55211   -67.073819    71215.178 
150500        0.12271435948911009473 21.325451433741051233 0.17195767195767194813 17 128.00568449158032536
  150500    686.45788    2.6027998    140.70595    439.02817   -43.928621    71215.178 
  150600    702.45868    3.7121736    154.99507    462.67557    59.850201    67191.538 
  150700    758.80335    4.9584292    132.62447    462.45859    -77.41578    67191.538 
  150800    687.61978    2.1685595    127.42859    415.66756    657.47079    67191.538 
  150900    801.92896    3.3098756    128.99675    482.64102   -266.10411    67191.538 
151000        0.11791540927752010293 21.178892644630082032 0.1613756613756613667 17 101.20664886345365119
  151000    742.71584    4.0700777    123.54702    437.71866   0.46691614    68839.583 
  151100    648.08378    3.7675656    161.40853    441.33529   -248.21776    68839.583 
  151200    747.46854    1.6357869    161.14078    488.02595   -133.68558    68839.583 
  151300    685.83567    2.4010383    128.49387     419.5951    51.943205    68839.583 
  151400     671.1688    6.9431962    143.29592    454.57734    362.83161    67048.316 
151500        0.12717549268108319094 20.98829690364103584 0.17195767195767194813 20 150.39016945660074498
  151500    735.37712    2.0862292    174.54093    483.57713    212.11043    67048.316 
  151600    685.53859    6.5517002    163.29622    460.02044    279.11156    67048.316 
  151700    666.62303    4.0587193    161.55386    477.46272   -241.51975    67048.316 
  151800    753.79717     1.046913    155.71543    489.23438    476.59785    67048.316 
  151900    671.89598    5.6971917    140.58089     435.1643    248.37835    67048.316 
152000        0.13955640282292752774 20.91676953761614044 0.16931216931216930277 18 172.88560880889693294
  152000    716.08551    4.6132118    165.85713    497.33187     138.2033    67048.316 
  152100    704.07514    5.0862662    134.41608    445.29522    100.23321    65971.462 
  152200     698.0323    4.0667065    156.86558    475.29994   -159.95688    65971.462 
  152300    706.57524    1.8545414    139.39887    463.31049    12.344238    65971.462 
  152400    665.41658    2.4421669    142.20543    437.92669    214.50052    65971.462 
152500        0.14432089239643100531 20.960776845273606739 0.17460317460317459348 18 157.89434275110548356
  152500    737.20214    7.2685683    141.36843    491.90819    108.15546    65971.462 
  152600    719.38372     1.181341    135.23748    464.69153     12.76339    65971.462 
  152700    670.19769    1.8511702    139.02382      456.434   -302.67957    61614.341 
  152800    743.80286    3.5510405    145.39739    502.98231    82.538119    61614.341 
  152900    582.88411    3.3567761    132.03729    419.53157   -659.08284    61614.341 
153000        0.14262534755902639416 20.993938321494315602 0.16931216931216930277 20 168.4687566574397124
  153000    698.52382    2.8513873    134.82579    484.95811      -272.77    61614.341 
  153100    718.18172    1.9563928    119.11882    466.45119    27.815177     58881.98 
  153200    709.98788    3.3643312     121.3574    448.76216   -563.45468     58881.98 
  153300    779.51025    5.6230864    145.79958    509.83711    50.787311     58881.98 
  153400    670.25776    6.2420916     140.6845     464.5274   -180.92566     58881.98 
153500        0.13077640568536580412 20.982188860449888068 0.14285714285714284921 9 161.04141141528356229
  153500    844.47524    11.247532    141.58464    543.65889    82.563437     58881.98 
  153600    720.96253    10.317241    134.19331    489.13386    56.125854    54525.405 
  153700    699.45579    4.5378544    148.54183    486.80446    189.52425    54525.405 
  153800    807.25713    3.9944195    133.51213    546.14837   -809.49071    54525.405 
  153900    632.76089   0.46080697    161.51999    459.55207   -849.65963    54525.405 
154000        0.13324397576602456383 20.778433347210850002 0.15873015873015872135 18 190.01353766653375033
  154000    697.50963    4.9395976    165.53724    506.04338    543.80199    54525.405 
  154100    713.28561    7.4406662    162.11328    503.02465    -264.4385    54241.674 
  154200    715.88209    2.9267272    117.15743    445.70256     301.4995    54241.674 
  154300    746.66608    4.8109359    158.61202    514.44408    904.17375    54241.674 
  154400    686.95762      4.03495    147.16271    455.94594   -364.45409    54241.674 
154500        0.13751541765279154395 20.520559910535435932 0.15873015873015872135 16 128.73350826625656396
  154500     692.5795    5.9507789    130.76755     442.5296   -327.76325    54241.674 
  154600     790.0572    7.4931644    134.26628    515.33945    103.91596    54241.674 
  154700    706.02043    1.8304154     136.1787    462.76922    409.20782    56110.204 
  154800    678.73438    5.9011926    154.79033    475.58633    461.32806    56110.204 
  154900    733.44931  0.045138085    136.29108     480.0451   -183.00529    56110.204 
155000        0.1337404075896846678 20.250925704911679759 0.14814814814814813992 18 113.31130102665001402
  155000    693.71752    2.0233649    130.11519      427.623   -263.50161    59966.419 
  155100    677.40262    2.9287281    133.96995    447.39516     628.8486    59966.419 
  155200    662.84526     1.439333    168.24661     492.5572   -665.24483    59966.419 
  155300    638.09861    4.5810609    133.32879    436.23258    62.411198    59966.419 
  155400    740.34909    4.6395643    136.27074    464.43075   -594.84098    59966.419 
155500        0.14473972732743975445 19.983251281234203134 0.17460317460317459348 14 136.74358828171907021
  155500    791.65909    3.1977952     129.8316    495.43096    456.61029    56626.366 
  155600    610.62995    3.7250082     141.9136    435.21144   -261.95567    56626.366 
  155700    657.87869    2.8876998    143.19498    469.25282   -141.55664    56626.366 
  155800    748.96544    6.8495041    129.60605    464.67275   -80.529197    56626.366 
  155900    648.99662    0.7159574    135.56519     431.0716    221.06626    56626.366 
156000        0.14037946346935717412 19.89149773092891138 0.17195767195767194813 18 149.44024195562104751
  156000    754.76907    2.6629269     135.1229    491.41337    315.09448    56047.447 
  156100    686.20661    9.0519792    113.28772       446.63    -81.11276    56047.447 
  156200    795.33926    1.4920743    125.50989    505.19315   -150.79423    56047.447 
  156300    626.64049    5.6782889    152.75436    434.50661   -47.568527    56696.243 
  156400    761.82622    6.1376396    128.25948     458.7962   -533.27856    56696.243 
156500        0.15490590247913607613 19.772031721884314237 0.16931216931216930277 18 130.38335861991524212
  156500    720.56714    12.482778    136.12653    456.86017   -467.44928    56696.243 
  156600    714.84126     5.379035    153.91276    476.47321    297.02132    56696.243 
  156700    674.86961    3.7432252    146.92543    439.98408    522.51309     58140.92 
  156800    619.94634    3.7068732    151.93268    410.44723    561.28276     58140.92 
  156900    750.68554    4.0285905    132.03965    471.97964   -486.43527     58140.92 
157000        0.15566444667013207281 19.788207257428510388 0.15343915343915343064 17 158.82409480931085
  157000    651.51043    5.7765926    161.65677    454.01248   -268.90552     58140.92 
  157100    767.14685    3.8263369    158.50575    498.43213   -342.13749     58140.92 
  157200    686.52649    2.7816504    127.75111    435.13513   -292.41886    53995.609 
  157300    723.95916    2.0779892    140.13485    455.19269    131.88593    53995.609 
  157400    668.13901    14.136278    161.08437    470.56598    880.45573    53995.609 
157500        0.15206304603804518538 19.628241334679728425 0.17724867724867723884 20 153.24067441806633383
  157500    717.82997     8.111413    153.47638    478.47732    54.427668    53995.609 
  157600    777.45423    10.062259     160.8299    553.33665    692.82887    52164.507 
  157700    667.42239    5.8012848    148.24803    477.76579    547.04642    52164.507 
  157800     754.6115     4.942161    162.80995    508.21055   -155.76963    52164.507 
  157900     704.3899    5.6354437    145.77798    473.65849   -415.11117    52164.507 
158000        0.1480879575754384947 19.55679282380497952 0.16931216931216930277 23 165.6417832446224736
  158000      664.511    1.2282044    147.91108    466.72051   -253.54117    55437.791 
  158100    759.61396    3.1836689    144.29526    496.72469    722.11216    55437.791 
  158200     732.7444    7.6825944    125.76125    464.92471   -553.25922    55437.791 
  158300    742.93343    4.9788274    162.20706    519.52605   -1249.0518    55437.791 
  158400    731.07817    3.4312108    142.11593    487.74331    173.02126    58555.358 
158500        0.14294866397089214805 19.575513439619761868 0.16666666666666665741 18 137.37427836343357512
  158500    729.12008    2.0489429    136.85713    467.72629    668.00573    58555.358 
  158600    755.17279    2.4391866    148.43699    534.23544   -386.56154    58555.358 
  158700    696.20156    2.2970527    134.22046    444.49136   -5.8779774    64160.257 
  158800    750.42558    1.5040254    136.26232    503.63096    227.99237    64160.257 
  158900     682.3442    6.0938635    149.19919      497.533     458.5799    64160.257 
159000        0.13101775500189413726 19.582189862187885154 0.15873015873015872135 14 136.56515539425038241
  159000    628.43778    4.8193402    132.17032    421.29971   -534.74017    64160.257 
  159100    700.48162    3.3992032    127.48909     477.6713    189.31172    64160.257 
  159200    708.80882    2.4756907    140.61731    476.95298    466.98857    64160.257 
  159300    644.18554    3.2670839    129.30404    428.73001    20.557557    66793.821 
  159400    730.14425    11.430578    153.23085    512.57856    102.41678    66793.821 
159500        0.13613283506638074183 19.458442825618231353 0.17460317460317459348 15 177.71486552455843366
  159500     676.3041     1.259609    141.94641    484.13684    56.477201    66793.821 
  159600    786.40356    10.327871    145.63244    520.08602    377.57228    62999.165 
  159700    714.97279    2.1771424    151.30689    499.07098   -686.29565    62999.165 
  159800    656.31495    2.8923311    132.01986     474.4904    524.51827    62999.165 
  159900     750.2426    3.8917264     134.3681    518.07505   -567.49263    62999.165 
160000        0.12444065550781756302 19.4977686261671046 0.15873015873015872135 18 195.30656614417713968
  160000    654.67375    6.2239405     144.4153     491.9282   -154.61516    62999.165 
  160100    751.66355   0.32856453    143.33681    508.54715     201.4033    63679.152 
  160200    740.15941    1.1921481    159.03349    510.97563    1273.1835    63679.152 
  160300    661.10439    1.3121951    141.66217    473.42211    226.53423    63679.152 
  160400    816.69498    9.2470143    159.20404    530.73981   -497.64218    63679.152 
160500        0.10689726691082011845 19.46091863528615562 0.13227513227513226779 11 158.90754045941923778
  160500    665.46638    1.6290752    140.16926    460.41913   -202.05565    70191.495 
  160600    727.48531    1.2951987    133.79834    493.00929    336.86461    70191.495 
  160700    747.75615    1.7202476    145.40506    520.97048   -404.17459    70191.495 
  160800    594.60173    5.6546419    139.75792    430.69558   -101.06014    71430.194 
  160900    697.75727    2.3750266    160.47134     478.1208    457.52152    71430.194 
161000        0.10610050437018837821 19.288707692179087871 0.10846560846560845959 16 176.23794510170961303
  161000    742.33005    7.7106465    148.60889    512.57517     334.4618    71430.194 
  161100     670.3464    1.1273995    149.89645    441.15645   -284.49698    71430.194 
  161200    705.43767    8.4415518    146.83513    473.76279    268.89324    73905.457 
  161300    687.25425    5.3423789    152.21435    489.11595     60.05361    73905.457 
  161400    764.60736     3.959002    109.70222    458.37226    109.15051    73905.457 
161500        0.098036280949855988953 19.361461663794088395 0.089947089947089942097 10 144.83811072041342527
  161500    633.55601   0.18513837    135.03039    431.89165   -190.47482    73905.457 
  161600    728.08886     1.858984    146.22991    496.11511    127.89479    73905.457 
  161700    697.46891    2.4484172    118.69236    460.12817   -10.364937    73290.307 
  161800    710.10948    1.8138956    129.42574    490.68854    373.89352    73290.307 
  161900    746.40659    1.8122975    132.10362    484.53512   -427.66141    73290.307 
162000        0.094775816391336822897 19.080438656334752778 0.076719576719576715318 8 123.7251248447278158
  162000    697.23478    6.9643953     115.3087    439.63044    383.54676    73290.307 
  162100    779.00947    2.5994798    121.14804    488.83106    153.87647    70678.272 
  162200     744.7758    4.6279583    122.01292    479.13002   -219.84668    70678.272 
  162300     712.9511    5.6833744    115.75268     443.7934    59.948753    70678.272 
  162400    766.72284    9.4172721     139.9753    512.99681   -47.636596    70678.272 
162500        0.10572846923599032998 18.715975044779337821 0.079365079365079360674 10 125.7776725890707894
  162500    721.55984    4.9943716    108.47168    452.70426    166.62712    70044.678 
  162600    685.91417    3.3076139    154.27968    482.98901   -333.87774    70044.678 
  162700    718.23109    6.3914621    138.01711    481.77361   -173.85632    70044.678 
  162800    651.03381    2.3628437    136.54605    465.90324   -210.96085    70044.678 
  162900    790.77215    3.3588646    139.81841    531.56022    346.52411    70044.678 
163000        0.1196397219972525211 18.046866800272859166 0.095238095238095232808 12 122.37232470611732538
  163000     768.8229    4.9537087    123.53913    470.71301    551.51579    64190.673 
  163100    711.62533    9.6598687    134.06094    481.39312    226.87172    64190.673 
  163200    653.43486    3.1994963    144.63471    471.10246    -47.79531    64190.673 
  163300    669.07149    1.6946326    118.12375    416.53323    116.80325    64190.673 
  163400    748.47391    5.8426953     139.7634    496.62183    394.18779    64190.673 
163500        0.12876610008570996135 17.548616924557574492 0.11640211640211639565 15 140.82834710841072479
  163500    686.73316    3.2480374    115.07055    451.97555   -540.32027    52666.334 
  163600    761.55277    9.6814167    118.28513    491.98804    37.730506    52666.334 
  163700    711.43644    6.4598872    136.66035     497.5135     215.6889    53583.266 
  163800     693.9925    7.8097728    138.40168    469.52437   -569.38265    53583.266 
  163900    811.86323    9.1026891    151.96889    536.26291    403.44365    53583.266 
164000        0.13516448498715022408 17.268745677218504397 0.15079365079365078528 16 134.00220048760337477
  164000     718.7867    2.1537565    123.96693    459.67233   -156.15319    53583.266 
  164100    775.35714    2.6359485    118.99557    463.26714    781.05284    53961.212 
  164200    763.15095    5.2774024    159.40145     516.4941    43.005378    53961.212 
  164300    751.43151    2.1326278    117.17619    453.22347   -29.129703    53961.212 
  164400    683.54588    5.4925214    152.90399    476.52212    170.06223    53961.212 
164500        0.13228105172515036703 16.830785647970110119 0.13492063492063491315 16 151.94865260758717795
  164500     757.6496     1.925519    160.24588    495.22691    -101.1612    49066.059 
  164600    643.07386    3.9475663    140.98912    428.86881   -572.28848    49066.059 
  164700    791.39522    4.1506808    123.38159    494.46526   -93.816992    49066.059 
  164800    718.67912    4.0412584    130.40947    473.82621    557.44233    51816.954 
  164900    689.01813    2.7488848    142.75533    462.74512     599.7387    51816.954 
165000        0.12919104620151175555 16.566873859446165085 0.10846560846560845959 10 189.76374329658901274
  165000    748.14844    1.6753303    153.69367    528.73718    965.61886    51816.954 
  165100    686.04806    1.4466616    132.83808    465.69127   -333.71004    49966.218 
  165200    770.20963    8.4546114    139.66419    504.76235    270.23987    49966.218 
  165300    750.36669    1.2883228    148.66423    489.39033   -98.564765    49966.218 
  165400    708.99074    8.2730329    118.69975    467.52029    783.28767    49966.218 
165500        0.14237486673351076871 15.84888955994963311 0.12433862433862433172 11 166.35128201459400543
  165500    732.46041    4.0006053     135.7732    498.21674    102.02838    49846.549 
  165600    703.51927    4.5170643    151.25586    495.08835   -217.76762    49846.549 
  165700    820.81827    7.1634302    136.88123    540.81625    451.58063    49846.549 
  165800     660.1291    5.7951884    148.65863    478.52744    566.65811    47024.969 
  165900    721.13969    5.9199399    124.26333    465.67059    320.59865    47024.969 
166000        0.14878508639491444532 15.142732935211542511 0.12698412698412697708 17 156.50579265841139431
  166000    830.14374    3.2542913    145.81033    532.62991    289.59664    47024.969 
  166100     725.8378    9.5540445    138.65045    494.02366    639.27166    47024.969 
  166200    743.47093    7.1984205    115.54345    467.17354   -434.33503    47024.969 
  166300    746.54057     4.101088    119.00422    461.28141    278.95556    45389.833 
  166400    793.08891    3.8158504    134.54094    509.18647   -337.43138    45389.833 
166500        0.14477623751153045895 14.814039064002111346 0.11904761904761904101 11 138.81209667923690176
  166500    687.05795    4.7745104    130.91125    450.10646   -233.20891    45389.833 
  166600    653.12416    5.1055659    139.43021    444.95136     471.6089    45389.833 
  166700    724.44698    2.2721884    155.97446    513.51824    304.85259     45317.57 
  166800    697.82694    2.3869708    132.24624    460.97865    399.58914     45317.57 
  166900    723.95066    2.4264838    111.09061    465.49257   -495.81987     45317.57 
167000        0.16018353134975532592 14.282091281513626058 0.13492063492063491315 13 192.39176087384552716
  167000    733.39406    2.3071004    162.31601    524.68023    418.01704     45317.57 
  167100    878.68405    4.3667777    154.99921     586.8067    206.62991     45317.57 
  167200    805.06516    6.7184071     123.4064    481.36258    767.83622    44142.629 
  167300    699.59537    3.7833849    154.77498     480.4893    111.11181    44142.629 
  167400    831.64435    5.4855824    146.41677    522.62334    1003.0024    44142.629 
167500        0.18920153229386429961 13.636096785271325516 0.1613756613756613667 17 119.9774485289787691
  167500    747.01279    3.3835127    122.13168    458.43634   -404.89262    44142.629 
  167600     785.5721    1.6055283    153.02937    502.18233    566.13388    41872.428 
  167700    705.97831     7.761777    149.85238    459.02248    471.64972    41872.428 
  167800    711.60135    5.7817021    135.79569    451.94755     257.0581    38028.144 
  167900    729.46976    6.4418311    160.14459    494.81514   -92.813518    38028.144 
168000        0.17147852777819699854 13.620593596521604951 0.15608465608465607599 14 159.92097200621398656
  168000    704.13492    6.1568196    141.35936    478.95262    708.02985    38028.144 
  168100     754.8469    3.9948033    136.73185      504.788    240.78301    38028.144 
  168200    780.22315    3.9642865    141.05417     495.2626    48.780938    39468.077 
  168300    705.05696    2.4534771    140.60429      460.474    467.91698    39468.077 
  168400    745.75198    3.3374635    149.30284    506.76489    94.846086    39468.077 
168500        0.18180482100269015899 13.281369227652051634 0.1613756613756613667 11 185.6230283516747761
  168500    665.02595    1.5807396     168.8799    486.93507   -451.42554     37869.01 
  168600    748.69201    1.9191455     144.9011    482.41885   -228.04139     37869.01 
  168700    807.63738    6.9320152    150.72684    525.40317    334.45191     37869.01 
  168800    644.59149    8.5436377    157.71841    453.62433    340.32196    35134.062 
  168900    759.34404    6.0689426    150.94361    504.63696   -509.02068    35134.062 
169000        0.21888126341005192943 12.771019220964708651 0.18518518518518517491 11 157.02630260700985332
  169000    763.62328    4.4364366    152.91036    503.01113    605.77234    35134.062 
  169100    749.29954    9.1104381    158.84719    486.45846     965.3972    35134.062 
  169200    726.46552    8.9557944    160.91929    489.68766    20.532594    28187.047 
  169300    764.57283    3.0623717    157.56792    505.64518   -111.57481    28187.047 
  169400    674.25497    2.1575662     135.6754    428.59324    1345.3068    28187.047 
169500        0.23832677495408208235 12.203799567567493511 0.21164021164021162846 22 141.15576296920167465
  169500      760.528     7.255087     135.9357    485.73817   -491.88469    28187.047 
  169600    793.33375    5.5383118    153.14428    503.17596    212.50233    28187.047 
  169700    658.24107    9.1237121     133.4473    418.40784    1296.8845    22852.542 
  169800    745.63031    10.177838    140.58302    473.26324    531.99261    22852.542 
  169900    757.04593    4.9999119    166.71358    513.80433    -877.3962    22852.542 
170000        0.24035142405471235372 11.749632208991153348 0.23809523809523808202 24 145.84424712249551703
  170000    661.01802    2.1369897    159.70115    445.34036    227.64388    22852.542 
  170100    716.54461     3.945705    141.07323    443.67323    833.16352    23166.423 
  170200    777.47416    3.5986583    166.31936    507.25288    1752.4507    23166.423 
  170300    645.88867    1.0073813    155.13968    447.90983   -310.34101    23166.423 
  170400    820.10812    9.3267776    145.84508     515.2714    279.98223    23166.423 
170500        0.24313741006790748345 11.766399654939949215 0.21693121693121691917 23 162.87123897694687003
  170500    677.82203     2.332052    154.16897    469.98096    891.23924    23166.423 
  170600    717.62937    0.4005102    172.01398    500.45024   -782.46693    24181.196 
  170700    887.42809    7.0542228    158.95386    551.50989    453.79356    24181.196 
  170800    725.41253    8.8100769    124.16195    469.12957    663.17561    24181.196 
  170900    730.58044      2.69029    155.32271    501.21673    228.94743    24181.196 
171000        0.25023539598601740597 11.928006890346980029 0.24603174603174601809 21 172.39335742178562327
  171000    837.27128    2.7221121    150.80947    551.74685    1710.1695    23412.334 
  171100    697.02804  0.091985547     153.8953    470.84105    118.19877    23412.334 
  171200    762.00408    4.8846988    150.21483    488.86771    1779.4079    24607.265 
  171300    703.63796    3.8622503    138.25105     450.1965    56.227779    24607.265 
  171400    823.72203    1.4782679    132.79062      500.872    487.18868    24607.265 
171500        0.24772913905732635298 12.306354528647055702 0.20634920634920633775 15 163.58194626247367864
  171500    693.78008    9.1613296    160.44588    477.92199   -326.33219    24607.265 
  171600    740.69562     5.272579    130.52023    469.91716    862.12543    24094.874 
  171700    780.64334    3.4694554    150.52482    530.23023   -583.28577    24094.874 
  171800    717.01409    5.6040027    138.86085    481.69032    950.30198    24094.874 
  171900    806.65737    5.2037021    138.79649     530.8796    615.25132    24094.874 
172000        0.2242084605453599222 12.749642724471826227 0.14550264550264549457 21 168.23453590962034809
  172000    779.24829    3.6714514    143.20347    521.29879   -1787.6908    24094.874 
  172100     657.9473    9.0529023    146.43673    466.44769    751.79784    29075.334 
  172200    753.48847    3.3129376    164.31288    537.57552   -1338.4753    29075.334 
  172300    803.71494     3.880167    132.83767     508.5775    473.64232    29075.334 
  172400    672.95633    3.7610751    135.61415    475.05944    30.783575    29075.334 
172500        0.22129933517740923987 12.841015769723805207 0.14814814814814813992 20 148.73558355979747603
  172500    797.25075    3.2049413    130.85273    509.95645   -1631.4819    29075.334 
  172600    768.78918    6.5904054    140.78825    507.85117    1690.8026    27895.029 
  172700    746.77038     5.385981    155.41618    543.01591   -16.838727    27895.029 
  172800    735.86106    2.5171641    125.46598    476.89053   -1143.8788    27895.029 
  172900    774.79987    6.2283018    134.61887    488.35893    997.53365    27895.029 
173000        0.2253477062535094444 13.028798873704941386 0.17195767195767194813 15 188.81546438907395213
  173000    815.46664    3.3662154    158.22504    558.28964   -440.30618     29866.82 
  173100    701.90327    6.0832797    139.08261    496.80704    697.38449     29866.82 
  173200    853.59382    5.6857912    121.35073     520.9769     289.4775     29866.82 
  173300    705.79598    8.8646835    127.20668    473.15848   -182.05694    31005.712 
  173400    756.54222     1.782019    154.29594    499.08362    577.07337    31005.712 
173500        0.21925923626193216665 13.052823204690058745 0.19312169312169311097 15 157.93873408101589462
  173500    750.69668    2.3827461    136.31954    498.06673   -502.25354    31005.712 
  173600    807.35524    2.4162323    139.14952    517.69003   -185.52075    31005.712 
  173700    727.93578    3.2702534    124.34163    464.05461    630.46239    31005.712 
  173800    749.69293    4.3890895    160.68331    510.00036    304.03756    31326.044 
  173900    744.82389    4.0003472    163.56159    491.33161   -540.65923    31326.044 
174000        0.21072804991087501492 12.965431054846884962 0.19047619047619046562 18 149.21085455336560699
  174000    717.20037    2.5540362    145.76694    474.16224   -14.803974    31326.044 
  174100    749.09308    2.7493219    146.60579    495.76438    461.04065    31326.044 
  174200    822.55122    9.3255724    147.88071    524.21822   -1516.2161    33361.884 
  174300    736.88493    3.0294257    146.01232    483.60496   -626.36148    33361.884 
  174400    727.81274    5.4834184    138.20353    490.24166   -1298.1132    33361.884 
174500        0.19988663541410675584 12.582722526914899674 0.19576719576719575633 20 188.22723413617222832
  174500    811.38824    2.0360325    173.56774    555.85356   -30.045969    33361.884 
  174600    729.99409    6.2306064    135.60501    478.01874   -1280.8812        32405 
  174700    768.85883    5.6171955    155.65846    492.13278   -927.29688        32405 
  174800    822.91888    4.0025469    147.92206    524.32071    -153.4067        32405 
  174900    793.09234    7.8800508    162.55567    521.06563    103.23639     31750.39 
175000        0.2291058171042113234 12.33075333352958225 0.21428571428571427382 14 154.1284598179872205
  175000    680.75215    4.8087429    165.44734    462.56577    47.760627     31750.39 
  175100    834.84789    2.1521108    156.89703    543.76365    826.05164     31750.39 
  175200    687.93669    10.378417    171.10329    481.95017    1978.5585     31750.39 
  175300    798.73649  0.043448436    160.38682    513.39442    2035.6625    30183.273 
  175400    772.82015   0.80522841     172.7105    540.81774    134.65743    30183.273 
175500        0.24015357786180754895 12.063526765079293668 0.22222222222222220989 24 153.98713290837400791
  175500    739.61085     2.855161    142.54579    489.09233   -1221.9345    30183.273 
  175600    861.21919    7.6050897    130.51927    505.91425   -187.38801    30183.273 
  175700    781.06834    5.9309313    138.53495    473.13723    780.18183    30183.273 
  175800    751.15236    2.4874105     131.9426    467.70701   -168.18381    28917.004 
  175900    787.82552    2.9215205    139.16489    494.55123    298.41439    28917.004 
176000        0.23761845070088360998 11.843122099633722755 0.2275132275132275006 27 114.34326791126403577
  176000    752.59672    0.4810657    133.86682    455.33214   -439.00233    28917.004 
  176100    684.19231    6.3178702    138.76102    442.68302    287.12085    28917.004 
  176200    772.59105    7.1318127    183.38122    519.76885    2118.7005    28917.004 
  176300    730.13975    10.336001    149.25135    474.92756    1050.6338     25654.81 
  176400    785.02246    5.2942704    152.59389     511.2411    -1772.977     25654.81 
176500        0.21081102412149535508 12.197868148827389234 0.16666666666666665741 16 140.62183034317391161
  176500    820.85366    5.9797076    139.32806    512.53677    1514.6868     25654.81 
  176600    772.97052    4.3078659      124.317    471.47384    663.70152    27793.712 
  176700    775.60402    11.108409    155.43076    514.21114   -1417.4577    27793.712 
  176800    744.26968    4.6616384    152.56657    496.99391    859.49067    27793.712 
  176900    784.78233    1.5326045    171.01489    537.03259    -651.4517    29942.495 
177000        0.17363445149657252831 12.564759304070399537 0.14814814814814813992 19 189.65027669422610757
  177000    823.99427    5.4397877    163.58531    562.98818    562.44074    29942.495 
  177100    690.12125    8.9784141    156.62845    487.69929    122.50141    29942.495 
  177200     791.9592     4.742463    142.64562    495.01899    4.9670986    29942.495 
  177300    668.04881    1.8804478    153.53216    470.85473    593.24074    30822.393 
  177400    830.24739    2.5581949    158.97032     544.2511    1362.7935    30822.393 
177500        0.18123559145501971779 12.721006729863425733 0.15079365079365078528 18 177.15159803636930747
  177500    693.45144    7.7322724    148.68559    491.34275    115.58236    30822.393 
  177600    766.42037    4.3567853    129.18905    496.17616   -1043.3207    30822.393 
  177700    730.75967    3.5906693    158.30098    502.65497    258.48814    30822.393 
  177800     780.5356    3.6460175    151.86299    525.99931   -1443.3012     27982.96 
  177900    674.09093    9.3873068    144.78578    468.30898   -652.08203     27982.96 
178000        0.18496367889442802412 12.707277390221646485 0.14285714285714284921 15 147.57151416015017276
  178000    794.08314    4.8236563    133.81662    507.35719   -167.13609     27982.96 
  178100    750.40046    2.6945627    164.06594    519.89249   -235.23257    25369.653 
  178200    773.36973     6.960224    146.30874    499.79158   -329.81969    25369.653 
  178300    712.92082    8.6021456    154.05734     502.2047   -707.30036    25369.653 
  178400    819.52146    3.9421456     162.2076    542.55008     223.1025    24007.871 
178500        0.18756667447353075895 12.641049153556094709 0.16931216931216930277 17 172.94261423770751662
  178500     700.9209   0.54285757     144.1662    490.51805   -1380.5226    24007.871 
  178600    800.62956    5.5683747    138.71106    522.56692    264.43518    24007.871 
  178700     702.4894    4.6423673    139.33775     449.5319    1004.9176    24007.871 
  178800    723.04098    4.9119955    134.18738    476.19097    487.06306    24007.871 
  178900    718.92693    4.3711681    152.10963    507.70067    468.16215     22265.55 
179000        0.20161875383091029668 12.696500167465474718 0.18518518518518517491 20 189.46569665641550273
  179000    782.69148     2.711558    162.81857       544.09    720.89985     22265.55 
  179100     789.9071    4.7955815    153.12301    550.45733    1937.1896     22265.55 
  179200    692.44344    2.0636503    149.41792    506.05186    -2038.656     22265.55 
  179300    826.68796    9.3803299    141.41026    549.74304   -127.78615     22265.55 
  179400    729.98395    1.0221721    147.69654    502.57885   -265.32868     21310.08 
179500        0.20290703491781905687 12.47535593949157473 0.2037037037037036924 26 194.31899365729447027
  179500    719.67486    8.7986388    175.81132    520.39153    447.44293     21310.08 
  179600    811.49462    13.200229    150.70046    536.28553    1078.4485     21310.08 
  179700    821.18518    1.2557587     152.2546    517.17292    594.49872     21310.08 
  179800    734.48637    5.3484166    140.91203    479.79059    2165.9789    21411.909 
  179900     711.7159    11.321872    151.77016    489.89676   -1090.2193    21411.909 
180000        0.21819591999672879878 12.201372863585749684 0.20899470899470898311 23 174.02705247006932154
  180000    771.02895    3.4764569    169.33227    523.36726    2113.9893    21411.909 
  180100    709.07716    8.0373054    145.00576    476.79135    509.60568    21411.909 
  180200    742.50389    3.8624046    158.46794    483.86301     601.0371    20863.542 
  180300    783.68291    1.4843584    147.48378    529.57999   -773.13691    20863.542 
  180400    716.69143    8.6549333     147.6166    452.17948   -176.96874    20863.542 
180500        0.21690269082640459275 11.970863115964275991 0.20634920634920633775 24 138.04583108386248114
  180500    760.68468    4.6301123    140.24212    482.69922    138.07818    21643.908 
  180600      781.035   0.82924908    175.45556    537.00573    206.79427    21643.908 
  180700    692.84886    2.7819033    163.16584    474.06154   -1569.2447    21643.908 
  180800    789.00114    3.0325266    152.97724    509.20231    393.38519    21643.908 
  180900    817.64504    4.3167452    156.16186    536.07112    2773.8871    20677.791 
181000        0.20487987365589530042 11.868288503195719485 0.2037037037037036924 21 165.92185801276656321
  181000    650.83014    2.5093615     159.6965    460.80201   -2032.4757    20677.791 
  181100    795.38765    3.1864938    167.06766    507.03545    1302.6685    20677.791 
  181200    764.62698    4.1082668    174.53007    518.43514   -193.42902    20677.791 
  181300    767.43757    11.497653    145.46788    491.56778   -367.17747    21652.242 
  181400    815.37994    4.5280442    185.54562    572.60329    1938.4763    21652.242 
181500        0.21048285429752006115 11.962201784976365104 0.19047619047619046562 19 196.69588340385067227
  181500    727.49218    4.0661351    170.00345    526.31032   -1365.6683    21652.242 
  181600    732.44462    4.6578698    148.14417     487.0788    1711.0615    21652.242 
  181700    947.81977    2.4786898    134.03743    564.33654    307.54326    23510.198 
  181800    711.60006    9.2530957    157.32617    502.76652   -1690.1976    23510.198 
  181900    710.87823   0.56265683    153.04416    491.92408   -224.65845    23510.198 
182000        0.19578982403401329337 12.426037411889456763 0.16931216931216930277 17 166.64157782367672667
  182000    835.34289  0.073894201     156.5018    545.12135    350.19366    23510.198 
  182100    709.38912    7.8105072    149.07367    468.61723    1187.2366    30948.737 
  182200    644.81443    2.9501586    141.25277    438.40092    927.45689    30948.737 
  182300    808.16273     7.637027    160.14425    536.96187   -174.60149    30948.737 
  182400    765.86844    5.0333552    162.12359    536.00204   -548.02025    30948.737 
182500        0.20845059666535623033 12.40533206916801312 0.19047619047619046562 22 159.70048599114775811
  182500    714.36553    13.397954    153.58852    483.36745    916.51742    31047.915 
  182600    823.87127    5.8402377    161.83647    548.01751    334.40998    31047.915 
  182700     688.4279    1.4994175    152.37045    478.23697    844.69387    31047.915 
  182800    767.61938    3.8629478    158.77623    509.30912    679.23819    31047.915 
  182900    742.85068    4.3565471    168.21357    520.28928    230.97992    31047.915 
183000        0.21892408723833994832 12.294699741645574775 0.18518518518518517491 27 136.6352200394153158
  183000    725.89697    2.3434808    143.59024    465.52689   -1065.8141    28672.729 
  183100    731.60683    4.5982215    174.42426    512.34292    -135.1187    28672.729 
  183200    787.88252    3.3375753    154.22448    521.19262   -142.10865    28672.729 
  183300    704.45768   0.69439126    148.88697    453.96796     2697.501     31893.48 
  183400    741.22706    12.865695    179.29026    528.60136    397.15679     31893.48 
183500        0.20861781596626632895 12.77706271287454598 0.18253968253968252955 27 174.45328885556523346
  183500    774.33218    1.1266735    164.43934    525.29014    278.50458     31893.48 
  183600    714.53231    7.1364793     142.3808    467.29371    -634.7848     31893.48 
  183700    799.31806    3.0010009    158.37423     547.5097    1675.5556     31893.48 
  183800    782.41988    4.4925492    167.43992    520.55189    -367.6288     31893.48 
  183900    735.25702    4.5628896     153.3867    489.27334    -2081.189    33390.846 
184000        0.2034140283265528093 13.308736164707562821 0.19576719576719575633 22 202.83022872596265529
  184000    705.30661    7.2885229    162.08931    522.39275    686.20838    33390.846 
  184100    778.32643     8.708975    182.79971    542.96826    -1103.457    33390.846 
  184200    705.63052    8.9669234    151.95963    478.50001   -1071.0896    33390.846 
  184300    762.88192    4.4521187    164.91963    515.97264   -812.84013    33962.276 
  184400    931.65603    1.6233014    190.64195    627.72567   -1056.7394    33962.276 
184500        0.19577282241634852422 13.973656324288224795 0.2037037037037036924 26 171.45920849220482296
  184500    796.76742    6.7504494    181.00686    532.46108    184.50514    33962.276 
  184600    735.27033    2.2048523    149.50352    475.66787     1294.708     34854.43 
  184700    862.08103    3.6076268    151.65139    550.65527    473.02176     34854.43 
  184800    732.08268   0.44861484    168.52252    515.94511    223.11267     34854.43 
  184900    698.55947    2.8858802    157.99398    483.65832   -737.76181     34854.43 
185000        0.1747302760763565499 14.574694719414758026 0.15343915343915343064 14 169.14674457921012163
  185000     768.4648    2.4697768    154.42124    517.32518   -250.68003     38986.17 
  185100    753.31467    3.4465329    171.42404    532.89138    498.16226     38986.17 
  185200      801.749     2.459132    151.03216    514.97927    1276.7298     38986.17 
  185300    695.07295    8.4371416    158.46994    475.27288    440.24816    41952.443 
  185400     871.4704    3.8586646     141.8075    552.44226    814.39172    41952.443 
185500        0.16857152555154317208 14.72419725992729056 0.1613756613756613667 19 150.53047137746847284
  185500    818.23225    7.9512164    146.93591     521.2577   -396.20471    41952.443 
  185600    752.97994    3.4542023     143.0274      476.424   -741.81031    41952.443 
  185700     872.6792    4.4408079    163.92057    561.67852     868.6987    42327.029 
  185800    792.87242    7.3680358    135.56424    509.52883    1089.1126    42327.029 
  185900    760.43636    3.2231765    124.01902    468.18186    529.10098    42327.029 
186000        0.16744708716254677605 14.879204563917761917 0.15873015873015872135 20 128.27931304174526872
  186000     910.8769    3.6054063    123.66502    540.98227   -400.12971    42093.178 
  186100    740.39532    2.6890806    144.60507    504.04287    310.93575    42093.178 
  186200    714.68208   0.61745588    161.54929    504.19453    223.79818    42093.178 
  186300    862.85526     6.550383    145.26499    536.34795    -17.68444    42093.178 
  186400    744.05354   0.28479469    135.86744    485.79628    -45.07588    43497.615 
186500        0.1518232727004439897 15.10543184638679115 0.1613756613756613667 17 181.14954799297518662
  186500    776.52663    6.0688817    167.63396    532.98066    20.244484    43497.615 
  186600    777.53063    10.654271    144.31303    489.27939    86.068017    43497.615 
  186700    728.94446    4.2191503    146.67879    483.96743    -487.5031    43962.874 
  186800    858.10539     4.297964    137.81153    542.25183    211.43314    43962.874 
  186900    775.36942    6.2654225    167.52637    526.79737    203.13896    43962.874 
187000        0.14443119277703611592 15.179843253500987288 0.16402116402116401206 21 156.65086952079704474
  187000    807.10086    4.9291062    156.81278    522.33465    310.68478    43962.874 
  187100    793.78915    1.5221308    142.89781     494.9388   -194.79018    43962.874 
  187200    770.85959     4.251634    142.33264    502.18054   -619.00703    40285.703 
  187300    778.43989    5.0226902    168.74564    539.42083    402.03138    40285.703 
  187400    831.05055    4.2332884    134.53501    520.96751    318.51473    40285.703 
187500        0.14641869682810679243 15.223240051781909088 0.16931216931216930277 22 159.24677830387156519
  187500    708.33262    3.2333038    149.17648    480.18034    306.73455    39914.015 
  187600    796.03276    2.0649692    155.74595    536.74878    481.66983    39914.015 
  187700    708.78782    9.8998455    163.29636    516.70682    176.65791    39914.015 
  187800    691.81128    7.4574423    156.88044    474.56314    445.50332    39914.015 
  187900    830.79522     5.990343    164.88465    552.22108    123.56605    39914.015 
188000        0.1558016800524353318 15.11715778767762508 0.19047619047619046562 26 150.27572547382720813
  188000    770.72757    5.1346451     152.6602    499.47938   -1117.3756    39798.617 
  188100    754.29181    6.2599643    157.37238    499.20626   -770.08299    39798.617 
  188200    894.87906     2.603026    135.51053    545.53547   -154.36425    39798.617 
  188300    821.66822     5.409878    158.07773    531.06056    516.11478    39798.617 
  188400    776.82703   0.87740171     149.2076    494.11557    702.48342    39798.617 
188500        0.1642594516286229045 15.26632627500203121 0.19047619047619046562 14 159.48017596984578859
  188500    875.01929    8.4696955    150.91156    555.93665    282.43508    39798.617 
  188600    820.63782    4.8656076    164.29312    528.64322    763.50572     38405.23 
  188700     765.7258    5.3523492    155.46626    502.59246   -158.10987     38405.23 
  188800     804.3441    1.1537775    147.16926    505.78566    301.34328     38405.23 
  188900     706.8301    5.2298484    158.20295    479.59614    537.51441     38405.23 
189000        0.17779811378166099356 15.202850457135129503 0.20899470899470898311 26 164.33536180962715889
  189000    846.64951    1.6958076    141.13795    547.93797   -141.94081     38405.23 
  189100    792.49289   0.40361848    152.03738    495.91125   -252.66931    36918.394 
  189200    657.30524    2.6352984    133.74651    411.19917   -108.46394    36918.394 
  189300    784.06697    1.8149532    141.50893    483.22392   -1628.0937    36918.394 
  189400     784.2254    2.7696266     169.2372    517.72492    675.67786    36918.394 
189500        0.19952080245632153321 15.352148400428990982 0.23280423280423279131 26 183.17228926338518136
  189500    821.60483    3.8876311    150.87834    555.42758   -654.93532    39936.568 
  189600    779.06308    4.5749251    146.46247      503.053    941.24761    39936.568 
  189700    752.84934    3.7128857    132.72688    502.23568   -97.967588    39936.568 
  189800     851.7922    7.7734777    174.45081    562.99941    610.19667    39681.445 
  189900    758.77233    7.0971433     150.4781    508.97852    166.26568    39681.445 
190000        0.18611750885156425062 15.443635906118398538 0.23809523809523808202 24 132.68835197571615936
  190000    810.74926    8.4796499    134.95125    500.02516    280.25453    39681.445 
  190100    708.16599    5.8080743    135.99499    472.05934    1271.4989    39681.445 
  190200    796.09232    3.9505749    163.44269    538.36559    532.60435    38736.902 
  190300    743.45059   0.52479368    128.72036    469.49508    280.58729    38736.902 
  190400    701.67916    2.9250879     180.7148    519.28329   -1654.8644    38736.902 
190500        0.17805320973126831374 15.669214232202495651 0.20899470899470898311 17 168.95944379017154802
  190500    805.22641    5.7476324    161.03194    533.79395    469.20783    38045.256 
  190600    752.18837    5.7827847    138.53566    478.53916    579.22435    38045.256 
  190700    721.57027    3.9966731    146.18295    462.37654   -339.20144    38045.256 
  190800    785.70338     7.915201    148.61075    542.43573    335.87841    38045.256 
  190900    755.32165    4.2269818    147.42967    494.37869   -275.84953    35844.245 
191000        0.18279032963671834611 15.749257488032645469 0.20634920634920633775 25 145.43086611100565619
  191000    773.03486    4.4051814     127.0529    495.67992    910.97633    35844.245 
  191100    776.53842    6.1301485    146.09989    529.25529   -71.956036    35844.245 
  191200    761.08478    8.2038415    142.86628    506.89642    19.827055    33554.229 
  191300    719.41841     5.201067    144.80548    454.29724    609.81651    33554.229 
  191400    789.90432    14.099852    143.82139    528.80481   -152.07297    33554.229 
191500        0.19116319366691317261 15.533313929240192053 0.25661375661375662727 18 178.05136823489030462
  191500    790.75544    4.6057072    152.71148    536.32932    290.65032    33554.229 
  191600    700.75301    4.2985618    126.89011    460.77806    149.95559    34391.219 
  191700    821.23075    3.7038459    136.64573    529.80278   -99.530891    34391.219 
  191800    765.37773    14.709821    134.05996    499.10731     778.1412    34391.219 
  191900    733.54172    8.0083316    141.36975    476.50193    403.74666    34391.219 
192000        0.18738739245070162864 15.681691986270259065 0.23015873015873014595 14 155.45379529831993182
  192000    837.68324    1.8857255    150.16809    534.99394    335.92263    34391.219 
  192100    840.30618    10.168048    147.91874    547.71534    -187.5287    36489.101 
  192200    769.48146    3.8992318    156.18133    498.12639    101.90234    36489.101 
  192300    855.25257    2.8810406    130.46331    519.34161     1196.594    36489.101 
  192400    711.95493    10.211842    179.03644    547.45152   -1709.4528    36489.101 
192500        0.16837829103449034052 15.813628078720190828 0.22222222222222220989 23 188.78895059046993765
  192500    739.02178    5.9152731    158.71238    523.62725   -898.67454    38425.127 
  192600    775.13653     5.956325    143.47211    494.40168    644.53253    38425.127 
  192700      794.392    9.0811879    150.73246    525.51121   -770.86868    38425.127 
  192800    749.86061    7.5830574    147.92684    504.60277    433.65887    38425.127 
  192900    704.86309    8.5633853    141.74356     452.4314    837.52808    38123.192 
193000        0.1588857205769012293 15.916975308263483058 0.22486772486772485524 25 176.10459641973923794
  193000    796.81316    7.3209095    160.69252    537.12719   -189.10143    38123.192 
  193100    857.73449    1.8647729    153.66862    531.20237   -53.750685    38123.192 
  193200    659.20354    5.5551119    174.89692    472.25328    767.82707    38123.192 
  193300    828.63684    6.1080486    173.91343    555.08661   -718.65733    39464.416 
  193400    835.77467    2.6993323    148.91641    504.62839     66.67016    39464.416 
193500        0.1656512433713449306 16.258686576830278625 0.23809523809523808202 22 154.05132479112970145
  193500    828.08745    4.5867985     151.4596    529.24377   -706.71858    40627.625 
  193600    798.94612    8.8190812    171.16466    548.81297    513.40308    40627.625 
  193700    746.17318     3.905607    164.93743    482.92489    -628.5622    40627.625 
  193800    840.63458    1.1022498    155.31248    515.75359   -570.20479     42816.82 
  193900    810.49958    4.3481916    145.60662    494.07678    669.40754     42816.82 
194000        0.13875740615108581033 16.679686205995285064 0.17724867724867723884 19 148.39998174424624722
  194000    778.23821    9.2080373    150.15171    501.00658   -287.20226     42816.82 
  194100    858.14155    3.8939943    154.36867    562.86031    845.88596     42816.82 
  194200    702.84393    7.7169758    154.28727    498.38488   -905.44482    44772.779 
  194300    827.35314    1.7959108    167.79894    572.48686    -340.4798    44772.779 
  194400    797.50446      7.01619    162.62287     537.3953    943.42467    44772.779 
194500        0.12929317414649485474 16.982582832687267427 0.14550264550264549457 14 170.19352882666649407
  194500    782.44372    1.1469475    149.79181    524.70558    777.45472    44958.778 
  194600    847.22691    3.8363464    140.54997    527.04437    -684.0377    44958.778 
  194700    737.69132    2.8076181    139.45914    482.78564    468.99219    44958.778 
  194800    821.53037    3.7985078    167.10031     563.1621   -309.26048    44958.778 
  194900    799.61159    3.0324011    156.17064    514.09801    413.37703    46353.935 
195000        0.12685581861470610066 17.297321920664586514 0.14814814814814813992 20 165.72700953731074947
  195000    767.09161    4.1934224    153.88445    513.28328   -328.13575    46353.935 
  195100    835.06871    3.7132591    146.42213    529.82693    505.15283    46353.935 
  195200    810.51973    5.8132221    154.06645    551.51997    -258.8432    46353.935 
  195300    719.18196    6.4534994    146.03354    486.55616    747.93748    41930.131 
  195400    836.94012    8.6998156    174.55727    554.69328    698.74229    41930.131 
195500        0.13511889973593166347 17.47283632935739206 0.14021164021164020386 13 175.66010797019640677
  195500    766.57658    3.1410673    164.98096    522.98302    1538.1418    41930.131 
  195600    756.57196    2.5507668    171.27877    523.27258   -27.543242    41930.131 
  195700    799.45482    5.9549453    181.40325    552.85783    171.72552    42729.942 
  195800     878.6998   0.22136922    154.05001     577.3491   -426.36007    42729.942 
  195900    766.80236    2.4436972    153.78382    506.21581   -425.61652    42729.942 
196000        0.1463534642677304376 17.283829038134708611 0.13227513227513226779 13 205.05698006837528169
  196000    814.08924    6.9591827    184.70342    573.90708   -238.73185     41900.58 
  196100     838.7541    1.3345879    158.99414    557.19269    246.38835     41900.58 
  196200    761.66347    8.5274599    169.67528     533.8855    760.81355     41900.58 
  196300    934.99461    2.2802456     187.7296    637.63065    -113.7573     41900.58 
  196400    843.36866    3.2442559     153.4556    556.08385    360.55321    37541.561 
196500        0.15865282381652934252 16.897243986192695075 0.15079365079365078528 18 163.69469667431735616
  196500     784.1314    4.2594974    126.63479     518.9714   -215.25139    37541.561 
  196600    746.41006    6.7666639    146.29897    513.31459    422.61854    37541.561 
  196700    887.98236    6.9766567    165.59767    582.65936    574.37191    37541.561 
  196800    782.57975    10.147869    149.24566    507.46383    187.53056     34486.31 
  196900    829.88599     8.350822     152.9305    546.27914    333.74646     34486.31 
197000        0.18571332638377913149 16.402052416224766063 0.17989417989417988419 16 170.60296528502541946
  197000     760.0201    8.9674778    154.44451    514.95525    1253.3255     34486.31 
  197100    788.46924    1.3528602     149.0077    499.24548    476.11292     34486.31 
  197200    824.86441    8.0454155    152.31432    552.38106   -43.170609    38287.679 
  197300    737.25604     5.415084    143.08785    482.16214   -209.47718    38287.679 
  197400    776.96652    2.2074615    139.58304    531.98351   -500.90662    38287.679 
197500        0.1963033226084992533 15.996138503530273667 0.21957671957671956453 19 170.8346632396144571
  197500    796.15249    15.856387    164.73863    531.55792    86.233265     37933.72 
  197600    739.43084     11.81651    133.21868    478.24493    244.85669     37933.72 
  197700    816.11431    9.4837676    173.04271    559.98443   -536.13287     37933.72 
  197800    780.68373     4.076037    154.83068    506.78244   -431.89681     37933.72 
  197900    720.77141    3.9404752    160.27706    493.71086    -34.55401    34295.211 
198000        0.20030300865071723471 15.783674153310808919 0.21428571428571427382 20 178.62214085081919279
  198000     864.7383    7.2543285    144.10313    570.42047    483.42785    34295.211 
  198100     761.2127   0.95751126    162.09918    528.30476   -774.80856    34295.211 
  198200    720.65675    4.1829457    156.69669    525.03671   -381.75435    34295.211 
  198300    825.18593    3.6248999    147.18761    548.13873   -698.73556    32978.774 
  198400    815.39007    4.9510099    147.46314    538.86691    384.80542    32978.774 
198500        0.1708705475225292536 15.545455140480440193 0.18253968253968252955 23 157.53921605614803525
  198500    784.39912    10.507557    137.51248    512.93722    585.79824    32794.338 
  198600    680.85199    2.4452565    129.58953    452.85803    200.18009    32794.338 
  198700    829.33455    6.3903549    138.26245    543.45919   -482.90459    32794.338 
  198800    796.27509    2.6664001    123.89698    503.27057   -998.68322    32151.073 
  198900    788.85411    1.0569195    172.12313    551.20486   -856.31519    32151.073 
199000        0.16022115489960062074 15.207237753612554698 0.19576719576719575633 22 181.28866729855823792
  199000    804.22401    5.8511503    162.36137      545.669    50.575261    32151.073 
  199100    734.84356    11.940588    156.32936    511.40657    518.87541     29008.58 
  199200    798.29166    12.399474    175.28746    577.29659   -454.65482     29008.58 
  199300    776.77479    2.3152581    154.87934    532.43926   -112.43327     29008.58 
  199400    791.38335    8.5689364    163.18249    548.83155   -1463.7722     29008.58 
199500        0.16527108214859781432 14.776773538149717169 0.18253968253968252955 23 176.05364216839544156
  199500    861.75552    10.900524    136.03596    566.50053    565.49079     28420.97 
  199600     792.3228    5.3306962     139.3801    501.00676   -897.70991     28420.97 
  199700    923.73335    2.1913548    159.35892    594.10032   -50.470362     28420.97 
  199800    769.96365    5.6431808    164.68573    544.22259    753.41252     28420.97 
  199900     754.1712    9.3548072    138.52223    502.27898   -864.88394     28420.97 
200000        0.16425290238457743164 14.61780248801271398 0.14814814814814813992 14 136.2719524214610658
  200000    760.54774    3.2401523    135.21387     480.8633    271.92031    30837.697 
Loop time of 715.656 on 1 procs for 200000 steps with 153 atoms

Pair  time (%) = 28.0945 (3.9257)
Bond  time (%) = 2.45304 (0.342768)
Neigh time (%) = 0.26007 (0.0363401)
Comm  time (%) = 0.244224 (0.0341258)
Outpt time (%) = 7.61522 (1.06409)
Other time (%) = 676.989 (94.597)

Nlocal:    153 ave 153 max 153 min
Histogram: 1 0 0 0 0 0 0 0 0 0
Nghost:    0 ave 0 max 0 min
Histogram: 1 0 0 0 0 0 0 0 0 0
Neighs:    3554 ave 3554 max 3554 min
Histogram: 1 0 0 0 0 0 0 0 0 0
FullNghs:  7108 ave 7108 max 7108 min
Histogram: 1 0 0 0 0 0 0 0 0 0

Total # of neighbors = 7108
Ave neighs/atom = 46.4575
Ave special neighs/atom = 2.64052
Neighbor list builds = 383
Dangerous builds = 0
