LAMMPS (9 Oct 2012)
# 3d protein simulation

units real

timestep 2

dimension	3

boundary s s s
#boundary p p p

neighbor	10 bin
neigh_modify	delay 5

atom_modify sort 0 0.0

special_bonds fene

atom_style	peptide

bond_style harmonic

pair_style vexcluded 2 3.5 3.5

read_data data.testeo
  3 = max bonds/atom
  orthogonal box = (-200 -200 -200) to (200 200 200)
  1 by 1 by 1 MPI processor grid
  153 atoms
  202 bonds
  5 = max # of 1-2 neighbors
  5 = max # of special neighbors

pair_coeff * * 0.0
pair_coeff 1 1 20.0 3.5 4.5
pair_coeff 1 4 20.0 3.5 4.5
pair_coeff 4 4 20.0 3.5 4.5
pair_coeff 3 3 20.0 3.5 3.5


velocity	all create 300.0 9849853

group		alpha_carbons id 1 4 7 10 13 16 19 22 25 28 31 34 37 40 43 46 49 52 55 58 61 64 67 70 73 76 79 82 85 88 91 94 97 100 103 106 109 112 115 118 121 124 127 130 133 136 139 142 145 148 151
51 atoms in group alpha_carbons

group		beta_atoms id 3 6 9 12 15 18 21 24 27 30 33 36 39 42 45 48 51 54 57 60 63 66 69 72 75 78 81 84 87 90 93 96 99 102 105 108 111 114 117 120 123 126 129 132 135 138 141 144 147 150 153
51 atoms in group beta_atoms

group		oxygens id 2 5 8 11 14 17 20 23 26 29 32 35 38 41 44 47 50 53 56 59 62 65 68 71 74 77 80 83 86 89 92 95 98 101 104 107 110 113 116 119 122 125 128 131 134 137 140 143 146 149 152
51 atoms in group oxygens


fix		  1 all nvt temp 400.0 800.0 100.0
fix		  2 alpha_carbons backbone beta_atoms oxygens fix_backbone_coeff.data testeo.seq
Chain flag on
Chi flag on
Rama flag on
Rama_P flag on
SSWeight flag on
ABC flag on
Dssp_Hdrgn flag on
P_AP flag on
Water flag on
Burial flag on
Helix flag on
Fragment_Memory_Table flag on
DebyeHuckel on

Reading fragments...
Computing FM table...
#fix		  3 all fixprueba 10

variable      biasinge equal f_qbias
# output wham.dat, a file with collective variables that can be used to compute pmfs
compute     qw alpha_carbons qwolynes rnative.dat 2 0.15
variable    qw equal c_qw
compute     rg alpha_carbons gyration
variable    rg equal c_rg
compute     qo alpha_carbons qonuchic cutoff 12.0 nativecoords.dat 1.2
variable    qo equal c_qo
compute     tc beta_atoms totalcontacts 6.5 2
variable    tc equal c_tc
variable    step equal step
variable    E_P equal pe

fix         wham all print 500 "${step}        ${qw} ${rg} ${qo} ${tc} ${E_P}"


#variable    stepq equal step
#variable E_bond  equal emol
#fix energy all print 10 "${stepq} ${E_bond}"



thermo		100
dump		1 all atom 10 dump.lammpstrj

dump_modify	1 sort id




#minimize 1.0e-4 1.0e-6 100 1000

reset_timestep	0
run		200000
Memory usage per processor = 0.857471 Mbytes
Step Temp E_pair E_mol TotEng Press Volume 
       0          300    54.408864    955.49334    705.45561    -33253.58    10890.368 
     100    564.11109    9.8617892     214.8108    148.66932    4035.4522    10890.368 
     200     387.5477    4.8340955    131.15635   -67.035951    3954.4988    10890.368 
     300    319.77038     4.923776    116.11229   -112.79248    3457.4003    10890.368 
     400    446.85586    7.6375136    112.43413   -42.684862    2678.8474    10890.368 
500        0.97850240437132918192 10.154424577502345173 1 66 -227.51061601579675653
     500     400.4822    7.8674256    121.15317   -46.058887   -3847.1574    10890.368 
     600    350.14375    6.3303291    111.22902   -93.534129   -3250.5267    10890.368 
     700    394.45967     9.333133    118.60413   -51.334236     230.0578    10890.368 
     800     443.9467    10.914298    107.81294   -44.381077    4287.5554    10890.368 
     900    398.03939    4.5824992    101.28855   -80.415083    1939.9358    10890.368 
1000        0.97193814155362079354 10.172471404369947123 1 69 -233.28429720360190913
    1000    382.46217    5.5743127    119.04281    -59.99714    5446.1499    10890.368 
    1100    430.00533    7.8367096    110.30031   -45.005041    1371.8235    10890.368 
    1200    387.85497    3.7794831    98.410794   -70.123891    2468.8168    10890.368 
    1300    413.67284    4.1066236    88.316269   -75.757894    2582.0693    10890.368 
    1400    424.26543    4.7461352    107.66547   -42.503153    1185.0415    10890.368 
1500        0.98349503518932235302 10.131940150673715451 0.99470899470899465378 67 -235.22513053616052048
    1500    372.38471     9.464961    99.663056   -66.503903    3113.7612    10890.368 
    1600    423.74274    6.1899261    91.838079   -64.926224    1610.1887    10890.368 
    1700    463.35336    11.666819    99.804355   -28.432599    2542.3465    10890.368 
    1800    378.42349    6.1695874    101.11802   -64.769848    -1512.458    10890.368 
    1900    402.09256    11.955533    95.973742   -61.124729   -2094.6604    10890.368 
2000        0.97961959689582900346 10.113481489039399364 1 70 -237.33072699312396026
    2000    428.36901    7.8971588    88.880921   -43.243956   -18.689375    10890.368 
    2100     417.3847    8.1316723    112.04977   -20.275265   -915.13268    10890.368 
    2200    378.46308    6.0539197    106.35701   -56.216925    4425.9336    10890.368 
    2300    366.47973    3.6014292    97.368476   -55.007728    -5146.698    10890.368 
    2400    413.18191    7.1307296    111.96759   -15.769676   -2903.9147    10890.368 
2500        0.98602378239378463132 10.097201036983255662 1 69 -229.78462852073269573
    2500    384.97178    10.287964     85.23227   -55.360411   -1185.2778    10890.368 
    2600    389.66757    9.3495555      100.531   -43.153281   -1021.3111    10890.368 
    2700    388.59578     8.168869    107.53588   -29.025873     -1449.63    10890.368 
    2800      438.848    5.7816936    91.144464   -43.651847   -681.76839    10890.368 
    2900    415.13679    8.5391964    79.493453   -61.230585    2312.4881    10890.368 
3000        0.97811780778342138909 10.150811672762408477 1 68 -237.11706341293069045
    3000    423.65658    10.614839    79.057961   -45.165417   -986.76856    10890.368 
    3100    418.41246    6.8918254    93.369897   -26.609998    629.48642    10890.368 
    3200    379.51272    6.8473825    79.488116   -61.672154   -1888.8307    10890.368 
    3300    446.83795    8.9680254    101.76274   -13.475115    3162.8577    10890.368 
    3400    426.46409    5.3846492    81.220887   -40.360345   -308.22224    10890.368 
3500        0.94641407200635463415 10.294925729843832585 0.99735449735449732689 64 -242.6710530734015947
    3500    402.40947    4.9194636    78.294448   -60.346112    21.513133    10890.368 
    3600    423.25152    6.6968843    95.156102    -28.43047     488.3493    10890.368 
    3700     406.5805     4.563047     102.3252   -30.997411    3163.6064    10890.368 
    3800    405.47189      6.46916    80.050458   -61.997527    396.83654    10890.368 
    3900    429.20462    3.8513289    96.875764   -33.443458   -3063.9853    10890.368 
4000        0.96335642989445469109 10.195771143041941542 0.99735449735449732689 70 -214.88625797316916533
    4000    392.88599     3.872461     90.05093   -36.876247   -4191.4475    10890.368 
    4100    417.26776     4.830805    78.794129   -48.425333   -4432.1909    10890.368 
    4200    404.31809    5.4546196    95.410694   -11.748317   -5.4645733    10890.368 
    4300    395.05473    8.3304509    86.482685   -39.576812    2168.2266    10890.368 
    4400     407.9633    7.0990871    87.945396   -42.731818    3954.8965    10890.368 
4500        0.97949658854994259283 10.169706878327925637 1 65 -210.09427095816371889
    4500    445.45286    7.7657072    76.855141   -8.2670979   -310.59156    10890.368 
    4600    351.87772    6.7656323    95.832987   -41.013204    3830.4817    10890.368 
    4700    385.88386    6.6662148    90.143831   -24.452148   -1282.8248    10890.368 
    4800    448.92812    12.915352    94.862926   -9.9514044   -6394.6264    10890.368 
    4900    368.66631    6.4053154    93.175319   -44.053129   -3207.6093    10890.368 
5000        0.97319342074870573978 10.125680398490780831 0.99735449735449732689 67 -216.0401496469573317
    5000    422.93934    10.775489    84.457284    -24.41347    4139.6373    10890.368 
    5100    432.10354    9.5989661    90.340524   -20.418234    3808.3647    10890.368 
    5200     413.0755    2.9915613    78.219771   -51.451024    1731.2825    10890.368 
    5300     433.4545    5.1503664    85.910757   -12.769015   -1804.5754    10890.368 
    5400    419.20977    9.0810817    91.555485   -15.948214   -1664.3321    10890.368 
5500        0.9628224173279332776 10.135517515040284309 0.99735449735449732689 65 -222.5770282517889882
    5500    436.84028    9.1639619    83.563908   -24.652068   -2234.1856    10890.368 
    5600    348.00665    6.8312795    97.357361   -50.972348    1017.0698    10890.368 
    5700    426.18124     5.761832    92.502386   -14.741291   -2080.1434    10890.368 
    5800    467.05407    5.5699614    94.804509     14.35849   -84.464708    10890.368 
    5900    347.68237      3.19906    88.364542   -35.220647   -425.55728    10890.368 
6000        0.95016218083623615875 10.24614063857677948 0.99735449735449732689 64 -207.85508457937402227
    6000    430.48924    10.012867    89.215899   -12.807671   -3022.6881    10890.368 
    6100    368.93113    11.465112    89.720066   -40.879093    723.60173    10890.368 
    6200    410.47493    4.1366833    68.507954   -43.511944   -1887.1358    10890.368 
    6300    425.08316     4.511275    76.311329    -20.38377   -4043.0672    10890.368 
    6400    421.38371    6.3644785    85.780827   -9.6302871   -3241.7869    10890.368 
6500        0.96193459378773527035 10.209297309338738913 0.99735449735449732689 64 -208.84052316910023706
    6500    354.59771    3.3073722     91.92567   -48.178286    1958.0487    10890.368 
    6600    438.65799    5.4122758    78.042043   -21.355868    1780.7094    10890.368 
    6700    412.15022    9.2587025    81.100678   -19.593872   -2475.3867    10890.368 
    6800    408.07208    7.0884388    85.640777   -19.772986    -2998.833    10890.368 
    6900    387.92591    7.6721845    79.801015   -27.787307   -2109.9782    10890.368 
7000        0.96619099002066721749 10.170535864585753316 1 69 -204.44767978656710739
    7000    452.48799    6.1585589    81.678383   0.56699526    161.92464    10890.368 
    7100    440.00517    6.6876752    98.605442     0.917628   -2531.1535    10890.368 
    7200    387.77569    3.5135701    85.756503   -31.369087      253.266    11823.011 
    7300     412.9356    8.6096585    91.228715    1.0842198   -1650.0114    11823.011 
    7400    426.90699    8.8347546    76.912915   -24.747418   -3089.8274    11823.011 
7500        0.98362287579482776678 10.074688357227223889 1 71 -223.3849568922600497
    7500    401.82035    5.9250904    85.834947   -41.326936    2177.3742    11823.011 
    7600     424.8848     8.040202    82.024096   -18.578657    2697.0916    11823.011 
    7700    446.27181    8.9906309    74.706028   -7.2612831    1472.2307    11823.011 
    7800    392.81787    5.8419745    72.384852    -51.13185    2226.1246    11823.011 
    7900    448.54719    5.1100774    74.810662   -17.159174   -1968.3315    11823.011 
8000        0.9637330092611900989 10.189425035858288737 0.99735449735449732689 68 -200.27661006008148092
    8000    418.77268    5.8748183    86.701705   -10.537774   -747.08848    11823.011 
    8100    427.83537    6.3251537     77.65597   -27.173196    1131.9665    11823.011 
    8200     376.2597    4.4159843    87.958272   -59.122641   -2943.1164    11823.011 
    8300    414.42153    10.170164    81.425423   -18.899195    1451.7477    11823.011 
    8400    408.26534    3.1087045    87.648881   -25.059527   -1180.4812    11823.011 
8500        0.9435870773472025963 10.231871432909505515 0.98677248677248674547 67 -204.90700881954174406
    8500    358.77478    8.4172073    79.172169   -42.352209   -439.68349    11823.011 
    8600    421.71107    8.1746427    95.163738   -7.6098169   -4885.1051    11823.011 
    8700    391.89044    3.1205312    89.707617   -13.873731    223.02962    11823.011 
    8800    418.52702     3.061138    87.388127   0.70438176   -4432.5648    11823.011 
    8900      398.374    2.5043999    87.480408   -8.7249331   -1752.5055    11823.011 
9000        0.93524306626072495341 10.266786567228100679 0.98941798941798930755 64 -194.30502608369727113
    9000    441.95553    1.7486021    88.652741    5.9375674   -2009.7697    11823.011 
    9100    364.47476    3.0573576    90.702034   -11.668375    1092.1538    11823.011 
    9200    453.64786    3.4972605    71.285052    2.3665274   -1839.3524    11823.011 
    9300    410.49613    6.1905225    95.491085    2.2505665    3486.5781    11823.011 
    9400    405.37982    7.0483064    74.908794   -23.713374   -2005.6933    11823.011 
9500        0.956961970594438327 10.208969126571544095 0.99735449735449732689 64 -185.85642502856410374
    9500    447.20165    8.7736765    94.264627    16.763097   -1572.6439    11823.011 
    9600    409.09345    4.2984496    81.178162   -10.209207   -1143.5468    11823.011 
    9700    431.00476    8.0390486    72.959806   -14.185032    1997.9514    11823.011 
    9800     407.1467    4.2726093    94.635168    10.497274    1186.6796    11823.011 
    9900    410.67056    6.1572773    82.524321   -2.0337296     2478.363    11823.011 
10000        0.96680229316653942817 10.145458389928281306 0.99735449735449732689 72 -190.37310433448618596
   10000    415.44611    9.6700087    83.526737   -2.1414808   -1067.2172    11823.011 
   10100    419.80683    7.2046347    74.047321   -20.314859   -1715.4559    11823.011 
   10200    457.16847    5.8455609    92.245518    14.716353    2274.3927    11823.011 
   10300    472.27698     6.226255    86.892532    19.046161   -2938.8193    11823.011 
   10400    399.35935    4.1569666       92.465    -12.76344    2847.6317    11823.011 
10500        0.95913662711449010345 10.184164742523201141 0.99735449735449732689 72 -198.5814067724803067
   10500    421.37453    5.9398073    79.532397   -7.6637182   -691.63005    11823.011 
   10600    397.60037    8.9123062    80.302674   -38.591741    -267.4456    11823.011 
   10700    408.30449    9.9453327    89.358392   -3.9382855   -913.87378    11823.011 
   10800    451.18473    6.2182787    81.778683   -8.6705788    130.78534    11823.011 
   10900    438.72449    7.7624038     79.74029   -16.545662    529.20337    11823.011 
11000        0.97093466211594625648 10.146119787443664606 1 66 -214.74300529836330043
   11000    437.70603    6.3108244    87.734564    -16.42579   -1665.4912    11823.011 
   11100    454.44225    6.0175884    82.191922     14.83618    295.98715    11823.011 
   11200    425.11799    5.1589385    92.563441      22.6571   -2377.2559    11823.011 
   11300     405.4507    4.3849215    89.218965   -22.782475    -4437.139    11823.011 
   11400    419.85748    6.1557475      78.5742    2.9088704   -607.75671    11823.011 
11500        0.96543830243911998856 10.208786433521039427 1 67 -171.40579320741852598
   11500     395.8462    5.9027922    92.572115    7.9454434    3961.6815    11823.011 
   11600    409.34083    3.7357978    72.656075   -28.935444    519.35137    11823.011 
   11700    451.47476    7.5403523    82.423029   -19.266163     763.5294    11823.011 
   11800    379.87609    5.1870165    84.983089   -14.899115    546.57059    11823.011 
   11900    442.76917    7.6919765    88.525163    6.0324961    475.04586    11823.011 
12000        0.9601436703071253298 10.204939494462406557 0.99735449735449732689 69 -193.2083456362872198
   12000    400.78913    4.2064282    94.999953   -11.617553   -3456.9065    11823.011 
   12100    406.94993    9.5852618    90.776829   -2.7484216    1480.4424    11823.011 
   12200    436.26708    2.7427238    90.714269    21.073383   -180.45633    11823.011 
   12300    407.93553    6.3911633    83.763919   -13.879294   -2233.0642    11823.011 
   12400    446.45845    5.3065723    76.894395   -19.627348   -2960.9871    11823.011 
12500        0.93779799829190924054 10.244051744936616188 0.97883597883597883715 62 -174.04731312479646022
   12500    416.00311    5.7055663     102.6768    14.436679   -3118.0473    11823.011 
   12600    422.76493    2.9124052    94.039755     10.62214    2878.0553    11823.011 
   12700    405.55547    5.2204956    89.991198   -4.0932015    3552.9886    11823.011 
   12800    443.83599    16.828502    90.225909    30.442909    2795.8765    11823.011 
   12900     387.8967    12.436816    88.931548   -13.215622    2903.2749    11823.011 
13000        0.92824801534727052754 10.298210826759380154 0.96825396825396814471 62 -184.86429311947179599
   13000      426.622    5.3814803    95.486217    8.4309357   -3109.0612    11823.011 
   13100    417.54801    6.6986338    99.447968    10.639758    42.320693    11823.011 
   13200    441.25525    12.291307    79.896682   0.59252173    -423.9466    11823.011 
   13300    427.14973    9.2158299    81.868194    15.674137   -3084.8704    11823.011 
   13400    452.66682    3.7142295     95.51641     39.42711    1255.2385    11823.011 
13500        0.91178810479788696686 10.324636768975805623 0.97619047619047616404 57 -164.19804280726435763
   13500    393.73215    3.3901911    94.637205    14.195353   -362.60979    11823.011 
   13600    426.92453    2.7354085    95.430418    4.5417439   -695.90771    12629.835 
   13700    454.04044    8.9880843    89.651884    44.717205   -1674.8462    12629.835 
   13800     402.6757    2.0127317    99.107155      32.9448    2579.7307    12629.835 
   13900    453.79569    3.5873764     83.21208   -8.1393346   -1691.4066    12629.835 
14000        0.9261756877736109228 10.294351255943077206 0.98677248677248674547 66 -187.68973970811589425
   14000     420.0732    3.3626996    90.656725    2.6383378    3055.1148    12629.835 
   14100    455.73027    3.1191283    95.161379    27.066928    1634.3207    12629.835 
   14200     395.2694    10.757111    80.314319   -14.423406    735.35531    12629.835 
   14300    437.82937    4.2726752    91.013792    17.211128   -877.42898    12629.835 
   14400    408.45867     3.959632    98.829348    26.586751    -1196.899    12629.835 
14500        0.93914499175220766958 10.227262722420400465 0.97883597883597883715 66 -178.76329218851850555
   14500    433.54289    5.9531404    90.901885    17.667678   -5419.1212    12629.835 
   14600    452.03168    5.1746573    83.855538    10.247352    260.59863    12629.835 
   14700    355.50743    3.8486791    92.555697   -30.089985    -2618.684    12629.835 
   14800    398.94614    7.2524833    83.954558   -11.009659    2651.2426    12803.707 
   14900    434.13348    3.7625265    84.328313    9.1645375   -2824.9817    12803.707 
15000        0.93457624103036041063 10.252199451339205183 0.99206349206349198067 69 -212.21644256471603285
   15000    445.44374    4.3916403    87.234258   -10.393398    510.21467    12803.707 
   15100    409.64937    6.0460822    77.406092   -11.077854   -582.30771    12803.707 
   15200    424.98736    10.676455    97.756596    17.867564    1190.6057    12803.707 
   15300    434.79425    5.1853235    74.488941    1.4084566    2107.4564    12803.707 
   15400    406.94574     6.070662    86.219279   -5.8664253    1075.4679    12803.707 
15500        0.97072146582518914482 10.169020752911244188 0.99735449735449732689 68 -171.01001672078231763
   15500    437.16006     14.09227    101.34533    27.059832    2573.6556    12803.707 
   15600    420.95525    10.773203    79.215489   -28.981215   -641.25562    12803.707 
   15700    452.59439    8.6687251    76.979519   -10.429751   -2336.7242    12803.707 
   15800    410.50559    5.4814071    98.719249    21.354595   -119.10411    12803.707 
   15900    436.67772    3.1287869    86.295002    17.769084   -1621.6053    12803.707 
16000        0.93684424711724456625 10.27001616748685997 0.98412698412698407235 62 -172.59149376718610824
   16000    426.68098    2.3678542    96.838024    20.730457   -3406.9169    12803.707 
   16100    432.22787    4.0265056    87.999941    3.9369767    3650.7371    12803.707 
   16200    427.82844    7.2445438    71.055235    2.9944764   -1196.6004    12803.707 
   16300    461.50527    6.2131536    90.360296    36.335702   -555.60269    12803.707 
   16400    449.54353    4.1981071    78.604878   -4.3459229   -515.80253    12803.707 
16500        0.95848447692221649952 10.167126225937705541 0.99735449735449732689 61 -204.81674110757933249
   16500     442.5134    10.214017     85.45316   -4.3213867   -840.86808    12803.707 
   16600    459.12065    6.6950085     107.1722    32.165807    2371.2244    12803.707 
   16700    405.51947    3.1227135    74.605754   -7.8489883    516.76021    12803.707 
   16800    417.57504    5.2322346    84.156511    3.1356574   -52.095779    12803.707 
   16900    431.20372    7.0767028    87.196456    18.798907    79.287898    12803.707 
17000        0.92023253670104043778 10.21374780947544636 0.96296296296296290951 65 -133.17591696434908499
   17000    406.51671    3.9446136      105.571    51.009948    668.01255    12803.707 
   17100     418.7815    2.8092852    85.538227    10.671303   -711.99877    12803.707 
   17200    407.88225    2.8185545    88.287963    21.142081   -2407.2562    12803.707 
   17300    463.49931    3.2391615    95.095654    41.632948    729.14853    12803.707 
   17400    416.33707    2.6820214    94.264117    5.7467972   -1904.5519    12803.707 
17500        0.92197217300496114856 10.229880169986058647 0.96825396825396814471 54 -167.30804817949837116
   17500    438.12642    5.2012585    87.808301    31.199639    1183.4519    12803.707 
   17600    474.13032     3.635868    84.470925    22.450025    746.33178    12803.707 
   17700    379.19426    8.3110197    64.743302   -37.352374   -643.16038    12803.707 
   17800    435.73431    5.1351194    86.016378   -8.0386876    1384.0782    12803.707 
   17900    460.66063    7.8420875    89.672555    27.872585    102.44481    12803.707 
18000        0.94686656976154814913 10.231141593026086056 0.99735449735449732689 68 -162.4343458800669282
   18000    427.73554    7.0394109      89.0818    31.365409   -763.84311    12803.707 
   18100    381.61059    2.8313481    84.257802   -19.573923   -1355.6514    12803.707 
   18200    444.97769    5.4280102      82.8753    19.269585   -488.50769    12803.707 
   18300    404.94112    3.6102559    80.020087    15.967037   -858.27904    12803.707 
   18400    401.90299    5.0334368    97.493835   -5.4673297    1357.8904    12803.707 
18500        0.95440307498124288266 10.175225089268213452 0.99206349206349198067 61 -183.93000282669868284
   18500    462.09568    13.868085    85.434774    25.437752    1797.0172    12803.707 
   18600    489.11519    4.6151701    100.28749    66.835091   -807.79987    12803.707 
   18700    384.81963    9.7960909    95.441683    16.091051   -14.088434    12803.707 
   18800    463.08152    8.6751532    87.701636    15.317513   -871.92147    12803.707 
   18900    397.49477    7.9087971    83.877574   -11.828664    -263.1023    12803.707 
19000        0.96418719074145831094 10.214198703220318976 1 69 -190.72399039655442721
   19000    493.75758    8.2447587     86.16817    32.989238   -2754.4943    12803.707 
   19100    374.82094    5.1262017    84.432087   -10.169293   -2221.9524    12803.707 
   19200    445.18103    9.6866672    84.347757    28.512213   -1091.0807    12803.707 
   19300    438.47957    4.5074933    100.58322    49.987984   -172.27831    12803.707 
   19400    480.92166    8.8475788    76.337975    46.373903    2116.5878    12803.707 
19500        0.9507210641530838835 10.205480443368768917 0.99206349206349198067 72 -178.00218348875819174
   19500    437.17613    4.3064894    89.882774    20.074944   -3033.2772    12803.707 
   19600    443.86948    8.6021535    88.074255    18.787041   -189.65832    12803.707 
   19700     444.5182    7.1351143    92.236204    40.128292   -66.604682    12803.707 
   19800    442.43835      11.9346    81.880013    27.053243   -64.819679    12803.707 
   19900    396.02758     5.526322    94.828698    9.6632027    1523.1288    12803.707 
20000        0.93135488909726327211 10.282715803733371018 0.97883597883597883715 68 -213.65793912857830605
   20000    433.84162     3.222066    80.293826    -17.09162    1855.1517    12803.707 
   20100    435.79003     10.43645    96.030216    19.119361   -608.33769    12803.707 
   20200    397.17724    7.8175499    90.394361    5.5990919   -3895.2279    12803.707 
   20300    435.69291    4.5047535    95.371088    29.685774     2999.286    12803.707 
   20400    455.08432    5.1991306     75.77575    30.148603    53.936081    12803.707 
20500        0.92049129738576063176 10.279608549381823224 0.97089947089947081782 66 -166.53178865127907216
   20500    421.89638    9.3836034    83.479864    24.622345   -627.22282    12803.707 
   20600    439.56993    13.671195    99.141153    73.287122    2466.7657    12803.707 
   20700    441.44068    4.3452946    83.833115    40.799185   -52.642089    12803.707 
   20800    436.86722     3.994603    83.520918    28.487939   -2414.3093    12803.707 
   20900    404.69025    5.0385676    79.498742    1.2078013   -2700.9132    12803.707 
21000        0.91944885735137449334 10.282226746068163337 0.9603174603174602364 63 -182.23930906153299247
   21000    414.94353    7.8013534     77.22663     5.764603    2146.9967    12803.707 
   21100    416.50317     4.399669    88.565667    36.680118    4008.0131    12803.707 
   21200    459.51171    10.322556    103.10826    68.363514    -842.9766    12803.707 
   21300    458.86188    3.6400245    74.847759    22.891584   -286.62473    12803.707 
   21400    423.94431    7.2380416    91.938194    45.997745    1315.6058    12803.707 
21500        0.95013407572251540323 10.171800078675325096 0.97883597883597883715 64 -159.76404887584675407
   21500     453.1944     6.021173    77.778631    45.570689   -1359.2409    12803.707 
   21600    404.17928    6.0465085    84.926566    32.887299   -1675.2555    12803.707 
   21700    430.62383    5.8147248    86.992105    28.772334    690.23916    12803.707 
   21800    470.33722    8.6645455    72.907364    26.472581    2203.3606    12803.707 
   21900    399.81199    14.320971    78.620213   -11.671548    1761.7213    12803.707 
22000        0.94666842589217192749 10.174193157801255438 0.98677248677248674547 65 -177.51285781899369454
   22000    448.21529    9.4439233    81.542647    25.565927    2025.8842    12803.707 
   22100    486.15946    5.5966258    79.907206    37.428368   -140.39525    12803.707 
   22200    378.36724    3.4938227    90.645432   -4.0114695   -2390.6208     14461.67 
   22300    451.65701    6.3069722    78.955718    14.852438    -333.0556     14461.67 
   22400     440.0024    4.9445628    95.783779    43.730152   -169.64381     14461.67 
22500        0.90238605355102119443 10.386582790891772277 0.96560846560846558262 61 -165.70281139657245717
   22500    482.22489    4.6871534    89.263987    52.785149    -2965.458     14461.67 
   22600    412.06983    7.4548117    83.187835    5.6001333   -1094.2416     14461.67 
   22700    451.63408    8.1174402    86.720907    46.256678    376.99973     14461.67 
   22800    472.21943    5.5631337    94.888981    40.829767    434.58823     14461.67 
   22900    460.24284   0.85841804    78.263605    19.589484   -1843.0595     14461.67 
23000        0.9464170587120804834 10.191406976727424905 0.97883597883597883715 62 -164.22833969250530117
   23000    448.61689    7.6063101    89.610075    39.032403     1206.747     14461.67 
   23100    443.53861     8.287903    111.13476    46.634424   -398.98001     14461.67 
   23200     399.7159    5.8992237    89.110106    11.725643    474.40097     14461.67 
   23300    467.88009    6.6562751    103.16732    49.323785     4549.519     14461.67 
   23400    457.25526     2.876843    99.934636    55.422237   -299.84355     14461.67 
23500        0.94177285454275616594 10.157223128790027644 0.99470899470899465378 69 -169.59508794991754144
   23500    422.26062    6.0942782    93.125554    21.724074    66.330995    12744.062 
   23600    428.24852    4.6529061    104.39569    31.286033    2204.4951    12744.062 
   23700    456.68497    6.9825927    93.177781    42.535251     4987.888    12744.062 
   23800    411.57321      7.09662    94.605624     7.410373   -2385.7214    12744.062 
   23900    464.32846    5.5110327    95.018224    27.743541   -191.58785    12744.062 
24000        0.93702495496773152706 10.196306299218971247 0.97354497354497349093 63 -162.02824620145531753
   24000     439.8027    6.4869545    97.800586    37.238938    39.407576    12744.062 
   24100    416.77335    2.3648292    92.008026   -4.8403648     1692.847    12744.062 
   24200    420.73387    5.5705021    91.044732   0.18633908   -156.00183    12744.062 
   24300    443.44575    8.5340612    96.514562    34.284903   -3474.9552    12744.062 
   24400    455.21153    4.6640221    93.422785    30.870844   -163.50234    12744.062 
24500        0.92967984033993467108 10.25040395681329386 0.97089947089947081782 66 -171.19601396085667488
   24500    392.82291    5.9698305     102.6051    6.7854185    1682.5516    12744.062 
   24600     499.1487     10.50385    89.006823    50.223782   -1167.9881    12744.062 
   24700    390.94426    5.2104542    91.023901    21.134012    238.06915    14615.289 
   24800    512.10543    6.6333375    86.413108    61.373595   -80.786234    14615.289 
   24900     415.9717    8.4204914    90.670646    21.502105   -511.64725    14615.289 
25000        0.94791136954473431686 10.221753368065268575 0.99206349206349198067 72 -187.60773400349168583
   25000     464.6756    8.2756681       87.602    22.928938    2042.1227    14615.289 
   25100     430.9445    5.3987203    93.464596    28.129057   -256.09493    14615.289 
   25200    494.99127    9.7783134    101.25522    51.779367   -1136.6492    14615.289 
   25300    436.42592    7.9367175    79.167403    4.6685363   -520.13437    14615.289 
   25400    432.07905    2.3228981    94.386098    20.072434   -1244.3751    14615.289 
25500        0.91831726652386291843 10.275267709330023536 0.97619047619047616404 65 -161.71979301993405898
   25500    444.08462    5.6015609    90.681141    39.487457    1057.2489    14615.289 
   25600    502.17569    5.0022562    102.47768     48.49228     1172.013    14615.289 
   25700    420.79253    6.6128344    89.629411    13.940265   -745.00968    14615.289 
   25800    489.22193    6.4761557     88.14965    33.489549    504.41719    14615.289 
   25900    441.51867    5.2326683     103.0193    40.081488   -1475.2804    14615.289 
26000        0.87706047767354078371 10.391021714184274671 0.94708994708994698186 61 -176.02418897657054231
   26000    490.27089    4.4097329     84.82318    46.109278    1725.0057    14615.289 
   26100     475.7661    7.8955684    97.385721    50.887113    811.05306    13972.127 
   26200    443.35599    4.7627049    86.587589    21.707654    128.21711    13972.127 
   26300    441.97715    3.8232583    90.636844    12.665781    -1527.371    13972.127 
   26400    444.50391    5.8320161    94.576313    27.831876     -2235.62    13972.127 
26500        0.89485046320252570329 10.334392988418402481 0.97619047619047616404 67 -157.57523168754659082
   26500    493.29133    3.5333115     99.00873    65.926749    2124.3139    13972.127 
   26600    432.93246    7.7241976    90.643008    16.591775    -665.0757    13972.127 
   26700      424.985    5.9460855    99.793658    20.423777   -728.07591    13972.127 
   26800     488.2275    5.4461062     111.9547    58.944426   -909.83959    13972.127 
   26900    483.47356    4.1529425    103.29961    50.586656    1260.0939    13972.127 
27000        0.93391371869996031574 10.280291891307907548 0.98412698412698407235 70 -177.6222904403072107
   27000    448.00553    6.1644283    97.922111    25.361456   -473.53662    13972.127 
   27100    485.75277    13.124429    86.069054    8.9423389    379.32365    13972.127 
   27200    429.62327    3.5832879    89.632958   -11.849163   -342.88991    13972.127 
   27300     462.2647     5.431262    98.323025    29.791314   -68.218574    14637.626 
   27400    474.20482    7.3572937    86.871571    32.561863   -1692.4838    14637.626 
27500        0.95570518506658674873 10.12700781227108493 0.97089947089947081782 68 -159.53973633314691938
   27500    453.00568    6.3835219    110.79327    45.709492   -316.29399    14637.626 
   27600    476.59047    8.7582556    80.706933    18.164585   -1173.6097    14637.626 
   27700    480.68913    4.7661513    103.40974    61.438588    571.95976    14637.626 
   27800    434.29754    7.1470378    100.77792    37.316487     34.98276    14637.626 
   27900    418.89941    6.1234693    104.73597    20.568338    553.94294    14637.626 
28000        0.95976880098236372341 10.146043299187011755 0.98412698412698407235 67 -164.43411858660164171
   28000    426.67665    5.7172182    103.40194    28.885871   -3086.1657    14637.626 
   28100    481.20263    10.136469     107.2883    61.908241   -2008.7209    14637.626 
   28200    442.73558    7.2199136    109.59273     30.19155    2045.2905    14637.626 
   28300    425.79135    5.1044261    93.918433    13.549055    829.78275    14637.626 
   28400    462.44384    3.4531193    103.36365    35.276222    549.44851    14637.626 
28500        0.95410060729764156751 10.200549977950778668 0.98148148148148139924 60 -167.29651227993616658
   28500    499.30935    3.1006903    108.93908    58.932131    1697.2236    14637.626 
   28600    408.89126    7.1776077    100.53535    22.671234   -501.02461    14637.626 
   28700    457.63322    4.2272129    97.864399    38.042348     442.5858    15388.316 
   28800    505.95782    4.6653667    78.139403    40.198509    1181.1297    15388.316 
   28900    490.64565    2.8856519    111.86506    71.319742   -777.16612    15388.316 
29000        0.92903579715569273301 10.275745026172405261 0.98148148148148139924 61 -171.58135192238603395
   29000    450.81136    6.9199189    96.556133    32.673671   -1212.9737    15388.316 
   29100     445.9608     3.104818    91.189006    18.251248    920.00968    15388.316 
   29200    468.41545    3.0346564     98.03419    42.885203   -828.81525    15388.316 
   29300    478.31372    1.0227585    102.35919    47.342114   -314.05586    15388.316 
   29400    437.19753     2.352149    92.793984     12.13641    26.962613    15388.316 
29500        0.87907805875626532366 10.406993699284649679 0.96296296296296290951 66 -180.18768448986594422
   29500    511.38141    4.9460809    98.354977    51.510603    816.77488    15108.079 
   29600    444.72445    4.5335639    91.341696    33.014283    2006.7091    15108.079 
   29700    486.78422    3.1502374    117.42032    77.273149     2013.304    15108.079 
   29800    436.18335    4.6769481     99.76567    34.092898   -489.11807    15108.079 
   29900    460.73079    3.9435816     96.20687    27.662129    -883.2172    15108.079 
30000        0.88232302885697011519 10.42564974634493602 0.95767195767195767431 64 -188.85382195965314622
   30000     444.7814    2.4658272    79.695465    12.669127    -518.0074    15108.079 
   30100     475.2094    5.8298076    108.74792    59.930709   -1702.5801    15108.079 
   30200    439.00531    7.5437525    103.22291    30.043751    252.08473    15108.079 
   30300    449.66182    4.7004179    84.613988     1.970537   -721.65535    15108.079 
   30400    451.99297    15.259955     93.12949    17.227251   -651.39509    15108.079 
30500        0.96365797476931569499 10.122004426460609494 0.98941798941798930755 70 -188.96037251030710991
   30500    491.91804    8.3578435    85.813369    33.919391    1443.2413    15108.079 
   30600    466.87089    4.8214551     91.53363    5.5033279   -177.67883    15108.079 
   30700    479.06897    5.6074741    88.637007    20.046193   -270.77582    15108.079 
   30800    429.83673    2.4329691    105.66432    33.305056   -1162.3149    15108.079 
   30900    455.93505    8.0851677    103.66991    67.434405    1123.0275    15108.079 
31000        0.94823991616833036566 10.178592961190453536 0.97883597883597883715 63 -147.26662761893294373
   31000    443.87883    6.6786676    99.184859    53.847381    1312.5824    15108.079 
   31100    441.79624    6.3977615    94.741483     28.60182    250.50132    15108.079 
   31200     452.9284    1.8947363    105.89105     68.02478    800.34523    15108.079 
   31300    434.16584    8.9389594    111.84772    58.221628    1912.0955    15108.079 
   31400    443.31486     4.208256    82.126348    12.851229    2535.5875    15148.785 
31500        0.94824472614326327236 10.124363461261289387 0.97619047619047616404 63 -155.79494836732911267
   31500    454.89018    6.2707032    97.649453    50.308118   -1950.3804    15148.785 
   31600    468.05686    7.4191837    106.32989    64.184386    1983.7994    15148.785 
   31700    455.76315    3.1636545    91.461575    40.550436   -1717.4041    15148.785 
   31800    442.44901    1.5278421    85.726633    20.826204   -3447.8706    15148.785 
   31900    482.55708    7.7905223    82.430384    51.048029    870.82902    15148.785 
32000        0.92532639128983207311 10.183113113321898169 0.9603174603174602364 63 -156.68040268083640854
   32000    476.43324    5.8816428    91.359798    59.183458    2724.3821    15148.785 
   32100    468.01509    2.9952064    94.767109    39.241698    4093.1659    14647.654 
   32200    461.06737    13.321947    98.537805    77.797244    3197.4654    14647.654 
   32300    487.24766    2.1594432    101.36632    72.343044   -2852.1081    14647.654 
   32400    446.26504    3.4390133    93.004193    38.649361   -2487.4669    14647.654 
32500        0.91968240527033306986 10.229473783075537341 0.96560846560846558262 63 -172.28531769393615036
   32500    508.34215     5.053266    104.30037    58.035932   -116.99384    14647.654 
   32600    432.34759    8.2122623     92.17987    51.456289    1667.3479    14647.654 
   32700    444.96414    3.6675532    88.315984    20.535298    1721.9249    14647.654 
   32800    453.51986    4.5469855    98.308406    34.896041    61.110569    14647.654 
   32900     469.1805    4.2895278    118.05076    68.206136   -1.4492182    14647.654 
33000        0.84566309607582157426 10.469628274512722044 0.89153439153439151266 58 -176.77099717297855364
   33000    466.01892    2.0086807    93.917546    34.374311    478.23116    14647.654 
   33100    481.89175    3.3170367    117.69626    85.611576    2114.4587    14647.654 
   33200    440.34753    5.8233386    109.62919    52.235981    4865.7149    14647.654 
   33300    473.81044    3.5977817    109.54256    69.726778    1260.5883    14647.654 
   33400    492.87166    5.1906153    90.337199    42.698198    108.50617    14647.654 
33500        0.82591766255541854136 10.510560619232306223 0.85714285714285709528 58 -147.10720180970264437
   33500    410.30361    8.5146778    114.28997    38.794439     2521.616    14647.654 
   33600    450.89191    6.3260198    111.73051    64.183236    219.73451    14647.654 
   33700    435.85645    5.9812537     99.68913    26.475885    1054.6835    14647.654 
   33800    405.14553    4.3306521    104.62046    28.444248    247.25989    14647.654 
   33900    469.02482    3.3152295    103.46936    63.599449   -974.78078    14647.654 
34000        0.85192352023336581635 10.452803897597087612 0.92063492063492058382 59 -145.51849001077067669
   34000    424.40037    2.8872094    86.437877    46.770158   -1295.2854    14647.654 
   34100    517.48495    4.0595595    106.23106    91.620994   -2930.8499    14647.654 
   34200    473.34565    5.2927804    94.755257    46.870175    2596.6256    14647.654 
   34300     469.2345    1.5666695    91.691806    58.719189   -39.814226    14647.654 
   34400    501.31939    2.1145098    108.15317    92.536445    733.90996    14647.654 
34500        0.88735476276662428319 10.326407615345884139 0.94708994708994698186 61 -161.80973736110740901
   34500    532.31732    6.6549421     92.71468    79.374257   -1846.4348    14647.654 
   34600    483.92024    8.5927046    86.842926    62.002762     1102.151    14647.654 
   34700    491.98904    8.6521445     95.18286    80.270546   -321.69859    14647.654 
   34800    477.41398    3.7654869    114.31957    114.59938    -5282.468    14647.654 
   34900    458.68335    4.5790619    102.58033    58.473465    95.120284    14647.654 
35000        0.89620611328336685641 10.216375873132372831 0.91534391534391534861 63 -148.54983715411054845
   35000    441.59315    5.6039512    101.41421    51.528569    656.01856    14647.654 
   35100    506.72622    3.0857301    98.588483    94.127555    2080.6012    14647.654 
   35200    451.10236    4.7883916    109.77941    82.064687    24.873625    14647.654 
   35300    409.97106    1.5886868    105.08444    41.761942    817.62391    14647.654 
   35400    479.83007    3.9407584    100.10163    79.868309   -2023.9311    14647.654 
35500        0.82990204357706776062 10.451436719678300236 0.81746031746031744269 52 -129.01801971530085211
   35500    522.58442    5.3552929    94.589917    107.75616    -336.5697    14647.654 
   35600    421.04112    2.8596509    102.12241    72.521181    272.90075    14647.654 
   35700    394.76294    2.9183248    95.619151    24.806188    1990.4331    14647.654 
   35800    431.41934    4.0601089     106.2255    60.217798    1344.8477    14647.654 
   35900    499.81515     4.976415    118.05566    99.999068   -575.95078    14647.654 
36000        0.84897189432371455986 10.461022018364534603 0.87566137566137558501 63 -130.38954741310220697
   36000     435.0669    3.4156032    109.84471    66.731924    1776.3032    14647.654 
   36100     475.8214   0.97993361    110.76268    79.209139   -3064.0757    14647.654 
   36200    490.09834    1.0705646    93.419105    73.544508   -2831.1778    14647.654 
   36300    422.48355    4.3574126    105.87251    35.159671   -1180.0422    14647.654 
   36400    515.15704    12.188342    90.103553    80.286975   -689.95551    16798.568 
36500        0.85378428921343596514 10.442261232481099498 0.92592592592592581902 59 -147.05783602692901013
   36500    480.79477    4.3451601     101.5602     70.78216   -526.85745    16798.568 
   36600    467.62273    5.7098713    101.00178    48.118096   -1623.6854    16798.568 
   36700     471.4144    1.4736178    90.101859    43.640931   -636.27738    16798.568 
   36800    506.26352    6.9993334    110.18953    82.470188   -1586.9036    16798.568 
   36900    461.86351    2.4108819    86.121663    35.004141   -2765.0472    16798.568 
37000        0.84009267950125532387 10.499789646255925035 0.91534391534391534861 63 -156.17630735457780133
   37000    461.67062    4.4623156    93.241132    52.998863   -340.30207    16798.568 
   37100    503.27033    1.9848211    92.258525    59.934882     1483.021    16798.568 
   37200    469.82959    4.7146749     93.95305    45.233102    607.79382    16798.568 
   37300    446.82908    1.8635269    120.12665    70.970898   -40.918574    16798.568 
   37400    564.26481    3.3668954    105.59964    104.29814    -1128.464    16798.568 
37500        0.79023335565992780527 10.58814521320909563 0.85449735449735442216 64 -140.32122361723452286
   37500    428.59388     3.237788    105.82428    53.867433   -1429.6689    16798.568 
   37600    509.20348    2.0497519    93.761201     74.82067   -2775.9773    16798.568 
   37700    431.99655    5.1710556    91.451607    34.724366   -1469.3796    16798.568 
   37800    449.05256    5.4741754    113.89931    72.244809     1243.515    16638.252 
   37900     500.1792    2.2115574    90.358702    68.065444    2127.7617    16638.252 
38000        0.84773507879827114664 10.477173170859069629 0.87566137566137558501 62 -180.31026004499250348
   38000     481.6805    1.9427244    85.222135    37.931045    754.77866    16638.252 
   38100     468.2576    3.9189449    99.080554    34.666965   -110.96439    16638.252 
   38200    543.68134    9.0751408     85.20075    70.847485   -2840.8666    16638.252 
   38300    494.82565    2.1495845    111.65078    65.917098    140.06897    16638.252 
   38400    485.16072     4.617439    88.117168     69.83914     1024.545    16638.252 
38500        0.90721214194821786503 10.214522758808646685 0.93121693121693116524 59 -164.0766814757309362
   38500    466.97286    4.9927542    92.273383    47.500843    1110.0724    16638.252 
   38600    460.83837    11.445185    99.223211    49.882068    -577.6485    16638.252 
   38700    516.35168     11.94677    106.06749      86.1574    265.24939    14742.081 
   38800    470.30012    6.2119706    103.14337    65.277873   -1673.2226    14742.081 
   38900    440.43976    7.2717497     112.3398    71.074422    1945.8894    14742.081 
39000        0.92371622741465075901 10.08411555189238662 0.97619047619047616404 59 -125.99497590710943484
   39000    490.33105    10.808866    107.85734    96.165749    293.12689    14742.081 
   39100    475.14351    4.9443549    101.64247    90.421458     109.5881    14742.081 
   39200    460.34909    7.4394632    100.66596    58.501496    -701.7081    14742.081 
   39300    459.67117    5.8481793    105.56339    79.528703    2693.7542    15821.191 
   39400    457.39851    8.3039476    103.67386     79.19879    1740.9298    15821.191 
39500        0.96276030237547327584 10.132997144297238634 0.99735449735449732689 64 -161.26127653583540678
   39500    458.87444    3.4240891    95.967604    46.646989    166.60005    15821.191 
   39600    474.39034    4.6598567    101.85366    64.130193    1057.8771    15821.191 
   39700    501.83526    8.6884321    93.111306    85.388422    -523.0944    15821.191 
   39800    502.21916    5.6606389      76.7969    41.323073   -1360.9024    16505.076 
   39900    515.54061    8.0840064    101.87734    60.748107   -72.508203    16505.076 
40000        0.94212005248584784756 10.187179300931896719 0.97619047619047616404 62 -155.0165176682286301
   40000     464.3581     13.86177    89.629342    55.376301   -1179.3849    16505.076 
   40100    438.94012    3.7352583    85.201531    41.479505   -3314.0879    16505.076 
   40200     490.6815    7.1633526     93.23842    84.005232   -869.60679    16505.076 
   40300    472.28184    3.4969521    96.954659    76.620358    757.81533    16505.076 
   40400    461.78869    5.4401128    89.721113    44.111136   -1039.7613    16505.076 
40500        0.92338917854819224651 10.274951471533503522 0.97619047619047616404 67 -133.04652707696573088
   40500    516.03413     6.230928    93.515605    100.75983    879.78076    16505.076 
   40600    505.17864    5.9214999    91.397007    74.052544    81.334914    16505.076 
   40700    443.31439     9.049213    91.885426    57.642362     1065.859    16505.076 
   40800    470.04931    4.6830073    92.338863    97.792878   -903.37301    16505.076 
   40900    468.61324    4.5818677    104.73151    91.736803   -603.21718    16505.076 
41000        0.86452351424795115253 10.416447306679424756 0.93650793650793651146 61 -133.97989116349697269
   41000     461.1851    4.1131034    102.18873    74.975296    716.50219    16505.076 
   41100    471.90233    1.7194703    98.338365    89.637045    384.08899    16505.076 
   41200    423.45845    9.2490128    108.56311    76.845102    -843.3065    16505.076 
   41300    430.00254    6.6823787    90.711544    58.201198   -678.31507    16505.076 
   41400    480.93859    5.3596831    89.793401    87.226233   -62.871053    16505.076 
41500        0.87053912574413849779 10.378045163506454784 0.93386243386243383835 64 -124.99718074419172353
   41500    541.99732    7.8698098    97.280145    120.57266    658.70048    16488.854 
   41600    478.21458    2.2574281    100.07496    105.84901   -4048.4694    16488.854 
   41700    498.37629    6.0286579    107.91556     117.3423   -916.80129    16488.854 
   41800    500.89366     2.931873     97.31911    125.03712   -202.99235    16488.854 
   41900    458.10381    2.9403408    87.164387    91.886749   -1081.6241    16488.854 
42000        0.8161534152199079184 10.488524423061400981 0.88624338624338616643 54 -81.620267342955230561
   42000    455.52448    1.8155002    95.383683    124.77019   -1334.5082    16488.854 
   42100    493.69518     5.579936    107.18782    146.43243    1602.6919    16488.854 
   42200    458.11316    1.3725419    88.529764    101.40437    2536.8104    16488.854 
   42300    493.00325    6.6298643    105.79762    130.76263    1286.8221    16488.854 
   42400    455.99336    5.2301708    104.52687    107.69704    1219.7738    16488.854 
42500        0.78981788746040104687 10.52013403159378413 0.87566137566137558501 56 -100.71256807457223204
   42500    441.91747    6.6583906    95.023331    99.512779    1670.3001    16488.854 
   42600    521.45358    3.1273948    93.167946    126.61064    551.28984    16488.854 
   42700    430.54759    4.6188765    108.44174    120.06592   -77.835184    16488.854 
   42800    448.96731    3.1750949    111.00417    129.86875   -746.23441    16488.854 
   42900    499.39251     8.780795    111.33518    173.00903   -1441.9339    16488.854 
43000        0.7404825718030201287 10.6801080931776049 0.81746031746031744269 50 -76.053943011764275184
   43000    463.27763      2.80759    103.04103    133.84933   -2377.2177    16295.354 
   43100    513.90416    2.6762571    94.747222       122.02    1061.9055    16295.354 
   43200    519.74419   0.46625866    106.40615    166.18891    750.79583    16295.354 
   43300    502.66111    2.0514941     97.84102    139.84499    2244.4417    16295.354 
   43400    486.01097    4.0575693    102.83025    143.57755    818.16711    16295.354 
43500        0.72997021586906474244 10.737804837764109323 0.78306878306878302531 60 -50.887828660738506414
   43500    550.97004    2.4126255    113.56831     198.7474    112.01293    16295.354 
   43600    480.73967    4.6575498    98.744716    129.47494     2429.104    16295.354 
   43700    501.86364    3.0357119     91.61979    122.65845   -431.35752    16295.354 
   43800    520.49791     3.225406     97.66146    150.28332   -15.841045     17800.57 
   43900    510.18719    4.7427197    92.232974     142.1578   -1092.3503     17800.57 
44000        0.77246588212740707746 10.566937318336863783 0.84391534391534384074 53 -96.057321168601802697
   44000    467.32743    4.2824313    92.544168    115.68085    -540.5653     17800.57 
   44100    516.64728    6.5218166    100.11882    158.99152    1325.5874     17800.57 
   44200    507.60559    5.6436073    96.472431     180.4123   -565.30174     17800.57 
   44300    496.68157    4.8920276    91.185404    153.55473   -1279.7625     17800.57 
   44400    476.74395    6.7459167    99.722908    163.54239   -416.66391     18203.13 
44500        0.78727149940450469323 10.640192525905126431 0.87037037037037034981 57 -53.815947367725655681
   44500    497.88563    5.1372941    115.37359    171.76763    99.909558     18203.13 
   44600    493.51121    1.8928254    97.205414    132.81713     854.7173     18203.13 
   44700    536.73094    4.5822668    87.112524    114.33342   -1045.2556     18203.13 
   44800     401.9731    3.1404402    107.15483    112.31353   -1363.8152     18203.13 
   44900    523.06442    5.6652202    89.783646     134.5782     1436.608     18203.13 
45000        0.79838712513056719899 10.473758393213959295 0.84391534391534384074 52 -99.998800737320934218
   45000    448.16747    3.4241811    83.366701    103.05832    990.66842     18203.13 
   45100    455.35205    7.8521024    99.603752    154.42357    -356.0757    16896.668 
   45200    543.89974    6.8779803    86.706428    164.15333     579.2345    16896.668 
   45300    457.69063    6.6105843    93.513083    116.58898    90.012031    16896.668 
   45400    508.83518    1.7384141    88.561822    142.04821   -1199.3677    16896.668 
45500        0.78440612140864907076 10.340914276664287641 0.83862433862433860554 50 -61.595108037972593706
   45500    472.88449    3.3202851    101.48275    152.66088    555.63183    16896.668 
   45600    501.72382    5.4066316    88.132109    145.18958    1630.3783    16896.668 
   45700     516.9855    3.8358058    86.382912    145.05792    93.692593    16896.668 
   45800    456.06967    7.0808458    92.703838    106.93777    920.69149    16896.668 
   45900    476.84554    4.2190826    97.899398    125.71016    942.41746    16896.668 
46000        0.74716673259608024082 10.519196686416805164 0.79629629629629627985 51 -64.199032812389134506
   46000    482.63664    10.922786     92.62056    154.47549     2505.328    16896.668 
   46100    499.75043    6.6823065    81.678854    136.53392   -707.78914    16896.668 
   46200    453.25552    5.6607976     101.3946    127.88725    296.16205    16896.668 
   46300    450.34134    5.0103346    106.97286    152.86446   -1743.4674     17700.33 
   46400    522.83697    2.5170177    98.160714    176.31196   -224.29526     17700.33 
46500        0.64555292390848117989 11.009209047007377791 0.68783068783068779251 49 -39.607074539975101857
   46500    548.07652    6.4168477     96.43443    208.71715    1153.7949     17700.33 
   46600    489.12429    4.6688972       105.06    177.84052   -1943.0611     17700.33 
   46700    494.06814     4.745585    91.084022    137.34852   -980.48518     17700.33 
   46800    507.37356    1.3010238    85.327715    124.06802   -1003.5215     17700.33 
   46900    505.96877    6.0223639    83.090952    141.70667   -1046.5784     17700.33 
47000        0.61961722454234413604 11.156298896380862473 0.65343915343915337512 53 -57.021223211130376285
   47000    538.94051    9.6841765    112.64566    187.16363   -904.77267     17700.33 
   47100    546.95015    7.4967723    83.298637    126.83806   -1861.8768     17700.33 
   47200    514.82761    0.1839785     95.61512    113.48289   -727.11594     17700.33 
   47300    414.67538    1.7512622    90.032129    88.809275   -1074.6229    18155.931 
   47400    536.43174    6.0067329    88.142411    138.93531    1663.8732    18155.931 
47500        0.64052251959905548429 11.02534573092777137 0.70105820105820104704 54 -103.70748569883971868
   47500    495.95312    6.2088791    98.539703     121.0005    3041.5988    18155.931 
   47600    432.87553    3.7092996     83.64793    74.461991    277.41471    18155.931 
   47700    470.43834    4.1945743     101.8076    123.86949     1715.592    18155.931 
   47800     473.5196    7.1280142    95.596815    149.69444    1798.2348    18155.931 
   47900    514.01972    2.0561385    126.63013      177.858    3345.2826    18155.931 
48000        0.66414621024713993425 11.054737594759886932 0.70105820105820104704 51 -119.10349384235537684
   48000    534.89769     3.210351    81.368325    123.24963    -1862.143    16897.227 
   48100    508.21725    1.8430508    86.233436    146.07772     172.6942    16897.227 
   48200    533.68212     1.183538    91.591155    149.20097    2315.3911    16897.227 
   48300    519.73388    4.0283178    92.566593    138.48842    292.16606    16897.227 
   48400     450.0398    1.3520974    98.079158    109.13379      962.825    16897.227 
48500        0.6787054866671804465 10.974108896629987342 0.70634920634920628224 51 -105.22169441185153005
   48500    422.10938    7.6745702    102.08707    86.028943    442.02004    16897.227 
   48600    487.75737    6.9501775    101.80325    141.29481   -2269.8446    16897.227 
   48700     528.5277    4.9108654    105.77741    130.44539   -296.12661    16897.227 
   48800    518.29542    2.9345005    89.459649    98.695176   -653.10827    16897.227 
   48900    496.45652    2.9119351     99.17327    129.15505   -621.17386    16897.227 
49000        0.67095594508898548369 10.936036660317453695 0.70634920634920628224 52 -91.594883814133396527
   49000      511.561    3.9156251    81.235683    140.18477   -857.02276    16897.227 
   49100     477.5892    3.1708395    111.19679    141.26703   -266.48606    16897.227 
   49200    508.16719    5.7979369    129.33443    194.27962   -1658.9096    16897.227 
   49300    465.21598    2.2976054    115.19068    146.30204    -1199.915    16897.227 
   49400    490.18835    4.7071892    104.83374    140.95702    1681.2238    16897.227 
49500        0.63994750460257943114 11.070684034015634722 0.70105820105820104704 53 -58.244053478167273852
   49500    452.61898    8.0453483    120.54382    146.82997    -100.1324    16897.227 
   49600    488.10743    4.4411052    96.893896    107.69888    1985.3656    16897.227 
   49700    506.00586    3.2782971    88.846525     118.6633    -542.0947    16897.227 
   49800    527.42656    2.5186818    96.119694    147.18387    588.03442    17557.857 
   49900    540.88088    4.2851949    97.403942    146.15558    1155.1109    17557.857 
50000        0.62325149496521792258 11.142329583005029292 0.66931216931216930277 54 -87.704504659739342287
   50000    461.46931    3.2447348    104.45927    121.37945   -658.73326    17557.857 
   50100    533.56403    3.2086018    121.16551    167.52502   -250.32405    17557.857 
   50200    454.37405    1.5422524    118.77968    147.47265    1073.3685    17557.857 
   50300    494.57519    1.8250637    117.56133    143.79961    1475.7424     17419.13 
   50400    554.08071    3.4889968    108.42296    160.74089   -236.73688     17419.13 
50500        0.63096969967107452426 11.03619949745226414 0.62698412698412697708 53 -69.351705899902682972
   50500    457.08076    3.6544475    98.104898    137.74388   -873.72918     17419.13 
   50600    519.91881    3.0137629    111.15868    172.52184   -834.64613     17419.13 
   50700    491.23416    3.2616607    101.87707    143.29124    247.11302     17419.13 
   50800    534.34668   0.89441796    114.87776    176.00971     712.5277     17419.13 
   50900    512.49575    5.9429795    91.541873    155.28789   -519.29809     17419.13 
51000        0.61866704536238004142 11.081305484745218592 0.64814814814814813992 51 -86.016303394890911704
   51000    519.96673    2.4597605    89.134918    149.57185   -449.37997     17419.13 
   51100     549.8705    5.9112416    107.93307    183.36134    1407.0653     17419.13 
   51200    504.11238     2.799839    91.541852     136.9578   -399.10292     17419.13 
   51300    488.27353    2.4873997    116.90451    145.41276   -337.77106     17419.13 
   51400    525.37591    1.5317418     112.9092    193.37413   -19.100971     17419.13 
51500        0.62836643406877346063 11.036270163873929562 0.69312169312169302771 53 -45.542624979285605491
   51500     509.3142    2.8588263    106.23552    185.21905    1150.8966     17419.13 
   51600     503.4334    2.8214964     100.7201    152.20723   -493.83216     17419.13 
   51700    577.45953    11.130428    92.223978    173.99691   -849.54181     17419.13 
   51800    485.89554     3.387204    109.18575    151.21806    160.44555     17419.13 
   51900    514.32246    5.0894482    105.49476    139.86187   -2857.5199     17419.13 
52000        0.6586996940455626115 10.818625939287487725 0.77248677248677244389 66 -115.81946598216413236
   52000    478.86885     9.593552    91.455704    101.14793   -573.34267    16181.489 
   52100    518.51025    1.2695202    116.20927    160.17425    1762.3885    16181.489 
   52200    496.26033    7.2853711    106.84922    136.02739   -1248.7443    16181.489 
   52300    496.66292    1.4016345    100.76861    118.71271    2289.3916    16181.489 
   52400    579.95617     1.370775    108.64806    167.40752    978.92189    16181.489 
52500        0.62046855831171499052 11.123463515472073126 0.66666666666666662966 54 -90.100584463873133245
   52500    468.65054    1.2558781    96.725124    122.23707   -960.87796    17081.123 
   52600    514.60962     4.058336    86.854612     135.5633   -300.56751    17081.123 
   52700    500.19855    3.2683289    114.34314    155.01433      991.265    17081.123 
   52800    557.46159    3.5226886    91.247646    158.33298    -2341.637    17081.123 
   52900    496.03656     1.850752    125.08135    180.27832   -413.64578    17081.123 
53000        0.60831004340948258147 11.245125237431995657 0.65343915343915337512 57 -102.17437174484928164
   53000    532.87942    1.7177279    86.269839     139.2643   -982.02902    17081.123 
   53100    524.55193    3.0376874    98.345915    147.84098   -817.91794    17081.123 
   53200      497.046    9.4755701    122.31898    166.19171    1261.0548    17081.123 
   53300    441.82909    2.9398018    118.06943    126.17224    2785.1535    17081.123 
   53400    554.96062    2.4972797    110.86123    186.87158    768.62226    17081.123 
53500        0.59948872678368325673 11.372553244888974788 0.6375661375661375585 56 -86.993587586505526588
   53500     542.7518     3.383456    94.653182     158.9181    485.37931    18508.792 
   53600    508.20135     3.236603    89.767993    118.82808    737.68912    18508.792 
   53700    463.80261    9.3516682    86.236438    90.806062    1928.7846    18508.792 
   53800    511.12453     4.354862    110.97966    148.97121    37.161523    18508.792 
   53900    475.89051    2.7379215    100.33714     123.2556   -836.25479    18508.792 
54000        0.56320461456968240466 11.661900037915307493 0.60052910052910046801 46 -62.457729410951259297
   54000    516.99569    3.7758758    116.84495    171.78429   -2285.5926    18508.792 
   54100    538.89122    2.8727015    96.972586    156.82454   -1529.7847     20536.15 
   54200    511.98973    1.3933423    94.968825    131.41014    410.84787     20536.15 
   54300    542.57799    4.8754428    101.27693    191.55627     1477.685     20536.15 
   54400    520.71004     4.883053    98.610523    157.81844   -1426.3791     20536.15 
54500        0.52165265744238931145 11.633404349087083318 0.58730158730158721347 55 -72.115203325265241574
   54500    509.65694    2.2491592    102.71333    158.80176      -1086.4     20536.15 
   54600    460.69188    6.2298751    118.35365    166.79028     1414.507    21149.178 
   54700    476.44555    2.3676755     99.83999    145.45732   -1913.0957    21149.178 
   54800    531.31464    3.4164774    94.469791    164.96842   -1788.6402    21149.178 
   54900    528.21734    6.3269424    98.770645    190.24008    109.77249    21149.178 
55000        0.51820207638142057327 11.569568030113472901 0.58994708994708988659 59 -65.207188882481332826
   55000    476.25089    1.8919867    105.53934    150.57406    -1169.046    21149.178 
   55100    492.63555     6.136481    103.36147    186.31442    1444.5126    21149.178 
   55200    508.91025    5.6317533    110.77613     175.8341    1085.9184    21149.178 
   55300    537.26063    3.1784676    92.663376    161.99811   -1130.2601    21149.178 
   55400     549.1813    9.1832077    107.70755    210.36697    -721.3052    21149.178 
55500        0.49904481581339193985 11.629566240743473671 0.57142857142857139685 53 -24.332342812250089992
   55500    477.96174    3.8108249    117.84169    192.22406   -716.63747    18170.393 
   55600    491.47574      5.17051    99.909894    163.38643    277.36919    18170.393 
   55700    482.03882     5.002736    116.18691    190.83398   -3393.1491    18170.393 
   55800    476.86314    7.7104557    107.33051    184.56769   -324.69278    18170.393 
   55900    600.84314    8.8389025    106.79291    243.19193    2280.8551    18170.393 
56000        0.46967568894869382579 12.068334024555110062 0.58201058201058197827 52 -22.189467911169558079
   56000     467.4054    5.5257132    104.77518    189.58403   -175.60155    19325.384 
   56100    523.51056    3.8372939    113.27439    189.97186    1630.3895    19325.384 
   56200    506.80651    9.2578699    96.884369    187.28687   -606.93765    19325.384 
   56300     543.9467    4.1296381    108.77165    217.77881    773.24215    19325.384 
   56400    430.26753    2.9807892    107.23491     168.6817    1234.0704    19325.384 
56500        0.45208152149401353848 12.266283597024877139 0.55291005291005290712 52 -24.904847173067096833
   56500    510.87708    4.6170194    105.17181    206.56494    771.17097    19325.384 
   56600    494.64537    3.4916773    124.25161    221.70664   -94.978475    19325.384 
   56700    496.50618    3.3926572    93.927209     191.8758   -1729.2746    22395.533 
   56800    513.07472    2.9850223    103.68307    190.09342    80.698148    22395.533 
   56900    483.73762   0.19227924    104.81418    195.52495   -1417.1995    22395.533 
57000        0.4477120883346641933 12.177860431197485624 0.55291005291005290712 48 -11.1003755261316428
   57000    546.30853    3.4269482    128.20843     236.4228    342.11464    22395.533 
   57100    511.17033    4.0079831    104.94184    199.18027    891.41491    22395.533 
   57200    457.48335    2.3863812    120.37467    186.56114   -688.63884    22395.533 
   57300    516.08958    3.0072663    114.28368    222.89671    311.56986    22395.533 
   57400     501.8347    1.9789838    115.47506    218.00089    830.48286    22395.533 
57500        0.46481754952637055478 12.12234340573497704 0.550264550264550234 53 -31.233796901849302685
   57500    484.71017      3.62854    110.90614     188.3802    919.68573    23103.487 
   57600    493.58163     7.742988    107.26155    198.58013   -465.46176    23103.487 
   57700    615.97529    4.4990906    101.40136    230.08505   -42.395777    23103.487 
   57800    552.04902    4.7445447    97.358747    219.36299   -1869.7875    23103.487 
   57900    474.48925    3.1058507    123.36825    202.52225   -622.12041    23103.487 
58000        0.44616259095974158955 11.913833889861463078 0.51851851851851848973 45 -41.407678137462582413
   58000     522.1504    2.3488268    115.81823    195.16986   -1884.9696    23103.487 
   58100    483.50899   0.37310783    100.99847    183.66374    908.20329    23103.487 
   58200    514.74218    2.8706371    110.01867    213.34403    334.24414    24846.273 
   58300    511.73561     3.252029    96.779143    187.34296   -132.17387    24846.273 
   58400    493.67392    3.0827648     113.2941    194.24086    1331.6452    24846.273 
58500        0.4381307279239620156 11.671333066939860501 0.5 42 -18.19736233849646112
   58500    535.56787    6.9092575    103.37907     224.4594   -1104.0281    24846.273 
   58600    443.47877     1.086277    110.92252     174.3194    1543.2832    24846.273 
   58700     493.9516    2.8716902    126.43974    218.71569    828.21748    24846.273 
   58800    546.69972    3.4455665    106.40266    209.16012   -58.120476    20059.106 
   58900    513.37555    2.2652559    94.877257    188.54836   -1624.4308    20059.106 
59000        0.45799497192613963792 11.528520817245011543 0.51587301587301581662 43 -11.673659069925022891
   59000    532.17166    1.5861406    112.50421    229.44434    344.23258    20059.106 
   59100    549.83062    4.1860858    105.01487    205.59864   -1141.9681    20059.106 
   59200    526.84256  0.065433611     94.75798    193.97279   -45.584588    20059.106 
   59300    538.95661     2.715156    129.75317    242.47251   -555.55642    20059.106 
   59400    472.22765     3.291258    112.86506    204.56136    1349.9866    20059.106 
59500        0.50284512767158506819 11.261782947843242297 0.54497354497354488778 46 -6.4424147808107932178
   59500    506.57833    1.3345746    118.00941    223.07968    474.02892    17911.292 
   59600    520.66774    4.2851355    103.45066    215.02981    331.48834    17911.292 
   59700    541.64095    2.7964765    98.057631    210.17716   -1126.3606    17911.292 
   59800    454.01296    9.1363721    108.83443    186.44708     258.5633    17911.292 
   59900    544.47072    2.5871378    110.12704    222.09966   -1425.2461    17911.292 
60000        0.54010743651025527878 11.03162191768785938 0.60846560846560837632 48 -18.010174849126627805
   60000    546.97651    2.2599936    116.10345    229.81565   -145.22396    17911.292 
   60100    524.90064    1.0873416    105.20143      193.219    4099.6187    17773.692 
   60200    525.52495    1.5400067    95.327669    195.36905    1695.7977    17773.692 
   60300    552.13637    2.6598556     109.5556    226.81402   -951.21973    17773.692 
   60400     497.6186    1.7649056    114.17196      219.278   -238.84258    17773.692 
60500        0.52737638039088297059 11.055417351891572153 0.62433862433862430397 58 -24.092256570712962116
   60500    464.11247    7.1167829    105.06771    186.18927   -1674.4815    17773.692 
   60600    520.95397    3.7414265    106.38828    231.83148   -978.64202    17773.692 
   60700     530.6872    3.0204799    99.693181    228.90316    725.27568    19339.671 
   60800    590.99994    3.0926429    93.367578    229.18363   -444.53238    19339.671 
   60900    541.38133    5.9222451    91.112374    217.47915    407.25576    19339.671 
61000        0.52688745162492323093 10.964025013433952083 0.60317460317460314112 49 -34.107728442810511638
   61000    489.75186    2.9900852    108.42748    187.79057    1244.8959    19339.671 
   61100    548.41519   0.64729931    96.101991    196.64983    1362.5533    18991.353 
   61200    584.82811    3.1684403    106.78982    234.77479    48.038507    18991.353 
   61300    453.09408    6.8636359    119.63625     187.5065    981.25725    18991.353 
   61400    569.47261    4.4093032    105.23822    213.43204   -441.51052    18991.353 
61500        0.55213542502287127345 10.800043626825713616 0.64021164021164023161 57 -17.31142380027286265
   61500    560.93582    4.9273307    102.02407    236.83913    1576.0769    18991.353 
   61600    553.77048    3.8535306    101.78338    215.51177   -454.99128    15822.623 
   61700     455.9617    4.7654646    108.50873    193.01946   -658.29412    15822.623 
   61800    543.56669    2.9515906    124.30244    243.93226     2242.293    15822.623 
   61900    512.25107    3.0599418    112.47579    234.71179    1082.4299    15822.623 
62000        0.55389140266859071549 10.883886570062003329 0.5925925925925925597 56 -37.071566834962467851
   62000    481.97503    2.8578205    95.047879    181.30319   -860.51062    15822.623 
   62100    526.47241    4.5813615    95.679779    216.45967   -253.38984    15822.623 
   62200    584.14773    3.7042852    104.52596    238.69955    124.63081    15822.623 
   62300    462.48906    4.2546658    90.131365    181.59363   -1734.8158    15822.623 
   62400    546.81367    1.9041113    93.915525    205.62897   -2009.7465    15822.623 
62500        0.54513414177767982594 11.022874924422625398 0.53968253968253965258 40 -20.821900426778199744
   62500    570.63607    3.9050917    111.17421    237.72368    300.50005    17854.988 
   62600    515.40202    2.5922016    108.50685     206.2679    1581.7981    17854.988 
   62700    462.16454    4.1826455    103.22238    179.48885    38.741328    17854.988 
   62800    559.66499    3.9335916    105.09263    233.81422     1053.035    17854.988 
   62900    514.51431    4.0215323    101.51666    218.86793     1741.365    17854.988 
63000        0.54523935578003257518 10.86884482324650314 0.57142857142857139685 50 -40.909731435495970686
   63000     469.0235    3.8079878    92.047736     171.5969   -77.861215    17854.988 
   63100    582.97256    4.2815739    96.119306    202.78414    215.99003    17854.988 
   63200     492.4025    4.3924654    116.64285    218.48721    1682.7825    17854.988 
   63300    553.77688    1.7583716    119.25079    244.67329    403.04974    17854.988 
   63400    537.22816    2.4432035    91.306214    196.88193   -250.07394     15974.88 
63500        0.49904290907982201686 10.956157202781589888 0.52380952380952372494 37 -40.602477041314600115
   63500    573.82401    3.1549208     93.17951     219.3875    2625.4221     15974.88 
   63600    547.08254    11.155293    107.69767    228.58751   -67.973582     15974.88 
   63700    525.14795       4.9497    100.27191     210.5839    559.98686     15974.88 
   63800    502.00786    5.3598734    129.90528    244.55131   -921.78343     15974.88 
   63900    526.98705    5.6854817    110.85791    249.28426   -609.52556     15974.88 
64000        0.48616024407350255654 10.768584767487690002 0.550264550264550234 47 -3.7057134571379890531
   64000    516.90714    4.8100951    101.10593    230.49619    215.44686     15974.88 
   64100    527.10034    2.4900493    101.53945     227.7038    709.03028     15974.88 
   64200    597.55581    5.4689391    113.40898    267.98851    335.58914    14364.151 
   64300    520.68528    10.246059    93.242598    207.22223   -2037.7397    14364.151 
   64400    579.38105    4.1806449    102.15673    230.40253     1045.284    14364.151 
64500        0.45726354984685868565 10.853709810655109536 0.52910052910052907116 48 12.427541074487862716
   64500    530.45634    4.3738288    126.07288    252.76836    2528.3122    14364.151 
   64600    545.30617    2.3245755     106.7161    229.34745     1905.011    14364.151 
   64700    518.40865    1.6430797    110.13335    224.77815    728.35646    14364.151 
   64800    609.75599    5.7779292    119.79348    273.19519    234.59567    17838.776 
   64900    501.07895    2.5753534    110.54593    229.77547   -921.41062    17838.776 
65000        0.45926950115635295502 11.234414307280715661 0.5 40 0.46400784576844955609
   65000    509.39082    4.8530122    101.72611    231.26039   -390.93186    17838.776 
   65100    560.50199    3.8292315    118.67135    269.93974     1920.442    17838.776 
   65200    520.23461   0.66490296    96.321826    213.80883   -880.27367    17838.776 
   65300    541.83331    5.7776689    123.07257    256.73596    -434.9772    17838.776 
   65400    529.82037    2.5310208    112.38693    231.70794   -3263.3613    17838.776 
65500        0.44856242144159524932 11.343320134481539085 0.48412698412698407235 48 -30.941885472235767907
   65500     540.3644   0.38374697    97.876645    213.88811   -1777.8576    17838.776 
   65600    577.00775    2.1542995     108.0947    245.75184    283.04094    17838.776 
   65700    484.12562    1.1187167    106.26521    192.52777    785.50061    18975.995 
   65800    519.57383    2.7160291    122.79342    225.75773     1391.151    18975.995 
   65900    551.13444   0.95363524    123.93468    230.55672     1192.003    18975.995 
66000        0.44275819978194852489 11.428405800159815442 0.51587301587301581662 47 -33.979632824414949255
   66000    472.47148    3.8120077    97.650271    180.08923    172.38242    18975.995 
   66100     544.2235     4.403827    112.74566    229.39339   -2435.8387    18975.995 
   66200    551.86266    2.0652773    119.95905    257.47385      181.791    18975.995 
   66300    527.55324    2.2663102    103.61235    230.31571   -295.10304    18317.072 
   66400    580.55853    1.2815603    95.576671    214.25832    2075.5696    18317.072 
66500        0.45315673217622626234 11.394336947344477551 0.49206349206349203618 45 5.7756932160391301068
   66500    576.48828    2.5384499    126.84154    266.97281    -2805.948    18317.072 
   66600    524.54648    7.6688342    97.883923    228.14385    324.62251    18317.072 
   66700    531.11171    3.0451481    117.89338    248.59303    511.50677    18317.072 
   66800    614.95727    6.3003271    98.730933      269.521   -718.24605    18317.072 
   66900    525.99976    5.6210965    111.25356     212.7889   -71.426484    18317.072 
67000        0.47107432131928639318 11.240315311738104498 0.51851851851851848973 47 -12.190170678805571924
   67000    507.87486    3.7138419    107.32159    217.91936    131.91264    18317.072 
   67100    519.56964    1.2524812    130.54371    252.16411    162.52427    17912.217 
   67200    515.91471     1.378644    114.32476     230.0021    210.37006    17912.217 
   67300    504.87057    1.7420345    101.29157    193.64816    -407.0607    17912.217 
   67400    610.21827     3.016599    102.91961     240.2662    1824.9921    17912.217 
67500        0.48293815896952790867 10.965018522391869027 0.53174603174603174427 46 -26.725493335217961999
   67500    525.04272    3.5494264    117.19165    211.16251   -409.51608    17912.217 
   67600    535.15012    5.1137838    108.57208    223.75116   -1227.9915    17912.217 
   67700    586.76323    5.3466341    107.95847    242.28799   -111.44892    17485.184 
   67800    477.11081    1.9910965    118.20925    209.27267    99.626115    17485.184 
   67900     550.9056    1.3977308    113.34591     240.5874   -678.57524    18851.569 
68000        0.44407692315435909336 11.073656849571539951 0.48941798941798941858 42 12.210654910543610185
   68000    498.97695    5.9600267    116.33698    238.28869   -946.84269    18851.569 
   68100    531.95687    1.5059607    108.71053    244.16348   -1128.9771    18851.569 
   68200    538.08037    6.5345192    113.61424    239.51998    1860.8907    18851.569 
   68300    490.72649    4.3078083     106.6402     201.5824     1236.897    18851.569 
   68400    552.57035    5.1265893    123.60366    236.47562    414.71289    18851.569 
68500        0.46931671978622940822 10.766777086672840724 0.56878306878306872374 50 14.557359413165073647
   68500    508.30406    1.5762097     126.1719    244.86135    124.93792    16991.475 
   68600    495.56238    3.9844105    97.981883      208.059    588.62296    16991.475 
   68700    535.06724    3.9725835    111.45474    233.80081   -172.15078    16991.475 
   68800    557.04114    3.5407841    124.23438    256.78896   -567.65025    16991.475 
   68900    470.37218    1.4042591    113.04569    199.73405   -159.81696    16991.475 
69000        0.46294931053015980771 10.847097589210456192 0.53703703703703697947 46 -33.972374736871600476
   69000    594.55151    1.0426321     102.6738    235.40888    -1523.527    16991.475 
   69100    517.44204    1.1965662    122.51593    236.49094   -228.48783    16991.475 
   69200    535.68816    1.5954237    108.59936     238.7162    1674.4265    16991.475 
   69300    548.23564    1.0617774    127.56348     242.6277   -1731.7135    16991.475 
   69400    505.17489    8.2462453    123.09173    249.68873   -60.683865    16348.925 
69500        0.48867430186585131269 10.816811059968713948 0.52910052910052907116 42 -28.919087057903595905
   69500    505.66735    4.0088859     96.88858    200.19026    2595.2596    16348.925 
   69600    526.98677    3.4319155    118.59273    230.68706    2005.3313    16348.925 
   69700    584.99985    6.6022735    108.05814    249.70611    59.583811    16348.925 
   69800     562.3928    5.3721424    120.31417    249.54583   -1260.2593    16348.925 
   69900    504.32143    0.3966762     115.6485    203.40413   -130.16608    15024.717 
70000        0.49574674288417813761 10.716856243826814676 0.54497354497354488778 44 -3.0580090705967677422
   70000    561.89476    2.7281778    115.29592    251.52703    2903.2089    15024.717 
   70100    562.83288    3.8791226    105.33873    252.55795   -1003.8325    15024.717 
   70200     493.2689     3.796341    103.20005    200.53805   -3521.5904    15024.717 
   70300    531.04775    6.2215862    105.49542    240.14955   -587.56133    15024.717 
   70400    579.02993     1.060233    115.70237    254.54061    1611.0125    15024.717 
70500        0.47142516988303662107 10.824976583351011428 0.52645502645502639805 33 -11.267494923828451192
   70500     525.5201    3.3035096    100.15395    226.83679   -1230.2198    15024.717 
   70600     595.7158    4.8179037     111.6454    286.52281    1049.8889     14905.98 
   70700    535.98911    2.0387632     110.9257    239.83873    66.872526     14905.98 
   70800    519.97601    1.8598887    104.46458    219.20881    1969.6974     14905.98 
   70900    510.15114    3.4658501    95.546986     214.2454   -3828.3287     14905.98 
71000        0.46186278849010747871 10.821192653387855742 0.52645502645502639805 46 -29.371030528397014336
   71000    605.05836    2.1891438    95.437846     244.7707   -1979.4066     14905.98 
   71100    519.52175    3.6462043    96.381459    214.86289   -2813.4092     14905.98 
   71200     575.1896    2.1980627    115.54032    245.63275    479.59101     14905.98 
   71300     499.8981    1.2603866    115.12385    236.63501    241.35296      14103.4 
   71400    565.98849    5.8001802    110.77539    269.31137    2921.2728      14103.4 
71500        0.48777043263627445357 10.638168140161909037 0.53968253968253965258 44 -13.457931666413017524
   71500    506.71092    3.4709658    104.54661    216.12424    419.26673      14103.4 
   71600     568.0155    1.8083815    113.60712    246.89037   -951.48895      14103.4 
   71700    582.74866    6.7024284    105.44543    264.28283    2608.9161      14103.4 
   71800    587.88104    4.3677003    93.384698    238.31199   -1635.9822      14103.4 
   71900    546.06552    1.6524358    88.584835    211.22193   -2297.7348    12290.144 
72000        0.50148076320183154753 10.441718729804458476 0.57407407407407406996 51 -24.926910043874542566
   72000    525.20154    3.9541319    105.97753    213.03305    2077.2092    12290.144 
   72100    572.49784    4.5570143     102.1562    247.53598    716.82421    12290.144 
   72200    440.74457    6.8164366    108.44948    192.88814   -422.50453    12290.144 
   72300    568.76288    4.0652297    96.925206    227.39708   -1892.4835    12980.135 
   72400    540.61805    1.6330121    107.05896    249.64053   -97.740207    12980.135 
72500        0.51235041803915071235 10.407758996121378559 0.60052910052910046801 58 -8.578966463101806994
   72500    544.53474    4.2064373    104.76302    238.14054    2150.7834    12980.135 
   72600    504.25943    3.4623653    119.08222     208.4378    952.48221    12980.135 
   72700    632.23252    3.0454976    98.217134    270.24254    3165.0413    12980.135 
   72800    536.99048    2.7438969    114.10175    235.93961    391.41379    12980.135 
   72900    555.23183    2.8758372    95.347017    216.05866    1356.0965    12661.786 
73000        0.48625190866810563683 10.571528990103054468 0.54761904761904756089 61 -26.820709376597477558
   73000    619.80008    1.7743256    104.65429    254.00025    1834.5486    12661.786 
   73100     500.6621    5.3124354    106.18502    238.09253   -1982.9983    12661.786 
   73200    522.24568     6.149806     94.05715    211.44228    130.03174    12661.786 
   73300     561.9866    3.7064886    104.81966    250.27633    414.41217    12661.786 
   73400    519.78935    9.2318955    110.27034    246.28263   -250.15192    12661.786 
73500        0.46919188642527337452 10.781918588302795925 0.51587301587301581662 42 -25.012314903011301226
   73500    501.78974    7.4492959    95.507569    202.34015   -450.46579    12661.786 
   73600    595.57333    5.2689593     107.0499    257.00458    1700.4459    12661.786 
   73700     502.1601    1.5377668    95.362167    213.90466   -1861.5187    13874.276 
   73800     601.4474    2.3628489    110.92214    262.32051     -2223.97    13874.276 
   73900     641.8903    3.5364694    114.20649    304.80159     1727.247    13874.276 
74000        0.44548548950193095353 11.084412081513233872 0.50264550264550256209 47 0.65070355149690328744
   74000    520.69534    1.0909348    116.84219    236.56898    122.43584    13874.276 
   74100    596.56946    2.0215233    99.384729    259.66232   -1110.7584    13874.276 
   74200     507.8133    6.8048505    123.29513    263.67449    1371.5802    13874.276 
   74300    547.53363    4.1117066    95.060395    228.12365    1112.8483    15697.808 
   74400    575.62644   0.85141563    106.89049    272.55902     1933.444    15697.808 
74500        0.42705567381901049506 11.270831865938822247 0.47089947089947087333 39 4.6865835391855910075
   74500    553.99217    3.3380707    104.15798    255.69109    1712.5618    15697.808 
   74600    466.59221    4.7306826    105.31352    230.63193    830.91814    15697.808 
   74700    598.85893    5.7623473    114.34636    294.46808    766.16553    15697.808 
   74800    546.90715    7.1803896    109.70451    278.50347      1319.33    15697.808 
   74900    497.16851    3.2784174    97.016524     232.6656   -534.84501    15697.808 
75000        0.38990597727788445237 11.335009658877108762 0.41534391534391534861 40 35.149550690270672249
   75000    556.70642     4.529104    111.69725    287.38384    395.96439    14813.814 
   75100      517.545    2.5209756     116.3214    255.57511    2655.0157    14813.814 
   75200    567.47849    1.2309559    96.063792    252.91756   -605.37383    14813.814 
   75300    596.81671    6.3447184    140.81241    299.98904     455.8882    14813.814 
   75400     543.9101    7.3317759    98.574033    250.28463     -1513.37    14813.814 
75500        0.4091471521239437581 11.337236399838445777 0.45767195767195767431 39 21.417036266819465595
   75500    582.47481    6.7562267     112.4288    285.32655    677.26093     17429.79 
   75600    610.15004   0.64935014    108.48644    292.48254     3528.645     17429.79 
   75700    530.47927    3.2496815    100.96243    252.40513   -131.74769     17429.79 
   75800    611.16088    1.1722278    112.90392    297.09551    262.52442     17429.79 
   75900    517.23719    2.2756849    104.06354    238.47356   -198.99281     17429.79 
76000        0.40230168036888674932 11.319973096750263863 0.42857142857142854764 37 11.534010044369964021
   76000    555.61882    2.7731552    109.86673    263.27552    1578.3584     17429.79 
   76100    612.26249    3.8876029    118.79501    285.45704    899.09592    14205.429 
   76200    530.48792    2.3829089    113.89476    251.92251    1218.1795    14205.429 
   76300     562.1373    2.5725222    105.01155    280.36418   -3252.0027    14205.429 
   76400    576.52757   0.52031993     115.0434    289.05057    694.08296    14205.429 
76500        0.37418542833966367267 11.373787390025539068 0.37037037037037034981 34 23.908337107750611494
   76500    499.41258    1.8945315    107.37863    250.18375   -921.37105    14205.429 
   76600    636.95329    5.4077238    108.58302    303.04598   -955.16059     15033.04 
   76700     539.9817    2.6788016    115.18976    274.54474    1923.9515     15033.04 
   76800     559.2808    2.7976991    115.37302    276.31828   -1397.8828     15033.04 
   76900    591.43519    1.2663383    108.08806    310.30465   -1258.1781     15033.04 
77000        0.37169420345173714848 11.135965952191664741 0.38624338624338622195 36 11.857617995451946058
   77000    525.37867    11.589488    111.36196    249.89783   -927.01295     15033.04 
   77100    548.67372    9.1653596    117.59279    281.46217    2086.8252     15033.04 
   77200    576.47233    1.5321644    135.71195    316.02434    427.28118    13785.504 
   77300    505.57384    2.6639918    117.39301    265.03394    1416.0039    13785.504 
   77400     588.7459    7.0060235    116.21402    296.01018    1154.9884    13785.504 
77500        0.35477839838311742149 11.105633715495068614 0.37566137566137564052 36 54.265207235370809258
   77500    527.37811    4.7229172    123.37895    293.21133   -465.59178    13785.504 
   77600    588.07908    1.9955313    121.69768    296.64101    64.022742    13785.504 
   77700    577.06336    4.7038091    112.73482    313.14786    2708.5153    13785.504 
   77800    541.55344    1.5310666    107.43193    275.87486   -2810.7013    13785.504 
   77900     611.5969    4.2967436    107.63556    316.12345   -682.35842    14979.621 
78000        0.34123315307079160608 11.049139729533472121 0.3677248677248676767 34 50.70542090561087889
   78000    550.51721   0.56490122    115.39501    300.13548   -1245.9035    14979.621 
   78100    540.97291    4.2933214    113.18452     294.9399    371.73813    14979.621 
   78200     560.7726    11.897777    111.79626    298.91073    593.91024    14979.621 
   78300    513.60515    2.1553865    99.352483    246.46247    1158.5483    14979.621 
   78400    541.68249    8.4153576    113.47195     293.2959   -2050.7524    12991.682 
78500        0.38002501291513884896 10.570193741540760968 0.47089947089947087333 56 35.466304853015003573
   78500    563.20714    1.8364194    113.22244    290.64596    132.50535    12991.682 
   78600    533.84944    4.7082322    103.90049    259.66187    226.34953    12991.682 
   78700    587.39678    2.2203472    129.54402     316.8302    1655.2302    12991.682 
   78800    569.95045    1.1846226    109.42621    287.04313   -10.512394    12991.682 
   78900    517.24393    1.2338263    108.64982    276.44413   -2750.2405    12991.682 
79000        0.34890236562755183591 10.701576008224817471 0.40211640211640209408 45 49.921312706455438502
   79000    569.34407   0.77693169    122.70602     307.8815    1939.1468    12614.713 
   79100    545.44797     9.878438    123.74176    304.13783   -30.269414    12614.713 
   79200    573.39582    7.6925451    102.17496    305.83118    1082.0939    12614.713 
   79300    621.19354    1.6941336     129.9406    332.04393   -817.77479    12614.713 
   79400    545.16342    2.9141479     117.3739    269.77326    3280.8043    12614.713 
79500        0.36553679098033908801 10.772911993739668901 0.43650793650793651146 39 40.651429907038306055
   79500    562.59947    2.3811391     111.9698    295.55576   -1087.2341    12614.713 
   79600    599.52116    9.3249199    132.36105    325.57645    705.23701    12614.713 
   79700    543.12288   0.93890603    120.42171    306.81378   -1391.7667    13811.544 
   79800    590.22692    5.2635194    112.15761    313.85869    917.78231    13811.544 
   79900    548.38311    2.2693168    106.58104     256.6066    1791.3949    13811.544 
80000        0.36310249226794444333 10.810680826274914779 0.43650793650793651146 38 36.626124585026204272
   80000    554.66484    2.5881791    129.09631     287.9354    -744.4326    13811.544 
   80100     586.7481    6.5599103    124.02343    315.93054    137.86002    13811.544 
   80200    590.51257    3.8285398    103.04139    294.85588   -1406.1596    16271.588 
   80300    499.14301    4.9416872    128.04688    286.47411    246.79084    16271.588 
   80400    613.84465   0.74305449    130.01605     335.1791    1731.8905    16271.588 
80500        0.35869734922113644116 10.85878050205690748 0.42063492063492058382 43 58.522038096689570352
   80500    524.35885    2.6455056    135.60119    296.10018    1662.1424    16271.588 
   80600    558.80459    8.3225156     123.3459    300.33236   -94.454773    16271.588 
   80700    583.43024    6.3408533    141.09956    342.41866    492.75201    14016.687 
   80800    512.35977    3.5579516    123.07185    283.25798   -1524.2572    14016.687 
   80900     611.8154   0.64320435    102.77414    293.96735    1818.4465    14016.687 
81000        0.35040142490253656238 10.734182229895397498 0.46560846560846558262 46 55.706355515616479579
   81000    565.33003    1.4831814    116.10371    311.84785   -1642.6545    15044.154 
   81100    541.72872    2.4478942    99.604353    267.60639    2208.8247    15044.154 
   81200    640.44975    6.7322998    109.91858    327.89192   -2582.3888    15044.154 
   81300    553.10437    4.9182048    128.22089    304.57797    873.60915    15044.154 
   81400    538.31858    13.316635    108.96778    303.57577    -110.2338    15044.154 
81500        0.34611390030173766474 10.699270645830109672 0.48412698412698407235 42 70.773259184542823164
   81500     573.4529    6.5179593    129.95907    330.59509   -833.84546    14292.914 
   81600    507.85159    1.1984185    123.56446    284.17629      720.825    14292.914 
   81700    556.79596    2.4409134    121.31402    311.43569   -2014.7249    14292.914 
   81800    525.99376    1.9434614    113.65187    279.80059    838.30793    14292.914 
   81900    574.94693    4.0734223     108.3779    294.06844   -668.25658    14292.914 
82000        0.30461949327826676193 10.898932306358284805 0.39153439153439151266 45 54.000291924689094003
   82000    584.47284    4.2047701    114.57805    318.81508    1090.0999    14292.914 
   82100    474.52062    4.6102249    112.58559    265.46857    1409.1023    14292.914 
   82200    575.51214    7.0469033    131.01377    316.03469    1440.7886    14292.914 
   82300     564.9849   0.89940645    95.330029    289.52484    1779.0302     16907.62 
   82400    541.90251     3.906567    121.73347    291.81423    2610.2384     16907.62 
82500        0.29696542512595902608 11.073882325311343422 0.38359788359788360435 36 71.182813353304624115
   82500    584.42168    2.3826372    128.74225    335.97442   -1247.9858     16907.62 
   82600    533.83311    1.1670219    128.79758    302.10451    -2177.735     16907.62 
   82700    586.79623    7.6792815    94.819383    281.57174    1479.3899     16907.62 
   82800    518.74767    3.2235251    99.006582    252.85565   -823.07441    16139.982 
   82900    546.74431    8.0743732    118.76835    316.71789   -843.25475    16139.982 
83000        0.30017080485599317852 10.936080554608917481 0.34656084656084651385 42 33.207416853156004777
   83000    544.82334    4.8717955    96.642149    280.05768   -1207.2686    16139.982 
   83100    568.64183    4.6575685    124.51312    310.45085    2698.7711    16139.982 
   83200    601.90418    6.3230993    111.13349    321.87335    1700.0049    16139.982 
   83300    577.66584    1.2790039    96.569797    289.00578   -2487.3831    16139.982 
   83400    694.01959    4.0141218    116.44793    359.95581    863.14594    20096.557 
83500        0.30505325065750932279 10.96212224630118115 0.29629629629629627985 30 34.357868643755068661
   83500    568.95733    3.3296102    98.288822    292.14284   -1020.5495    20096.557 
   83600    599.00064     7.544903    99.198995    319.00866     -1963.11    20096.557 
   83700    520.85458    4.3721513    133.00011    328.68046   -5.7766376    20096.557 
   83800    542.72524    5.7457684    93.986857    285.93034    441.59709    20096.557 
   83900     587.3145    3.7176151    116.54973    337.31972    865.46228    20096.557 
84000        0.30955070830743375287 10.931408145722443237 0.30687830687830686127 35 93.108645020127994485
   84000    574.26631    4.1771134    116.05474    353.29902    1159.9213    20602.047 
   84100    556.57135     8.871028    138.05081    344.71304    2073.4383    20602.047 
   84200    533.31274    10.288442    105.88027    303.32939     392.6047    20602.047 
   84300     607.9413    6.9952461    98.411465    316.26953    695.00949    20602.047 
   84400    551.76639    6.3348985    100.42338    294.67573   -1182.0716    20602.047 
84500        0.29700060887986301505 10.690250818519626108 0.29894179894179895296 32 58.235675250429977723
   84500    624.34881    3.7592641    123.03909    341.11759   -855.94193    19446.887 
   84600    509.16391    5.1911712    114.39803    280.01141   -1178.0806    19446.887 
   84700    538.63483    8.4391893    119.54677    325.87169   -1717.4106    19446.887 
   84800    611.84063    3.6956413    111.11394    339.22791   -2211.1011    19446.887 
   84900     505.6125    1.0162149    107.99933    285.14575   -13.336612    19446.887 
85000        0.29005598314991354325 10.567784357506910808 0.33862433862433860554 40 75.648282039710409208
   85000    575.57881    5.3496528    116.03531    336.43333   -284.06628    19446.887 
   85100    566.04533    2.5460132    106.05617    325.37763   -1404.7904    19446.887 
   85200    536.81139    5.7912405    111.14525     291.6197   -72.992512    18223.676 
   85300    647.45957    5.0396133    117.47457    361.61771   -1266.2086    18223.676 
   85400    518.03672    12.396237    112.26193    308.10589   -233.94883    18223.676 
85500        0.28782515982885326089 10.543476659011938423 0.35185185185185186008 38 98.491010697761254278
   85500    552.42245    2.1590805    143.43176     348.7843   -589.63095    18223.676 
   85600    659.70499    1.9034627    120.28571    368.09647    -69.08205    19781.023 
   85700     543.4442    3.5810949    115.82873    306.66878   -331.48853    19781.023 
   85800    589.86856    3.2251837    111.50638    338.08537   -222.00761    19781.023 
   85900     602.5342    2.3516281    132.34721    381.37918    40.675469    19781.023 
86000        0.28367111982542159154 10.866525238664314301 0.31481481481481476958 32 57.737538790089033114
   86000    558.39047     1.764747    106.73252    310.73484   -244.46989    18364.994 
   86100    575.38482    6.1867294    119.14017    348.73978    224.37314    18364.994 
   86200     616.0931    2.5044714    115.97482    348.03665    1295.0006    18364.994 
   86300    544.54554    2.4361317    133.98655    320.21899    158.38075    18364.994 
   86400    523.98588    2.0902128    108.16103    304.17206   -509.76102    18364.994 
86500        0.27223398960130806845 10.656034327363064662 0.31481481481481476958 35 67.728348471979316514
   86500    648.08266    2.3101308    115.20102    361.36367   -488.25492    16094.285 
   86600    566.23519    7.6447587    117.76801    326.36292    1833.3971    16094.285 
   86700    577.95391    1.9734569    116.93465    320.80788    438.29641    16094.285 
   86800    597.71095    2.0156541    125.96026    375.76984    205.02237    16094.285 
   86900    581.21802    2.4026547    88.219819    312.35315    880.47729    16094.285 
87000        0.25019676029044074506 10.77586454647928349 0.27777777777777779011 28 51.445044717195209216
   87000    589.13473    2.5659321    92.117192    318.37205     488.5331    16094.285 
   87100    621.99697    3.7235591    120.07058    371.55982    1144.0546    14209.282 
   87200    545.65372    2.4520666    95.786377    315.20198   -815.96514    14209.282 
   87300    511.69075    1.6920276    105.97164    295.27802   -1885.7445    14209.282 
   87400    625.59035    2.7319036    110.84795    356.03318   -841.15897    14209.282 
87500        0.26193142946185943298 10.84457623370242807 0.275132275132275117 31 81.295540856473252234
   87500    530.95769    4.6464189    114.56012    321.86351     1663.758    13713.761 
   87600     591.4064   0.48675948     109.2177    331.75029   -2788.6121    13713.761 
   87700    668.56566    3.0530938    120.37385    372.38195   -1424.5027    13713.761 
   87800    580.55005    5.3896486    104.97428    316.67457   -1110.4551    13713.761 
   87900     645.3944    2.4195894    95.510654    330.75004   -984.29049    13713.761 
88000        0.2573775232482794495 10.665280525898968023 0.28835978835978837154 30 87.247357781609522931
   88000    684.99311    4.7340192    116.63541    397.60618    -1344.372    14480.601 
   88100    583.11113    6.8667742    100.77559    325.01028   -1077.0109    14480.601 
   88200    529.43941    4.0966057    145.19556    340.38542    65.766411    14480.601 
   88300    528.73542     4.565161    112.89357    311.24066    -346.6188    14480.601 
   88400    510.71399    5.1774025    121.74857    314.25209   -2064.4821    14480.601 
88500        0.2403970229779793244 10.852804824419203911 0.26455026455026453558 29 70.773753777002553988
   88500    621.65978    3.2715928    115.25052    352.43731    1326.9035    14480.601 
   88600     596.3272    1.2951804    103.18693    322.03709    156.29896     16133.37 
   88700     544.9345    8.3115534     112.3917    316.48058    450.45367     16133.37 
   88800     586.7273    2.6542487    111.35197    343.03255   -930.65789     16133.37 
   88900    582.12424    3.1675383    121.65155    326.78056    1454.1542     16133.37 
89000        0.25003041135364989511 10.696424973869891772 0.275132275132275117 35 60.427747727517299836
   89000    554.00348    7.2608458    136.10658    311.43738   -1379.3504     16133.37 
   89100    613.85965     8.464215    130.48458    352.73336    1002.3627    16097.804 
   89200    563.55697    3.7835471    119.69875    321.57005    376.29826    16097.804 
   89300    611.92198    3.6334013    129.51893    329.09103    2491.4568    16097.804 
   89400    651.40757    8.1047376    127.63184    363.28817    2716.0219    16097.804 
89500        0.24186840872856435469 10.737433986967165112 0.26719576719576720869 41 54.676278676312293214
   89500    561.93803    4.0445305    123.97369    309.28092   -653.63191    16097.804 
   89600    548.17453    2.6113727    120.67426    302.53193    3617.2494    14198.559 
   89700    604.38547    4.4392974    121.43982    332.89317   -1612.1984    14198.559 
   89800    554.03938    2.6121271    129.66934    334.08973    1185.8332    14198.559 
   89900     551.0586    4.5828928    97.576661    298.45211   -298.25745    14198.559 
90000        0.23617235840122227652 10.887655226429746591 0.26190476190476186247 36 86.547414544120499613
   90000    615.93966    1.1985613    121.29967    365.61928    182.12364    14198.559 
   90100    569.99141    1.5303352    105.42576    319.32022   -621.37048    14136.263 
   90200     619.9211    4.9800076    125.43068    366.78403   -751.78651    14136.263 
   90300    664.94516    5.2782886    93.856926    356.60273   -62.499806    14136.263 
   90400    576.85288   0.67539975    118.66778    327.21804   -883.24176    14136.263 
90500        0.23946646097422968902 11.062914777561257296 0.25925925925925924487 36 73.585004283272724024
   90500    518.75392    8.9059009    112.24213    308.62365    177.15786    14136.263 
   90600    576.22904    2.5988604    131.56691    358.25982    1969.6077    15188.185 
   90700    572.11316    4.5492223    112.54679    318.00945    1208.1675    15188.185 
   90800    552.85337      2.76627    116.12569    315.48509   -178.98539    15188.185 
   90900    623.44242   0.69864741    123.01279    368.48426    540.39701    15188.185 
91000        0.23525501300490136991 11.340058697817667621 0.28835978835978837154 38 65.270144231442174032
   91000    583.88667   0.45237324    117.93809    329.81934   -921.88519    15188.185 
   91100    540.49632    3.0984608     100.1719    274.78872   -1283.3148    15188.185 
   91200    594.81021    3.3910015     122.1954    340.36986   -1403.1825    17399.896 
   91300    538.02264    2.9613596    138.42096    346.96644   -285.98117    17399.896 
   91400    587.22682    2.9099856    110.43489    310.74423   -238.98211    17399.896 
91500        0.21876132247269253206 11.777908607600474866 0.24074074074074072738 30 62.301696393495234361
   91500    576.47198    3.3761766    119.36828    323.49142   -2134.3135    17399.896 
   91600    595.72964    1.3527772    123.06389    347.53548    -1763.634    17399.896 
   91700    535.79111    2.6592855    126.56696    313.05183    363.74961    21390.693 
   91800    561.14649    3.5295791    138.92329    363.22692   -883.63726    21390.693 
   91900     619.8008    5.7367246    123.97717     359.4784    245.82071    21390.693 
92000        0.18785197266606834532 12.081631116652559399 0.21693121693121691917 29 67.083433669595791571
   92000    584.27216    5.3607159      113.316    331.80729    1018.9367    21390.693 
   92100    570.44128    2.0363597    128.55275    348.74134   -872.51702    21390.693 
   92200    700.05252    3.9718703    127.39329     406.9461    292.41483    21390.693 
   92300     608.7194    4.9931956    125.41037    364.89087   -677.26686    21320.653 
   92400    556.76889    6.2612526    124.80592    347.54014    -1688.147    21320.653 
92500        0.18731629563928828275 12.045190875133370056 0.21164021164021162846 36 91.488071850288548603
   92500      620.937    2.9808929    119.95498    372.82415    1070.0874    21320.653 
   92600    569.18736    6.0234975    124.23428    345.79484    927.39232    21320.653 
   92700    547.19267    2.1440453     115.9784    315.28352   -254.45469    21320.653 
   92800    570.68396    3.8277277    119.14105    341.87031   -1399.0437    20700.999 
   92900    553.89218    1.8444266    123.99717    329.46112   -982.86024    20700.999 
93000        0.18972803575894348072 12.087042242867738651 0.22222222222222220989 33 33.801397946580053144
   93000    539.64612    5.3214524      97.9057    278.30595    -147.5474    20700.999 
   93100    638.95907     2.481656    98.491034    340.10638   -6.1635301    20700.999 
   93200    590.80096    4.1972942    116.05256    343.78843   -2103.1907    20951.652 
   93300    562.66232    4.8286697    106.00914    304.11794    598.77176    20951.652 
   93400    548.39004    3.9752622    111.12824    313.44699    1253.7393    20951.652 
93500        0.17956616355466475943 12.047593804528702321 0.19576719576719575633 28 77.064962563696411735
   93500    608.83821    6.2068992    107.69371    352.91928    543.73869    20951.652 
   93600    537.88584    6.3685553    116.41946    316.71638   -71.930888    20951.652 
   93700     632.2179    4.5979185    141.72462    379.47245    889.33825    20951.652 
   93800    632.89694    2.8086801    101.07572    336.50983    239.99477    22420.884 
   93900    575.14352      5.28043    119.30641    350.97211    1233.1165    22420.884 
94000        0.1811548232728683594 12.085835975989359881 0.18783068783068782026 26 111.91097029554393316
   94000    657.08229    15.210379    133.12903    409.62387    708.82135    22420.884 
   94100    573.68164    2.3133246    111.04277    346.42603    474.44634    22420.884 
   94200     591.2141    7.7433087    105.26174     329.0406    810.89305    25986.695 
   94300    625.90205    3.5968836    112.44703    353.76028    388.03077    25986.695 
   94400    599.65687    2.4398768    121.48206    352.17281   -383.79895    25986.695 
94500        0.1781309671505636183 12.431470600783370628 0.18253968253968252955 25 53.288391995507090826
   94500    569.34772    3.7996879    92.312443    311.25024    595.72519    25986.695 
   94600    590.53857    2.8414096    103.48053    355.78444   -642.65159    25986.695 
   94700    562.89838    4.8961855    112.77802     329.6726    1056.9346    25986.695 
   94800    585.42507    5.6287275    95.912114     324.3807   -842.37721    28219.836 
   94900    636.88215    8.0486841    100.52115    336.21891   -361.71072    28219.836 
95000        0.19274356365600917029 12.346195714072761618 0.21693121693121691917 34 47.370605565517280411
   95000    557.51485    2.7672934    105.83068    299.97118   -37.837895    28219.836 
   95100    540.73541    4.6632393    108.01751    309.31296   -733.37246    28219.836 
   95200    627.52241     4.720154    95.573498    342.62557   -528.04041    27143.027 
   95300    582.22714    5.5800148     89.11355    299.61154    188.09632    27143.027 
   95400    573.06434    6.2128659    110.40559    338.21708    43.916075    27143.027 
95500        0.22031024391275491614 12.051228617435295831 0.24074074074074072738 37 55.298800391132822085
   95500    658.22299    2.2168217     102.2115    353.52853   -1461.9953    27143.027 
   95600     522.2191    10.098966    102.45186    298.85362    152.70258    27143.027 
   95700    565.13186    4.0136395    122.19733    350.16065    -391.5547    27143.027 
   95800    572.96424    2.5955006    116.72922    335.39141    667.53905    27143.027 
   95900    584.67226    6.7791458    106.15082    305.23119   -235.29159    24909.474 
96000        0.21949870030289256317 11.953234561088923016 0.24338624338624337273 31 52.862104468245462385
   96000    594.50859    8.6439106    121.54359    322.22392    870.66734    24909.474 
   96100    634.83711    12.369196     113.4677    357.68154   -833.58096    24909.474 
   96200     565.2012    2.4250164     111.1697    334.97326   -498.67845    24909.474 
   96300    630.76551    5.3581739    115.73829    368.32451    1474.6436    24909.474 
   96400    575.98716    7.7745965    117.54961    328.39074     700.3256    24686.536 
96500        0.25170229212366673766 11.903010148345973818 0.29365079365079360674 36 61.952320047418908189
   96500    542.95279    7.9110427    112.38527    307.95507    -78.54689    24686.536 
   96600    605.40945    3.0465401    124.37302    365.10274   -357.77487    24686.536 
   96700    594.43964     3.308839    125.32407    335.94033   -555.67581    24686.536 
   96800    551.13883    5.6277129    129.16157     335.5796     -969.339    23837.668 
   96900    627.78487    6.8359402    120.49483    344.72929   -1274.6354    23837.668 
97000        0.25275604558260367227 11.703540011967874079 0.31216931216931215198 36 36.899857971555235281
   97000    571.11187    6.2051909    104.32709    295.66101     451.3087    23837.668 
   97100    627.21879    2.4070456    120.74741    348.13312   -678.27724    23837.668 
   97200    569.40602    8.7418274    123.05471    335.98344    233.15468    23837.668 
   97300    561.18153    4.0306012    117.78912    340.05989    123.56594    21176.905 
   97400    691.00824    1.9526271    113.73895    384.01764    21.322779    21176.905 
97500        0.26191580288624555228 11.463961107686138519 0.30423280423280418816 35 87.580523211740057832
   97500    551.04325    4.1998532    130.44012    337.24892   -200.77614    21176.905 
   97600    591.69782    5.1812849    105.40247    343.38617   -287.36251    21176.905 
   97700    637.38737    6.3003632    136.57073    412.82155    35.789693    21176.905 
   97800    582.88609     5.019818    125.26702    347.13299    89.868975    21176.905 
   97900    558.26151    2.4958104    112.23153     320.4798    472.00482    17916.266 
98000        0.27441418745595846929 11.199331911734990541 0.33333333333333331483 43 88.484388422769171711
   98000    643.96097    4.2520409    123.38257    380.25224    1493.9842    17916.266 
   98100    578.01565    2.8554472    117.50573    337.22464    2106.9138    17916.266 
   98200    613.88319    1.4929843    112.15418    352.04737    -921.4137    17916.266 
   98300     626.7804    5.7911384    124.76463    353.70367    1296.1593    17916.266 
   98400    547.67697    2.7670228    116.70342    307.98149   -1130.1471    17916.266 
98500        0.26791498227560905931 11.640787880196109327 0.31216931216931215198 33 82.42217672907148085
   98500    600.18135    7.9781315    135.89131    354.35422   -1312.9487    19887.176 
   98600    594.69157    8.5040278    119.76808    339.57425    1256.8083    19887.176 
   98700    599.07672    6.8661126    129.06027    358.08314    1814.7096    19887.176 
   98800    629.23318    5.6227543    107.97311     356.0716   -8.9591144    19887.176 
   98900    569.96388     2.907108    122.93269    335.99114   -202.28846    19887.176 
99000        0.26528607427474909519 11.848434566306293547 0.30952380952380953438 33 64.807262092601376935
   99000    676.51082    4.1063152    118.38922     371.3229   -884.33628    19887.176 
   99100    582.45456    2.9092757    116.24857    322.98554    990.93589    19887.176 
   99200    615.60373     7.000074    122.49232    355.61883    635.49779    19279.384 
   99300     600.3882   0.87250312    134.24968    363.46706   -488.41709    19279.384 
   99400    543.68128    2.0436618    131.37025    330.18703    275.86069    19279.384 
99500        0.25733810361773762354 11.871601670588011856 0.30158730158730157056 33 106.26371486807374822
   99500    605.16509    2.5322349    137.62925    380.45381   -2049.4156    19279.384 
   99600    604.53198    6.9323943    107.98239    346.65629    94.161313    18293.996 
   99700    588.97694    1.9477759      117.229    344.25327   -576.96453    18293.996 
   99800    664.98431    6.2423295    124.09789    356.67472    928.00516    18293.996 
   99900    571.64214    3.0719585    109.30484    305.41488     1016.847    18293.996 
100000        0.26878447357837276233 11.661937386821529472 0.35449735449735447768 39 81.623874974515530312
  100000    629.53155    2.1061796    117.73047      366.854   -116.76787    18735.663 
  100100    607.22956    4.3185818    114.09271    353.14271   -47.074528    18735.663 
  100200     570.5621    4.5952174    101.48596    306.27852    2228.4634    18735.663 
  100300     592.5787    3.3715184    122.76971     330.3835    3226.8965    18735.663 
  100400      588.491    4.3926601     124.9395    345.80969   -1452.1901    18735.663 
100500        0.26475884499855573129 11.572826693500770645 0.37566137566137564052 48 89.330246131012657429
  100500    656.19303    3.8038976    123.87774    386.64024    1780.5478    20036.546 
  100600    571.26354    10.379205    118.18476    354.21899   -1295.5323    20036.546 
  100700    607.48328    3.9766803    107.02558    336.16592    706.33527    20036.546 
  100800    585.08415    4.7100273    128.64414    363.88922    304.36417    20036.546 
  100900    584.73989    4.4862346    113.01999    344.86289    187.34384    20036.546 
101000        0.28966451310421004184 11.682550410286491882 0.37301587301587302292 36 64.925853844420259975
  101000    560.43958    1.4254621    113.96142    318.85157    1969.2407    19621.767 
  101100     676.1084    2.7922743    111.20525    386.78771    1520.7569    19621.767 
  101200    598.26542    3.4054734    112.88245    361.22667     -732.316    18320.709 
  101300     507.6489    8.6105976     121.8912     310.7742    -989.6431    18320.709 
  101400    635.33605    2.2012843    108.30452    346.51077   -911.31663    18320.709 
101500        0.27882097976068942469 11.708659120165899381 0.35714285714285709528 29 65.582192048196020551
  101500    612.61694    5.8147116     105.6474    343.14859     702.9761    18320.709 
  101600    505.43786   0.88005881    106.85262    279.27527   -1958.1786    18320.709 
  101700    596.80474    7.0424242    102.15748    330.32259    -847.6821    19942.866 
  101800    630.31576    7.2555682    111.22592    360.37168    65.415179    19942.866 
  101900    606.31126    3.9216509    123.98576    365.05612    607.51776    19942.866 
102000        0.26506067715638109705 11.572085830464500233 0.33597883597883593243 38 71.369906713170237822
  102000    542.31597    2.4066075    123.34476    317.08412   -22.165765    19942.866 
  102100    673.02439    4.8228419    116.74544    371.97139     47.29791    21919.324 
  102200    605.62658   0.56546063    127.56259    353.02983    123.11277    21919.324 
  102300    651.86647    4.2853506    104.15649    346.42907   -1728.1188    21919.324 
  102400    592.49891    1.1464289    107.72725    324.91986   -15.960127    21919.324 
102500        0.25955251935670281549 11.439759476641334857 0.35449735449735447768 45 60.25039335429222831
  102500    559.49743    5.3082531    111.99541    313.74924    443.80726    21564.031 
  102600    652.25873    5.4014418    111.47557    353.16479   -445.85174    21564.031 
  102700    616.67418    4.1475438    132.56734     369.8631     1060.582    21564.031 
  102800    587.68161    5.4354762    109.46349    353.15748    2484.8307    21564.031 
  102900    588.33319   0.54951448    115.91052    355.26956   -1526.9632    21564.031 
103000        0.25217572280304123566 11.14560940893646368 0.33068783068783069723 35 87.687684521887916844
  103000    649.27553    5.1136259    111.28533    381.86347   -1381.4293    21564.031 
  103100     609.2959    3.9960078    107.29826    346.45175    -252.6906    17553.151 
  103200    599.12765    4.4334882    113.37279    344.81175    246.75907    17553.151 
  103300    569.74506    2.5587976    129.05706    359.21727   -1478.3187    17553.151 
  103400     615.8724    5.2522721    105.90806     331.1056   -177.26389    17553.151 
103500        0.25832643631623058988 10.984258143535869934 0.35449735449735447768 32 96.024748148685901583
  103500    665.71061    5.9657483    131.77275    397.64699     735.9057    17553.151 
  103600    591.70925     1.611921    119.57056    349.76533   -1889.6231    17553.151 
  103700    556.34789    5.8047664    113.08461    338.72894   -1411.8969    17553.151 
  103800    619.46415    8.8248735    141.73476    397.92586    1947.5425    16576.046 
  103900    599.38412    3.1957537     123.8172    358.87285    558.52723    16576.046 
104000        0.25663455869664680842 10.982570439877289203 0.29629629629629627985 25 80.454357783943876825
  104000     618.3744    4.4960377    130.13424    360.62936    2222.8427    16576.046 
  104100    582.22771    3.8890464    117.87359     334.2986    514.24968    16576.046 
  104200    579.32627    1.2264753      114.588    328.64422   -1203.7518    16576.046 
  104300    618.89717    6.3763735    138.55252    389.47425    840.83105    16402.828 
  104400     572.3673     4.884282    123.64729    355.54242    258.50578    16402.828 
104500        0.25606861256550211836 10.91495832526154075 0.28835978835978837154 30 72.59252156961287028
  104500    539.08779     2.860019    120.30917     316.8441   -1421.0742    16402.828 
  104600     591.4617    4.2183602    121.49706    361.29629    836.80992    16402.828 
  104700    640.93327    1.2227415    120.08826    377.53185   -1274.7779    14907.274 
  104800    603.77667    3.6313296    101.81118    332.80132   -1222.9037    14907.274 
  104900    615.63283    3.6565482     113.6262    354.49382    623.57652    14907.274 
105000        0.25248798044616277414 10.806653354816250001 0.29894179894179895296 22 85.046335621755176248
  105000    614.24077    5.9712797    118.61809    363.34847    2260.8288    14907.274 
  105100    616.58831      2.16079    98.453734    319.12913    45.436028    14488.022 
  105200    666.42761    3.5289974     122.3413    367.20149   -114.95784    14488.022 
  105300    592.57563    8.3864681    121.79182    336.24043     1306.999    14488.022 
  105400    594.99992    3.0970064    126.40347    340.30458   -1465.4442    14229.143 
105500        0.25450531595041003818 10.491435820459328099 0.33333333333333331483 28 89.517175666635296238
  105500    681.67656    4.7880645    133.76542    398.37332   -1464.4625    14229.143 
  105600    602.54369    1.0858412    112.78607      343.171   -1955.8612    14229.143 
  105700    633.23139    1.5854364    96.847789    324.19893   -3114.8797    14229.143 
  105800    642.86007    3.0717191    125.96016    366.44613   -3092.1681    14229.143 
  105900    630.06685    5.4684653    113.44717    343.04621    37.062914     11808.65 
106000        0.25136334661604409213 10.026354873372309129 0.37566137566137564052 50 48.713507893356734257
  106000    625.52645    7.1715704    119.87704    332.12899    4501.2501     11808.65 
  106100    587.85037    4.3271709    126.31017    356.28337   -615.80705     11808.65 
  106200    600.56431    5.3826648     120.7469    350.78849   -1583.2318     11808.65 
  106300    534.77191    4.4992231    118.46261    314.92243   -2156.8814    11340.275 
  106400    604.69285    10.862425    125.13635    374.33333   -1169.9407    11340.275 
106500        0.25419064966014082163 10.266786866865624361 0.35185185185185186008 48 73.309006209606735638
  106500    614.41449    3.2592514    113.04397    351.68985    2214.8702    11340.275 
  106600    543.81478    4.9265591    133.04566    330.52118    1163.0099    11340.275 
  106700    622.81924    8.4648166    136.37226     369.9181    4294.7813    11340.275 
  106800     574.3538    4.8093082    124.05576    336.53584   -1520.5502    11340.275 
  106900    570.78979    2.0991486    143.52605     348.3105   -944.32978     13358.08 
107000        0.24311925555731442317 10.194502189536706283 0.31746031746031744269 40 94.016286780288595537
  107000    686.57295    1.7587564    142.12898    405.09091    539.97808     13358.08 
  107100    611.09257    2.2068196    118.41594    332.77349    35.029292     13358.08 
  107200    613.66395    5.0533496     130.3677    364.26508   -272.41547     13358.08 
  107300    655.28472    1.4971051    133.77614    381.16626   -1003.0687     13358.08 
  107400     570.8489     4.669104    125.92932    329.60433   -1324.2504     13358.08 
107500        0.23683911864066439779 10.266252134373564431 0.33597883597883593243 35 106.03969271321061285
  107500    622.89302    6.5770595    142.83409    388.26201     -1861.17    11416.738 
  107600    652.48779    3.3601658    147.06303    399.19189    1333.9486    11416.738 
  107700    626.19356    2.3732103    127.33049     379.3482   -728.27782    11416.738 
  107800     555.4124    3.0524483    122.85791    323.22889    1214.1153    11416.738 
  107900    573.85422    10.428646    133.75917    359.26959    1484.4498    11416.738 
108000        0.25347462785916702321 10.248482055465654383 0.32804232804232802412 37 74.605294469095966292
  108000    639.21629    12.071138    138.27435    364.22341     272.2254    11416.738 
  108100    580.49284    6.6431224    118.66964    312.30956   -1027.4196    11416.738 
  108200    606.29344    3.1769277    142.76191    366.30132    698.14795    13027.611 
  108300     661.1641    4.8882996     123.5821    359.11296   -23.181223    13027.611 
  108400    565.15295    4.6531769    127.99306    323.83879    1550.1387    13027.611 
108500        0.25823535470954245286 10.276944400493079002 0.35978835978835976839 39 75.081511850187339974
  108500    619.30107     9.855206    129.24405    355.67638   -2029.1798    13027.611 
  108600     653.0463    7.3566619    126.94866    366.65593    1171.9977    11847.117 
  108700    554.98907    1.5652773    130.64186    316.90071    2403.4674    11847.117 
  108800    599.01597    4.9101198    149.68562    358.15612   -615.36559    11847.117 
  108900    610.50211    7.1779104    132.01857    356.28746   -1550.4514    12208.426 
109000        0.25218552630150470328 10.291078178642408147 0.33862433862433860554 35 64.561943015924043721
  109000    571.81881    3.3465938    123.05354     323.6434    959.40995    12208.426 
  109100    605.02882    6.1817224    133.63461    373.70911    3309.1674    12208.426 
  109200     686.7614    4.4054586    126.11872    367.43028   -1323.7705    12208.426 
  109300    616.43048    2.5826549    120.59668    330.88556   -184.98521    12208.426 
  109400    643.19781    1.5128792    127.71793    344.33084     3605.827    10910.986 
109500        0.25358516098122191318 10.058185076047621465 0.37301587301587302292 44 46.465736440470763569
  109500    545.90373    9.8799717    115.96035    293.80551    644.42434    10910.986 
  109600    621.88898     3.979613    143.52151    344.28097   -93.692903    10910.986 
  109700    555.63338    3.6683393    151.12864     330.6671   -535.46388    10910.986 
  109800    614.81069    5.3033505    130.17137    343.33035   -364.34711    10910.986 
  109900    569.54689    3.0801989    152.66758    361.37991   -1075.0628    11735.239 
110000        0.24200936856169433242 9.9736121391986767293 0.35978835978835976839 52 56.673624867738681132
  110000    569.91539   0.39578071     122.8297    314.89267    163.68504    11735.239 
  110100    637.46488    3.7326801    152.24318    378.63613   -1250.6863    11735.239 
  110200    614.09225    1.6292432    125.56536    351.84136   -2965.0092    11735.239 
  110300    608.99228     3.254246    129.79937     336.3214   -1175.9516    11735.239 
  110400    680.73647     4.342871    105.62716     354.0276    517.52626    12239.458 
110500        0.25309513914072173657 9.8781589957811739566 0.3650793650793650591 51 65.417581871580267716
  110500    640.72767    2.8070366    131.98985    355.72048   -2795.3183    12239.458 
  110600    597.59547    6.6159867    120.25154    319.14646   -444.56125    12239.458 
  110700    668.70237    5.8066941    130.92466    370.18919    1708.9116    12239.458 
  110800    566.34601    2.9474767    132.36911    317.50475   -1072.2306    12239.458 
  110900    577.51189    2.4367137    139.90977    340.20883   -1748.4523    12091.845 
111000        0.25495931288447609697 9.9740758586212994175 0.33862433862433860554 42 88.757634492354426925
  111000    622.05761    6.1203231    155.63314    370.60144    1096.6798    12091.845 
  111100    597.94966    2.4352247    116.24527    317.88273   -395.46628    12091.845 
  111200    577.93289    2.2413769     115.2867    337.91863    98.660535    12091.845 
  111300    667.38258    4.4528955    124.68744    368.83007    2779.6917    10763.456 
  111400    544.09776    2.2704027    124.11009    317.57854   -3503.4996    10763.456 
111500        0.2608407775817347396 9.8117442827615857226 0.34391534391534389625 50 71.895714075156661238
  111500    586.58748    4.0929557    134.05273     337.6686   -1986.4651    10763.456 
  111600    665.87456    8.8800984    125.24298    363.32845   -2258.6726    10763.456 
  111700    653.38695     8.313993    125.21321    378.52711   -948.43769    10763.456 
  111800    598.37755    5.7522451    122.80839    342.68548    663.65909    10763.456 
  111900    698.25692    4.3954932    135.98166    394.28332   -843.47969    10763.456 
112000        0.24415926053996517275 10.297011647741758367 0.29894179894179895296 36 39.055522173314969336
  112000    647.79712   0.54118124    109.75339    332.56147   -2022.3739    11149.169 
  112100    550.09902    8.0507391    144.88883    356.12389   -3421.5061    11149.169 
  112200     610.9339     6.436278    143.11039    387.42978   -3214.8525    11149.169 
  112300    655.54165    1.6687455    121.12038    361.70515    979.03392    11149.169 
  112400    565.31657    4.7970301     115.1094    331.33673    840.32867    11149.169 
112500        0.23711689384146514281 10.649755913028236876 0.30952380952380953438 32 98.275267211296437608
  112500    654.86108    1.5045242    144.25796    394.98177     152.6779    11149.169 
  112600     622.1943    8.3471494    123.43237     355.5623   -241.05234    14057.368 
  112700    670.20895    7.0904615    119.82154    397.83432    901.77159    14057.368 
  112800    623.35417    5.9298511    131.62875    382.37117    1527.2679    14057.368 
  112900    551.03257    7.3293712    142.87649     366.5793     295.5985    14057.368 
113000        0.25805998002435365235 10.67257407145067738 0.29894179894179895296 33 105.59771286669510459
  113000    639.16549    6.9722006    137.90108    395.19281    1780.0732    16704.702 
  113100    586.04549      2.61246     120.9126    331.85413    755.65343    16704.702 
  113200    647.64433     3.684436    134.30297    385.08538    -1662.992    16704.702 
  113300    688.49176    3.8361955    123.13803    375.58037   -1550.5749    16704.702 
  113400    581.44739    2.8915212    147.35852    359.74002    1402.7159    15992.393 
113500        0.24858741868632014405 10.738908801030353501 0.29629629629629627985 37 97.313935591731961949
  113500    607.53826     5.358546    154.61496    372.57927    485.15413    15992.393 
  113600    633.89446    6.1086238    140.82271    399.62495   -1466.7818    15992.393 
  113700    607.79683   0.81879885    115.31585    343.20519   -1013.4663    15992.393 
  113800    653.63928    3.4758912    141.27325    386.23645    507.22858    15992.393 
  113900    652.71559    4.9686422    134.73662    391.25443   -710.17592    16882.298 
114000        0.2617503013521271793 10.978431348741279905 0.30952380952380953438 44 82.32265623257109155
  114000    649.96116    3.1809738    117.01702    376.80909   -1015.6432    16882.298 
  114100    603.98992     6.624885    108.29815    335.32301     1508.988    16882.298 
  114200     617.9592    3.3400222     148.3799    391.42101    1126.0584    16882.298 
  114300    628.81985    4.8898843    128.17342    393.12838   -944.35679    16882.298 
  114400    643.20781    2.1639905    126.63217    368.30151   -1915.4332    16882.298 
114500        0.26011005033408174381 11.089652630615731255 0.30423280423280418816 36 57.114001921025092656
  114500    621.14158     8.171859    118.77421    338.54277   -254.69386    16311.336 
  114600    529.71389    2.8156971    122.00783    282.06561    706.70138    16311.336 
  114700    631.64806    6.6709614    119.99929    355.24377   -388.92982    16311.336 
  114800    630.70171   0.93952568    130.00117    388.52417   -968.36239    16311.336 
  114900    628.51275    6.2547599    123.38006    390.96683    911.65997    16311.336 
115000        0.24424930593295135495 11.255294403802485803 0.275132275132275117 30 100.62402695610418846
  115000    540.47104    6.5878231    131.35166    345.50234    1.5112231    18268.986 
  115100    685.48714     6.834761    125.03325    393.36948    165.90511    18268.986 
  115200    636.34725     2.368986    119.57652    359.66978    255.19361    18268.986 
  115300    601.79025    1.1485489    124.28565    350.03391   -472.48125    18268.986 
  115400    620.64416    6.3075828    127.52573    393.15904    371.17822    16556.891 
115500        0.25547845428681903446 10.982084415997640292 0.30158730158730157056 36 122.56843731953715348
  115500    554.05117     5.914032    132.15787    373.59968   -1268.5304    16556.891 
  115600    722.59943    6.6686918    132.64706    430.26638     480.6748    16556.891 
  115700    668.27041    9.1723128    119.07594    381.19666   -197.05664    16556.891 
  115800    598.32191   0.72160404    142.20728    384.54755    2051.6992    16556.891 
  115900    722.75908    3.4719869    143.84944    445.98554   -1298.6993    16320.647 
116000        0.26201801474976105233 10.981702256803357542 0.32804232804232802412 31 81.273780892613245896
  116000    650.97911    6.5200657    129.08458    376.22143   -2336.7493    16320.647 
  116100    561.16954    3.1377595    129.27698    352.91054   -330.51555    16320.647 
  116200    692.71244    9.5381888     143.6277    415.80468    1308.1612    16320.647 
  116300    613.11566    5.4994934    145.91857    372.94541    405.61111    16320.647 
  116400    586.14908    4.3632288    152.26398    372.33142   -868.96887    16320.647 
116500        0.26894303859619284047 11.088213090347421641 0.35978835978835976839 34 99.850220216847645816
  116500    727.34719    3.9480819    147.59082    429.39896   -274.57363    20231.686 
  116600    613.50164     2.510433    119.10861    350.22104     454.9924    20231.686 
  116700     626.3692    2.3962129    117.88498    341.72381   -796.28907    20231.686 
  116800    689.77789    4.0783939    136.53385    405.17929    953.92577    20100.649 
  116900     589.8785    5.0179083    114.92251    350.89811    1067.9213    20100.649 
117000        0.27544608380924850977 11.233393983378901382 0.37037037037037034981 39 116.79287883181486052
  117000    665.21135    1.4716564     150.5811    418.18892    853.16928    20100.649 
  117100    640.71834    1.3055512    125.18881    376.90963    2229.6914    20100.649 
  117200    641.18592   0.35384784    123.34201    385.52359   -327.92322    20100.649 
  117300     626.1742     5.722479    136.95176    402.86937   -677.47385     21625.07 
  117400    583.46327     4.718252    128.72383     357.4144   -790.12341     21625.07 
117500        0.25692683945403099743 11.759226360636798603 0.29894179894179895296 26 95.938062176412984172
  117500    672.94573    1.0524132    118.12057    400.83842    12.320065     21625.07 
  117600    551.25317    9.1313108    130.27102    347.78536    197.01363     21625.07 
  117700    638.64889     2.336461    116.21415    359.47812    185.61477     21625.07 
  117800    705.59744    3.1975771    118.64364    388.08639   -780.56185    21620.029 
  117900    586.64049    6.5294489    115.83053    362.82861    181.91302    21620.029 
118000        0.24223834597506155308 12.018704314036677161 0.29100529100529098914 29 98.021460863071837366
  118000    696.56393    4.2291245    115.07316    413.62283   -70.585106    21620.029 
  118100    629.05921    1.3526977     126.4525    358.11133    253.48124    21620.029 
  118200    668.04497    1.7369688    128.24621    409.15749   -1298.5946    24140.184 
  118300    617.18262    8.1394768    130.29105    393.07174   -240.63662    24140.184 
  118400    604.50877    2.1349218    126.07242    360.20911    1045.1733    24140.184 
118500        0.22908277191005324558 11.995054047032791544 0.26719576719576720869 30 126.71827523154030359
  118500    669.53141    6.6765842    138.53931    430.07166   -489.94774    24140.184 
  118600    621.69968    5.7991897    120.82777    390.49663   -257.91372    24140.184 
  118700     610.1858    3.4666626      144.376    398.47559   -154.32018    24140.184 
  118800    665.93273     8.227608    156.10535    438.87182   -400.21491    24439.774 
  118900    639.08868    4.6915304    127.16993    402.22198     34.56221    24439.774 
119000        0.24371806384499003495 11.97566563190610367 0.28042328042328040771 24 136.41346834078967731
  119000    636.79713  0.074531939    144.75923     424.9355    4.4959759    24439.774 
  119100    643.03074    2.3416542    129.18528    391.57196   -241.29974    19858.824 
  119200    569.80036    3.2604599    126.19848    364.31596   -1152.8835    19858.824 
  119300    700.69558    5.5277878    130.19293    421.69186   -1043.3457    19858.824 
  119400    596.14142    5.5620805      133.688    381.88731    1266.4673    19858.824 
119500        0.27580475475343357861 11.754206504752236384 0.30687830687830686127 34 124.96111168457998986
  119500    698.65245     2.955548    138.21082    441.50875   -884.51779    17627.518 
  119600    668.61273    4.0875401    131.79228    412.64927     2231.252    17627.518 
  119700    632.22883    2.2864287    125.56486    388.31547    1268.9663    17627.518 
  119800    581.84292    3.7367475    139.41226    394.25803   -306.43711    17627.518 
  119900    653.23577     7.978023    143.62263    430.44291    -888.2649    17627.518 
120000        0.29396425363396383457 11.616043400329669311 0.33597883597883593243 31 90.598423763656441565
  120000    608.07049    7.1353106    125.81681     366.1049   -2263.9712    17613.886 
  120100    612.22752    2.6401874    149.09562    397.33478    398.45564    17613.886 
  120200    683.42792    6.1582615    118.29954    406.16816    2073.0193    17613.886 
  120300    639.45974     10.26581     125.2807    371.76255    221.95711    17903.996 
  120400    580.45944    4.7557805    117.64639    327.60737   -530.65331    17903.996 
120500        0.28740189756582262826 11.562239565469266012 0.30952380952380953438 32 75.932880072253198023
  120500    647.07149    3.3646789    125.51605    369.11005   -1723.3899    17903.996 
  120600    664.11263    8.0693752    133.82151    388.57485   -930.91436    17169.757 
  120700    655.33495    4.8385701    122.07601    362.71898    1315.5208    17169.757 
  120800    606.66154    3.8068412    108.89862    331.88642    256.51066    17169.757 
  120900    680.39723   0.98359857    134.39081    396.92645    536.92375    17169.757 
121000        0.2690173599732532117 11.318301333601068492 0.30952380952380953438 33 102.32532800975630494
  121000     679.3566    8.8274659    118.62654    410.13034    1663.9457    17169.757 
  121100    673.00913     9.839976    136.51506    431.06815    235.61169    17753.701 
  121200    604.32959    6.7547346    130.85586    374.97784   -1153.0927    17753.701 
  121300    662.39236    2.1699821    118.95919    390.20274   -883.22398    17753.701 
  121400    667.77356    4.9943433    154.81619    415.11608     1457.179    17735.411 
121500        0.27960161492945567741 11.185254862502620909 0.35978835978835976839 40 83.724686276605382318
  121500    623.68454     8.673888    124.91783    366.30563   -512.40915    17735.411 
  121600    648.48602     6.189295    118.71261    375.34623    488.68586    17735.411 
  121700    647.00175    3.0787703    123.15768    386.61688    425.43099    17735.411 
  121800    635.87314     7.336481    123.73589    373.24833    1059.1303    17735.411 
  121900    775.58036    3.3306582    125.35673    441.23517    -183.7791    17735.411 
122000        0.2743972447711922058 11.409954758678656717 0.37037037037037034981 39 102.22917615785124212
  122000    625.83271    2.8257646    135.28079    385.78342   -1217.1889    19515.527 
  122100    667.24692   0.07621872    118.18804    372.38575   -661.62537    19515.527 
  122200    567.92353    3.0091038    143.74982     356.3595   -149.07518    19515.527 
  122300    663.59912      12.3254    135.72327    402.29236     115.1766    19515.527 
  122400    597.62906    3.8901864    134.50636    354.95449   -2474.8265    19515.527 
122500        0.28713840851039940105 11.61397847016016982 0.38095238095238093123 36 68.756875015233390513
  122500    624.70395     5.466562    119.80135     351.7997   -583.99728    18793.643 
  122600    689.47894    7.6454974    112.39598     394.8172    572.99732    18793.643 
  122700    589.88579    6.8888062    125.48591    347.56744    511.06115    18793.643 
  122800    680.71499    10.958034    131.95003    399.90616    347.37142    18793.643 
  122900     714.8316    5.7343354    102.84207    380.91507    873.33248    18793.643 
123000        0.28107426916976657738 11.713420517922676467 0.35449735449735447768 35 93.520437239237537597
  123000     589.7311    5.6010597    126.61841    360.71765   -576.98904    18793.643 
  123100    634.67324     10.36217    142.10446    401.04596   -892.05887    18793.643 
  123200    663.26851    3.4585053    118.32922    378.89086    236.91121    18037.461 
  123300    666.59984    4.6707389    133.82597    398.24676    3328.4498    18037.461 
  123400     650.8153    4.7153048    114.08901    359.44547    859.76852    18037.461 
123500        0.25172069032405713918 11.933959465436570824 0.29100529100529098914 31 78.101466143230609873
  123500    609.43862    1.7670105    119.86267    354.22782    393.54645    18037.461 
  123600    690.55654    5.6155338    107.97472     379.3058   -18.266344    18000.593 
  123700    668.25179    2.8180312    118.64814    372.04475    1245.2712    18000.593 
  123800    628.59447    2.2876045    122.68683    359.47258    3320.5479    18000.593 
  123900    673.71105    2.4216413    136.67763     414.0828   -48.642279    18000.593 
124000        0.2483090468441687404 12.193182278819106656 0.29894179894179895296 29 90.954086472822041287
  124000    632.37851    3.6991801    122.31025    377.47412   -1610.7766    20220.102 
  124100    635.03587    3.3272528    115.89766    379.02045    1157.7765    20220.102 
  124200    636.75641    5.4594494     158.1507    432.44087    386.75385    20220.102 
  124300    631.01159    4.0012488    154.66589    435.14853    951.12965    20089.188 
  124400    676.88804    3.7084829    126.39126    392.28503    200.24477    20089.188 
124500        0.23463391262720392771 12.457985675763156408 0.28042328042328040771 27 114.42044660253583288
  124500    691.50619     5.653067    145.19104    427.73024   -1340.6622    20089.188 
  124600    604.36287   0.19954401    129.04077    365.77738   -897.31654    20089.188 
  124700    636.17357      5.02315    123.07006    395.27985   -903.04793     22533.84 
  124800    659.02971     5.399918    145.30976     423.7328   -1189.7457     22533.84 
  124900    644.01721    5.0866044    126.55491     402.4591    282.31236     22533.84 
125000        0.21231506445844200437 12.391296498862173436 0.25132275132275128104 32 96.803641221940253558
  125000    653.79457    16.432417    121.34198    393.02693    1271.8909     22533.84 
  125100    654.80539     2.599848    123.19563    398.66266    471.10085    22429.713 
  125200    688.46909    7.1985542    133.21211    415.54446   -1009.9576    22429.713 
  125300    641.14758    5.7600139     127.8083    388.08068   -286.87869    22429.713 
  125400    660.26346    2.2492378    123.70656    374.38304    801.12449    22422.505 
125500        0.20920870352407519577 12.301303275846963814 0.24867724867724866344 27 88.262485814016187646
  125500    729.54452    3.5324295    126.48692     418.8068    854.46755    22422.505 
  125600    645.93009    1.5507231    135.11132    393.15624    1031.4978    22422.505 
  125700    627.50457    4.2575728    149.25086     410.1527   -940.86286    23650.952 
  125800    714.21016    6.7784739    128.09019    442.29174   -138.17134    23650.952 
  125900    623.09846    2.9071303    140.90991    379.56111    1187.1509    23650.952 
126000        0.19963210745934056867 12.439846591913990892 0.25925925925925924487 35 126.97655701139142082
  126000    643.42626    2.8975887    147.96614    418.50214    1080.7981    21235.062 
  126100     690.9049    7.8167669    162.81106    481.37346   -2631.6461    21235.062 
  126200    654.57539    1.9290122    126.35588    386.68002     623.1033    21235.062 
  126300    667.19261    8.0075474    139.27366    429.98679    354.89874    21235.062 
  126400    653.48686    2.5283617     123.0819    394.97233   -277.55873    21235.062 
126500        0.18933800451355173311 12.661329554041921952 0.24867724867724866344 28 138.51257616359242775
  126500    587.01399    11.725326    155.26347    404.47871   -377.00006    21235.062 
  126600    675.11285    4.6560103      140.501    411.34035    1303.2983    21235.062 
  126700    641.88284     3.385083    126.49208    375.86878    957.69996    23146.643 
  126800    662.13458    4.3468852    120.30889    410.91313    13.722049    23146.643 
  126900    687.27531    6.7433001    133.02121    443.68324    269.16514    23146.643 
127000        0.17619104137633423424 12.873328030616459472 0.21164021164021162846 28 167.42564521039881242
  127000    787.23858    10.974108    168.94142    524.11016    431.42741    23146.643 
  127100    655.01751    1.8782822    142.45324    432.33083    22.812141    23146.643 
  127200     600.0573    5.4193419    142.79514    404.60501   -1727.2065    23146.643 
  127300    671.98747    2.8084407    168.57596    465.42949   -1269.5904    23146.643 
  127400    653.00374     5.736062    148.14406    435.01446    193.05855    24135.451 
127500        0.18182429464329000202 13.035236435428981139 0.19576719576719575633 25 143.58193963447382657
  127500    616.87262    1.0223378    145.73902    423.07651    1280.3203    24135.451 
  127600    632.63262    6.6181173    159.31969      450.927    1367.0488    24135.451 
  127700    685.55696    6.1522721     150.7721    454.22801    408.44337    24135.451 
  127800    653.89519     5.418692    126.84041    418.45058   -169.09752    22454.512 
  127900    700.72194    5.2898042    139.76394    466.35065    790.19187    22454.512 
128000        0.17557435388137082599 12.99828496833891478 0.17460317460317459348 25 109.11623009354003955
  128000    619.47141    3.6172477    136.02224    389.78828   -83.791651    22454.512 
  128100    662.10124    7.0986669    140.56871    439.23549   -358.52604    22454.512 
  128200    608.47866    10.129735    160.35189    443.35001   -1749.8576    22454.512 
  128300    628.85839    4.8314019    145.57131    425.83259   -130.79503    22454.512 
  128400    639.51032    3.0119258    137.30543    437.53222   -555.54011    22788.659 
128500        0.14957341844938884523 13.375180381602980617 0.1613756613756613667 28 162.67681141817075741
  128500    751.22653    5.3194911    156.56684    503.04488    408.25838    22788.659 
  128600    652.38131    2.6561514    141.24921    420.34929    201.91794    22788.659 
  128700     677.0392    5.8542921    133.27511    415.31089    806.32362    22788.659 
  128800    753.61164    2.9584792    120.86982    455.11233   -176.49451    23044.536 
  128900    620.89583    7.8547286     116.1759    384.45384   -1127.7081    23044.536 
129000        0.15103544893783307779 13.61618966224804872 0.15608465608465607599 26 136.18565375676629969
  129000    623.48807    5.6589416    140.35363    418.67758   -1135.9965    23044.536 
  129100    655.07123    10.738332    150.92636     444.4664   -551.46435    23044.536 
  129200    641.26919    4.6415682     142.7711    421.10102    1888.8894    25271.865 
  129300    618.18746    5.3323357    136.42725    426.90822   -2378.0722    25271.865 
  129400    673.95773    3.2014451     130.7381    456.89784    623.49249    25271.865 
129500        0.17143974367617628718 13.40662209759929091 0.17989417989417988419 26 131.48710025015341785
  129500    577.32182    5.5972428    147.27285    393.06187    -615.1921    25271.865 
  129600    638.27221    3.4999686    131.03741    413.56893   -1366.7952    25271.865 
  129700    642.14734    7.5512177    157.09354    449.83291   -574.85429    26600.782 
  129800    646.97763    4.5705094      130.804    396.63485   -90.990647    26600.782 
  129900    641.91411    8.5999318    168.10328    444.77964   -97.465752    26600.782 
130000        0.17500965597580053768 13.141886900454530007 0.20105820105820104704 23 109.47683046876431945
  130000    730.58257    7.8128324    122.43328    440.49147    324.45255    26600.782 
  130100    654.88556    2.9131653    130.39973    422.61128    702.21117    24192.286 
  130200    756.34807    11.225896    144.16698    484.05782    487.21193    24192.286 
  130300    637.74985    3.7005432    147.93778    408.14213    322.37637    24192.286 
  130400    681.08312    3.7266069    145.62684    433.30038   -184.97782    24192.286 
130500        0.18134710007892240746 12.930139214742455422 0.21693121693121691917 29 136.6217923554675906
  130500    708.74531    4.7139678    140.02003    457.74234    1635.4995    19800.958 
  130600    627.99952    4.3609492    135.06188    406.52189    466.16714    19800.958 
  130700    766.25647    6.2396512     136.4512    458.78614    1128.6026    19800.958 
  130800    635.93171   0.87625086     109.4556    381.21585   -362.78091    19800.958 
  130900    683.76706    2.6673448    149.39454    438.41433    787.97481    19800.958 
131000        0.21043716662276165663 12.965187519172131303 0.21428571428571427382 19 149.30967740983518866
  131000    645.40342    5.3231562    142.56178    441.73108   -168.06344    19800.958 
  131100    663.52916    4.2428657    155.05313    439.38252   -712.45671    19526.264 
  131200    579.22471     1.448903    147.82163    391.39995    -421.8736    19526.264 
  131300    734.15131    5.1467756    145.89733    460.27867    412.04841    19526.264 
  131400    695.88087    1.2516122    127.65471    425.20986    2420.2902    19526.264 
131500        0.21632388996405479964 13.044223209847592315 0.21693121693121691917 26 125.82781952452241114
  131500    663.13638    0.2977246    141.44501    426.28372   -1186.6707    19034.046 
  131600     748.9506   0.48013015    143.47822    497.19628    1597.3397    19034.046 
  131700    655.02922    8.5212994    133.70401     427.7368   -105.11886    19034.046 
  131800    654.42936      3.26953    123.87224    413.40427   -302.20022    18637.689 
  131900    696.42477   0.82149826    143.41828    447.13064   -542.05825    18637.689 
132000        0.20045383392969542968 13.23149525391439596 0.2275132275132275006 25 136.24251891119948255
  132000    691.58689    2.5644651    149.71495    449.58887   -2839.6951    18637.689 
  132100    632.93535    4.3407177    122.70577    401.42619   -366.24219    17754.972 
  132200    700.19307    4.7912955     134.4629    439.67206   -167.50455    17754.972 
  132300    615.78621    5.0529208    133.53425    390.78042    93.257268    17754.972 
  132400     631.9952    3.9273254    134.65132    401.20065   -361.46202    17754.972 
132500        0.20542627884868747135 13.483990291078287171 0.23015873015873014595 25 121.54499023233256594
  132500    690.76588    2.4652424    135.16126    434.51936   -2265.9388    19814.464 
  132600    621.70174    3.8570838       138.98    418.08399   -3139.4358    19814.464 
  132700    643.33718    9.2017436    101.21647    383.93341   -22.419492    19814.464 
  132800    718.28366   0.49901633    124.89559    429.59515   -366.21599    22224.889 
  132900    641.86755    9.1702963    129.69485    421.76766    937.45029    22224.889 
133000        0.18889466501339161053 13.825522303930162238 0.20105820105820104704 11 166.97133951170607702
  133000    728.17056    2.6942651    164.34055    496.89313    193.43751    22224.889 
  133100     667.6936    3.2315591    132.97118    437.30134    1277.3661    22224.889 
  133200    670.09877    3.0218147    150.47648    461.06799    1112.2836    20612.488 
  133300    654.94058    2.4340601    142.92521     432.3903      722.143    20612.488 
  133400    632.07785    11.499315    118.78179    417.40196    789.49455    20612.488 
133500        0.18663709733702324445 13.951930256536590136 0.18518518518518517491 21 157.47537100180937841
  133500    658.94721     4.534483    140.01246    456.03323    1773.7343    20612.488 
  133600    673.36777    4.1702019    122.94291    435.54238   -1261.9933    20612.488 
  133700    666.32628    4.2047389    137.54439    426.25115   -151.03813    20489.013 
  133800    707.26524    3.1438866    143.21988     454.6718   -89.268019    20489.013 
  133900    788.64601    10.519315    138.19683    507.79052    474.93648    20489.013 
134000        0.18763372688245566478 13.965423991266222359 0.19576719576719575633 26 134.3479461246639346
  134000    650.31669    3.4270785    144.28841    428.99547    1285.4451    20489.013 
  134100     637.6978    3.7718509    141.89351    429.58137   -1278.0665    20489.013 
  134200    768.74535    9.7235927    142.74581    500.98136   -263.63207    19338.729 
  134300    733.06192    4.5390094    147.63864    464.81777    1368.1453    19338.729 
  134400    670.40629    3.7721348    128.90068    418.02754    691.79786    19338.729 
134500        0.18192707373550467964 14.30923009666316581 0.17989417989417988419 20 153.17299982226964516
  134500    675.51962    4.9251023    156.74205    459.23954    1319.4418    19338.729 
  134600    673.43697    13.720333    128.84202    451.91467    751.96143     19560.43 
  134700     683.4868    3.6638723    135.38838     440.1947     385.7038     19560.43 
  134800    730.54784     5.682226    135.85997    474.46128   -739.55967     19560.43 
  134900    660.08758    2.7141825    114.05124    416.49191   -1465.5283     19560.43 
135000        0.18786359628738705241 14.596101325849152985 0.16666666666666665741 16 143.33260421392293438
  135000    678.15959    3.1947583    139.63667    450.59527   -680.24211     19560.43 
  135100    720.17825    4.7239956    151.18197    485.83093      310.223    21814.999 
  135200    638.52954    8.9455633    131.46834    427.16935    641.82531    21814.999 
  135300     669.0434    4.2140289    128.51071    437.89488    660.88378    21814.999 
  135400    755.89311    3.7989728    139.04652    490.56209   -218.84611    21814.999 
135500        0.18518228568149119884 14.732854315766772402 0.15608465608465607599 20 112.12111479915941459
  135500    670.02318    2.3840105    137.75246    415.69731   -1294.4032    23731.361 
  135600    697.75657    5.1147378    129.44635    434.29562   -895.73306    23731.361 
  135700    737.80953     7.269105     152.3796    487.69931    533.12149    23731.361 
  135800    654.45465    1.4338386    120.30472    414.95832   -1058.4396    23731.361 
  135900    623.78822    9.1769093    156.16747    421.58033   -544.97963    20306.543 
136000        0.18804877991257845649 14.400161029045513317 0.16402116402116401206 19 138.67833435527549568
  136000    706.43366    2.2592944    138.39744    458.75151   -2256.0859    20306.543 
  136100    608.25413    7.4991801    140.00888    409.23678    -557.8354    20306.543 
  136200    682.24147    3.2705947    132.52984    431.22641   -741.22365    20306.543 
  136300    689.52808    4.2389591    124.17009    433.02471   -1656.9107    20306.543 
  136400    654.07085     2.647169    125.94331      414.806   -1332.7099    21538.912 
136500        0.19366050842988713487 14.228828252482166761 0.17460317460317459348 17 100.74445065281807388
  136500    689.52254    2.1575884     118.5242    413.15548   -793.94342    21538.912 
  136600    726.16853   0.82924904    140.74476    461.23682   -595.91382    21538.912 
  136700    699.94984    6.4589389    116.83323    420.27776   -1112.2368    21538.912 
  136800    663.47369    5.1972865     140.2444    426.42222      892.826    20961.735 
  136900    619.61099    3.6166658    157.55768    422.90079   -1863.0606    20961.735 
137000        0.1894711412331771816 13.973083842338727578 0.16402116402116401206 18 110.96402736948932954
  137000    693.19518    2.3601534    139.19943    425.03907    453.88385    20961.735 
  137100    696.50404    5.4823201    144.82494    451.63195   -1092.8788    20961.735 
  137200    685.49852    3.4983562    141.09025    425.77988   -1345.5707    20738.111 
  137300    664.46119    5.5220697    129.21862    404.94524    173.88479    20738.111 
  137400    708.55194    10.651495     149.4059    450.62413   -590.26466    20738.111 
137500        0.20012055107546783406 14.076632845081094914 0.17195767195767194813 15 103.82672767793107482
  137500    632.75056    3.1138098    123.05169    390.51533   -1379.2239    20738.111 
  137600    692.03345    3.9122559    142.45156    440.99882     319.0675    17898.105 
  137700    719.82513    2.4521139    134.85769      439.379   -548.38356    17898.105 
  137800    645.19345    7.7880545    134.38291    417.58895    546.92484    17898.105 
  137900    722.49806    10.732304     145.4188    467.75026    1589.4902    17641.391 
138000        0.20093435745084292643 14.174393851669981004 0.16666666666666665741 20 108.52198459615024717
  138000    793.55794    4.8300653    144.11183     468.0697    1571.8092    17641.391 
  138100    623.67592    11.762296     125.5706       411.16    675.13001    17641.391 
  138200    671.25265    2.4543517    148.30871    452.70138    633.22312    17641.391 
  138300    719.20212    2.9300074    138.02462    454.17412    110.52346     18186.32 
  138400    682.69272    6.3271368    134.75253    424.22055    1983.2691     18186.32 
138500        0.19112754542421189763 14.26121888911631963 0.17989417989417988419 26 151.35146300616412418
  138500    661.12656    4.4895964    159.55707    450.89675   -112.55005     18186.32 
  138600    588.54791     1.311597    135.09304    400.18612   -654.46981     18186.32 
  138700    703.33512    2.0512754    127.15657     439.5693   -683.19802     20006.15 
  138800    710.56557    3.0405932    141.28516    457.53967   -848.40497     20006.15 
  138900    674.93143    2.3869682    142.66985    431.47578    547.95787     20006.15 
139000        0.18829310061402082521 14.550969044544055819 0.17195767195767194813 22 135.40041272982236364
  139000    684.49719    2.1180386    135.34067    445.53454   -1163.2757    21259.856 
  139100    773.51813    3.5998944     140.2229    496.96212    1057.3613    21259.856 
  139200    655.14496    5.2584512    147.09441    441.89355    -29.10192    21259.856 
  139300    708.78454    2.7702535    140.18124    439.78584    2344.7016    21259.856 
  139400    650.54165    3.7660101    172.13901    448.96745   -36.004655    21259.856 
139500        0.18982512277781277144 14.760378525074385081 0.16402116402116401206 17 115.67823400981814075
  139500    618.50505    2.1610274     142.0258    395.91244    1087.1741    22976.204 
  139600    704.39881    3.1612926    150.29648    469.40169    -279.9047    22976.204 
  139700    661.96131    6.1985722     137.7479    439.19335   -410.80259    22976.204 
  139800    640.15011    2.4167138    127.42097     406.7673   -1021.5369    22976.204 
  139900    761.57517  0.061533563    132.09549    469.97606   -502.84415    25171.132 
140000        0.18373648546863308173 14.852973694396629512 0.16402116402116401206 18 131.19696487265039764
  140000    611.79934    2.2236424    134.56769    408.39292   -1228.4563    25171.132 
  140100    656.72255    7.2466927    133.62926    436.64944    -517.2648    25171.132 
  140200    695.76949    3.2047098     132.7574    468.78116   -993.12934    25171.132 
  140300    603.09377    2.3831815    136.95365    425.27842     930.6642    25171.132 
  140400    726.79713    4.3177423    127.22104    434.38522   -25.298935    23604.687 
140500        0.1912145282249052558 14.774547267902192971 0.17989417989417988419 14 127.26713373009431507
  140500    676.22508    1.2759285     136.2444    433.65331   -297.11754    23604.687 
  140600    643.82086    1.0169349     131.4464    431.15562     834.4421    23604.687 
  140700    697.49263    5.4844319    127.95876    458.95998    417.61575    23604.687 
  140800    583.21359    12.926492    139.76511    386.95152    479.10024    23604.687 
  140900    750.01686    2.5604323    131.40951    468.64974    761.45947    23604.687 
141000        0.19584203794877808047 14.786261559313592429 0.18253968253968252955 11 100.09156510712713839
  141000    698.70321    2.7932257    121.67793     416.6622    598.26566    22586.034 
  141100    630.20687    8.1539979    132.02609    425.43001   -637.84471    22586.034 
  141200    736.94171    3.2264168    116.26392     455.2511   -332.43815    22586.034 
  141300    698.16528    3.9686328    113.82525    409.88107    236.12333    22586.034 
  141400    718.78985    4.7723041    138.50215    475.99417    533.01162    22586.034 
141500        0.20551806978570671958 14.87283685114353915 0.20634920634920633775 12 121.88271205531759733
  141500    697.86503    2.3930255    129.86271    438.07358    1551.6748    22586.034 
  141600    708.33311     6.692538    114.20436    430.03388    778.41235    22586.034 
  141700    751.92212    19.042012    127.09264    486.34092    296.38462    21523.935 
  141800    635.58748    3.6046653    123.85994    393.36717     1069.763    21523.935 
  141900     697.9805    4.3488355    134.95387    434.08686    -1438.941    21523.935 
142000        0.21107596353764682129 15.185195110730040469 0.23280423280423279131 21 118.22901657502917772
  142000    685.63013     9.147363    112.02022    428.87646   -872.81688    21523.935 
  142100    646.05051    4.0074645    119.57868    380.69225   -464.74019    24567.764 
  142200    699.28242    3.2992285    132.59766    442.08542   -120.39429    24567.764 
  142300     741.4698     2.061591    124.43222    423.02572   -844.70487    24567.764 
  142400    659.06039    1.4631949    93.012085    379.96916   -486.69747     22565.75 
142500        0.20533786990238070413 15.591764619829032057 0.21693121693121691917 16 157.18281832018277555
  142500    692.18283    6.1529291    142.34964    470.79918    757.57946     22565.75 
  142600    614.66411    1.2174728    152.03456    444.55089   -1629.5224     22565.75 
  142700    640.16873    3.1206687    132.88788     429.0788    -2720.555     22565.75 
  142800    733.08435    7.8216069    150.33154    482.82552   -447.75175    24024.144 
  142900    692.03634    3.3411521    141.79969    450.21615   -1108.6868    24024.144 
143000        0.20214926486143830475 15.555239513918296623 0.22222222222222220989 22 111.13878330393018246
  143000    656.89493    5.8551174    125.83411    408.76679    711.32029    24024.144 
  143100    610.71854    4.1041742    134.79038    403.13527    884.58155    24024.144 
  143200    676.69876    2.9633371    133.16668    457.33337    9.4040865    24024.144 
  143300    651.22288   0.81064798    140.41899    436.88624    2002.5284    22473.442 
  143400    632.78311    2.5304644    122.77249    414.99934   -642.67771    22473.442 
143500        0.19501786040418228607 15.569690251781400647 0.17989417989417988419 14 159.3616682626518184
  143500    675.41918    2.2239485    138.77284     465.3827    1906.2735    22473.442 
  143600    717.30131    9.6435132    116.18763    430.17619     -104.978    22473.442 
  143700    687.77621    7.8815004    166.86136     477.4036    895.48944    22473.442 
  143800    719.17047    2.6998916    124.42764     449.9685   -253.37844    23356.578 
  143900    648.92569    5.2436951    116.48806    441.86552     1977.705    23356.578 
144000        0.19972219389797246647 15.49001579295584996 0.18253968253968252955 14 147.91462295777239433
  144000    783.55498    3.8603016    150.90112    502.93016   -2518.4972    23356.578 
  144100    674.94829    6.7011607    145.57912    427.62181   -1841.4379    23356.578 
  144200    677.61924    7.3250453    129.64373    416.50112    -290.1852    23356.578 
  144300    728.44688    3.2795592    154.82781    475.68177    304.00204    26542.055 
  144400    636.26109    6.4582913    131.78638    404.23997    1830.6809    26542.055 
144500        0.22746591917563296903 15.174029668494737777 0.2037037037037036924 12 104.02524935140235129
  144500    683.11805    4.3361635    125.22353    413.53451    829.43037    26542.055 
  144600    659.99643     11.94762    158.73332    448.90805   -58.085863    26542.055 
  144700    679.87873    1.6019491    130.01291     414.4149    315.00753    26542.055 
  144800     638.1273    2.2908635    128.56111    384.06106   -475.69724    26542.055 
  144900    693.59704     1.524246    138.26322    459.54723   -1924.5921    27813.305 
145000        0.22619971021851723036 15.009631991097675652 0.19841269841269840168 11 112.94466054271896382
  145000    711.78791    4.5586152    126.60842    435.44375   -572.99939    27813.305 
  145100    566.61194    6.2774392    122.54543    365.81582    391.59123    27813.305 
  145200    667.63184    7.3030084    143.63572    430.97427    1227.9771    27813.305 
  145300    675.90973    6.0520749    135.28785    441.16889   -733.63685    28529.743 
  145400    776.32099    5.3960332    135.16144    485.66309   -1919.2656    28529.743 
145500        0.21813209787310749999 14.751609913657240725 0.18253968253968252955 12 130.68132281666220251
  145500    649.18179    5.8622765    143.03426    424.81464   -138.09099    28529.743 
  145600     745.1376    1.0378336    128.36578    435.41855    364.50145    28358.431 
  145700     633.8403    3.3263263    124.30726    394.87337   -252.21763    28358.431 
  145800    706.08249    6.4674642    135.65797    463.15285    119.84816    28358.431 
  145900    696.24991    4.3622151    145.67329    451.71939    557.99607    28358.431 
146000        0.19973265326450001522 14.507639723625853634 0.18518518518518517491 16 126.22584047124591677
  146000    673.56444    2.8259688    135.20098    431.40652    526.20209    28358.431 
  146100    694.71091    3.1154131    166.00034    501.72992   -180.79555     30324.74 
  146200     657.9994     3.585338    138.07773     429.3004    605.30149     30324.74 
  146300     697.5076    2.7969756    146.34513    464.60435    1160.1397     30324.74 
  146400    735.81594    1.6461787    132.56684    477.48974    1685.8163     30324.74 
146500        0.18884640584567755073 14.265431475318861132 0.1613756613756613667 10 119.79168695701648062
  146500    690.27884    1.8855614    112.95347    432.54538   -737.68782     30324.74 
  146600    724.23417    4.3338154    137.92755    493.52235   -561.49185     30324.74 
  146700    666.48821    3.3349929    119.83587    437.79743     741.6693    29314.225 
  146800    668.47897    6.2348162    138.91911    457.43183    -845.0061    29314.225 
  146900    660.72501    6.7903852    143.04519    483.92905    568.59361    29314.225 
147000        0.183887016508509471 14.170228129247156801 0.1613756613756613667 18 184.16848908317459177
  147000    724.08212    1.6832823    148.88985    512.23788   -766.36609    29314.225 
  147100    714.06061    7.5481437    112.18863    451.00697   -1126.7354    29314.225 
  147200    745.94339    0.2216264    147.89951    472.45318    119.42998    29314.225 
  147300    642.91045    6.5057586    129.77826    438.62051    314.24681    29626.621 
  147400    694.33875    4.2531371    133.34517    465.10969   -322.84806    29626.621 
147500        0.20456994934205469105 13.922022722759793467 0.18783068783068782026 15 127.96072967108459295
  147500    742.16101    3.7176928    121.68317    464.22136   -970.42107    29626.621 
  147600    682.78918    9.0075341    111.64421    421.76286   -441.49025    29626.621 
  147700    736.53633    7.6098862    139.36316    481.60507    485.22569    29626.621 
  147800    722.49323    7.6677432    121.66336    452.72916   -359.98793    28384.073 
  147900    671.68606    1.7792598    135.03294    419.19943    928.86161    28384.073 
148000        0.20715034086633027366 13.994524208392617126 0.19312169312169311097 16 150.65007109581375744
  148000    738.91983    7.6383933    144.98919    485.44218   -414.47581    28384.073 
  148100    647.40467    4.5772583    128.26524    413.13858   -544.50423    27631.953 
  148200    755.22242    7.5366439    119.05399    454.86893    375.21068    27631.953 
  148300    676.70207    3.8503368    142.33424    452.39237   -597.02812    27631.953 
  148400    612.88313    2.6371674    118.13202    389.10308    14.224837    27631.953 
148500        0.19972498163901192259 13.795808480310549626 0.17195767195767194813 19 147.61612815910433483
  148500    680.54217    3.7216905    140.18462     455.9583   -417.09607    24847.639 
  148600    748.14516    1.3039185    130.01186     473.5382    1326.5552    24847.639 
  148700    675.97668    4.7301738     124.7382    425.28588    195.89653    24847.639 
  148800    634.52895   0.66162475    141.88187    428.38755   -69.360304    24847.639 
  148900    769.70185    1.4186384     146.3798    470.58792    1107.3507    21541.723 
149000        0.19797312648031578641 13.522980145467156987 0.16666666666666665741 26 130.46292970200317995
  149000    678.59061    1.0588635     118.1291    437.92089   -586.09916    21541.723 
  149100     764.3171    2.7064241     149.8755    517.13552   -1885.2381    21541.723 
  149200    706.28652    4.8512842    132.89537    455.26637   -796.50304    18157.707 
  149300    661.02825   0.80597759    131.59316    449.93837     344.3855    18157.707 
  149400    729.26596    4.7290833    157.39073     511.3764    -1130.161    18157.707 
149500        0.188601436403336431 13.191303053811108015 0.19047619047619046562 21 140.19802246129592049
  149500    675.33532    1.7278735    135.23528    446.18106   -218.66513    18157.707 
  149600    718.93664    3.1318779    136.75702    466.62671   -561.96982    18565.709 
  149700    731.11532    3.3080372    149.52755      493.022    85.003887    18565.709 
  149800     612.7956    2.7260644    151.09195    427.06322    476.42934    18565.709 
  149900    756.08909    2.0961433    148.98683    491.52008    324.39687    18565.709 
150000        0.19358315207745366293 12.982171695991675975 0.19312169312169311097 25 145.25772805577221902
  150000    707.93212    3.9012003    150.01761    466.00983   -807.61595    18565.709 
  150100    710.21023    7.4190166    152.63502    457.03598   -1568.9753    16151.122 
  150200    637.38812    10.597575    171.91304     461.5349    63.609812    16151.122 
  150300    673.00588    7.0903348    142.26245    441.53357   -58.437952    16151.122 
  150400    678.71008    3.3227827    127.21586    460.05085   -1286.7953    16151.122 
150500        0.20953415943329609106 13.060983129591967611 0.21957671957671956453 32 166.38594370624753083
  150500    734.73974    1.9707017     166.0295    499.28412   -1351.8064    18488.963 
  150600    644.79182    5.8369138     124.3028    428.63117   -2297.3649    18488.963 
  150700    768.45507    4.6434073    137.27898    481.84589    723.42725    18488.963 
  150800     722.4113    4.6742195    125.54783    439.28736    900.64428    17865.889 
  150900    737.07164    7.4869269    117.98429    445.73866   -1610.4888    17865.889 
151000        0.21170521446163922952 12.965350443015658755 0.21693121693121691917 25 150.41812257065859626
  151000    789.22839    3.8924424     156.5069    508.00419   -936.78695    17865.889 
  151100      753.025     4.042907      121.642    451.68692    727.43027    17865.889 
  151200    648.21782    2.2682204    133.54651    416.94528   -1577.0138    19026.647 
  151300    791.08848    5.0097982    138.17858    479.32519   -519.09269    19026.647 
  151400    624.10077    6.1658192    153.18563    444.84014   -164.80113    20910.113 
151500        0.17875671025605185949 13.131096036618481904 0.16931216931216930277 20 142.51253700192555129
  151500    684.80915 0.0029693685    141.32424    452.78801   -1382.0463    20910.113 
  151600    663.96827    9.2100122    158.98978    488.83508   -1198.9408    20482.661 
  151700    648.05335    5.3831438    132.14408     431.6698    1074.9482    20482.661 
  151800    734.16265    1.3657303    147.64259    483.21918   -710.07671    20482.661 
  151900    753.12064    7.2308091    123.94853    469.20166    919.12161    20482.661 
152000        0.16216890312992354728 13.283236257372125877 0.16931216931216930277 19 135.99281403584012651
  152000    618.75895    1.5478644    131.29488    416.34206    2152.3966    20441.332 
  152100    684.29579     3.033187    126.16148    465.25217   -2753.7712    20441.332 
  152200     774.4362   0.15247307    140.21411    481.99263    1437.0226    20441.332 
  152300    660.29551    2.0132159    120.99655    423.81474      -744.07    19896.294 
  152400    701.95949      2.21046    131.91236    451.39509    298.21657    19896.294 
152500        0.16287659169861318231 13.211541413277073431 0.18253968253968252955 19 115.72346029020448555
  152500    762.43944    5.3981941    118.01386     461.1719    1566.4449    19896.294 
  152600     728.3605    11.217563    131.48384    478.48986   -261.46649    20024.132 
  152700    717.31953    4.0627413    121.26741    457.02961   -1273.8246    20024.132 
  152800    736.57248    1.6147671    114.38536     429.6916    1277.5316    20318.603 
  152900    743.71271    7.7348184    139.94388    507.98714   -1586.0744    20318.603 
153000        0.15228332390251428374 13.108465871509476841 0.16666666666666665741 23 135.96596841880705142
  153000    688.14219   0.80692702     150.0571    447.75158    114.44313    20318.603 
  153100    713.55871    1.1799762    135.92553    458.50819   -20.153219    21294.791 
  153200    843.91494    13.170454    132.32411    519.49251    1017.9678    21294.791 
  153300    664.41843    3.6952883    162.27138    448.87403   -1177.2649    21294.791 
  153400    693.60883    5.8761023    136.14355    421.52179    811.85809    21294.791 
153500        0.15469339473972390508 12.734977178265920017 0.17724867724867723884 27 126.56175618400604321
  153500    793.14294    4.8040548    134.54116    485.92144   -478.83287    21294.791 
  153600    638.01405    7.2692183    144.86837      433.227    933.03113    20210.251 
  153700    685.24801    1.6849682    142.43194    445.32664   -2557.0602    20210.251 
  153800    700.50109    3.6383263    128.34087     446.8955    -69.03891    20210.251 
  153900    715.85319    2.8974964    113.10296    438.39247   -158.97766    20210.251 
154000        0.17420210113275305663 12.522566542645751753 0.17195767195767194813 20 151.4739655562874816
  154000    742.14437    2.1824072    129.87585    487.72706     -521.134      19716.4 
  154100    654.61046    3.3201815    133.00862     426.5593    414.34458      19716.4 
  154200    675.43748     4.373322     139.6929    455.02465    913.33142      19716.4 
  154300    716.65565    5.7553492    137.74125    468.39661    523.26989      19716.4 
  154400    694.00635    2.3303459    115.38799    408.99462    771.72697      19716.4 
154500        0.17699761870943719888 12.326291054250678059 0.19312169312169311097 20 137.60670880247712944
  154500    721.42277    7.7983362    143.50817     464.4712    2202.4515    17780.811 
  154600    715.77008    3.2724968    136.21286    460.19517   -13.220833    17780.811 
  154700    660.46684    5.6939395    137.93372    414.96005   -666.05456    17780.811 
  154800    605.79564    17.169552    141.92054    412.34428   -833.40022    17780.811 
  154900    753.39937    4.7080919    132.00037     487.6351   -2312.5065    17780.811 
155000        0.16697803542547776101 12.287411989751287678 0.17989417989417988419 25 143.81712366560137184
  155000    710.39394    3.1212859    132.98119    465.68463    1332.8763    19484.325 
  155100    710.07853    1.1857335    124.22499    450.94653     -556.992    19484.325 
  155200    803.05597    7.1355194    156.13989    505.47417    -2067.891    19484.325 
  155300    706.30222    8.1098154    130.31216    438.78796    32.841987    19484.325 
  155400    727.29479    2.2296289    120.48639    467.96939   -366.42381    23099.888 
155500        0.16632011734088705812 12.347769276955784079 0.17460317460317459348 24 150.82013798095229618
  155500    809.71032    7.5741417    143.18832    517.68622   -1230.7412    23099.888 
  155600    705.95165    4.1185725    151.71587    466.11347    433.47128    23099.888 
  155700    671.22104    9.2155931    132.87373      428.584   -257.80747    21517.849 
  155800    788.22382    2.9519051    141.74831    512.97337   -518.68002    21517.849 
  155900    739.61452    2.6143345    137.76195     467.9814    746.87988    21517.849 
156000        0.15516651297124794961 12.30333820074930351 0.15608465608465607599 27 142.11103185071351618
  156000    700.67803    4.2000718    129.43476    459.57642   -549.08506    21517.849 
  156100    761.89581    8.1954234    128.58534    493.33476    126.14219    20855.741 
  156200    684.20136    5.6020657    139.35488    441.67396    839.81829    20855.741 
  156300    730.69663    7.8499338    122.81351    466.44943  -0.45352608    20855.741 
  156400    809.90745    8.2323188    128.03337    476.03824   -1042.3115    20855.741 
156500        0.14477939106075621289 12.62623538519628319 0.11111111111111110494 24 117.98315746888918909
  156500    671.73238    1.1154183    115.23921    422.33377    468.29419    20855.741 
  156600    720.29551    6.3264603     144.2216    489.16264   -1797.9706    23066.533 
  156700     692.2798    8.2705635    144.36197    480.44659    778.59572    23066.533 
  156800    654.52335    10.795324    142.82151    439.51948    1352.2565    23066.533 
  156900    728.30216    2.9522672    146.46293    489.30096    1129.6449    23066.533 
157000        0.14670949661521376362 12.584109550762297758 0.095238095238095232808 25 154.10754189395836988
  157000    716.74567    1.9762772    142.89258    478.85291    4.5986028    22111.251 
  157100    618.86384    5.2172749    124.34724    403.61476   -1569.4544    22111.251 
  157200    700.80698    1.6251878    134.03588    457.83464    28.232992    22111.251 
  157300    751.01046    8.3655392    136.82674    512.59796    870.19428    22111.251 
  157400    741.25075    11.700636    145.32942    496.13195    721.31121    22111.251 
157500        0.15822623314378619908 12.640678670535100636 0.11111111111111110494 17 150.17231542539602174
  157500    751.44029    6.6884811    145.67444    490.63723    808.15161    20213.885 
  157600    598.64702    3.1376398    134.34762    424.60872    929.18408    20213.885 
  157700    719.43972   0.65807725    132.67815    460.86057     987.9733    20213.885 
  157800    774.28614    4.3012253    141.84119    496.02554    -898.8375    20213.885 
  157900    662.46614    5.2852504    152.40676    463.31178   -726.71307    20059.964 
158000        0.1620634533515389053 12.637913790857357554 0.13492063492063491315 15 152.13261561624528895
  158000    673.64838    6.3542651    143.99878    457.35133    1268.2943    20059.964 
  158100    788.67551    7.4831134    126.55918    493.49072    760.95249    20059.964 
  158200    764.58072    1.7886775    109.35093    466.49278   -983.93838    20059.964 
  158300    747.12609    2.6898339    141.59566    480.76993   -1056.9834    18658.856 
  158400    762.66203    6.4822354    139.71384    479.05012   -1136.4543    18658.856 
158500        0.17514721169145464064 12.542314340962175123 0.15608465608465607599 22 120.1737761920001617
  158500    706.12053     8.954658    128.10091    440.10507    10.313229    18658.856 
  158600    766.41822    5.9592292    128.11075    468.82578    211.04071    18658.856 
  158700    734.30573    10.906384    144.66869    491.30317   -29.961187    20266.847 
  158800    630.11619   0.55739648    147.72308    425.15848   -44.265359    20266.847 
  158900    716.14892    4.3968168    143.40289    482.75077   -222.78773    20266.847 
159000        0.17768139565024240745 12.679382086089528769 0.15079365079365078528 19 144.2661474483368238
  159000    737.56745    3.3950313    117.88385    478.44552    1286.4542    20266.847 
  159100    663.24875    7.0455718    124.85001    421.12927    -1042.683    20266.847 
  159200    732.49717     9.459765    130.59603    482.10399   -1516.9262    20346.082 
  159300     723.8137    6.1648063    135.83933    472.32839   -357.46717    20346.082 
  159400    757.81088    7.3798921    131.36733    472.37403    809.62637    20346.082 
159500        0.2111876954914506388 12.687028483672383672 0.19312169312169311097 19 185.29188989099932883
  159500     743.3921    7.5103415    155.97595    522.11031    907.23399    20346.082 
  159600    708.83475    4.1864789     121.5347     440.7298   -58.562935    22187.888 
  159700    687.21664    6.2376742    150.24162    488.28867   -1372.7089    22187.888 
  159800    709.84306    7.0473178    163.38234    496.07045    588.77895    22187.888 
  159900    664.12213    3.7710385    146.44045    476.18223    1144.5313    22187.888 
160000        0.21960023498181113766 12.693921400695440838 0.21164021164021162846 21 162.03843621718300483
  160000    763.64793    2.3536433    143.40237    508.03443   -1715.0524    22187.888 
  160100    709.89806    1.8808358    124.64364    438.81773    1070.8457    24304.451 
  160200    726.07306    4.2614892    127.28907    472.85366    1472.2349    24304.451 
  160300    742.75416    5.9792553    145.30785    484.19903     350.0318    24304.451 
  160400    615.22977     4.774817    111.68766    411.84838    442.99177    24304.451 
160500        0.22250951411821578985 13.040884447543897195 0.22222222222222220989 20 157.3736937302863339
  160500    746.78754    7.5670539    133.51188    495.73053     1245.506    24304.451 
  160600    714.21018    10.286555    132.19412    456.79315    518.04367    30640.807 
  160700    712.97926    6.8881621     129.8668    440.45042     72.08652    30640.807 
  160800    709.45558    7.5670668    146.78693    485.26709   -2205.1444    30640.807 
  160900    763.93772    2.1418328    138.47646    494.15688    1040.2328    30640.807 
161000        0.21559791268397451858 13.538945493405810439 0.19576719576719575633 12 137.44504314460459682
  161000    661.97083    7.2676807    127.68258    437.37286    544.25453    30640.807 
  161100    807.46948    14.723454    132.63803    503.50284    1407.3217    32459.752 
  161200    678.43921     1.952077    127.03061    438.95129   -481.04895    32459.752 
  161300    763.40627     4.553382    126.70709    480.05478   -796.40605    32459.752 
  161400    742.44165    7.0815572    143.65773    470.40765   -6.2734782    36255.413 
161500        0.21871054175523468865 14.122986800164321508 0.23280423280423279131 25 120.05830182138481632
  161500    756.68177    1.4589006      137.674    462.89804     9.738611    36255.413 
  161600    779.37761    4.0015136    124.89699    462.20501    340.31075    36255.413 
  161700    736.57622    6.5541915    173.34793    525.91521   -128.52381    35293.745 
  161800    754.07508    2.4682295     132.2338    481.38147   -670.36049    35293.745 
  161900    657.24107   0.78822574    163.79375    477.14717   -647.57652    35293.745 
162000        0.19969841284695882822 14.813685009037346418 0.21428571428571427382 26 163.96533143988395409
  162000    731.06751    6.4498626    147.21241    495.19969   -102.83816    35293.745 
  162100    695.26112    6.3955868    135.06286    448.28269   -352.06507    36340.173 
  162200    730.08665    4.3683662    148.02408    513.20913   -854.29504    36340.173 
  162300    654.41288    1.4403998     129.2674    438.25789    520.40386    36340.173 
  162400    721.57677    4.0481461    147.00401    471.66401    388.10497    36340.173 
162500        0.20534997137002836132 15.531040749670097512 0.24867724867724866344 25 127.87610565131313933
  162500    831.44708    2.8945204    142.76685    504.59075    1838.2309    36340.173 
  162600    632.87872    4.2017238    135.88938    424.94212   -1101.0715    41119.481 
  162700    716.85286    7.6998491    146.48136    480.80356   -519.32555    41119.481 
  162800     735.8804    3.0520325    145.18666    503.75112   -294.57162    41119.481 
  162900    695.17913    6.7606585    140.22483    474.05411   -363.43478    41119.481 
163000        0.19138475150301015315 16.087079778358337023 0.2037037037037036924 12 153.49696020983341782
  163000     740.3106     6.647707    142.72669     488.9192   -435.79314     42924.21 
  163100    811.36901    5.0968135    147.82634    529.43202   -243.58734     42924.21 
  163200    677.22372    1.0748811    154.40043    465.37347   -411.45616     42924.21 
  163300    727.83554    2.4996743    152.36974    506.44271   -333.34748     42924.21 
  163400    771.65848    7.5895818    144.20862    503.92107   -6.7887145    50053.477 
163500        0.16015716128363136073 16.370223383599455502 0.1613756613756613667 12 128.45585146230496321
  163500    762.42914    2.0349111    124.31667    473.89963   -270.37102    50053.477 
  163600    775.73896    2.0222086     153.8683    515.87798    646.48328    50053.477 
  163700    687.72704    9.6658135     129.2125    450.39111    1260.4124    50080.776 
  163800    745.43636    6.9989579    143.16893    493.60322     -144.091    50080.776 
  163900    759.20354    1.4500088    168.42268    538.26941    -208.0411    50080.776 
164000        0.1492208312059068176 16.643655154968385546 0.18253968253968252955 11 147.2755589408313881
  164000    723.78833    2.7600192    137.52415    475.21184    186.43736    50080.776 
  164100    696.23888    1.2208715    124.11457    463.99937   -163.49698    50080.776 
  164200     791.2812    3.5651175    152.85196    523.15637   -203.35818    51233.736 
  164300    685.28867    6.9491035    142.24922    453.62709    10.429174    51233.736 
  164400    742.86984    3.3524474    141.68799    481.96643   -370.50515    51233.736 
164500        0.14798706781998516302 16.995946788757994028 0.17460317460317459348 13 148.18109497679500919
  164500    767.71823   0.64389633    143.05839    496.02127   -53.319724    51233.736 
  164600    655.50789    4.3627871    128.97792    413.42549    619.51339    51233.736 
  164700    781.90591    1.9845195    138.82299    478.83728   -194.11885    51407.412 
  164800    711.35336    3.5595216    138.65867     478.7241   -810.63378    51407.412 
  164900    630.52475    1.4555655    153.93964    425.40814     743.8116    51407.412 
165000        0.13912179445063105332 17.029486894270991826 0.17989417989417988419 18 139.92863287699961461
  165000    782.84786    3.4183135    135.21889    494.62379   -45.792043    49294.125 
  165100    657.41478    4.1972358    136.91419    442.04473   -229.28375    49294.125 
  165200    678.98251    2.0100951    151.23741    461.78104   -325.20164    49294.125 
  165300    700.31517    12.557842    157.93328    476.91215    649.40729    49294.125 
  165400    754.78823    1.9009809    148.23911    497.44138    752.50587    46659.689 
165500        0.13637683591679777839 17.326352523143803808 0.19312169312169311097 19 131.74096214631811108
  165500    692.83866    5.4321106    139.15457    445.65447    371.14568    46659.689 
  165600    744.35838    4.3134745    153.68253    514.79335   -514.40615    46659.689 
  165700    704.22636    0.3695066    149.03283     491.9784    -110.4514    49460.717 
  165800    751.90584    4.2494642    128.45165    491.03713   -38.045191    49460.717 
  165900    874.63891    3.0326374    167.18651    555.28693    81.154839    49460.717 
166000        0.14453399670199101879 17.51314976784713906 0.19312169312169311097 23 143.7938485466813745
  166000    735.05334    6.0164279    127.96546    476.83411   -567.10912    49460.717 
  166100    775.40712    2.7506685    124.72281    477.05019   -225.14705    49460.717 
  166200    745.73054     2.459838    116.89745    444.68126    182.39809    46921.355 
  166300    815.48765      7.93225    124.38735    515.80173    232.98169    46921.355 
  166400    719.19968    9.3086746    120.76163    471.12418    588.42424    46921.355 
166500        0.14147578428393950412 17.810349386645022207 0.21164021164021162846 25 103.75571150844389479
  166500    626.31985    9.4300445    120.17777    387.53067      106.067    46921.355 
  166600     766.3291    1.2351684    130.39679    477.29846   -895.64329    46921.355 
  166700    836.64043     8.855315    133.61145    530.08101   -571.82824    46134.375 
  166800     719.2644    2.3452773    138.26443    474.51838    738.62809    46134.375 
  166900    757.71091    6.0148273    132.97121    514.36109    34.516561    46134.375 
167000        0.11831209150966476296 18.200805987665635399 0.16402116402116401206 12 152.48063208802867052
  167000    765.37694    4.6504588    142.90103    499.26001    265.15129    46134.375 
  167100     701.4457    3.8409131    143.23083    470.72258    -712.8733    50421.164 
  167200    807.76325    15.554403    168.41069    547.85892    466.84387    50421.164 
  167300    722.81826     5.907794    154.56134    491.69676   -234.34347    50421.164 
  167400     738.8449    6.3916534    166.76333    513.32898   -718.70695    50421.164 
167500        0.10610663818983799567 18.588936141695750592 0.13227513227513226779 11 171.01618296003903197
  167500    810.10704   0.81793301    152.00092    538.06201   -185.25864    50421.164 
  167600     751.2502   0.71681156     141.0027    497.97695    281.97083    50421.164 
  167700    746.38239     4.071106    139.39093    483.54842     285.3748     55105.01 
  167800    736.69902    9.1140057    156.79009    537.71657   -283.33429     55105.01 
  167900    672.37635    4.3192488    154.42389    477.30965    196.14413     55105.01 
168000        0.10911292722454417337 18.757227288591693082 0.084656084656084651385 13 175.88591991433256112
  168000    720.47515    3.3540829    165.10123    502.32106   -452.84954     55105.01 
  168100    828.51987    1.9054187    163.54122    572.92063    460.35908    53912.828 
  168200    687.54156    7.6396389    127.68064     472.0882   -61.954702    53912.828 
  168300    755.87682      6.18214    142.26597    539.10098   -712.89273    53912.828 
  168400    739.34994     5.506864    154.27208    505.92133    448.22994    53912.828 
168500        0.11800737991351079037 18.840510224835199438 0.10317460317460316888 12 144.63875830139599543
  168500    740.89565    2.7235151    139.95259    480.32607   -323.92814    53912.828 
  168600    767.60128     12.21915    157.97668    518.56391   -312.91554    58831.725 
  168700    644.03018   0.64511535    142.96859    437.83897   -433.42751    58831.725 
  168800     753.6092    3.9407033     133.7258    492.50113    303.32191    58831.725 
  168900    724.62056    6.2400792    138.72761    499.60988   -530.72944    58059.166 
169000        0.12215219028504080423 19.109272477460571338 0.12433862433862433172 14 143.85959349464386037
  169000    759.61751    3.6921176    126.36227    488.02947    -659.7503    58059.166 
  169100     769.9589    2.5308789    140.13629    497.50392   -47.372271    58059.166 
  169200    710.01108    1.7778162    130.02848    456.05144   -317.83209    58059.166 
  169300    730.71292    3.2931428    136.82152    464.68048   -332.07022    58059.166 
  169400    768.59027    9.0622014    144.95167    504.80324    393.98009    63419.483 
169500        0.12567348355135035676 18.996516478525922622 0.13227513227513226779 14 154.10248970514126654
  169500    729.86976    8.6620089    148.02806    484.79416    138.55504    63419.483 
  169600    726.47339    2.0753429    120.07778    491.32332    465.45392    63419.483 
  169700    838.93455    20.575647    154.31147    575.12805    42.094955    63419.483 
  169800    731.95519    8.6293032    155.66141    519.93667   -227.56806    63810.802 
  169900    818.10076    1.5380389    129.07745    513.03196    665.49672    63810.802 
170000        0.12620206438976142027 19.104375065223752728 0.13492063492063491315 9 123.98088237175308279
  170000    760.30114     5.691418    129.74178     468.4605    68.125963    63810.802 
  170100    741.20728    3.9848739    169.61886    507.19832    48.560563    63810.802 
  170200     742.2183    2.3887602    151.16045    500.65614   -369.68282    63753.576 
  170300    732.78694     5.173642    136.27749     469.4514    29.508928    63753.576 
  170400    714.79814    6.5971744    153.48322    492.63084   -276.19864    63753.576 
170500        0.12256170026430592002 19.325539745095660749 0.14550264550264549457 15 179.10310983392835738
  170500    768.56298    8.9129995    157.78814    527.32603    664.94816    63753.576 
  170600    797.56329   0.71873794    168.07534    562.40686   -131.08498    63753.576 
  170700    738.59988    4.6397405    131.23332    483.98676    121.91555    67121.144 
  170800    726.57984     4.236699    150.52285     475.7149    -71.56338    67121.144 
  170900    681.94263    2.8703163    136.41625    448.61687    271.43279    67121.144 
171000        0.12135542139629731939 19.53331852441684191 0.14285714285714284921 24 168.28723420590532101
  171000    766.06016    9.4969985    154.68794    515.37617   -19.587725    65636.177 
  171100    706.00632    3.9826516    138.08734    470.36679    -117.7854    65636.177 
  171200    695.63799    1.2782427    110.14178    438.73904    89.670386    65636.177 
  171300    749.19859    4.6452361    134.30744    506.94625   -259.90581    68320.053 
  171400    783.89168     5.689149    150.54166     518.3544    464.42172    68320.053 
171500        0.11637334184931477643 19.957022942019072786 0.12433862433862433172 17 139.84301175339913925
  171500    683.00339    3.9346956     123.6389    449.30032    10.456202    68320.053 
  171600    792.91017    4.2569621    121.44876    480.81724    305.17937    68320.053 
  171700    755.97353    7.2553451    148.90734    521.19996    109.03911    73718.827 
  171800    838.18012    5.5986385    155.11856    557.15539   -62.631513    73718.827 
  171900    678.65156    7.5879403    156.45905    481.84098   -9.8445748    73718.827 
172000        0.11938835902124035615 20.383322144701427447 0.1375661375661375585 14 169.94451930898569003
  172000    766.63848    5.1433095    154.19929    517.29548   -85.819403    86104.819 
  172100    749.46402    8.1013075    137.05546    517.09418   -303.92631    86104.819 
  172200    704.92077   0.36594104    140.12651    466.21399    233.66046    86104.819 
  172300    762.14272    3.2345037    147.88985     526.2358   -475.07232    86104.819 
  172400    696.03557     6.807168    147.31595    495.57977    503.99846    81653.359 
172500        0.12874101628071110692 20.660243066191185335 0.15343915343915343064 14 127.40460585017348194
  172500    645.64077     2.443421    121.02029    419.93355   -23.106876    81653.359 
  172600    732.44966    5.6392921    126.17327     481.0692     92.23942    81653.359 
  172700    829.03473    7.8003751    139.21241    537.23481    99.376649    81653.359 
  172800    735.90779    8.3832057    128.43752    503.14287    263.59955    87069.705 
  172900    665.63597    2.9539129    143.36643    447.99748   -169.62021    87069.705 
173000        0.1319238825055971398 21.053263145803164491 0.17724867724867723884 14 170.44402597175576375
  173000    802.72604    6.5577482    141.32693    534.14565    226.78398    87069.705 
  173100    701.89629    14.146745    147.37741    496.33157    61.634712    87069.705 
  173200    799.50878    2.7879793    152.92225    556.74092    44.398956    87712.662 
  173300    707.88769    5.4221464    121.19326    487.54691   -516.96629    87712.662 
  173400    789.03358    5.4810638    114.23536    500.49084    83.507865    87712.662 
173500        0.12782312667409662099 21.744381671403825607 0.17724867724867723884 15 154.18511174379253248
  173500    895.55529    2.9997909    141.48606    559.94611    -35.91743    87712.662 
  173600    682.55976    2.0219912    141.35227    474.99376   -184.89958    88053.003 
  173700    814.22884   0.84494469    140.43531    521.50674    191.95855    88053.003 
  173800    716.63516    3.3490617    136.63067    475.82374    265.29175    88053.003 
  173900    748.74012    7.2671073    139.67081    481.85073   -296.54313    87133.845 
174000        0.11035368841980390531 22.503793096924823658 0.16402116402116401206 18 200.87474202543438651
  174000    720.79354      2.00426     171.7177    527.45413   -102.34762    87133.845 
  174100    762.86968    5.3174237    137.94153    483.54925    314.98729    87133.845 
  174200    736.29522    5.2185792    139.85098    487.92127   -134.69556    87133.845 
  174300    759.60405    3.0442947     160.9284    543.73898   -411.67594    87133.845 
  174400    590.05618   0.36564642    170.82949     473.0593   -110.67361    95905.704 
174500        0.12049442769665631714 23.365741487910259622 0.14285714285714284921 14 175.75064500151205493
  174500    741.33376      4.78646     143.4705    511.63646   -116.29517    95905.704 
  174600    725.93727 0.0037252545    145.64125    494.09234    8.0849211    95905.704 
  174700    744.73975    4.6838207    122.30091    478.73943   -82.739412    95905.704 
  174800    765.07745    11.834089    149.50928    526.05507   -161.68243    100317.05 
  174900     775.9251    4.1733255    113.36449    486.15633   -113.36539    100317.05 
175000        0.11731173610254588824 23.869550136042086308 0.14021164021164020386 15 192.88251058613545297
  175000    773.50112    8.5661407    163.78825    543.34282   -263.42538    100317.05 
  175100    743.43073    5.0828017    165.66201    507.52382   -21.930521    98426.749 
  175200    769.96905     6.047827    131.36203     488.6608    49.200297    98426.749 
  175300    802.07633    6.2755362    145.55366    533.65022    276.30777    98426.749 
  175400    632.43154    1.7462841    155.15587    458.54832    94.950702    98426.749 
175500        0.12815962100828451331 24.458092914573413168 0.14550264550264549457 10 147.70376062383144244
  175500    802.56736    1.5400116    138.16021    511.33349    85.983026    105624.48 
  175600    784.08903    7.1224933    150.25827    530.90057    330.82331    105624.48 
  175700    693.56706    2.6696877    130.40067    457.30979   -31.783377    105624.48 
  175800    740.50483    2.0098378      183.585    504.06457     279.1365    106167.65 
  175900    677.14905    1.7201717    133.02366    432.85399   -88.100709    106167.65 
176000        0.12829396501965506516 24.877327031591430995 0.14285714285714284921 14 137.98630145108299416
  176000    761.63062    3.2542243    135.06579    483.06829    31.625573    106167.65 
  176100    772.77939    2.5548997    157.70662     516.2813   -0.6849293    106167.65 
  176200    758.88835    1.8674276    113.32123    470.59312   -54.722967    106167.65 
  176300    813.08922    7.0588208    161.09556    549.61017    -274.1554     114061.4 
  176400    760.49876    10.102934    129.56762    493.64963    213.54904     114061.4 
176500        0.11151664255821250316 25.389676746210287916 0.11904761904761904101 14 153.40291250177006077
  176500    712.91149    5.0977941    139.08852    476.41108   -90.690933     114061.4 
  176600    767.86586    3.7902551    157.75462    536.03593   -175.86477     114061.4 
  176700    815.23223    1.2810167    149.06593    537.02161   -47.013906     114061.4 
  176800    705.05487    1.5977336    139.27521    480.80929   -153.97131    118608.33 
  176900    732.64775    1.4817851    188.71616    525.06163   -251.49409    118608.33 
177000        0.11860978567395612238 25.60850262543938527 0.11640211640211639565 10 174.28610415909858489
  177000    726.79173   0.51814004    170.62446    503.58317   -287.60181    118608.33 
  177100    813.86857    3.5965067    139.79551     522.4033    -91.45719    118608.33 
  177200    808.67256    3.2613788    161.84554    567.40024   -38.869894    118608.33 
  177300    761.35172   0.37584475     167.1203    517.28496    116.05632    122107.41 
  177400    746.76703    2.4523168     168.0747    503.50258   -50.668459    122107.41 
177500        0.11206673006498553413 25.64243785716815438 0.11640211640211639565 18 174.54352733128899899
  177500    855.17739    4.7393176    171.26427    562.00997    281.46056    122107.41 
  177600    757.64956    2.4503376    158.62031      517.872   -121.79371    122107.41 
  177700    717.72716    3.6282369    159.50876    503.48521    137.38969    122107.41 
  177800    757.08386    3.1803905     168.5363    532.10662    327.91409    130560.04 
  177900    748.68362    4.3837436    160.94438    521.54486    20.454021    130560.04 
178000        0.11278255924615154804 25.652705658638573993 0.10317460317460316888 15 143.38082020846181308
  178000    709.54852    8.3458399    144.85966    464.86528    15.231639    130560.04 
  178100    771.01563    3.2729686    176.53602    521.80913   -71.343278    130560.04 
  178200    745.33984    7.4445125    158.85193    516.58964   -130.19824    130560.04 
  178300    728.62091    12.920595    120.43141    443.44378    188.99516    125676.54 
  178400    692.13404    9.2255491    186.95682    502.29098    86.432829    125676.54 
178500        0.11206804028873972034 25.394612081203163712 0.10582010582010581423 10 147.39105673427209808
  178500    766.72567    1.2410988    128.85539    494.78152   -20.836202    125676.54 
  178600    813.03751    4.7345179    142.70167    511.86036    482.43979    125676.54 
  178700    863.23162    7.3227847     130.8517    545.51276    205.74035    125676.54 
  178800    646.25597   0.38153496    167.69323     487.0574   -42.785146    123788.75 
  178900    744.31382    3.5735948    158.05394    541.75569    101.74055    123788.75 
179000        0.12007027001576214831 25.123343472313401037 0.15079365079365078528 16 159.64303159381222486
  179000    699.94045    2.3445257    151.51261    476.77424   -211.14277    123788.75 
  179100    745.40099    4.0762338    158.39162    505.71942    243.18368    123788.75 
  179200    814.44377    7.7096773     154.2493    540.74504    102.34747    123788.75 
  179300    740.35351   0.99692856    162.87232    516.36457   -344.54146    115045.89 
  179400    755.40073    3.3253914    181.93618    546.55249    205.72982    115045.89 
179500        0.11546481388128214396 25.053117039518628673 0.13492063492063491315 15 215.87711868019431449
  179500    846.39172    8.3383543    185.21808    599.36293   -35.967475    115045.89 
  179600    740.74305    2.6075334    156.59987    508.35494    66.689094    115045.89 
  179700    756.51865    2.0443509    131.33068    506.35475    69.390375    121387.45 
  179800    890.51756    4.7327483    155.73225    577.95454    120.24832    121387.45 
  179900    752.21684    1.0330449    154.64064    503.59423    54.874034    121387.45 
180000        0.11209922675562145056 24.983478953863826888 0.10582010582010581423 12 186.01828036021603907
  180000    747.99263    7.3180244    163.89393    524.92112   -144.91482    121387.45 
  180100    728.14077    5.2321741    168.64715    523.90203    128.20092    121387.45 
  180200    767.85987    4.7076823      151.369    512.93264    271.47566    124212.52 
  180300    712.84496    3.3261073    136.23733    470.92064    346.67638    124212.52 
  180400    808.66249    8.0097819    137.89714    507.71287    81.061729    124212.52 
180500        0.11806776946217634183 24.830182455557306298 0.13492063492063491315 12 172.89265271358090104
  180500    799.60065    4.1630269    137.79033    535.17822    60.907836    124212.52 
  180600    739.17925    2.9931248    146.45227    497.58381   -6.0074084     131796.2 
  180700    716.37486    12.818447    157.51149    525.34237   -74.284436     131796.2 
  180800      811.852    2.4482766    175.26045    560.63074    145.43514     131796.2 
  180900    708.21655    3.3246037    147.57497    501.01971   -307.10734     131796.2 
181000        0.1097679691547434333 24.748262726991200111 0.10846560846560845959 12 139.03250970961903477
  181000     822.9835    8.5767574    149.69551    511.91245    375.57168     131796.2 
  181100    756.05356    3.0667013    143.99431    494.62527    134.00842    129616.06 
  181200    775.68521    3.7709878    131.15201    530.49536    71.143732    129616.06 
  181300    795.94939    4.8098491    153.55953    529.03604    -92.14867    129616.06 
  181400    692.40573    11.750652    151.27786    482.81121   -358.38526    129616.06 
181500        0.10303430509515131008 24.591452032187309129 0.10317460317460316888 13 135.8493681715449668
  181500    863.05289    4.9536337    133.78611    526.88407      117.117    129616.06 
  181600    763.50562    3.3963425    131.31528    498.83689    -277.1131    129616.06 
  181700    694.89574    5.3651073    140.96779    461.04344   -23.014531    123554.79 
  181800    828.71699    4.9149307     142.5615    529.33533     231.4574    123554.79 
  181900    747.90717    2.0887779    147.57085    508.41417    245.31691    123554.79 
182000        0.11881808208191199649 24.318858066315861777 0.14021164021164020386 17 160.69899496445066234
  182000    630.45948    2.6468523     151.9184    446.34955    23.550961    123554.79 
  182100    762.77352    5.0150867    156.73392    512.12489    251.16219    123577.81 
  182200    820.63204    2.6767297    134.97424     519.4153    86.144023    123577.81 
  182300    852.00495    5.7169961    161.04093    587.24158   -160.43628    123577.81 
  182400    762.14837    12.337163    128.72335    508.67386    252.58249    123577.81 
182500        0.11234007572455748103 24.110583826338316982 0.14021164021164020386 14 154.80617135470052403
  182500    853.28051    5.1326515    139.40105    541.41317    310.59628    123577.81 
  182600    791.33611    9.2861615    153.14371     576.9608   -281.20034    113783.57 
  182700    693.69002    8.1623305    162.17403    499.48758   -120.13109    113783.57 
  182800     783.3007     9.214167    160.19392    556.84744    59.724262    113783.57 
  182900     783.0153    4.9812524    140.94087    538.00308    291.00302    113783.57 
183000        0.11681236967591908382 23.766260919575717736 0.14550264550264549457 14 152.13601443591392126
  183000    769.48327    4.4822252    134.20915     500.7759    258.82444    113783.57 
  183100    736.22139    3.5378058    147.44407    486.64351    -380.1498    113783.57 
  183200    833.68343    5.1972768    141.13157     545.9983    160.64495    117017.47 
  183300    685.58153     4.864592    148.67388    465.30525    10.976306    117017.47 
  183400    728.38801    1.0853741    160.66443    503.83138    67.631759    117017.47 
183500        0.12114019057759742304 23.441702978190932072 0.14814814814814813992 14 181.04126783996616723
  183500      804.064    9.4206294    152.10119     545.3491   -152.40138    117017.47 
  183600     674.5507    6.0888892    133.37244    466.39332   -35.258955    117017.47 
  183700    792.15718    3.4062251    155.25501    523.06073    18.353119    116101.09 
  183800    773.81585    1.9608738    145.52129     517.6187    64.615872    116101.09 
  183900    824.54014    1.6676732    144.57624    526.03005    161.15856    116101.09 
184000        0.13749192739638205207 23.053511306484342214 0.16666666666666665741 15 177.37966271176205169
  184000    775.09989    14.160353    136.39749    528.56434    155.88035    109283.61 
  184100    728.83823    6.8271904    161.27403    500.52433   -112.09267    109283.61 
  184200    701.16473    2.1045246    156.69241    485.16712   -260.13904    109283.61 
  184300    808.39196     7.680256    168.55042    529.51947    135.96572    109283.61 
  184400     756.5777    2.2578459    138.75514    491.65056   -51.236834    101641.15 
184500        0.14377617707699716365 22.596295553157432323 0.15608465608465607599 12 153.46665529042309117
  184500    786.21629    5.3041077    150.53864    509.68799    295.03465    101641.15 
  184600    811.98153    9.5817416    166.34755    581.00243    5.4400373    101641.15 
  184700    879.87157    3.4590319      129.698    555.99382    59.530478    89347.139 
  184800     696.8811    1.2495467    136.46948    483.95823    10.037134    89347.139 
  184900    781.34595    4.6087607    161.06328    544.49702   -19.121269    89347.139 
185000        0.12026017202831311426 22.148366794983505912 0.13227513227513226779 17 182.24008577735077097
  185000    789.44456    8.0695513    138.34127     539.9241    298.98833    86858.089 
  185100    774.52463    4.1551788    156.83195    525.60102     431.3953    86858.089 
  185200    690.58798    6.9998529    135.86045    464.81752    31.609903    82569.487 
  185300    807.85262    2.1700968    162.03276    530.15006     469.3516    82569.487 
  185400    808.53674    12.419705    164.71975    542.65198   -405.63496    82569.487 
185500        0.13574189767807590123 21.439128887231277076 0.15343915343915343064 19 128.58211545526398822
  185500    792.65116    2.2266716    123.27297    487.71898    406.12518    77465.836 
  185600    760.61079    6.8870059    153.70338    510.92432   -4.5969935    77465.836 
  185700    789.46606    4.5529943    146.53492    537.77877   -170.22749    77465.836 
  185800    756.15664    6.3896003     147.7331    502.94943   -221.45683    77465.836 
  185900    723.40117    3.2707241    144.96741    504.39224    307.46242    77465.836 
186000        0.14777177475020425446 20.957534441154873406 0.16402116402116401206 22 165.89991854627444923
  186000    845.39939    7.7677964    150.71399    548.93612    474.21121    70893.463 
  186100    818.77582    5.5275891    161.93396    562.53254   -256.80152    70893.463 
  186200    671.18764    9.4653007    166.87122    484.49259    11.719042    70893.463 
  186300    802.09208    8.9560685    154.76364    542.47488    104.36848    70893.463 
  186400    769.58367    3.7836803    150.54425    525.17593   -6.6801436    74023.047 
186500        0.13989959141723187774 20.641701566351535746 0.15343915343915343064 21 150.89591631841000208
  186500    757.87867    6.8492483     121.6707    494.27796    5.9932359    74023.047 
  186600    809.88531    9.6643701    138.43836    538.84662   -179.32141    77104.111 
  186700    725.90754    3.3403022    131.23319     477.8018   -72.577343    77104.111 
  186800    850.20707    5.0719528    121.46096    522.97161     440.5687    77104.111 
  186900    799.68941    6.2219644     133.1311    524.73342    303.03984    77104.111 
187000        0.13937236238512049069 20.474258093587703655 0.1613756613756613667 17 157.45125792393966435
  187000    700.51258    4.5982655     147.6475    474.84169    -167.0449     72628.55 
  187100    808.98006    5.1137042    161.36638    559.21004     -773.446     72628.55 
  187200    777.15684      3.77341    144.55903    503.70655    198.07989     72628.55 
  187300     819.3968    7.1049949     146.9143    538.83026   -140.82623    70089.392 
  187400    784.35779    1.6960525    144.05412    546.69732   -264.30132    70089.392 
187500        0.13910061593796127499 20.471256559215152748 0.14021164021164020386 17 164.79716627313916888
  187500    767.07599    10.287775    131.88792    512.34635    22.102643    70089.392 
  187600    809.09925    6.3656058    164.02251    589.66001    -240.4595    70089.392 
  187700    779.04999    8.2961783    117.90196    525.89683   -437.92475    69365.058 
  187800    910.26332    8.2037428    136.72291    553.82577   -212.23182    69365.058 
  187900    673.75607     2.372631    142.18663    466.90411   -94.668132    69365.058 
188000        0.13946062620627908135 20.364901847609104379 0.14285714285714284921 11 137.45607764715705912
  188000    870.44574    6.9479813    133.76902    531.84035   -207.91725    69365.058 
  188100    787.80577    6.0293996    125.25212    506.77482    106.95252    68467.919 
  188200    761.06741    9.3386768    148.24471    516.84182    780.06717    68467.919 
  188300    841.27128    6.0326714    164.83633    584.28292   -47.204001    67290.741 
  188400    755.93346     3.998632     125.0067     505.0169    73.661436    67290.741 
188500        0.12720396343972806275 20.126085954790472243 0.12962962962962962243 15 151.6328437235064257
  188500     840.8379    3.6321444    129.95678    532.60231    353.72733    67290.741 
  188600    830.04838    2.7352958    136.98775    549.59371   -264.51393    67290.741 
  188700    687.07855    6.5629332    140.86374    484.68618   -342.55124      65198.3 
  188800    755.56409    6.3612765    152.89285    539.71933    528.23379      65198.3 
  188900    778.77072    13.208271    124.98495    508.96921    314.17977      65198.3 
189000        0.11796471519831962238 19.620744865534849311 0.13492063492063491315 13 184.98559459612630462
  189000    698.28437    4.7216584    139.25098    501.36646    334.24415    64419.778 
  189100    831.38093    5.9615883    143.32818    555.01722    260.03171    64419.778 
  189200    761.16527    6.8745257    134.62785    518.80524    281.71364    64419.778 
  189300    865.70869    4.6386033    172.92245    599.13451    610.49604    64419.778 
  189400    722.12902    6.6637034    138.83223     529.1796   -92.044094    65691.817 
189500        0.13021668889267726255 19.383258865505361257 0.13492063492063491315 16 176.57484933921614356
  189500     842.7314    2.2742347    156.22433    558.40223    315.42945    65691.817 
  189600    707.56554    3.7506779    138.22628    487.64452   -12.252153    65691.817 
  189700    806.90628   0.61731053    143.91614    534.94861    114.89822    64251.377 
  189800     836.1563    5.4981873    143.00667    555.42505    255.47475    64251.377 
  189900    725.30573    7.4194363     143.1739    510.60399    73.268197    64251.377 
190000        0.13481665170134443654 18.945783956821497185 0.12169312169312168637 16 199.63849520407967475
  190000    863.98797    1.4357503    158.23095    591.09687     341.0921    64251.377 
  190100    761.92039    3.4470971    163.96091    525.37896    352.93196    64251.377 
  190200     823.6592    3.8912301    146.23197    523.72559    1090.4125    59405.098 
  190300    801.50253    3.5586826    171.54786    599.06939   -104.80924    59405.098 
  190400    741.42383    1.5328846    173.71738     561.6542    168.14741    59405.098 
190500        0.14047234076929540625 18.902133011253997807 0.11111111111111110494 15 209.53679737257601801
  190500    710.48286    1.6257335    173.27603    531.44459   -123.07586    59405.098 
  190600    776.25888    1.2046257    174.91576    544.28049    145.49753    62600.122 
  190700    766.05179    3.2159378    134.58831    508.47551   -249.25805    62600.122 
  190800    803.32927  0.033186022    156.89406    536.10697     -196.455    62600.122 
  190900    799.96701    4.0207886    155.49197    555.49485   -213.72005    62600.122 
191000        0.1456714747455907788 18.663611161392225313 0.11904761904761904101 9 194.29008616589300118
  191000     716.1533     2.830022    163.85744    518.76707   -870.02189    59422.822 
  191100    726.64702    6.1859948    155.35744    485.95237   -211.04538    59422.822 
  191200    815.70399    11.421601    177.05631    561.06623   -338.78904    59422.822 
  191300    734.66236    2.7993459    166.49682    497.89024    503.54619    60143.343 
  191400    813.32779    1.0259845    144.49695    517.69777    542.23088    60143.343 
191500        0.16131248193446964811 18.223183898518584556 0.16666666666666665741 14 203.92243222344092146
  191500    784.38155    1.7972781    189.69303    559.31248   -40.285959    60143.343 
  191600    751.63341   0.98784729    155.82995    502.10497    854.71563    60143.343 
  191700    798.34023    7.4036281    192.60536    570.81685   -205.42625    57412.447 
  191800    695.32535    7.0573193    163.58629    505.75954    352.44207    57412.447 
  191900    729.93602    4.9501049    180.85014    523.82125    499.44888    57412.447 
192000        0.18174220771964011423 17.738577808285697301 0.19841269841269840168 14 211.99165927024935741
  192000    804.12488    1.4626841    176.78835    576.32708   -269.24448    57412.447 
  192100    764.44609    1.2056378    151.40702    516.92294    30.839913    53939.784 
  192200    776.58399    5.4812845    185.88449    533.91622     602.8744    53939.784 
  192300    791.77647     7.180243    206.08258    576.50452    499.03894    53939.784 
  192400    784.83519    4.9507007    153.98477     518.5555     -523.756    53939.784 
192500        0.20108509960336967692 17.198888285547827337 0.23015873015873014595 18 177.69202427028136526
  192500    715.87159     1.936771    177.61783    502.04136   -172.47919    53939.784 
  192600    886.46855    3.8652263    162.60328    595.23929   -97.973189    54276.059 
  192700    836.15104    6.3416214    131.65165    525.10447   -230.34183    54276.059 
  192800    722.88382    4.9543386    157.21696    513.57252   -281.28325    54276.059 
  192900    869.55875    1.1046858    176.30857    593.93416    27.491994     54735.79 
193000        0.19036982819919553989 16.630842635170161259 0.21957671957671956453 18 174.26650336134648001
  193000    759.32506    7.2743248    147.11674    518.30388    520.60532     54735.79 
  193100    890.79792     5.534167    129.31074     550.5827    43.517949     54735.79 
  193200    788.34699    4.6257024    166.07713    549.48736    349.49518     54735.79 
  193300    789.31372    3.5523444    163.29359    550.34029   -421.87379    49087.109 
  193400    731.75864    9.6693498    199.42185    550.28686   -509.62386    49087.109 
193500        0.18602396423649295021 16.207580798373147246 0.19312169312169311097 21 198.8741658478383556
  193500    768.81753    4.0162798    174.16408    547.21242   -401.73578    49087.109 
  193600    753.82793    3.7555773    151.71142    496.82096    431.30771    49087.109 
  193700    863.81522    5.4134915    146.40064     571.5076    866.47409    44865.441 
  193800    859.41998    1.5466186    148.65426     550.0868   -218.76762    44865.441 
  193900    737.92402    8.0226815    175.61355    543.24022   -694.29506    44865.441 
194000        0.19041789604668432623 15.950270254615329435 0.18253968253968252955 17 217.67249702573369063
  194000    876.13052    6.4481074    174.42862    614.63246    237.91166    44865.441 
  194100    714.00374    6.3996371    159.20204    531.38095   -31.855842    47171.857 
  194200    879.98405     4.867031    152.15613    584.97062    791.55586    47171.857 
  194300    826.49445    5.5639473    158.22553    549.22359   -400.68479    47171.857 
  194400    692.24544    1.7805134    176.03213    538.58353   -638.21124    47171.857 
194500        0.1926344600240872118 15.65175908172375685 0.17724867724867723884 16 209.2222813458275823
  194500    813.83924    12.377443    149.03368    577.95911   -122.83437    47171.857 
  194600    704.02575     3.439839    142.82682    469.85902   -285.45351    44611.448 
  194700    796.62875    12.134277    157.27103    543.59128    890.25167    44611.448 
  194800    835.66874    3.1202558     161.6027    560.13632     471.0818    44611.448 
  194900    751.64782    3.9112385    137.35848     506.4556   -1212.5893    44611.448 
195000        0.19373109224375131832 15.457507580899752853 0.1613756613756613667 20 193.65124842395172777
  195000     774.0825    10.084107    145.26278    544.37497    318.39888    40874.963 
  195100    779.43445    11.245618    146.68381    541.99778    474.31001    40874.963 
  195200    809.71369    5.0749414    162.31803    581.75404   -10.290523    40874.963 
  195300    784.04711    1.8513172    177.98295    590.35844    165.40171    40874.963 
  195400    798.89468    8.0952573     145.0107    534.08738    368.26686    36226.525 
195500        0.19908218645204842079 15.297986246966626567 0.15873015873015872135 25 185.64843617841543733
  195500    856.19203    9.1639543     134.0349     573.5746    130.78273    36226.525 
  195600    864.67877    5.3449631    154.47143    603.68065    -418.7197    36226.525 
  195700    776.83604    6.6302367    138.65716    528.27486    7.6401686    36226.525 
  195800    828.11861    10.448298    135.27972    567.71201   -49.924909     35338.78 
  195900    766.32458    7.3129798    166.36312    561.95858    306.45093     35338.78 
196000        0.19067138594277172059 15.315643921399699323 0.17460317460317459348 13 194.79834715746034135
  196000     806.0281    8.8738526     145.1603    559.99608    112.65469     35338.78 
  196100    735.63782    2.8453436    155.83451    532.62904    38.132037    37830.867 
  196200    787.69861    12.887622    142.60465    547.94368   -585.53578    37830.867 
  196300    899.65334    2.0918278    117.83363    552.28464     38.73973    37830.867 
  196400    749.36853   0.85516573    131.27582    515.43246    247.45307    37830.867 
196500        0.18688175993919012297 15.361070265696223913 0.14021164021164020386 15 229.68464980310130841
  196500    807.26142    9.9131707    155.24212    595.44118    135.94362    43468.901 
  196600    768.97999    1.7159149    151.17306    533.01102    247.34539    43468.901 
  196700    799.64286    9.7867257    129.41229    544.07616    162.49826    43468.901 
  196800    850.11476    3.2535608    144.57987    570.39242   -19.237238    41949.328 
  196900     774.8656    5.5397449    137.19031    519.06127     254.2023    41949.328 
197000        0.18873736142713992692 15.130643672144856282 0.14285714285714284921 13 177.60556915536102451
  197000    903.59569    9.6583235    136.41294    587.00953    492.73862    41949.328 
  197100    796.94989    2.0498766    130.27193    521.22677    -90.06508    41949.328 
  197200    745.88733    1.1869575    144.71229     531.4381    -807.7048    38046.135 
  197300    795.70595    4.0906683    175.85483    584.50328    -1200.453    38046.135 
  197400    711.33799     12.50396    164.29767    517.91624    258.31919    38046.135 
197500        0.17423269632180626854 14.871679640543755241 0.14021164021164020386 21 205.1586954935901872
  197500    745.85991    7.9891838    173.40964    543.09524    1071.1144    38046.135 
  197600    821.53384    3.9844384    120.13759    530.13726   -695.55002    39909.128 
  197700    705.76571    8.8156345    139.01588    511.03034   -32.644696    39909.128 
  197800    855.27656    4.7852629    152.10669    568.01977   -265.77706    39909.128 
  197900    760.14188    1.7760704    150.35644    535.93569   -1118.0049    36439.738 
198000        0.17703865106061761336 14.860923934451575334 0.14285714285714284921 18 195.56229780682025421
  198000    720.91648    8.4806069     152.3594    522.19739    61.142409    36439.738 
  198100    892.57719    2.2432803    158.04139    593.74755      1130.85    36439.738 
  198200    780.88488    6.0094151    140.18561    535.83128   -220.99671    36439.738 
  198300    866.15216    4.4431707    148.79874    572.97624    -1083.543    32608.075 
  198400    759.49391    4.2631701     159.2074    551.11495    464.21431    32608.075 
198500        0.1813505821802023632 14.739764053124916998 0.16402116402116401206 21 202.37645437264026782
  198500    712.80562    7.4078122    170.85425    525.33666    1062.8159    32608.075 
  198600    838.53303    6.9099475    173.59247    594.28532    34.448788    30641.112 
  198700    811.17583    4.6494281    164.21781    556.41192    196.75957    30641.112 
  198800    740.38569    5.0252182    151.96584    541.52913    493.84625    30641.112 
  198900    888.04305    3.3582995    124.30058    545.45677    434.40195    30641.112 
199000        0.16804220628491631229 14.888203202516297807 0.14550264550264549457 25 153.21361704848609975
  199000    812.19677    8.3300258    145.67678    521.20627    46.840731     33274.45 
  199100    906.58136    2.1838259    145.98471     594.8735     1744.791     33274.45 
  199200    754.06061    7.1223287     146.8192    510.37457    208.93425     33274.45 
  199300    773.93359    5.8787518    163.22509    548.42471    1001.3431    32992.566 
  199400    796.66827    8.2286839    164.25909    576.20544    1193.3394    32992.566 
199500        0.16157788823719151927 14.928408066309714286 0.14285714285714284921 18 149.54609685150882115
  199500    754.34318     4.032099    115.68049    491.32627   -994.13729    32992.566 
  199600    785.60174    5.5281298    129.07573    519.02148   -1836.0809    32992.566 
  199700    839.99009    7.0891987    147.43145    562.45741    -398.4213    33075.927 
  199800    808.81594    4.7342044    163.27209    564.08118    330.66176    33075.927 
  199900    779.99761    8.7528107    132.43018    507.76234    558.52713    33075.927 
200000        0.17359485800602855732 14.678674083214469093 0.15873015873015872135 19 212.34832338596589807
  200000    786.22232    8.9953187    155.75899    568.57239     -511.836    33075.927 
Loop time of 721.523 on 1 procs for 200000 steps with 153 atoms

Pair  time (%) = 28.0029 (3.88108)
Bond  time (%) = 2.46058 (0.341026)
Neigh time (%) = 0.230701 (0.0319741)
Comm  time (%) = 0.256077 (0.0354911)
Outpt time (%) = 7.54751 (1.04605)
Other time (%) = 683.026 (94.6644)

Nlocal:    153 ave 153 max 153 min
Histogram: 1 0 0 0 0 0 0 0 0 0
Nghost:    0 ave 0 max 0 min
Histogram: 1 0 0 0 0 0 0 0 0 0
Neighs:    3399 ave 3399 max 3399 min
Histogram: 1 0 0 0 0 0 0 0 0 0
FullNghs:  6798 ave 6798 max 6798 min
Histogram: 1 0 0 0 0 0 0 0 0 0

Total # of neighbors = 6798
Ave neighs/atom = 44.4314
Ave special neighs/atom = 2.64052
Neighbor list builds = 346
Dangerous builds = 0
