LAMMPS (9 Oct 2012)
# 3d protein simulation

units real

timestep 2

dimension	3

boundary s s s
#boundary p p p

neighbor	10 bin
neigh_modify	delay 5

atom_modify sort 0 0.0

special_bonds fene

atom_style	peptide

bond_style harmonic

pair_style vexcluded 2 3.5 3.5

read_data data.testeo
  3 = max bonds/atom
  orthogonal box = (-200 -200 -200) to (200 200 200)
  1 by 1 by 1 MPI processor grid
  153 atoms
  202 bonds
  5 = max # of 1-2 neighbors
  5 = max # of special neighbors

pair_coeff * * 0.0
pair_coeff 1 1 20.0 3.5 4.5
pair_coeff 1 4 20.0 3.5 4.5
pair_coeff 4 4 20.0 3.5 4.5
pair_coeff 3 3 20.0 3.5 3.5


velocity	all create 300.0 8088760

group		alpha_carbons id 1 4 7 10 13 16 19 22 25 28 31 34 37 40 43 46 49 52 55 58 61 64 67 70 73 76 79 82 85 88 91 94 97 100 103 106 109 112 115 118 121 124 127 130 133 136 139 142 145 148 151
51 atoms in group alpha_carbons

group		beta_atoms id 3 6 9 12 15 18 21 24 27 30 33 36 39 42 45 48 51 54 57 60 63 66 69 72 75 78 81 84 87 90 93 96 99 102 105 108 111 114 117 120 123 126 129 132 135 138 141 144 147 150 153
51 atoms in group beta_atoms

group		oxygens id 2 5 8 11 14 17 20 23 26 29 32 35 38 41 44 47 50 53 56 59 62 65 68 71 74 77 80 83 86 89 92 95 98 101 104 107 110 113 116 119 122 125 128 131 134 137 140 143 146 149 152
51 atoms in group oxygens


fix		  1 all nvt temp 300.0 300.0 100.0
fix		  2 alpha_carbons backbone beta_atoms oxygens fix_backbone_coeff.data testeo.seq
Chain flag on
Chi flag on
Rama flag on
Rama_P flag on
SSWeight flag on
ABC flag on
Dssp_Hdrgn flag on
P_AP flag on
Water flag on
Burial flag on
Helix flag on
Fragment_Memory_Table flag on
DebyeHuckel on

Reading fragments...
Computing FM table...

variable      biasinge equal f_qbias
# output wham.dat, a file with collective variables that can be used to compute pmfs
compute     qw alpha_carbons qwolynes rnative.dat 2 0.15
variable    qw equal c_qw
compute     rg alpha_carbons gyration
variable    rg equal c_rg
compute     qo alpha_carbons qonuchic cutoff 12.0 nativecoords.dat 1.2
variable    qo equal c_qo
compute     tc beta_atoms totalcontacts 6.5 2
variable    tc equal c_tc
variable    step equal step
variable    E_P equal pe

fix         wham all print 100 "${step}        ${qw} ${rg} ${qo} ${tc} ${E_P}"

thermo		10
dump		1 all atom 50 dump.lammpstrjPH


dump_modify	1 sort id

reset_timestep	0
run		50000
Memory usage per processor = 0.857471 Mbytes
Step Temp E_pair E_mol TotEng Press Volume 
       0          300    54.408864    955.49334    705.45561    -33253.58    10890.368 
      10    1247.3379    55.405772    305.28705    646.97448    10152.493    10890.368 
      20    703.23629    22.035708    505.89438    558.48119    8573.0063    10890.368 
      30    1028.1561    14.167966    347.52934    488.65225    29437.184    10890.368 
      40    767.36104    7.9356895    351.09911    395.28168   -32706.814    10890.368 
      50    788.36339    6.0793305    258.46101    326.70068   -6160.9867    10890.368 
      60    717.15139     4.441156    253.17022    255.07002   -8069.5074    10890.368 
      70    664.08845    7.4214986    230.63628     198.1574    24443.345    10890.368 
      80    612.21888    16.801921    189.51856    146.36207   -1856.0674    10890.368 
      90    478.25459    13.418416    194.25947    103.28734   -12142.477    10890.368 
100        0.99189876445932312343 10.048492757583721513 0.99735449735449732689 70 -161.68846938141663827
     100    492.55481    7.9651784     180.0184    61.479807    4552.7376    10890.368 
     110    440.49035    4.0119929    174.23684    26.038969    8895.1502    10890.368 
     120    482.82403    5.6708364    134.22104      -5.1125     296.5509    10890.368 
     130    408.16211    5.9418458    121.48646   -32.086947   -9787.4974    10890.368 
     140    456.51672    5.7451161    108.87975   -55.100894   -7232.6695    10890.368 
     150    384.81434    5.8193766    115.07762   -77.910787    11928.319    10890.368 
     160     393.9279     7.514732     96.40632   -97.601419    1093.5608    10890.368 
     170    361.23077    8.8959242    96.687648    -115.9393    1908.6818    10890.368 
     180    352.29874    5.3492801    102.06239   -132.49387   -4450.2234    10890.368 
     190    342.18682    7.4530857    83.841243   -147.79619    945.87597    10890.368 
200        0.99173871211512765189 10.11374102974296818 1 69 -283.18393115578874131
     200    268.43182    7.8773063    108.99487     -161.562   -401.63977    10890.368 
     210    267.99313    10.625718    82.816211   -172.13357   -2563.2202    10890.368 
     220    284.39118    6.9673432    84.005737    -181.5937   -5854.4866    10890.368 
     230    258.59059    8.0889014    76.327677    -188.6887    2425.1641    10890.368 
     240    283.23811    9.2388174    65.605863   -194.59886    4394.4105    10890.368 
     250    267.82833    6.7591499    77.509105   -199.33836    7302.8521    10890.368 
     260    272.26579    9.2780186    66.738921   -202.33199   -2963.3166    10890.368 
     270    263.35851    9.7286558    71.812018   -204.37986   -5288.6817    10890.368 
     280    259.78113    9.9837409    67.294244    -204.9795   -1643.0822    10890.368 
     290     274.6604    6.2518122    68.351811   -204.13667   -2421.5858    10890.368 
300        0.98965320783006294203 10.100339505071177726 1 69 -312.43587771148577303
     300    243.32051    5.7129343    79.851032   -202.19146     4724.256    10890.368 
     310    275.16938    5.8099276    69.118875   -198.69675   -1201.2129    10890.368 
     320    268.55734    7.7224744    73.359324   -193.89951    741.87448    10890.368 
     330    285.24668    8.2711364    74.215359   -188.52001   -881.38279    10890.368 
     340     299.3403    7.7571425    65.490413    -181.8879   -703.46117    10890.368 
     350    262.35279    4.8277178    92.977788   -174.81292    4715.1508    10890.368 
     360     313.6689    6.3505774    75.547695   -166.90394    345.61335    10890.368 
     370    289.52637    8.2188888    93.211389   -159.26016   -1356.6769    10890.368 
     380    337.54215    7.3877999    76.524171   -151.86895   -1261.6139    10890.368 
     390    300.30453      5.57861    98.436916   -145.13932    715.21586    10890.368 
400        0.98431150874176398524 10.126682087301043467 1 69 -284.87115430091444068
     400    322.57554    6.0566158    94.081181   -138.71762   -1007.4744    10890.368 
     410    315.81715    9.5363245    98.963401   -132.65431   -1517.1433    10890.368 
     420    343.64639     6.487658    97.865182    -127.6772   -1615.0041    10890.368 
     430    329.51203    8.0188636    99.395848    -124.2179    6269.8639    10890.368 
     440    344.25593    8.1795324     101.2664   -122.31847    3308.2759    10890.368 
     450    365.74882    9.0437061    86.320352   -122.12611    2574.4199    10890.368 
     460    317.37478    10.538006    102.80443   -123.80214   -5643.8828    10890.368 
     470     361.3464    6.6388373    89.431585   -126.52814   -2173.3185    10890.368 
     480      288.846    6.6948704    115.17561   -131.46197   -3503.1691    10890.368 
     490     359.5854    7.8792076    82.778717    -136.9876    1786.8738    10890.368 
500        0.98253884025097537602 10.134406596088972208 1 69 -282.80834789626658221
     500    306.37882    8.1321171    93.130859   -143.99328    1570.5669    10890.368 
     510    296.86434    6.5886345    84.776497   -150.27372   -533.44623    10890.368 
     520    288.69233    5.4493093    91.647457   -156.58299    4535.3779    10890.368 
     530    264.63451    5.7881561    90.705602     -162.454   -624.33255    10890.368 
     540    308.13095    5.9008413    81.863087   -167.57947   -1290.1323    10890.368 
     550    274.29315    4.4537973    84.608651   -172.50817   -7720.3855    10890.368 
     560    282.07737    4.7993364    78.193134    -176.5085    249.07715    10890.368 
     570    267.55542    7.6270869    90.748432   -179.73756     3293.948    10890.368 
     580    256.22357    9.4818985     88.69966   -182.33404    2556.1385    10890.368 
     590    308.14562     7.995313    71.442059   -184.12422   -1477.9558    10890.368 
600        0.982142621402478877 10.14536165029405268 1 71 -311.35272532197041073
     600    278.37078    7.9181319    76.831122   -185.22762    -2469.281    10890.368 
     610    285.31599    7.3002137    72.410538   -185.58643    445.24528    10890.368 
     620     265.2554    6.7352485    84.117693     -185.124    2129.0907    10890.368 
     630    277.98131    6.0030951    80.373624   -183.74062    -923.1562    10890.368 
     640    284.73858    7.4691903    79.759606   -181.58294    3034.1501    10890.368 
     650    289.22006    10.020625    75.634293   -178.66269   -4258.7437    10890.368 
     660    273.50492    7.4894747    79.135508   -175.11907    854.15085    10890.368 
     670      300.075    5.8327992     75.42543   -171.00705    3397.8165    10890.368 
     680     281.9276    5.5290353    82.702022   -166.08275    607.74344    10890.368 
     690    337.96746    4.8845509    76.166676   -160.70673   -1907.4477    10890.368 
700        0.97962637120752527053 10.154851036486189031 1 70 -294.92837561301291771
     700    308.07466    6.8995789     83.04252   -155.34494   -4115.3914    10890.368 
     710    318.21286    5.5570295    94.756853   -150.55742    1511.1849    10890.368 
     720    337.37798    9.2361922    89.809592   -146.65575    7531.2067    10890.368 
     730    337.01584    11.244478    79.796599     -143.745    -1947.186    10890.368 
     740    329.21553    12.606916    90.729193   -141.53375   -2572.3305    10890.368 
     750    328.79989    13.244378     82.51073   -140.18597    -3497.957    10890.368 
     760    310.87269     10.59278    96.608572   -139.61727    3655.9344    10890.368 
     770    342.01449    11.309213    84.582917   -139.81722    2804.5574    10890.368 
     780     302.1937    12.325931    91.491538   -140.70641   -3438.4807    10890.368 
     790    308.35925    9.4329682    86.073569   -141.77464   -3598.3378    10890.368 
800        0.9779427395352808805 10.167620311393047672 1 71 -279.29269261818905079
     800    300.60117    8.5118202    84.017082   -143.09537   -2426.5628    10890.368 
     810    335.47713     7.491396    89.297187   -144.62882     6246.922    10890.368 
     820    312.91852    10.594878    91.940269   -146.77697    3348.6105    10890.368 
     830    298.85547    8.7748379    89.651856   -149.69885   -3281.7972    10890.368 
     840    315.14552    6.5689254    84.900719   -152.59793    1000.2682    10890.368 
     850    305.49342    6.0452977    87.581745   -156.11198    41.351666    10890.368 
     860    286.61167     6.701531    88.534876   -159.34828    1517.1319    10890.368 
     870    306.74205     6.404577    77.084601   -162.26202   -3465.6431    10890.368 
     880     281.4367    4.3998852    83.098412   -165.10192   -2555.8669    10890.368 
     890     311.0597    4.9642179    75.585756   -167.61242    4092.1931    10890.368 
900        0.97643225717856796386 10.17631689158122299 1 71 -290.17511738292722612
     900    265.61835     7.187249    90.472623   -169.82792    1442.1373    10890.368 
     910    297.22222    10.304008    77.526101   -171.23831   -102.55109    10890.368 
     920    283.80538    11.242063    75.072713   -172.36016   -2699.3942    10890.368 
     930    267.90398    7.8021474    83.069027   -173.10628   -1572.8025    10890.368 
     940    274.92261    9.0634327    80.110888   -173.36617     4344.467    10890.368 
     950    261.28721    8.9690862    90.351837    -173.0221    3922.1763    10890.368 
     960    261.09751    6.7472195    86.721532   -171.83828   -3286.7654    10890.368 
     970    285.80928    5.7015743    76.500357   -170.08968   -4794.1297    10890.368 
     980    312.19955    5.7224826    74.387701   -167.96734   -1846.4793    10890.368 
     990    296.10468    6.6335138    86.186374   -165.62879    5002.7663    10890.368 
1000        0.96880087704367756629 10.207944582161156077 1 71 -293.18996304134111597
    1000    287.29419    5.7784707    88.700792   -163.02182   -832.90346    10890.368 
    1010    261.10914    4.7082408    87.270799   -160.41415   -2607.0005    10890.368 
    1020    331.93233       3.8035    71.207033   -157.76977    3127.9213    10890.368 
    1030    336.40725    4.4015328    75.577314   -155.40586    4070.8505    10890.368 
    1040    326.88577    3.8162182    76.953863   -153.04217    984.98421    10890.368 
    1050    302.41542    5.6280866     81.04841   -151.16022   -4096.4513    10890.368 
    1060     307.2106    6.0673614     86.45247   -149.38009   -5039.3881    10890.368 
    1070    331.45279    5.4551499    74.702942   -147.92051   -2529.6439    10890.368 
    1080    346.42823     6.300754    74.149049   -146.85288   -95.320793    10890.368 
    1090    321.17049    8.0597069    83.145516   -146.24294    2234.8769    10890.368 
1100        0.96609701947641901665 10.191415198068005665 1 66 -289.07405788954667969
    1100    315.74719    6.9840775    76.946891   -146.01433    4762.4604    10890.368 
    1110     285.9894    6.7484584    99.362754   -146.09566   -3672.7225    10890.368 
    1120    334.66691    8.2381416    77.485653   -146.50899    1441.6066    10890.368 
    1130    313.53573    10.284524    89.088063   -147.58638   -2751.6324    10890.368 
    1140    305.51946    10.137084     83.52832   -148.83653   -376.40228    10890.368 
    1150    318.93512    7.0400611    77.722425   -150.49439   -3148.5937    10890.368 
    1160    315.52664      8.48595    81.115701   -152.62139     3414.824    10890.368 
    1170    302.69686    8.5171687    83.846837   -155.02775    3457.9085    10890.368 
    1180    305.31702     6.907309    78.708973   -157.80368    3466.9488    10890.368 
    1190    289.13031    7.4969958    81.082764   -160.62108   -4252.5435    10890.368 
1200        0.96710449874449910812 10.189507439162781566 1 65 -307.2813427770648218
    1200    318.41593    6.9753535    67.837368   -163.01246   -2796.2888    10890.368 
    1210    251.61235    5.6113579    92.800064   -164.90641    -879.4277    10890.368 
    1220    288.55904    4.4789254    81.950957   -166.33633    4267.6015    10890.368 
    1230    280.52143     3.472265    83.039552   -167.90289    3048.5277    10890.368 
    1240    309.57166    4.5188103    63.660938   -168.91456    -2678.672    10890.368 
    1250    310.21206     5.589635    69.551388   -169.23445   -6057.9238    10890.368 
    1260    297.45415     4.918698    78.802176   -169.43458    388.87959    10890.368 
    1270    269.56451     7.449947    79.241337   -169.93649    2541.8064    10890.368 
    1280    278.39198    7.3839109    77.512592   -169.74246    1312.2888    10890.368 
    1290     295.6206    7.0484449    76.502606   -168.38165   -1480.9233    10890.368 
1300        0.97603952790741133061 10.159967026572111592 1 68 -297.61802734086842293
    1300    289.32363    7.3105621    77.025943   -166.53037   -221.93044    10890.368 
    1310    315.67313    5.2844823    74.285576   -164.22236    2643.3254    10890.368 
    1320    310.99189    7.2668356    75.738566   -161.92798    1106.8861    10890.368 
    1330    314.60335    9.8704748    69.834593   -159.65761   -3611.4576    10890.368 
    1340    296.58504    12.153797    86.031413   -157.44887    495.63848    10890.368 
    1350    301.69793    8.0770947    81.285827   -155.18235    1718.2992    10890.368 
    1360    288.53448    9.2719664      91.1563   -153.04107   -2132.0442    10890.368 
    1370    309.66529    9.8629664    82.011337   -151.11481   -1615.7941    10890.368 
    1380    318.26164    8.7550125    78.307576   -150.18232    473.43209    10890.368 
    1390    335.59031    6.8817752    73.076525   -149.77255    1939.7536    10890.368 
1400        0.98382221036621597676 10.133977264312285627 1 68 -292.68625007845275832
    1400    315.47044    9.4596537     78.09052   -149.75192    1907.3188    10890.368 
    1410    301.86786    9.7127401    84.687309   -150.32953   -1185.1578    10890.368 
    1420    291.52474    8.8321979    85.216895   -151.45778   -3673.1414    10890.368 
    1430    328.87636    4.4797778    67.728372   -152.74849   -1001.5682    10890.368 
    1440    296.82574    4.0327467    84.361919   -154.19757    279.30574    10890.368 
    1450    274.28827    6.2123776    83.632043   -155.68225    4043.9347    10890.368 
    1460     307.4225    3.5587696     78.45993   -157.00721    1265.8812    10890.368 
    1470     329.1988     4.219734    73.381676   -158.42919   -1903.2257    10890.368 
    1480    296.53191    5.1849419    78.281424   -160.17496   -846.05364    10890.368 
    1490    264.26538    7.2828801    88.374306   -161.82953   -528.65643    10890.368 
1500        0.98941293564990151488 10.094499930802554033 1 69 -283.89595778698367212
    1500    266.06617     8.324443    86.920656   -163.34586    760.41093    10890.368 
    1510    259.13125     6.933569    88.420474   -164.57395    5573.3943    10890.368 
    1520    281.75028    7.4254939    76.222368   -165.17794    871.55333    10890.368 
    1530     272.9713    6.5418646     87.94834   -165.31911   -327.87496    10890.368 
    1540    285.64316    6.5303082    79.776882    -165.3598   -5815.7232    10890.368 
    1550     292.0079    7.5865931    78.840766   -165.67873   -1845.7865    10890.368 
    1560     287.9181    6.9400173    84.359838   -165.96914    3294.4527    10890.368 
    1570    310.85812    9.0122521    75.238782   -166.12207    3338.2286    10890.368 
    1580    255.77362    7.9178155    88.476829   -166.27551   -1375.5853    10890.368 
    1590    281.75771    8.1949146    79.724577    -166.0236   -2215.9443    10890.368 
1600        0.99161591161571471797 10.086837889596498741 1 66 -294.06349728244498465
    1600    284.04863    9.6382501    77.325919   -165.36586   -2614.4136    10890.368 
    1610    299.20121    9.0161413    79.509823   -164.07345    1854.9715    10890.368 
    1620    298.74386    8.5918805    76.805275   -162.27374   -1641.0689    10890.368 
    1630     289.9882    9.8651062    83.110626   -160.42461    321.26913    10890.368 
    1640     296.1876    9.9208322    79.435675   -158.57629    2028.6149    10890.368 
    1650    305.03528    8.0994967     82.49437   -156.86393    2684.1964    10890.368 
    1660    298.74588    9.3745877    77.439571   -155.23277   -1519.4632    10890.368 
    1670     296.4439    8.2882403     82.91902   -153.93329   -1062.1089    10890.368 
    1680    305.03663    10.113702    78.000172   -152.78243   -475.21616    10890.368 
    1690    314.43335    7.2996008    76.321748   -152.12945    952.18145    10890.368 
1700        0.98942721099300756649 10.08272813044607652 1 67 -278.99139217889705833
    1700    281.10035    6.5710584     87.03352   -151.62957    869.17511    10890.368 
    1710    320.44261    7.3762108    67.148031   -150.74072    2157.0942    10890.368 
    1720     290.7411    5.0525294    83.193924   -150.02385   -1492.4849    10890.368 
    1730    322.22442    6.9336315    72.144992   -149.51649    3825.3018    10890.368 
    1740    326.29976    5.5694366    82.132597   -149.39542   -1626.3591    10890.368 
    1750    305.39474    5.6835794    88.072221   -149.75876   -356.81759    10890.368 
    1760    301.51269    6.6988074    80.001212   -150.44234   -2239.8238    10890.368 
    1770    309.92102    7.5594948    80.828426   -151.71039   -1786.8294    10890.368 
    1780    309.45311    7.4473162    70.939493   -152.92007   -1037.6001    10890.368 
    1790    295.92723    3.9569667    82.681708   -154.06412    2769.1464    10890.368 
1800        0.98490149415626115914 10.103560792399555623 1 67 -290.1638009526415658
    1800     297.3922    2.7372321    79.555559   -155.42041   -421.59085    10890.368 
    1810    326.00541    5.9157231    69.033196   -157.25013    -20.05956    10890.368 
    1820    311.95517      8.23327    63.067244   -159.02062   -477.85759    10890.368 
    1830    292.11806    8.4858535     72.57934    -160.3578    2016.9937    10890.368 
    1840    286.69317    9.0090893    79.659521   -161.32283    4061.3949    10890.368 
    1850    290.16237    7.5853874    77.290323   -162.18948    301.34122    10890.368 
    1860    293.68972    6.3647015    78.149381   -163.09956    -2578.719    10890.368 
    1870    295.89417    5.9668021    76.868078   -163.86201   -4471.2465    10890.368 
    1880     300.3689    5.3040092      72.3751   -164.43013   -1802.7694    10890.368 
    1890    259.23702    5.1377327     85.23174   -164.82469   -1751.2275    10890.368 
1900        0.98259554344419908212 10.132418772858198253 1 69 -282.04584059423791587
    1900     259.4701     8.054003    78.770146   -164.48432   -1332.3593    10890.368 
    1910    288.66024    8.7248558    76.762694   -163.28246    1832.0048    10890.368 
    1920    322.94358    6.1935933    67.330978   -161.54192     4670.465    10890.368 
    1930    306.98644     5.756094    76.853747    -159.3908    289.72107    10890.368 
    1940    284.54355    5.7481543    84.825336   -157.27938    453.28641    10890.368 
    1950    280.42264    4.9876275     79.08817   -155.11562    817.25124    10890.368 
    1960    304.09025    4.4501019    77.433363   -152.66219    447.63292    10890.368 
    1970     313.4661     5.319088    75.041192   -149.68362   -407.11281    10890.368 
    1980    314.49436    8.6352231    82.235233   -146.49625    -2005.746    10890.368 
    1990    315.17619    6.8401114    83.156265   -143.78494    492.43617    10890.368 
2000        0.98491321958698019312 10.119206178463317158 1 69 -287.06920540801610287
    2000     320.0194     7.431486    76.131575   -142.07381   -849.01796    10890.368 
    2010    312.57895    7.7481362    82.007767   -140.98588     -203.298    10890.368 
    2020    332.28657    9.3169477    80.279252   -140.52475   -1322.3717    10890.368 
    2030    302.22732    9.9591462    84.124801   -141.46208   -3020.6279    10890.368 
    2040    304.55756    12.379441    76.640522   -143.42273    760.61517    10890.368 
    2050    321.59355    11.757773    74.183996   -145.75675   -2473.7498    10890.368 
    2060    283.32876    8.7097071      87.9473   -148.75734    3257.0178    10890.368 
    2070      289.519    8.0758746    81.822891   -152.16277      65.0749    10890.368 
    2080    306.04085    7.3244945    72.271897   -156.14913    3311.9069    10890.368 
    2090    323.12336    6.1372982    65.676491   -160.17178    1766.8015    10890.368 
2100        0.98997276085786556354 10.0818889137833132 1 69 -298.00694788433975191
    2100    295.32516    6.1035038    67.386001    -164.2001    -4872.643    10890.368 
    2110    286.39808    7.5642768    70.857506   -167.72982   -1958.7483    10890.368 
    2120    269.42962     10.59708    70.310351   -170.80641     1338.986    10890.368 
    2130     271.6736    8.2865598    76.791097   -172.71506    6212.7861    10890.368 
    2140    297.18251    8.4631509    58.059815   -173.77811    2297.0815    10890.368 
    2150    296.28555    8.8133527    64.269194   -174.15054   -6457.7573    10890.368 
    2160    301.18444    6.2799566    68.614253   -173.94269   -1197.6062    10890.368 
    2170    264.40875    6.0809654    82.807252   -173.47883   -2489.4761    10890.368 
    2180     276.7777    6.6436986    80.307892   -172.67853    2258.8189    10890.368 
    2190    263.48943    9.1048968    80.990463   -171.79249   -2628.4178    10890.368 
2200        0.99317023274079030415 10.054666860846950271 1 68 -299.99061940147407768
    2200    285.13083    7.6800127    70.232672   -170.80265    4065.4715    10890.368 
    2210    277.71312    4.8031099    81.727438   -169.65163    1862.1504    10890.368 
    2220    292.36489    6.1855911    71.412748   -168.50872    853.46022    10890.368 
    2230    271.50066    8.5827032    73.997674   -167.48954   -1997.3458    10890.368 
    2240    288.41674     10.65961    73.797193   -166.25018   -3015.3606    10890.368 
    2250    267.54759    11.261803    79.641268   -165.01831    1301.3281    10890.368 
    2260    292.68402    11.874306    74.675537   -163.87825    1748.8722    10890.368 
    2270    283.33445    10.029416    74.793828   -162.55756    1246.0358    10890.368 
    2280    297.05763     6.274105     72.53687   -161.17436    3472.6978    10890.368 
    2290    299.61544    8.0414531    75.824761   -159.88157   -1674.2813    10890.368 
2300        0.99152197549135134835 10.066316022761860438 1 66 -291.94639711238284008
    2300     293.6512    8.9571028    66.716657   -158.89799    540.13315    10890.368 
    2310    294.03648    9.2934774    74.397287   -157.67045   -1974.4797    10890.368 
    2320    315.28848    7.0122187    65.710891    -156.0277   -530.84982    10890.368 
    2330    309.79723    7.4008743    72.224169   -154.39179    269.24493    10890.368 
    2340    287.87823    8.1929066    72.585866   -152.68705    1502.9317    10890.368 
    2350    279.28536     8.640902     78.09064   -150.28258    644.85686    10890.368 
    2360    292.47451    11.356592    81.816847   -147.23614    2256.6813    10890.368 
    2370    298.82413     11.49336    75.458887   -144.30706   -3559.0009    10890.368 
    2380    313.30802    12.677867    69.857497   -141.06698    1062.9664    10890.368 
    2390    319.75725    10.402942    76.033132    -137.5176   -2161.9849    10890.368 
2400        0.99048284930533814219 10.104265333527624904 1 71 -269.63741278956047154
    2400    299.48509    6.8637635    87.413071   -133.94577    1736.0624    10890.368 
    2410    328.60573    4.9849777    83.940292   -130.77088    2666.4581    10890.368 
    2420    355.32562    5.0216464    74.310192   -128.75725    3581.1302    10890.368 
    2430    357.63772    7.4869521    70.692337   -128.10591   -207.67608    10890.368 
    2440    325.05801    7.7865387    79.364826   -129.08843   -3764.1283    10890.368 
    2450    306.92417    8.0781405    80.441679   -131.83292   -1339.5571    10890.368 
    2460    308.40097    8.4249194    82.647226   -136.95775    734.50536    10890.368 
    2470    335.81991     8.214824    57.780672   -144.16003    340.85496    10890.368 
    2480    316.94831    6.1578855    70.476408   -151.90099   -1481.6468    10890.368 
    2490    314.56619    4.8318469    73.336345   -158.47048    1614.7756    10890.368 
2500        0.98279881244951727837 10.170393901566626482 1 67 -293.07892050938443163
    2500    286.95013    4.3324222    76.505124   -163.06666   -824.32945    10890.368 
    2510    285.85609    3.8550723    72.620193   -166.07872   -4060.6886    10890.368 
    2520    280.75549    5.6241093    67.225054   -168.16599   -3744.0143    10890.368 
    2530    274.60443    8.4315515    67.875019   -169.40202    604.48934    10890.368 
    2540    286.62661    7.2759531    61.343705   -169.65504    1320.5837    10890.368 
    2550    293.32988     5.848289    67.181163   -169.14198    4403.0478    10890.368 
    2560    308.70823    4.5820245    67.487883   -168.12354    3648.1176    10890.368 
    2570    285.76691    4.4708916    78.633883   -167.00507   -1940.5692    10890.368 
    2580    291.40421    5.2649342    74.885507   -166.10754   -1263.1293    10890.368 
    2590    280.46155     7.701286    71.750663   -165.13706   -3495.9516    10890.368 
2600        0.97695465051824925684 10.171103709777149504 1 66 -301.92492289076989209
    2600    305.08722    7.3359115     64.40199   -163.69505   -1906.3925    10890.368 
    2610    287.42858    7.1971535    67.384165     -161.469   -444.73687    10890.368 
    2620    286.17586    8.0416306    69.405385   -158.36123     765.2723    10890.368 
    2630    290.41795    7.0953672    75.272743   -154.34034    4274.1258    10890.368 
    2640    313.36701    6.6675805    71.997321   -150.24783    3467.3809    10890.368 
    2650    346.05562    6.7150246    64.105795   -146.99088   -132.49003    10890.368 
    2660    324.97296    5.7625509    76.362494   -144.75315   -2434.0727    10890.368 
    2670    323.53383    6.9227357    76.190179   -143.39647   -2799.2057    10890.368 
    2680    303.23654     9.787473    81.303883   -142.76358   -809.14367    10890.368 
    2690    294.19641    11.395743    69.221591   -142.61917   -521.83142    10890.368 
2700        0.97070153554548399555 10.17802296653625227 1 67 -282.11963390710741351
    2700      308.118    10.174213    74.794689   -142.51656    1426.8692    10890.368 
    2710    304.65006    8.3649614    77.657713   -142.72194    5193.6376    10890.368 
    2720    330.69443    5.6658565       70.723   -143.45777   -65.429505    10890.368 
    2730    325.39631    7.2408128    73.562843    -145.3228    1285.4903    10890.368 
    2740    329.03809    7.7380348    69.370598   -148.74689    -962.8068    10890.368 
    2750    282.49178    7.4299699    79.001577   -154.34749   -1803.3929    10890.368 
    2760    279.59158    6.8347332    76.886817   -160.81795   -3025.2326    10890.368 
    2770     279.7184    5.6073351    71.304771   -166.91993   -911.12337    10890.368 
    2780      269.968    5.5543547    64.790019   -171.20689   -862.86116    10890.368 
    2790    284.61675    7.0549708    62.151937   -173.37566    -1174.572    10890.368 
2800        0.97077150285933411222 10.192398648571858288 1 67 -298.79189780990407144
    2800    274.66881    7.4978017    70.762023   -174.34409   -1893.7654    10890.368 
    2810    300.09602    6.4338363    68.133074   -174.73066    839.06354    10890.368 
    2820    274.76907    8.9097855    62.847953   -174.92345    558.42213    10890.368 
    2830    290.45726    7.5297912    61.437768   -174.61878    2431.1911    10890.368 
    2840     272.4132    6.9693136    70.988222   -173.65182   -432.36776    10890.368 
    2850    270.76199    8.0618095     71.40513   -172.10211   -330.63532    10890.368 
    2860    267.52832    6.9931154    75.578339   -170.16902   -963.72613    10890.368 
    2870    299.03989    5.1557618    71.873007   -167.97351    2016.0167    10890.368 
    2880    320.43136    4.6469392    61.417255   -165.66975    1808.8594    10890.368 
    2890    295.27539      7.35648    64.149181    -163.6237   -586.91007    10890.368 
2900        0.97934084006583044246 10.156164117108023248 1 68 -287.51915693606963487
    2900    278.70488    9.5163278    69.662219   -161.24268   -583.14229    10890.368 
    2910    280.57572    9.1583242    69.839769    -158.5272    1571.0405    10890.368 
    2920    291.78061    7.6335947     71.39835   -155.62868    695.62165    10890.368 
    2930    303.76648    7.3501199    68.273564   -152.70141   -1550.7797    10890.368 
    2940     295.5053     5.756263    69.949906   -150.07825   -4209.5988    10890.368 
    2950    317.48319    6.9914858    66.304158   -147.69406    2315.7784    10890.368 
    2960      337.248    7.5735879    64.042843   -146.15226   -1558.7212    10890.368 
    2970    323.34254    8.3285516    71.605427   -145.61953    3394.7749    10890.368 
    2980    288.58459    6.6488638    77.110806   -145.53424    1140.9802    10890.368 
    2990    290.21206    5.7499939    78.070549    -145.5455   -176.01287    10890.368 
3000        0.97727787318515102477 10.161748017989424397 1 70 -280.95890558692917693
    3000    298.31337    5.2257884    73.447404   -145.79815   -1627.5289    10890.368 
    3010    313.62987    7.1125402    64.133299   -146.12453    508.87811    10890.368 
    3020    311.73258    9.1191595     68.62702   -146.25835    758.46139    10890.368 
    3030    308.11926    10.532231    69.714391   -146.36888   -1023.7992    10890.368 
    3040    286.81826     7.871357    72.141661    -146.5938    471.17756    10890.368 
    3050    286.26145    8.3118277    70.548558   -146.65898    815.90178    10890.368 
    3060    287.63581    9.7630539    68.633272    -146.4744    1502.1926    10890.368 
    3070    308.28476    9.4900011    70.375662   -146.20134   -1251.6624    10890.368 
    3080    302.56232    8.2458186    64.116478    -146.0268   -2271.4505    10890.368 
    3090    303.27785    7.3508093    72.689294   -145.84308   -2818.6265    10890.368 
3100        0.97525847500650819644 10.163894551839877778 1 71 -287.84498224666498345
    3100    313.10663    9.2310771    70.023984   -145.98165    1676.4079    10890.368 
    3110    312.07537    6.0188824    73.037298   -146.51288    435.17117    10890.368 
    3120    322.67887    7.8526952    62.597263   -147.60605   -1117.8901    10890.368 
    3130     295.6458      7.87404    75.741556    -149.4158   -132.22702    10890.368 
    3140     284.9131    7.8668663    68.755485   -151.95346    667.50805    10890.368 
    3150    276.68617    5.5241639    80.262703   -155.09525    4466.2187    10890.368 
    3160    308.36211    6.2397223    71.338669   -159.33443    1978.1939    10890.368 
    3170    310.12393    7.0367299     64.90882    -165.0542   -2228.8989    10890.368 
    3180    285.00205    5.8440643     61.74225   -170.79787   -3718.7304    10890.368 
    3190    260.44057    5.0504492    67.791694    -175.2769   -1461.5873    10890.368 
3200        0.97075752918916502487 10.18741002461586298 1 71 -299.91688345173690777
    3200    269.89262    7.3978875    58.897729   -177.63309    1946.6375    10890.368 
    3210    273.66697    6.5669536    61.496858   -178.72769    915.70996    10890.368 
    3220    269.78222    4.5093123    62.219739   -178.74756    3393.3998    10890.368 
    3230    268.40858    3.6283812    59.773458   -177.82524    1890.9998    10890.368 
    3240    255.06771    3.5181048    65.656334   -176.38022   -2800.4541    10890.368 
    3250     281.3652    2.7177657     52.66668   -174.31952   -2958.7986    10890.368 
    3260    267.40989    2.6672576    63.657775   -171.70313   -3549.7593    10890.368 
    3270    301.50104    3.2699771    54.280921   -168.79364    727.49323    10890.368 
    3280    264.55392    6.4205063     72.41887   -165.90786    2292.1909    10890.368 
    3290     295.7294    6.1232464    61.585937    -163.2956    3855.9166    10890.368 
3300        0.96485106989503655051 10.210569419632490096 1 68 -286.68560307936087383
    3300     277.7451    7.3421216    70.302135   -160.84399    1590.6331    10890.368 
    3310    294.36912    6.3694224    62.186322   -158.48552   -3459.2138    10890.368 
    3320    284.01547    4.9779528    71.583195   -156.38916   -1943.8944    10890.368 
    3330    299.23076    4.7521999    72.286914   -154.41039   -974.16105    10890.368 
    3340    307.50025    3.6234318    68.801135   -152.61634    532.15376    10890.368 
    3350     255.2827    4.9654627    83.726667   -151.16116    646.20875    10890.368 
    3360    287.58144    7.5444868    67.209707   -149.40028   -3412.6286    10890.368 
    3370    288.98319     9.061488    71.463948   -147.65737    1582.5629    10890.368 
    3380    309.91538    8.7952946    65.798158   -145.91739    1717.1043    10890.368 
    3390    290.07834    9.1531854    65.361641   -144.22458   -5.6574124    10890.368 
3400        0.96129539416719778089 10.219610084210644985 1 66 -271.26961211817086905
    3400    284.51121     6.657664    77.916495   -142.36238    762.08386    10890.368 
    3410    289.92993    6.6139738    75.516465   -140.40572   -3524.6619    10890.368 
    3420    333.37029    7.3400513    59.540323   -138.35442    1746.8285    10890.368 
    3430    332.50823    4.7917499    71.304292   -136.67057    3820.5122    10890.368 
    3440    316.82672    6.1543032    75.023989   -135.53868    1459.5713    10890.368 
    3450    327.51354    6.5086361    68.509399   -134.75172   -731.86584    10890.368 
    3460      306.728    6.3938275    77.560124   -134.66998   -5462.7254    10890.368 
    3470    322.35625    5.0063722    68.763004   -135.55824   -1861.8055    10890.368 
    3480    309.65255    5.7583744    74.481643   -137.56447   -749.19282    10890.368 
    3490    332.93148    6.8259966    56.761771   -140.90368   -344.24693    10890.368 
3500        0.96509792795018056744 10.19821964246468049 1 68 -265.50246084925993273
    3500     264.2379    8.6838231    73.715832   -145.78073    1083.3639    10890.368 
    3510    285.17923    6.3100433    69.527982   -150.65751    967.05042    10890.368 
    3520    289.44874     4.935836    65.871642   -155.19325    1483.8874    10890.368 
    3530    290.98116    4.0926477    71.134791   -158.95016   -2416.3345    10890.368 
    3540    288.94377    4.1426362    72.572747   -162.48916   -915.13704    10890.368 
    3550    272.47185    4.1322763    65.319027   -165.09356    338.02499    10890.368 
    3560    270.74697    5.9112803    63.924073   -166.68512    793.48092    10890.368 
    3570    270.91195    5.7679701    70.946314   -167.32655    1934.5406    10890.368 
    3580    289.87968    8.8407406    65.261449   -167.41241   -2420.6641    10890.368 
    3590    299.23375    8.9277003    66.835618   -167.30019    -3780.687    10890.368 
3600        0.9779425022520251698 10.173351110269289066 1 68 -303.16546140059000436
    3600    299.81939    10.639253    60.855414   -167.32235    245.78685    10890.368 
    3610    303.04333    8.0189933    57.255169   -167.34645    2322.8855    10890.368 
    3620    276.86605    8.1254353    65.381649    -167.0083    2429.2518    10890.368 
    3630    281.54414    9.2121274    62.665862   -165.92445   -2277.6019    10890.368 
    3640    280.02589    7.6230724    66.918986   -163.83326    1953.5655    10890.368 
    3650    293.46211     6.018943    66.086913    -161.0378   -591.92978    10890.368 
    3660    287.79102    8.1807713       70.384   -157.40412    1316.8595    10890.368 
    3670    290.41544    9.7720971    74.255999   -153.47475   -2345.7662    10890.368 
    3680    329.44941    10.884973    60.789316   -148.59304    1849.5836    10890.368 
    3690    330.80477     9.243847     61.57115   -144.50215    -2021.623    10890.368 
3700        0.99134521432419331344 10.100736827138566909 1 68 -297.20040332927413829
    3700    344.22995    7.3165431    59.636885   -141.23562   -694.40708    10890.368 
    3710    320.68004    8.4702816     73.51457   -139.32114    186.95707    10890.368 
    3720    308.65352    11.273172    63.028754   -138.35136    666.80927    10890.368 
    3730    274.80026    9.9949474    76.735198   -137.68242   -219.79729    10890.368 
    3740    333.97006    8.1580873    61.127393    -136.5674    -630.7988    10890.368 
    3750    333.40878    8.4550814    67.604759   -135.74551    877.13615    10890.368 
    3760    349.07633    6.5287992    54.553209   -135.72921   -104.47141    10890.368 
    3770    318.23236    8.1374165    67.224026   -136.59589    646.62339    10890.368 
    3780    323.15376    7.3043142    62.054303   -138.62867    3360.3014    10890.368 
    3790    300.56575    9.5176653    70.977447   -142.85463    738.63473    10890.368 
3800        0.99434693297205978268 10.063614676075559373 1 66 -283.613421647945529
    3800     296.4104    8.2871746    72.116142   -149.31487    411.47411    10890.368 
    3810    295.09012    12.247586     58.57253   -156.48188   -3357.2322    10890.368 
    3820    284.11983    14.621491    62.945984   -162.69739   -1741.1363    10890.368 
    3830    281.26099    11.251471    65.727926   -167.00253    1661.8178    10890.368 
    3840    282.22473    9.4548114    59.899481   -169.74864    3441.1807    10890.368 
    3850    282.09231    9.2684948    58.901694   -171.19919    2357.3891    10890.368 
    3860    264.71596    9.4726153    63.020988   -171.96068   -2125.3684    10890.368 
    3870    281.62985    10.179099    62.098284   -172.24072   -1038.1063    10890.368 
    3880    306.86353    8.1943023    54.496043   -172.31411    1125.8728    10890.368 
    3890    291.23496    9.5433476    55.098633   -172.21274    2698.5512    10890.368 
3900        0.99071190183590684963 10.106624647043892296 1 67 -300.99241376492216204
    3900    285.98307    10.978965    55.578941   -171.41831    301.16162    10890.368 
    3910    274.42938    10.922084    66.181353   -169.86366   -1073.9409    10890.368 
    3920    293.76313    10.184387    62.009221    -167.5623   -852.97504    10890.368 
    3930    277.22383    9.0717346    64.512087   -164.60121   -2489.2723    10890.368 
    3940    290.90899    6.1146775    65.859155   -161.11127    297.85007    10890.368 
    3950    309.15271    6.4817778    58.687846   -157.35143    696.47684    10890.368 
    3960    331.00039    7.2670581      55.1102   -153.85663    690.18328    10890.368 
    3970    321.40223    5.7797637    58.115038   -151.01385    194.13373    10890.368 
    3980    285.23869     5.760613    61.216915     -148.921   -1554.9292    10890.368 
    3990    280.35548    5.2110078    71.006481   -146.79222   -1581.0509    10890.368 
4000        0.98359049052683367176 10.123677104343343558 1 66 -283.50708337632624989
    4000    307.05515    7.1086249    64.255937   -144.38557   -1540.8141    10890.368 
    4010    303.14093    5.0100593    66.591719   -142.21719   -1970.5173    10890.368 
    4020     308.4088    5.8096007     63.96972   -140.45738    2099.0314    10890.368 
    4030    295.21091    5.9256912    71.321798   -139.05138    933.73555    10890.368 
    4040    316.80192    6.1235757    52.497601   -137.92138    2337.3458    10890.368 
    4050    296.96213    5.5815299    63.152464   -136.87968   -1601.9118    10890.368 
    4060    307.45471    5.9754612     64.87155   -135.78997    2303.9222    10890.368 
    4070    302.10868    5.4304811    73.272804   -134.94615    2255.2744    10890.368 
    4080    326.07996    5.5989511    59.929694   -134.41913    1548.5104    10890.368 
    4090     304.0563    7.0379534      66.1732    -134.2645   -3870.5795    10890.368 
4100        0.97164536079735563945 10.153761693087114182 1 69 -283.50946007032951002
    4100    328.92932    5.7033138    61.086281   -134.47714   -3072.4021    10890.368 
    4110    324.65502    5.7039245    63.074855   -135.32309   -1650.4803    10890.368 
    4120    327.07231    5.3729463     64.23217   -136.62391    3558.0911    10890.368 
    4130    294.35227    4.1701402    75.597401   -138.12708    1779.2984    10890.368 
    4140    275.22699    7.2454083    73.199922   -139.14759    2627.0116    10890.368 
    4150    294.28097    8.8430117    65.700671   -139.88381   -2480.0185    10890.368 
    4160    283.70732    8.7782438    66.864966   -140.30741   -1685.2283    10890.368 
    4170    286.91953    6.6473672    70.368615   -140.18922   -3467.9048    10890.368 
    4180    298.63667    5.9701904    69.356287    -139.7956   -2125.6175    10890.368 
    4190    328.15788    4.3718665    63.785059   -139.79778   -461.31642    10890.368 
4200        0.97462755154484626008 10.157434994324050948 1 69 -282.02565619099340211
    4200    312.20625    4.8332787    68.258615   -140.57027    2595.1938    10890.368 
    4210    297.86005    6.7777622    68.033918   -141.77031    3235.7704    10890.368 
    4220    306.63632    5.5482861    60.943184   -143.17411      1833.25    10890.368 
    4230    310.71951     5.325772    60.401067   -144.94683   -4105.0838    10890.368 
    4240    282.84811    4.6195444    60.219597    -146.8517   -2861.0952    10890.368 
    4250    297.14298    7.6867873    60.440625   -148.66864   -247.80289    10890.368 
    4260    291.00797    7.7144016    56.797143   -150.24618    2981.4177    10890.368 
    4270    288.64069    8.9423731    59.992965   -151.33895    1645.1494    10890.368 
    4280    273.31134    11.348601    69.098056   -151.97672   -1595.2151    10890.368 
    4290    279.12051    10.456416    69.315764    -152.5004    944.31216    10890.368 
4300        0.98271186641789776139 10.132342739379586405 1 70 -292.75731012046099977
    4300     307.5728    9.1435082    61.380604   -153.40127    1347.0011    10890.368 
    4310     305.4099    6.3357354    63.784307   -154.82549   -1926.4785    10890.368 
    4320    332.69902     6.944391    49.624834   -156.54736   -4548.5164    10890.368 
    4330    295.18605    6.7447729    56.385584   -159.02226   -4118.1718    10890.368 
    4340    270.11182    5.4708904    74.221312   -161.91181      3683.51    10890.368 
    4350    283.49801    8.8513274    61.531551   -165.18181    3085.9855    10890.368 
    4360    279.48126    11.936911    59.447633    -168.4646    1557.9769    10890.368 
    4370    277.70022    9.7346861    56.065868   -171.50519   -2270.0836    10890.368 
    4380    279.67314    6.1373454    56.699152   -173.74169   -3182.5412    10890.368 
    4390     289.3639     5.456974    51.689104   -175.21855    539.37371    10890.368 
4400        0.98527747593691183958 10.096758352306220985 1 74 -297.23443512682933942
    4400    267.95973    7.3701261    58.144953    -175.8264    3319.0145    10890.368 
    4410    256.15875    7.9746303    61.918269   -175.51033    4580.8136    10890.368 
    4420    269.29206    8.1419518    60.375276   -174.31411    1131.6161    10890.368 
    4430     284.8219    7.0156373    55.316291   -171.93219    1730.7854    10890.368 
    4440    276.57524    5.4051294    60.714862   -168.17622   -197.53294    10890.368 
    4450    276.12088    6.8206447    63.885678   -162.83923   -1954.0419    10890.368 
    4460     307.9946    9.2008177    60.002886   -156.66665   -4637.7443    10890.368 
    4470    291.72438    10.566388    62.420183   -151.75802     545.5985    10890.368 
    4480    310.28309    8.5366801    63.824968   -147.94913   -859.14705    10890.368 
    4490    286.06417    12.551058    70.220462   -145.59983   -1160.1138    10890.368 
4500        0.98323692329743861418 10.116829038805459362 1 69 -276.77730147380691506
    4500    292.78961     10.83821    66.197136   -144.11927    226.14193    10890.368 
    4510    299.62293    11.389511    61.007462   -142.78814   -7.5775009    10890.368 
    4520    338.36729    9.0939576    53.446969   -141.58086    740.73666    10890.368 
    4530    322.43295    9.8573348    52.008773   -141.02139   -102.54344    10890.368 
    4540    302.41028    9.8025094    58.605752   -140.68424    1730.2616    10890.368 
    4550     326.9536    7.3170003    61.090047   -140.01626    2922.3082    10890.368 
    4560       324.48    7.9776777    61.378175   -139.94756   -2456.4934    10890.368 
    4570     309.9218    9.1557983       58.274   -140.63999   -15.275469    10890.368 
    4580    309.37786    8.3278915    64.009023   -141.75965    690.59922    10890.368 
    4590     297.1252      6.35099    60.171173   -142.92705    652.40702    10890.368 
4600        0.98154301851228453746 10.101057501259246507 1 69 -276.86476975882669649
    4600    293.23686    5.9335933    72.021337   -144.00409    2478.1874    10890.368 
    4610    298.53173    6.5887413    62.439912   -145.42659   -563.22154    10890.368 
    4620    299.32418    6.8131326     58.09484   -147.73839     475.4081    10890.368 
    4630    293.45404     4.997261    55.742114   -150.23368   -462.99309    10890.368 
    4640      286.325    4.6323879    63.336552   -152.37339    585.32599    10890.368 
    4650    309.47007    4.8602949    62.137931   -154.98948    112.92048    10890.368 
    4660    295.89777    4.8680385     61.20318   -158.85008   -1467.5659    10890.368 
    4670    291.99786    4.3344731    63.393721   -163.28311    1577.7836    10890.368 
    4680    296.52645     4.714446    52.327018   -167.68424   -683.51231    10890.368 
    4690    302.94516    6.0487985    58.719456   -171.87074    323.16987    10890.368 
4700        0.98093551159992065092 10.136036734620365252 1 69 -308.39138800347444658
    4700    293.28231    9.6536032    51.679626   -175.51012   -564.96291    10890.368 
    4710     270.7753    11.167081    61.931547   -178.34308   -4395.4942    10890.368 
    4720    269.15493    8.8173347    61.643391   -180.33371    1235.2599    10890.368 
    4730    264.54717    9.5546399    55.045012   -181.22077    1740.3255    10890.368 
    4740    281.65854    7.0017549    54.338857   -180.93155    3244.5616    10890.368 
    4750    288.36899    5.6046658    50.888355   -179.75138    821.79268    10890.368 
    4760    270.95446    5.9816189      55.5877   -177.84676   -229.89711    10890.368 
    4770    274.33507    7.9695485    62.002452   -175.05438    1673.9008    10890.368 
    4780    286.07463    7.6168526    60.057781   -171.67066    654.59885    10890.368 
    4790    294.13091    7.6225899    51.326474   -168.60522   -1620.3849    10890.368 
4800        0.97584161699839244708 10.189978507987929035 1 70 -295.68882227661936213
    4800     286.3858    8.1100016    66.196139   -165.93225    324.77558    10890.368 
    4810    292.15648    6.2311084    55.758674   -163.61292   -2983.0236    10890.368 
    4820    297.66894    4.8741115    61.094045   -161.63106   -2398.8315    10890.368 
    4830    293.37764    4.6781181    59.481808   -159.95147   -433.31059    10890.368 
    4840    286.16822    5.3685903    60.419877   -158.63671   -4150.9543    10890.368 
    4850    280.84552    5.3608713    63.298148   -157.23272    938.17727    10890.368 
    4860     292.7071    5.8162371    65.354913   -155.51998    2842.4027    10890.368 
    4870    321.54109    6.5303127    53.188017   -153.60721    7199.6215    10890.368 
    4880    298.49836    6.3881349    65.768336   -151.78303      3248.28    10890.368 
    4890    304.07113    6.9026241     59.49773   -149.87478   -2839.2887    10890.368 
4900        0.97023473194163345479 10.222427529505749177 1 66 -285.33084327228084476
    4900    302.94999    8.6740314    67.282063   -148.06931   -2942.0623    10890.368 
    4910     299.3571     8.912861    70.818434   -146.81815   -2837.9862    10890.368 
    4920      300.616    9.7564764    67.100279    -145.9635   -2879.5684    10890.368 
    4930     303.2337    9.0571412    59.050257   -145.17035   -723.84376    10890.368 
    4940    306.71291    5.1678012    64.323892   -144.29576   -2761.2302    10890.368 
    4950    298.29938    4.7338373    68.595639   -143.56005    4476.0548    10890.368 
    4960     314.6832    5.1877235    62.078424   -143.05536    618.63927    10890.368 
    4970    310.02658    5.7751107    62.126703   -142.66816     -618.369    10890.368 
    4980    331.94913     5.555545     64.71312    -142.5731   -2125.5973    10890.368 
    4990    311.47548    6.8213119    59.981217   -143.57007   -1532.4392    10890.368 
5000        0.96751396674112155605 10.206798715082804563 1 66 -290.12278596895998817
    5000    318.76073    9.4982968    60.565844   -145.69768   -1014.2293    10890.368 
    5010    317.47183    10.539137    56.073601    -148.9883   -1211.8985    10890.368 
    5020     288.2533    7.6348095    65.342901   -153.10191    1985.7511    10890.368 
    5030    267.64431    5.7048237    68.090683   -157.11651    4065.6319    10890.368 
    5040    272.99939    6.8273317    63.816843   -160.47936    1741.0255    10890.368 
    5050     279.2865    8.1978992    60.120643   -163.27366     3583.895    10890.368 
    5060    280.92788    8.4798182    64.517023   -165.68831    383.08012    10890.368 
    5070    292.86132    5.6047878    58.703467   -167.91172   -2319.7252    10890.368 
    5080     271.4708    5.3826159    61.950171   -169.74735   -1160.8482    10890.368 
    5090    279.14223    4.8156919    57.378111   -170.92096   -2573.4243    10890.368 
5100        0.97012280189099631134 10.196425034824983413 1 69 -289.94270128201890202
    5100    261.58352    7.1195491    62.087103   -171.42362    864.72158    10890.368 
    5110    273.96575     8.463763    53.429308   -171.10266   -687.30268    10890.368 
    5120    261.60516     7.448189    55.567564   -169.63035   -897.23991    10890.368 
    5130    289.48907    6.3050878    51.993755   -166.34309    442.17971    10890.368 
    5140    282.86197    7.2273469    57.220465   -161.09058   -2173.9467    10890.368 
    5150     293.7695    7.9054155    62.182348    -155.1526   -895.41543    10890.368 
    5160    336.63751    6.5667687    58.280192   -149.76491   -2932.3747    10890.368 
    5170    311.52219      8.48169    66.256947   -146.92784    1116.1718    10890.368 
    5180    310.37772    11.473097    65.801604   -145.66517    565.52891    10890.368 
    5190    291.00748    10.315438    66.144182   -145.01445    3020.4128    10890.368 
5200        0.98004519512846499651 10.15175847419103583 1 68 -277.70170716627239926
    5200    294.34693    5.8790567    64.898548   -144.33808    619.52816    10890.368 
    5210    306.66073     4.761587    61.292798   -143.58526    2206.8457    10890.368 
    5220    332.02217    3.7272612    66.569499   -143.42484    -1458.379    10890.368 
    5230    316.00425    7.2642883    61.392801   -144.44751   -264.82261    10890.368 
    5240    304.07501    7.4434376    66.995591   -146.28771   -1733.6319    10890.368 
    5250    281.54225    7.8393641    67.429485    -148.1162    346.47258    10890.368 
    5260    303.64326    6.9191848    64.334629   -149.99229     -348.285    10890.368 
    5270    308.02058    9.3445935    56.466899   -151.95387    2089.7431    10890.368 
    5280    300.52813    9.0142318    64.307361   -154.16447    1677.5401    10890.368 
    5290     283.4625    7.8610535    62.157899   -156.45061    967.62922    10890.368 
5300        0.98524839540861863796 10.114281942267290049 1 66 -295.09221698190322059
    5300    301.03121    6.3364035    60.533139   -158.70005   -2166.0915    10890.368 
    5310    318.34227    9.6938182    49.970697   -160.83297    1614.3822    10890.368 
    5320    304.39124    11.602852    58.390771   -162.77796    984.94464    10890.368 
    5330    284.22185    13.482021    60.305467   -164.29064   -485.17169    10890.368 
    5340    283.39526    11.449758    60.365144   -165.61789   -2445.6171    10890.368 
    5350    275.65233    11.750221    63.495931   -166.88585   -394.01681    10890.368 
    5360    285.79386    11.861539    60.618208   -167.89409   -1134.9731    10890.368 
    5370    271.67371    10.206131    62.907214   -168.74507    1213.2241    10890.368 
    5380    287.21672    7.8849997     61.86894   -169.33604    805.85644    10890.368 
    5390    272.31256    7.7021243    65.331046   -169.43681    1688.7994    10890.368 
5400        0.9849680493923859137 10.129859177308464524 1 68 -292.35935356512135286
    5400    272.45873    10.406584    66.075849    -168.9129   -866.68896    10890.368 
    5410    288.65819    8.5469564      65.1153   -167.57305   -854.61936    10890.368 
    5420    285.34724    10.896272    67.988665   -165.60495   -877.78307    10890.368 
    5430    300.15709    10.025946    58.358514   -163.46961   -518.83109    10890.368 
    5440    295.16728    9.2485069    62.802682   -161.01776   -9.9815748    10890.368 
    5450    301.36915    8.9873486    61.492986   -158.32635   -432.10486    10890.368 
    5460    281.17916    8.9087825    64.849389   -155.23582    873.18058    10890.368 
    5470    284.97541    10.964939    67.192268   -151.90628    371.26633    10890.368 
    5480    280.48486    10.767878    75.408897   -148.16557    3260.8679    10890.368 
    5490    297.80563    7.6079424    71.286417   -144.84071    632.29501    10890.368 
5500        0.98058064148387791281 10.121312116660893921 0.99735449735449732689 69 -284.60425733235479129
    5500    314.51429    6.8388494    66.636772   -142.10314   -169.33423    10890.368 
    5510    327.50403    5.7051594    61.473851   -139.79825    -1139.056    10890.368 
    5520    291.10036    4.8683941    76.825318   -138.29372    2075.8301    10890.368 
    5530    291.82348     3.808617    67.346331   -137.22142    2809.8039    10890.368 
    5540    301.60988    2.3666778    69.816963   -136.43918   -1063.6358    10890.368 
    5550    319.77143    2.4161392    67.977664   -136.22912   -1070.3653    10890.368 
    5560    316.84545    2.7569309    65.035957    -136.5566   -3870.6547    10890.368 
    5570    299.59168    3.0479385    69.240707   -137.05146    1057.0312    10890.368 
    5580     275.2891    4.0186393    73.378459   -137.61472   -1187.7503    10890.368 
    5590    296.89421    5.9161585    63.087557   -138.19697   -1276.3312    10890.368 
5600        0.96930228243028559998 10.16613167446657684 0.99735449735449732689 67 -271.52502126927970494
    5600    293.21623    5.9990709    69.424299   -138.67369   -463.86818    10890.368 
    5610    325.33315    6.3190434    62.645111   -139.36041    2000.9341    10890.368 
    5620    305.88918    6.3893739    65.977031   -140.91014    2409.4183    10890.368 
    5630    299.03993    5.3173129     66.78807   -143.07461   -1443.2013    10890.368 
    5640    285.54404    4.0638372    72.009285   -145.98529   -4580.7243    10890.368 
    5650    289.84157    3.1457092    70.650285   -149.52632    13.421555    10890.368 
    5660    322.60974    2.4015285    59.881286   -153.42975    673.81782    10890.368 
    5670    318.23831    3.6691232    51.192135   -157.89408    2290.6602    10890.368 
    5680     271.2596    5.7360613    57.515969   -162.03259   -3768.7859    10890.368 
    5690    255.47297    6.3794368    59.059745    -164.6753    203.62193    10890.368 
5700        0.96653897378814646046 10.170497501655344053 0.99735449735449732689 69 -276.77217043412122166
    5700    244.86975    4.3770428    67.987768   -165.82582    1939.1477    10890.368 
    5710    273.74767    3.6334402    58.012784   -165.74664    1813.4181    10890.368 
    5720    271.14794    2.8556608    61.543024   -164.63138   -2873.2878    10890.368 
    5730    286.57325    4.5572535    58.906594     -162.511   -466.52152    10890.368 
    5740    273.11152    5.4732793    64.994204   -159.72849    2003.8309    10890.368 
    5750    290.46428    5.3667496    65.688516   -156.36704    2928.9278    10890.368 
    5760    286.55537    5.3848413    60.852048   -152.58845    1270.0912    10890.368 
    5770    302.79797    6.1947027    61.419481   -148.88005   -2717.6016    10890.368 
    5780    290.40509    6.2551425    67.691099   -145.35679   -3446.0576    10890.368 
    5790    305.07433    7.0145229    67.358926   -142.43226   -2509.2194    10890.368 
5800        0.97035753805276370176 10.188178163248899466 1 69 -279.0059765702144432
    5800    305.85929    11.092611    65.397969   -140.42629   -2270.3821    10890.368 
    5810    301.52024    12.482259    71.099856     -139.233   -1131.0271    10890.368 
    5820    330.40049     9.407369    64.602463   -138.76559    966.83725    10890.368 
    5830    320.08454    7.9926737    72.845126    -139.4109    5004.4321    10890.368 
    5840    309.58242    8.9625638    66.465495   -141.08803    2195.6065    10890.368 
    5850    291.02885    8.8204307    73.963448   -142.99811    1527.3899    10890.368 
    5860    305.20768    8.1994424    59.019488   -144.97211    -1406.087    10890.368 
    5870    322.61556    7.1083212    57.443487   -146.70805   -2800.8602    10890.368 
    5880    310.90606    9.0953371    68.120704   -148.46238   -249.43292    10890.368 
    5890    335.47989    8.8852665    58.818988     -150.551    -1325.758    10890.368 
5900        0.98139043020569627362 10.147894304305721036 1 73 -287.99839010566188335
    5900     297.2482    8.0408913    72.008416   -153.32024    808.52624    10890.368 
    5910    313.14697    8.2408962    58.492758   -156.47976    1028.4757    10890.368 
    5920    291.72917    7.2370327    61.197073   -159.31708   -861.99604    10890.368 
    5930    301.66352    7.8086644    54.164621   -161.43558   -334.56451    10890.368 
    5940    296.62603    6.5558975    56.836705   -162.71298    896.85176    10890.368 
    5950    287.85845    5.5741955    61.305181   -163.18663      1185.97    10890.368 
    5960    270.19685    10.315533     65.21118   -163.25397   -913.88688    10890.368 
    5970    271.41655    10.485707    61.501183   -162.84404   -1858.2383    10890.368 
    5980    288.85793    10.359107    54.965227   -161.88537    2576.5736    10890.368 
    5990    324.19851    9.6523406    49.348171   -160.50626    699.35602    10890.368 
6000        0.98830011006905549298 10.111306117289240447 1 73 -306.48215548500508021
    6000    325.45238    9.4212721    53.173346   -159.02517   -2721.6481    10890.368 
    6010    293.35583    9.9144305    63.087479   -157.92186   -2982.6162    10890.368 
    6020    287.60076    8.1358113    60.190759   -156.85308   -16.456221    10890.368 
    6030    290.94588    8.0854816    65.388889    -155.6625    3597.3332    10890.368 
    6040    330.30187     10.91455    50.766909   -154.48194    1981.6087    10890.368 
    6050    311.20989    12.614113     54.18545   -153.68379   -494.42043    10890.368 
    6060     305.4061    13.837109    56.940466   -152.77411   -2140.6932    10890.368 
    6070    293.19639    13.512352    61.590659   -151.69319    895.14742    10890.368 
    6080     304.2319     11.33128    67.740399   -150.48255    271.32414    10890.368 
    6090    300.92669    10.678645    63.464732   -149.61384    1128.3839    10890.368 
6100        0.99140465934501476042 10.074897169495697469 1 74 -292.19766999801527163
    6100    316.27376     9.692507    55.795494   -148.89936   -1671.7384    10890.368 
    6110    327.07827    7.4108828    60.730244   -148.40264    4161.2239    10890.368 
    6120    326.53926    4.5837523    60.449686   -148.48052    2009.1492    10890.368 
    6130    305.72414    3.2116233    63.455065   -149.11093     1203.962    10890.368 
    6140    295.19956    4.5520575     68.96665   -149.97315   -2407.9137    10890.368 
    6150    303.58519    6.8105667    56.045513    -150.9724    -1164.241    10890.368 
    6160    295.01209    7.7056879     65.56592    -152.7837    2553.1466    10890.368 
    6170    277.27063    11.819982    58.805303   -156.12678   -1836.5206    10890.368 
    6180    263.35435    16.858632    66.846311   -160.71101    2169.9928    10890.368 
    6190    286.70948    11.952498    51.536985   -165.30881   -299.50342    10890.368 
6200        0.99131586813637728728 10.091517351711294381 1 68 -298.02996524973741543
    6200    283.70512    7.2436111    59.406576   -169.48796    3110.8315    10890.368 
    6210    289.63533    6.9697815     55.49221   -172.93265    3137.5061    10890.368 
    6220    268.64904    8.3273604    61.117733   -175.76737   -1508.7506    10890.368 
    6230     280.0303    6.8324019    56.507705   -177.75789   -2483.9225    10890.368 
    6240    280.98173    6.9277362    53.132132   -179.11873   -5511.0034    10890.368 
    6250    280.98104    8.5571173    48.503325   -179.52888   -214.58048    10890.368 
    6260     283.0587     10.97966    50.511254   -178.81917    3412.2997    10890.368 
    6270    286.99088    12.089682    52.320991   -176.92729    551.81041     10927.19 
    6280    293.12584    12.836822      57.7103   -173.93869    3187.6688     10927.19 
    6290    276.27285    11.833021    54.473451   -170.47641   -3203.3198     10927.19 
6300        0.98935500895236017094 10.128570506213931068 1 70 -298.37625830227153756
    6300    291.67485    8.3985888    55.510696   -166.22331   -3505.0917     10927.19 
    6310    290.38635    5.0063429    56.921411   -161.76068   -346.17757     10927.19 
    6320    299.21183    6.3663763    63.337454   -157.39653    601.03353     10927.19 
    6330    304.15939    9.0755196    62.527406   -153.69264    4824.2085     10927.19 
    6340    310.14668    12.540147    60.197776   -151.27338   -1646.3288     10927.19 
    6350    331.14763    9.9568393    61.567424   -149.97551     873.9487     10927.19 
    6360     334.2861    9.2313547    54.153959   -149.43112    2325.9353     10927.19 
    6370    311.57942    9.3152061     56.34344   -149.37387   -4171.9128     10927.19 
    6380    294.38906    8.7085315    71.240567   -149.53475   -2889.0187     10927.19 
    6390    299.25122    12.133821    62.664039   -150.05493   -4809.4152     10927.19 
6400        0.98137679465153848657 10.130008984098299862 1 66 -289.47903950832852615
    6400    305.67599    12.061829    61.394527   -150.98241     4258.859     10927.19 
    6410    303.15315    8.4859832    65.229633   -151.93057     4951.157     10927.19 
    6420    323.26327    6.4148097    56.892326   -153.13858    1904.9307     10927.19 
    6430    295.30581    5.9090509     65.98474   -155.00095    -1219.143     10927.19 
    6440    306.50171    5.2455751    54.343538   -157.31969   -2176.8173     10927.19 
    6450    282.11509     5.056061    62.073231   -159.81698   -540.95724     10927.19 
    6460    296.89412    5.9999624    53.845975   -162.51127    1668.6387     10927.19 
    6470    270.14617    6.1709111    63.492936   -165.36524   -4028.1283     10927.19 
    6480    263.29019     5.728486    62.345862   -167.93515    1992.9215     10927.19 
    6490    271.99359    6.6317177    58.767209   -170.02948     306.5625     10927.19 
6500        0.97366090793316961705 10.155700216754818044 0.99735449735449732689 64 -289.76427398989261519
    6500    260.70407     9.109533    59.062085   -171.64366    3021.3281     10927.19 
    6510    265.63575    11.006092    56.585029   -172.54616   -800.78225     10927.19 
    6520    282.23783    8.5197315    55.296695   -172.55527   -345.63987     10927.19 
    6530    289.26703    7.2876235    57.928789   -171.76859    676.36612     10927.19 
    6540    281.41815    7.1711185    55.972827   -170.12029   -702.09569     10927.19 
    6550    280.26926    6.5113827    59.122246   -167.27408   -2035.9996     10927.19 
    6560     278.7776    4.2320373    58.128421   -163.03161   -3402.8269     10927.19 
    6570    277.00218    5.4361473    53.798291   -157.56398   -3797.7628     10927.19 
    6580      290.865    6.7452324    62.712585   -151.95072    1177.5028     10927.19 
    6590    288.45037    9.8814606    68.459687   -146.82023    2862.5719     10927.19 
6600        0.9789628556191355413 10.155444114109183573 1 67 -273.02510267291677337
    6600    287.07571    9.7709501    65.911697   -142.95594    5361.7454     10927.19 
    6610    300.27784    8.9375002     59.82053   -139.61679    365.01685     10927.19 
    6620    305.78826    6.4702045    63.056665   -136.95046   -2563.9954     10927.19 
    6630    323.87132    4.9260808    68.094246   -134.99233    -1453.803     10927.19 
    6640    303.78289    4.2175589    64.818432   -134.13853   -3252.2514     10927.19 
    6650    317.78989    3.3662116    60.808194    -134.1583   -2004.7637     10927.19 
    6660    328.64932    3.1322827     70.70935   -135.20865   -743.24777     10927.19 
    6670     316.1656    5.1871609    71.311734   -137.47081    1538.7119     10927.19 
    6680    293.71578    6.1478797    71.858241   -140.64105    4033.5188     10927.19 
    6690    279.06468    8.1463844    72.270399   -143.94682    1448.1552     10927.19 
6700        0.97897022790263132919 10.167225409506505329 1 68 -281.06340312938482384
    6700     295.0403    9.0003485    60.011913   -147.38562    1331.6806     10927.19 
    6710    263.97534    6.7239187     65.70397   -150.32435   -3975.1611     10927.19 
    6720    313.86626    7.7004424    55.292224   -152.57048   -1451.9468     10927.19 
    6730    279.00005    9.1353943     64.81981   -154.60241   -3107.8912     10927.19 
    6740    295.95439    12.227081    59.163888   -156.19178    2651.2197     10927.19 
    6750    290.73821    8.8386716    59.645068    -157.6055   -771.06188     10927.19 
    6760     295.2387    6.5041757    58.180302   -158.84741    777.85887     10927.19 
    6770    312.28739    4.6743919    57.897007   -159.98634    2196.9158     10927.19 
    6780    317.20042    4.6409802    53.290741    -161.2908    2662.6379     10927.19 
    6790    323.11037    4.2069221    53.599579   -163.22821    660.72748     10927.19 
6800        0.97869981771980241181 10.19021099622832871 1 68 -295.32958625439971456
    6800     285.2124     4.556366    57.322759   -166.10466   -5934.8599     10927.19 
    6810    277.22674    6.8249288     60.66004    -169.4894   -684.92357     10927.19 
    6820     273.2409    6.6390021    60.207644   -173.20031    2910.1001     10927.19 
    6830    293.25391    8.9690869    52.394513   -177.54088    2231.9136     10927.19 
    6840    277.33776    7.8284123    57.718305   -182.47686    9.2931715     10927.19 
    6850    271.92039    6.3730689    49.815049   -187.24002   -3567.8366     10927.19 
    6860    253.67752    6.4970507    55.326289   -190.78177   -2546.3927     10927.19 
    6870    261.05283    5.8171785    51.827172   -192.77386    651.47587     10927.19 
    6880    260.68551    4.3212704     58.00469   -193.35355    711.36325     10927.19 
    6890    261.35381    4.5558935    56.997818   -192.84444   -480.01152     10927.19 
6900        0.97921819090028994204 10.167103160337264356 1 68 -316.31810649485976228
    6900    275.84812    6.7385786    51.453186   -191.33598   -1545.6913     10927.19 
    6910    280.89106    10.337942    54.591798    -188.8955    2325.6254     10927.19 
    6920    279.66455    12.651822    50.687925   -185.80336    527.03482     10927.19 
    6930    290.73138    11.648929    54.064092   -181.50717   -1358.7123     10927.19 
    6940     291.1748    9.0612897    52.827786   -176.89018    807.87448     10927.19 
    6950    278.20998     9.533357    56.041496   -172.84991    685.81843     10927.19 
    6960    255.86157    10.781085    62.595988   -169.83405    3133.9752     10927.19 
    6970    261.98438    10.933041    60.941857   -167.57799     1276.872     10927.19 
    6980    286.31818    11.238182    57.329097   -165.59168    2925.4342     10927.19 
    6990    298.46397    10.276543    58.145675   -163.82676   -2707.8306     10927.19 
7000        0.97460173054540866211 10.150542411752704552 1 67 -297.29168996118204404
    7000    298.21303     11.63969    57.394397    -162.1764   -2060.4923     10927.19 
    7010    278.55111    9.3382593    67.154367   -160.58305   -1062.5773     10927.19 
    7020    299.85849    6.7117053    61.891398   -158.85109   -2210.7478     10927.19 
    7030    297.07314    7.3390179    59.320024   -156.93082   -227.52378     10927.19 
    7040    305.50827    7.2310524    55.379452   -155.15092   -464.24192     10927.19 
    7050    280.52442    5.7445596    66.161109   -153.13443    3856.4764     10927.19 
    7060    311.42106    4.3889077    62.738534   -150.84255    2397.1836     10927.19 
    7070    305.60244    8.9521804    60.912887   -148.46392    731.33086     10927.19 
    7080    307.60333    10.398984    57.395788   -146.16496     1576.657     10927.19 
    7090    318.92339     10.64974    56.386453   -143.84487    1343.3138     10927.19 
7100        0.97665287769529862683 10.138252820590588854 1 68 -296.81392637236956489
    7100    342.49337    8.4009034    58.713151   -141.63596     1747.309     10927.19 
    7110    343.27632    8.2107467    59.878737   -140.51557    -568.2654     10927.19 
    7120    343.06982    6.9960476    54.193209   -140.65485   -633.52283     10927.19 
    7130    313.49294    8.3138535    58.260953   -141.93309   -1597.7128     10927.19 
    7140    331.00338    8.3213465    55.148562   -143.86443   -484.61677     10927.19 
    7150    307.84005    7.6455676    63.392425   -146.48799    724.54896     10927.19 
    7160    296.55595     6.790058    55.625951    -149.6429    -729.1027     10927.19 
    7170    293.04054    7.8745349    60.557924   -153.23242    227.68019     10927.19 
    7180    281.00387    7.8546327     56.60507   -156.80051    345.72486     10927.19 
    7190    291.54516    7.4489763    47.815724   -159.87107    56.225042     10927.19 
7200        0.97139387609652805278 10.172085737816743745 1 65 -296.55834789817112096
    7200     295.9989    6.3208878    50.654789   -162.44624    453.82841     10927.19 
    7210    281.56601     5.188525    60.220343   -164.70367   -17.328482     10927.19 
    7220    291.93188    4.5880255    50.044955   -166.49336   -83.431578     10927.19 
    7230    285.98692    4.1782779    51.261112   -167.82942   -295.74009     10927.19 
    7240    267.58396    5.7723791    56.385609   -168.31856    1095.7431     10927.19 
    7250    278.53501    4.5356571    48.693473   -167.41459   -670.10412     10927.19 
    7260    284.65794    2.8614719    53.684718   -164.65846   -4245.0949     10927.19 
    7270    300.00621     2.650475    48.188778   -159.59183   -3720.4391     10927.19 
    7280    292.63579    3.0916274    63.303266   -152.48915    -1052.782     10927.19 
    7290    317.30445    4.6184239    55.883124   -144.98962    2135.8619     10927.19 
7300        0.96732730072310313396 10.190561003201720425 1 67 -278.69318577433574546
    7300    307.86018    5.1516628     56.07698   -139.20693    2120.6177     10927.19 
    7310    289.11562     4.716442    62.649801   -135.65707    3795.9752     10927.19 
    7320     320.3204    4.1453265    54.166048   -133.13162    1369.5465     10927.19 
    7330     344.6358    3.5240736     56.38328   -131.58776   -477.57963     10927.19 
    7340    356.35886    3.5219291    57.903127   -131.57113    1119.7071     10927.19 
    7350     346.6079    5.7317434    58.743427    -133.1562   -1042.5323     10927.19 
    7360    332.10834    6.8629431    57.042505   -136.03943    -1424.094     10927.19 
    7370    303.50748    5.0741149    62.075802   -139.63989   -1932.6008     10927.19 
    7380      307.896    4.9256354    55.552385   -143.16423    2596.3339     10927.19 
    7390    311.89738    4.2808751    55.632637   -146.34046    1042.1553     10927.19 
7400        0.96506475389383583607 10.22151243834765566 1 69 -295.58806619475166144
    7400    322.74013    3.8716935    47.920965   -149.35996   -120.81262     10927.19 
    7410    308.67083    2.3759358    57.535507   -152.31817   -108.75765     10927.19 
    7420    286.12194    2.3639708    56.433113   -154.73154    -150.0092     10927.19 
    7430    285.01224    3.0157561    59.233796   -156.22293   -1067.1012     10927.19 
    7440    297.30353    6.7402905    56.859082   -157.09922   -3115.7887     10927.19 
    7450    314.81539    8.9372548    53.720005   -158.03815   -3528.3785     10927.19 
    7460    290.39559    10.003203    55.013196   -159.25837   -1549.3902     10927.19 
    7470    273.54182     9.240542    60.188522   -159.95221    3428.3273     10927.19 
    7480     287.6766    5.9931597    59.225791    -159.8744    932.07918     10927.19 
    7490    283.23517    4.3873193    62.372494   -159.19663    174.82061     10927.19 
7500        0.96265892851034617905 10.230800112320986628 1 67 -291.33200208434379874
    7500    294.53913    3.3598332    57.288052   -157.88129    1383.1406     10927.19 
    7510    278.97655    5.5518233    59.662712   -155.76452    -32.85731     10927.19 
    7520    290.57111    6.1081311    59.425615   -152.08298    335.52427     10927.19 
    7530    303.34695    6.8425995    58.675687   -146.62153   -3013.7707     10927.19 
    7540    323.07595     6.629476    65.413947    -140.2991   -3241.1464     10927.19 
    7550    328.16462    7.8053552    61.826901   -134.66521   -2084.4252     10927.19 
    7560    341.03088    6.7295994    58.787179    -130.7747     3015.757     10927.19 
    7570    321.60957    6.6707425    73.079858   -128.62079    3088.8238     10927.19 
    7580    320.53562    7.4133308    58.245019   -127.86468    242.39744     10927.19 
    7590    295.88023    5.5901742    65.963638   -127.58859   -188.10435     10927.19 
7600        0.96768637228078024926 10.192366419718704051 1 65 -268.75754481714022859
    7600     312.1863     4.142891    64.258316    -127.3112    774.88736     10927.19 
    7610    311.38099    4.9778726    62.688158   -127.08479    1329.5189     10927.19 
    7620    329.71004    5.0494069    59.424841   -127.38933   -3617.7632     10927.19 
    7630    325.58987    3.4133134    67.065967   -128.67719   -236.61816     10927.19 
    7640      316.215    3.5304266     72.19884   -130.91137   -94.340592     10927.19 
    7650    314.04242    4.2219179    63.385801   -133.55147   -570.69476     10927.19 
    7660    316.93371    5.0648341    58.389265    -136.3128   -2601.5839     10927.19 
    7670    317.58917    6.6569758    61.766943   -138.89743   -1332.5139     10927.19 
    7680    326.40401    7.7490756    56.429212   -141.74767    3684.0113     10927.19 
    7690    293.48969    8.4898204    62.102971   -144.69327    2268.8712     10927.19 
7700        0.97443691728732495516 10.152517720672557644 1 67 -282.25450497454545484
    7700    298.89313    6.9337503    59.946953   -146.83107    739.56511     10927.19 
    7710    304.19661    5.2476671    67.902124   -148.24397    202.24435     10927.19 
    7720     315.2312    6.2465065    59.740723   -149.69571   -3648.7974     10927.19 
    7730    298.21191    4.8297808    66.022464   -151.31662   -132.18877     10927.19 
    7740    295.02503    5.5263247    60.436876   -152.63241   -2021.6903     10927.19 
    7750    301.00474    5.6205954    64.595951   -153.64669    789.40262     10927.19 
    7760    299.11103    7.5035637    63.549805   -154.42705    4627.3577     10927.19 
    7770    285.91591     6.646155    63.744435   -155.06208    1234.0874     10927.19 
    7780    308.34727    6.1858145    61.866228   -156.02258    798.06858     10927.19 
    7790    310.85883    5.9305471    65.264591   -157.71171   -2728.4216     10927.19 
7800        0.98205077677505858702 10.109793581789489281 1 63 -299.06794175896089882
    7800    306.90406     6.330429    61.003493   -160.01489    369.37666     10927.19 
    7810    284.74792    6.9508075    60.742142   -162.44993    909.21117     10927.19 
    7820    274.31412    7.4889147     60.26559   -164.01888   -1472.0757     10927.19 
    7830    267.30616     8.891334    64.306802   -164.77849    -1740.786     10927.19 
    7840    319.46199    7.3623975    53.753044     -165.039   -1633.3107     10927.19 
    7850    312.63408     6.632765    55.604674   -165.60085    1912.4387     10927.19 
    7860    292.15274    9.9062445     49.71379   -166.51266    473.15538     10927.19 
    7870    254.99765    9.4262508    60.951238   -166.90868    3354.6169     10927.19 
    7880    273.28122    7.7974728    56.811954   -166.08147   -904.95542     10927.19 
    7890    292.99144    7.0947314    56.438828   -163.73378     1512.753     10927.19 
7900        0.98270628975062368493 10.103575503549858894 1 67 -291.34278059987377674
    7900    290.30407    7.0106809    54.591631    -159.8109    887.79591     10927.19 
    7910    289.84991    7.7958013    55.224182   -153.44629   -1221.1904     10927.19 
    7920    313.87096    6.9719732    57.671087   -146.29865   -1020.8095     10927.19 
    7930    290.69109    6.9022624    65.770309   -140.12921    415.16466     10927.19 
    7940    324.62496    5.7154895    60.124287   -135.84188    696.74919     10927.19 
    7950    306.03321    4.9669572    63.945252   -133.21945    3224.2401     10927.19 
    7960    307.93092    5.0179474    66.500906   -131.73156   -287.40177     10927.19 
    7970    309.70907    4.2529405    62.515116   -130.86007   -4164.2219     10927.19 
    7980    293.51035    4.2626788    69.746832   -130.29018   -4235.5622     10927.19 
    7990    313.27937     3.538026    63.260587   -129.68131   -265.84635     10927.19 
8000        0.9866168561522274949 10.107969536334630689 1 70 -277.10452057676013737
    8000    326.25803    4.6548281    63.709729   -129.28251   -338.87827     10927.19 
    8010     304.0597    5.1973527    64.530767   -129.97419   -160.28117     10927.19 
    8020    318.58906    6.6344725    56.908305   -131.23529    1075.6807     10927.19 
    8030    318.68662    10.304925    64.998338   -132.99739    4091.6534     10927.19 
    8040    323.44562    11.178915    63.042823   -135.72928    4737.9158     10927.19 
    8050    312.87798    13.219795    61.436623   -139.70567   -1257.6106     10927.19 
    8060    301.48987    13.087861    61.079298   -144.03006   -3179.0064     10927.19 
    8070    303.75541    12.132518     63.16494   -148.45125   -1926.6123     10927.19 
    8080    295.37446    9.9370668    68.010904   -152.77282   -339.55181     10927.19 
    8090    300.59893    5.7745695    58.618067   -156.55727    4090.8327     10927.19 
8100        0.9895855832678455144 10.097086284698958636 1 66 -278.70077620493691484
    8100    264.36296    7.3154645    65.178236   -158.92238    2925.9506     10927.19 
    8110    298.44706    8.8972786    51.153106    -160.0225   -1070.4473     10927.19 
    8120    277.52993    10.266943    71.387378   -160.76865    1487.9102     10927.19 
    8130    293.27879    11.893981    60.209005   -161.33294    185.38045     10927.19 
    8140    291.12477    12.030589    67.040997    -161.8096    898.33283     10927.19 
    8150    309.55169    10.403776    59.895534   -162.24917   -4250.6518     10927.19 
    8160    308.58114    10.657667    51.517508   -163.02371   -5627.0239     10927.19 
    8170    271.38422    8.9294905    65.577393   -163.99824    71.710804     10927.19 
    8180    257.65343    11.234465    57.047502   -164.30686    3105.2317     10927.19 
    8190     239.6705    11.835512     67.51966    -163.3742    2247.3122     10927.19 
8200        0.98598920111532939448 10.113718593810464341 1 67 -295.29121697017234283
    8200    296.42731    13.232802     51.09391     -160.985     3527.403     10927.19 
    8210    294.66321    12.611491     59.54403   -157.87998    2284.5876     10927.19 
    8220     303.1008    10.124536    57.604473   -154.62518    1520.1327     10927.19 
    8230    302.46235    8.7422952    55.395192   -151.46665   -3681.7111     10927.19 
    8240    312.05557    8.1701697    59.116738   -148.65546   -3153.0103     10927.19 
    8250    314.23758    5.9516507    60.285661   -146.28683   -3191.2204     10927.19 
    8260    321.85377    6.3817376    57.207675   -144.70871   -822.93673     10927.19 
    8270    301.42057     6.277284    66.145729   -143.81159    1182.3757     10927.19 
    8280    302.83881    9.2687866    59.566604    -143.4919   -1340.5504     10927.19 
    8290    314.82162    8.9992358    59.677969   -143.67519     752.9807     10927.19 
8300        0.98059250790558138977 10.147241172558981503 1 66 -273.67455049572930648
    8300     285.6356    9.8793186    63.594566   -144.25788   -753.75149     10927.19 
    8310    306.33287    7.6799438    57.388261   -144.65529    2689.2022     10927.19 
    8320     288.2106    6.8506743    67.244933    -144.7626    1496.0951     10927.19 
    8330    311.75461    7.7895328    53.345286   -144.80435   -2942.7435     10927.19 
    8340    294.45809    6.0005843    63.401664   -145.21083   -480.27029     10927.19 
    8350    295.01057    5.7268868    66.707798   -145.66176     1871.209     10927.19 
    8360    300.80314    7.0777046    62.982577   -146.32783   -2279.7811     10927.19 
    8370    297.96548     7.673986    60.603008   -147.09932    1437.3885     10927.19 
    8380    306.44011    7.8874972    59.412617   -147.87153     746.4463     10927.19 
    8390    279.72879    6.5480225    66.003305   -148.46177    640.20984     10927.19 
8400        0.98010948742104564424 10.159550028418575351 1 69 -275.42326877326399881
    8400    279.90694    7.9095949    53.086574   -148.60216   -3968.8489     10927.19 
    8410    268.01411    10.651835    66.026723   -148.09238   -962.48753     10927.19 
    8420    324.84639    8.5401352     54.24828    -146.8323    1417.5277     10927.19 
    8430    298.29537    5.0889137    62.775396   -145.68615    3190.2929     10927.19 
    8440    321.91222    3.5959045    56.420422    -144.4937   -79.011376     10927.19 
    8450    316.51946    3.2922023     52.89331   -143.34789   -1686.8827     10927.19 
    8460    308.02825    5.2668283    61.447558   -142.47345   -2839.5001     10927.19 
    8470    331.71013    5.4178226    56.994422   -141.72818    1681.4931     10927.19 
    8480    326.10723    7.6063163    56.696668   -141.73318    692.68502     10927.19 
    8490    335.67408    9.6842871    46.202503   -142.61526    2509.4149     10927.19 
8500        0.9783316873364311661 10.149755369778517888 1 69 -287.27278144033925855
    8500    316.29756    10.151951    55.823847   -143.96369   -751.42432     10927.19 
    8510    323.56024    7.6865725    53.634959   -145.70867    1231.9207     10927.19 
    8520    294.20415    6.7856257    61.677158   -148.13048   -3175.0412     10927.19 
    8530    293.49912    6.5660031    56.220633   -150.91582    -5011.588     10927.19 
    8540      298.259     8.200508    55.271947   -153.95531   -1527.8423     10927.19 
    8550    280.59645    6.7840388    59.703176   -156.83368    1317.6842     10927.19 
    8560    286.80438    4.9117659    47.723927    -159.1862    3650.0927     10927.19 
    8570    277.58108    3.3290512    58.639006   -161.12458    97.180538     10927.19 
    8580    286.13702    6.4573589    55.258675   -162.48966   -2552.1064     10927.19 
    8590    299.20644    6.9416176    56.932738   -163.62198   -162.78501     10927.19 
8600        0.98292776745421805984 10.115674038663007295 1 68 -301.29614098652211851
    8600    301.33157    7.0830922    54.196334   -164.76789    3077.6896     10927.19 
    8610    282.22489    7.2928585    55.208329   -165.86885    1441.3201     10927.19 
    8620    286.65255    8.6826317    51.427847   -166.61617   -2356.8378     10927.19 
    8630    284.74187     6.356033    55.893299   -166.81573     -2568.91     10927.19 
    8640    308.00613     5.493035    48.072915   -166.57861    1242.0326     10927.19 
    8650     288.2802    5.8351888    55.097393    -166.1812    1890.0739     10927.19 
    8660    290.14493    7.0471832    51.933956   -165.22226   -2144.2424     10927.19 
    8670    291.48528    8.4991642    51.005948    -163.2018   -1357.3052     10927.19 
    8680    294.11963    7.2475891    59.189835   -160.06846    5133.6709     10927.19 
    8690    327.36377    8.8364053    54.854208   -155.88979    2384.1422     10927.19 
8700        0.98568142238893863283 10.119256065268485756 1 69 -300.41186088349940064
    8700    327.97172    11.336539    57.869502   -151.81341   -1809.1224     10927.19 
    8710    348.92753    11.553328    57.387179   -149.04924   -3621.6708     10927.19 
    8720    324.24686    12.772132    57.092999   -148.17694    610.26781     10927.19 
    8730      316.147    13.866709    57.064949   -148.61926    4245.6926     10927.19 
    8740    315.98762    14.772789    49.858444   -149.35629    100.74111     10927.19 
    8750     327.9589    9.4345606    50.561855   -150.42773   -2325.0553     10927.19 
    8760    310.79204    7.7110498    56.567303   -152.11433    277.17015     10927.19 
    8770    290.62399    6.7515159    63.134243   -154.39124   -1063.1838     10927.19 
    8780    273.99322    7.4593766    54.651989   -156.96841    1395.8885     10927.19 
    8790    275.61671    7.6572801    52.524748   -159.41027   -1614.8274     10927.19 
8800        0.98019213721200804112 10.119563507610141784 1 70 -284.87287534467122896
    8800    272.27674    5.3518337    50.833431   -161.50888    2957.9642     10927.19 
    8810     286.9216    6.0846131    44.672932   -163.07948    1261.1698     10927.19 
    8820    279.25199    6.5714403    53.918015   -164.10143    560.39131     10927.19 
    8830    269.66932    8.9309808    54.140581   -164.44091    1079.8436     10927.19 
    8840    269.89057    8.2396378    52.748975   -163.82451   -3391.2166     10927.19 
    8850    272.07111    6.2332521    52.181842   -161.89482   -1657.7794     10927.19 
    8860    279.50088    5.5710459    55.166481    -158.3707   -2378.2082     10927.19 
    8870    286.05836     6.140409    59.702537    -153.3135    387.75932     10927.19 
    8880    284.45963    4.9557509    53.490345   -147.61546    192.64884     10927.19 
    8890    286.59874    4.8525157    56.326082      -142.11   -258.32969     10927.19 
8900        0.97551084456628578412 10.144024319152476821 1 69 -276.79180963601618259
    8900    307.11975    4.5857121    58.434883   -137.64103    3371.2549     10927.19 
    8910    320.60162    3.9851024    55.324284   -134.19086    3102.7008     10927.19 
    8920    306.13617    5.0650055    66.633545   -132.13558    1308.1852     10927.19 
    8930    311.49069    6.6861214    63.728125   -131.02216   -626.10665     10927.19 
    8940    326.20853    5.6645914    61.056926    -130.9091    -319.9258     10927.19 
    8950     334.4922    6.0187668    54.853468   -131.96228    709.23708     10927.19 
    8960    302.55189    5.3868667    68.384483   -133.93189   -1430.5023     10927.19 
    8970    322.29431    5.1265522    58.940896   -136.31527   -1530.9897     10927.19 
    8980    291.95884    5.4297723    61.498328   -139.07956   -1665.0514     10927.19 
    8990    308.32466    6.1988215    50.665871   -141.76518   -1381.8706     10927.19 
9000        0.96569721106631511987 10.167510686972908829 0.99735449735449732689 67 -269.40344756829153994
    9000    276.39083    5.7571868    60.621051   -144.17542     644.9888     10927.19 
    9010    263.32303    3.9975748    66.620255   -146.11342    2707.8406     10927.19 
    9020     274.6423    3.7858004    59.425466   -147.38318    776.41718     10927.19 
    9030    286.38124    4.4804968    56.649076   -148.13772   -473.73884     10927.19 
    9040    309.09479    4.3433603     52.62936   -148.56541    1587.4608     10927.19 
    9050    300.60499    5.5286375    62.877788   -148.90278    3051.2739     10927.19 
    9060     304.1582    5.5735987    52.529268   -149.36295   -1433.1634     10927.19 
    9070    293.70087    5.5696594    53.465788   -149.97015   -2865.0418     10927.19 
    9080    299.35628    4.1300274    52.170616   -150.59894   -3758.8207     10927.19 
    9090    283.45618    5.5268586     57.90081   -151.37727   -187.73701     10927.19 
9100        0.96236775379044658951 10.202937053173599224 1 66 -274.60651179782468034
    9100    270.47729     5.781344    57.089758   -152.05782    1619.0636     10927.19 
    9110    279.32356    6.5758179    56.070768   -152.08406    2471.6368     10927.19 
    9120     296.5541    6.6722666     55.75272   -151.10846    759.40476     10927.19 
    9130    303.39836    5.6968608    53.996707   -149.28764   -1037.6185     10927.19 
    9140    294.53682    5.2867754    53.073912   -147.06075    1208.3513     10927.19 
    9150    287.93744    6.1279898    58.730941   -144.26607   -3647.4827     10927.19 
    9160    321.17649    6.4276294    54.405979   -141.00977    3399.7673     10927.19 
    9170    329.83464    6.6518083    56.611534   -137.74827   -1243.1394     10927.19 
    9180    320.65631     7.460138    61.774438   -135.47457     2228.501     10927.19 
    9190    343.27004    6.7374423    54.905019   -134.08602   -2451.6385     10927.19 
9200        0.96226050125870732366 10.221115456326488768 1 67 -263.78839815274113789
    9200    286.87416    7.2411468    69.546853   -133.81056   -247.77558     10927.19 
    9210    305.46312     5.147017    60.700891   -134.21107    -2950.623     10927.19 
    9220     294.0106    4.5926939    63.896386   -134.99402   -585.42799     10927.19 
    9230    318.43554    5.1805188    66.057899   -136.16606    750.84526     10927.19 
    9240    318.89999    8.5373325    57.288125   -138.39957   -92.868899     10927.19 
    9250    284.64408    8.4990462    68.501859   -141.65648     766.1265     10927.19 
    9260    301.40362    5.3380785     49.63306   -145.39552    3005.8607     10927.19 
    9270    298.63822    5.0925238    58.468981   -149.15752   -2153.2602     10927.19 
    9280     302.6954    3.9418403    56.988331   -153.34444    -699.2765     10927.19 
    9290    279.04373     5.627863    58.864201   -157.43532   -5095.0486     10927.19 
9300        0.96321579608890051105 10.218894860155925741 1 67 -297.23598340754563196
    9300    301.01012    6.2747391    50.807636   -160.85338    3664.5747     10927.19 
    9310    288.08624    7.7087171    54.583443   -163.53152   -28.625622     10927.19 
    9320    292.71715    9.0071074     47.88077   -165.06232    -2194.519     10927.19 
    9330    266.06907    8.7807085    59.357053   -165.77337    783.05755     10927.19 
    9340    260.47045    7.0911858    59.804526   -165.57376    3259.2112     10927.19 
    9350     257.4511    5.9743135    59.343196   -164.65299    1483.2577     10927.19 
    9360     271.9063    5.1513542    58.082693   -163.09207   -2038.2667     10927.19 
    9370    305.85792    5.0346652    52.021191   -160.84571   -4871.9012     10927.19 
    9380    308.22751    5.3352946    55.546756   -158.96546   -286.41943     10927.19 
    9390    305.97433    5.2643262    51.685582   -157.43112   -2209.7732     10927.19 
9400        0.9566552880036018891 10.230047010580650024 1 70 -278.90090895855524877
    9400    270.71487    5.5295636    62.357789   -156.24457    2401.0317     10927.19 
    9410    281.86994    6.4981025    50.747039   -154.84548   -798.93674     10927.19 
    9420    270.67245    7.7331368    56.668522   -153.09929     1813.495     10927.19 
    9430    292.62059    9.1841296    49.634054   -151.15645    1761.6215     10927.19 
    9440    292.86954    8.1883113    56.819028   -149.03524   -985.34334     10927.19 
    9450    299.89539    10.866953    58.027686   -147.11414   -1724.9164     10927.19 
    9460    304.06142    14.565786    55.070214   -145.30595   -3127.9922     10927.19 
    9470    303.62944    15.869394    57.164038   -143.83509    3990.0979     10927.19 
    9480    309.69425    11.353365    61.765355   -142.73621     4403.628     10927.19 
    9490     304.8337    7.4831231    57.573201    -142.0297    2724.6552     10927.19 
9500        0.96128950988529859867 10.206313208796684577 1 66 -293.47381067306594105
    9500    334.89599    5.4948791    48.470778   -141.73809    -783.6247     10927.19 
    9510      328.747    5.2786385    61.585425   -142.23849   -1999.1683     10927.19 
    9520    338.41045    5.3521485     55.32869   -143.77028   -1835.4671     10927.19 
    9530    289.75828    8.2114466    57.499903   -146.07275   -773.62246     10927.19 
    9540    281.78673    8.3467996    60.446758   -148.03646    -665.7896     10927.19 
    9550    307.42281     8.095257    52.113958   -149.82945   -56.051735     10927.19 
    9560    276.91671    6.5806332    67.364866    -151.8891    290.33945     10927.19 
    9570    289.20785    6.4986259    52.147583   -154.07012    1125.3982     10927.19 
    9580    280.17488    6.1517468    59.860778   -155.98623    388.18183     10927.19 
    9590    295.17163    7.3245881    50.390162    -157.6696    94.450379     10927.19 
9600        0.96477706148762698568 10.199036972974381499 1 66 -289.97844465552151405
    9600    288.71654    5.8973748    57.354725   -159.16585   -1179.6453     10927.19 
    9610    304.25574     3.619021    54.279589   -161.02364   -1391.2228     10927.19 
    9620    287.55011    4.5763968    53.804024   -164.00569   -523.82921     10927.19 
    9630    271.25858    5.2717736     51.90636   -167.59889   -440.44576     10927.19 
    9640    278.05592    6.7016687    48.374359    -171.3944   -624.93568     10927.19 
    9650     258.5216    6.3004353    53.254506   -174.79443    455.75155     10927.19 
    9660    253.77541    6.3370645    56.537094   -177.29477     386.2296     10927.19 
    9670    279.23216     5.242825    47.687281   -178.80131    1088.2168     10927.19 
    9680    269.04681    7.0068405    48.141094   -179.38824   -1081.6645     10927.19 
    9690    268.49144    8.8931433     47.31436   -178.95292    420.70925     10927.19 
9700        0.97009033100015140683 10.171614726408414242 1 66 -288.40468044657256996
    9700    245.65252    9.0282154    58.724481   -177.10367    2370.7012     10927.19 
    9710      275.106    10.425924    53.254698   -173.36615    4610.4632     10927.19 
    9720    275.96425    9.4516427    54.887611   -168.41249   -610.11554     10927.19 
    9730    271.77025    10.072399    50.210684   -163.01591   -1561.9622     10927.19 
    9740    281.84139    10.711561    53.279409   -158.13035   -2286.5497     10927.19 
    9750    295.96857     9.844709    57.526385   -153.96968    3578.5562     10927.19 
    9760    295.03329    10.115029    63.825969    -150.9017     1438.016     10927.19 
    9770    304.16725    12.033347    54.360165   -148.73429    238.91049     10927.19 
    9780    308.70645    11.528645    60.968359   -147.21629   -2924.4808     10927.19 
    9790     347.3304      8.45553    45.199093   -146.53864    537.83007     10927.19 
9800        0.97276667729083277081 10.183673045613035768 1 64 -288.44219190233570771
    9800    312.60178     6.519913    60.589565    -146.8076    833.61514     10927.19 
    9810    316.19421    7.3257463    49.586904   -147.69703     2044.502     10927.19 
    9820    293.23195    7.9364511    61.944008   -149.05025    860.18493     10927.19 
    9830    299.07539    7.2293135    51.751616   -150.34018    -1772.339     10927.19 
    9840    303.55818    6.5469804    52.465949   -151.45787   -3315.1411     10927.19 
    9850    276.88791    7.0730123    60.841818   -152.28225   -883.27629     10927.19 
    9860    296.52615    6.4230951    53.394236   -152.71641   -1697.8906     10927.19 
    9870    284.47951    5.6661218    60.531017   -152.94996    -755.0553     10927.19 
    9880    303.74842    6.8247577    55.928575   -153.14677   -1795.5026     10927.19 
    9890    298.66047     5.533874    56.317623   -153.51139    2551.2976     10927.19 
9900        0.96909572706786140106 10.194606948640764443 1 67 -300.47582140775523385
    9900    322.78768    3.8566973    56.354627   -154.22617    1568.0227     10927.19 
    9910    315.40991    7.6862188    50.623764   -156.08716    607.94496     10927.19 
    9920    295.48715    9.2635991    55.837437   -158.99863    324.11479     10927.19 
    9930    286.11159    6.8306027    53.802238   -162.70812    3327.6955     10927.19 
    9940    267.01476    5.2981618    57.077215   -166.22018    47.160512     10927.19 
    9950    285.58047    7.1616107    49.373701    -169.2455   -2258.1899     10927.19 
    9960     287.1014    9.3778013    51.560864   -172.04175   -7073.9552     10927.19 
    9970    293.01077    10.825695     53.32813   -174.80542   -1386.3629     10927.19 
    9980    264.86597    10.695015    58.372272   -177.33168    2341.3129     10927.19 
    9990    240.65436    8.9537752    57.307097   -178.81708    4460.4463     10927.19 
10000        0.97168152095876891838 10.174811958891105235 1 70 -298.76453678312975626
   10000    264.51927    7.4296247    49.918568   -178.91532    2972.9473     10927.19 
   10010    269.35958    7.5960192     53.47736    -177.7419    1199.5305     10927.19 
   10020    284.99262    7.4459595    47.028481   -175.38253   -364.71423     10927.19 
   10030    288.99195    5.8433113    52.097797   -171.87631   -153.29392     10927.19 
   10040    294.54479    4.7228505    57.474337   -167.46358   -1770.8503     10927.19 
   10050    292.75863     5.898333    56.178676   -162.54275    -4176.226     10927.19 
   10060    314.38493    7.7704361    50.152513   -157.52295    -3925.888     10927.19 
   10070    322.35966    6.9766759    52.844582    -152.8313    3676.4085     10927.19 
   10080    312.47851    6.0829708    53.139359   -149.57329    3493.3556     10927.19 
   10090    319.92452    5.9108164    52.927487    -147.4324    879.45635     10927.19 
10100        0.98041702486017368035 10.149759053460879699 1 68 -280.69280649329385824
   10100    296.34533    5.8198226    62.312056   -146.42374   -610.25766     10927.19 
   10110     308.3442    5.5701622    54.895716   -145.91132   -1596.4298     10927.19 
   10120    276.36482    6.1965378     61.69057   -145.55384   -3311.4081     10927.19 
   10130    317.57163     7.964727    53.051472   -145.14001    -861.0321     10927.19 
   10140    324.02745    4.8333727     58.23345   -145.29159   -2053.0953     10927.19 
   10150     312.6644    6.2693277    53.521716   -146.12841    934.11997     10927.19 
   10160    305.00039    7.7102142    56.750848   -147.37199    3941.4753     10927.19 
   10170    283.33177     10.56066    61.009344   -148.72964    2974.0825     10927.19 
   10180    279.17465    12.211534    60.263825    -149.8944   -874.26247     10927.19 
   10190    265.26954    11.087706    63.843071   -150.91485   -4344.4062     10927.19 
10200        0.98357785405996134287 10.124161566988115979 1 69 -283.20664666579699542
   10200    290.84625    9.6768385    50.634184   -151.42912   -1364.6572     10927.19 
   10210    283.73709    8.5462233    60.635716   -151.52725   -70.354319     10927.19 
   10220    320.52362     9.738969    51.220288   -151.16219    2030.2577     10927.19 
   10230    279.64834    11.371934    61.588141   -150.77385    1492.1046     10927.19 
   10240    298.13434    10.306232    52.425599   -150.34218    218.10733     10927.19 
   10250    305.82533    10.547235    57.442895   -149.52928   -345.25683     10927.19 
   10260    309.94473    9.1957027    55.793214   -148.74966   -2273.8247     10927.19 
   10270    303.15181    8.2785856    58.928518   -148.38306   -1361.0412     10927.19 
   10280    299.23125    8.1673335       61.186   -148.40289    381.46666     10927.19 
   10290    309.53291    8.4093755    50.073507   -148.65073    388.79008     10927.19 
10300        0.98788877676305197895 10.088581313359441083 1 71 -278.93398976184971616
   10300    286.37149    10.113298    56.567018    -149.1839    2004.0025     10927.19 
   10310    274.94549    8.5480227    57.400062   -149.50338    2724.6594     10927.19 
   10320    273.30394    8.3432267    60.195222   -149.50299   -1030.5947     10927.19 
   10330    281.49207    7.7925514    57.581655   -149.09587     -586.467     10927.19 
   10340    298.64286    5.6655431    57.405033   -148.28685   -458.88208     10927.19 
   10350    293.81187    5.4105964    57.238515   -147.28509    1094.7145     10927.19 
   10360    308.42419    4.9570033     47.24489   -146.06756   -3634.6825     10927.19 
   10370    283.17071    5.8306416    60.184291   -144.58764   -2492.5906     10927.19 
   10380    317.68196    5.4172249     53.61923   -142.40039    726.69714     10927.19 
   10390    312.94363    5.7966643    56.647459   -140.11733    1361.6414     10927.19 
10400        0.98901904000137108586 10.082898810193755779 1 70 -279.75878928911367893
   10400    312.84409    6.0869068    59.072928   -138.01441    2907.6534     10927.19 
   10410    303.41183    6.3767474    54.631555   -136.24611    484.91437     10927.19 
   10420    302.85046    6.5998095     58.43966   -134.69887    378.98071     10927.19 
   10430    309.59594    5.0895982    59.527203   -133.46795   -1495.5957     10927.19 
   10440    295.70464    6.6741908    55.077791    -132.4758   -2358.3609     10927.19 
   10450    302.39232    7.5772714    56.591818   -131.21065   -2425.1586     10927.19 
   10460     289.8591    6.7495397    67.211668   -129.63543    1757.2956     10927.19 
   10470    329.06585    5.8723164    56.977688   -127.70963   -1121.3089     10927.19 
   10480    328.54899    7.3672861    65.428356   -126.68433    1817.7093     10927.19 
   10490    326.66736    11.873848    55.803703   -127.11704    3364.3227     10927.19 
10500        0.99001920769320672644 10.032092143501536441 1 69 -280.34892028208304282
   10500    334.00848    12.842608    52.085718   -129.01531    3482.3489     10927.19 
   10510    346.56661    10.737055    54.558698   -132.46429    -309.2619     10927.19 
   10520    347.40063    10.966254    47.160457   -138.16478   -1100.1029     10927.19 
   10530    305.99355    12.963491    51.265258   -144.78068   -2367.1293     10927.19 
   10540    298.65099    12.141463    49.297265   -150.08975    1454.9548     10927.19 
   10550    306.45091    9.8585567    49.411841   -153.99754    369.61159     10927.19 
   10560    292.05479    10.738363    55.667619   -156.91356    1815.3382     10927.19 
   10570    294.04967    9.5471467    56.182038   -158.96822    1993.4635     10927.19 
   10580    301.05985    8.7434999    40.915734   -160.24205    2600.9465     10927.19 
   10590    294.09471    5.5018047    53.498372   -160.88815    2309.2038     10927.19 
10600        0.98851057968141009535 10.049641774667076533 1 66 -286.74240395102924595
   10600    277.50729    6.1563121    49.635671   -161.00853    -2902.983     10927.19 
   10610    258.87706    6.9984057    54.594097   -160.26481   -5970.3631     10927.19 
   10620    296.69776    8.5386322    49.849689   -158.32976   -4590.9593     10927.19 
   10630     301.2484    7.1209172     54.88327   -155.75543    875.36317     10927.19 
   10640    310.80469    8.9028393    55.740432   -153.37827    2944.8076     10927.19 
   10650    313.62099    9.8933397    55.127377   -151.60392    2249.6849     10927.19 
   10660    290.72123    7.7777382    49.819032   -150.04819    3870.4524     10927.19 
   10670    293.82884    5.6844125    48.947621    -148.1046    2408.3524     10927.19 
   10680     289.5675    7.6835996    57.307048   -145.48197    1886.5141     10927.19 
   10690    305.13793    8.7979023    57.781331   -142.34836   -3052.4664     10927.19 
10700        0.98760124449333042129 10.079350189908687696 1 67 -287.47865641762285804
   10700    327.95784    7.3409065    50.377519   -138.88649   -6037.3639     10927.19 
   10710    301.56871    5.8999702    67.465731   -135.46207   -2952.0691     10927.19 
   10720    315.06665    7.7396893    54.001403   -132.18751    1084.2178     10927.19 
   10730    313.30346    9.0678763    63.553016   -128.71977    1932.6868     10927.19 
   10740    343.98879    12.362365    59.029943   -125.69924    4188.9874     10927.19 
   10750    328.36958    11.481957    57.943971   -123.57586   -951.12837     10927.19 
   10760    330.56845    11.185143    61.845414    -122.4434   -244.31674     10927.19 
   10770     323.7215    11.441872    63.686735   -122.17502    -1030.007     10927.19 
   10780    342.80071    9.3195195    55.670204   -123.05213   -2152.9034     10927.19 
   10790    314.15085    9.2817944    67.668753   -126.02433   -1214.8425     10927.19 
10800        0.98407609360734837889 10.09758854187591659 1 65 -273.57978795601366073
   10800    313.59728    6.4664304    59.614878   -131.49415    760.03573     10927.19 
   10810    318.42398    7.4740316    56.156215   -139.04396    1958.2381     10927.19 
   10820    304.53509    6.4685488    53.352757   -146.35753   -322.50716     10927.19 
   10830    291.61995    5.1762405    58.992258   -151.74129   -94.920773     10927.19 
   10840    272.87591    3.9653616    58.061602    -155.3256    1069.3826     10927.19 
   10850    281.84671    4.2404191    52.997289   -157.42859    752.56933     10927.19 
   10860    286.34009    4.3090567    56.948415   -158.83071    48.228396     10927.19 
   10870    289.54167    5.3524943    53.986717   -159.74273   -3217.3186     10927.19 
   10880    282.80705    6.3527018    54.126337   -160.22782     -2571.19     10927.19 
   10890     282.5364    7.9381367    60.050127   -160.15163   -1160.8962     10927.19 
10900        0.9806016840742046714 10.14331657238390072 1 66 -287.3170081196690262
   10900    282.09429    6.5455018    61.478655   -159.50484    1940.5334     10927.19 
   10910    275.42515    6.7677432    62.266025   -158.32844    4071.2338     10927.19 
   10920    292.49448    5.8766469    56.009577   -156.38627    1087.2008     10927.19 
   10930    303.96847    5.9669876    55.418945   -153.84401    607.47968     10927.19 
   10940    305.57361    6.4724735    58.210508   -151.14119   -880.91289     10927.19 
   10950    288.38967    6.5301671    63.660096   -148.70299   -1791.7305     10927.19 
   10960      297.729    5.2199344    55.691151   -145.96605   -2353.1005     10927.19 
   10970    284.56047    5.2532928    61.874396   -143.04017    -2063.033     10927.19 
   10980    312.80052    6.0832639    63.283273   -139.75552    511.91787     10927.19 
   10990    317.45692    6.1215365    67.984274   -136.97598    753.48096     10927.19 
11000        0.96895791636105921274 10.185486176126467228 1 65 -282.55073195755841198
   11000      325.932    5.3363111    61.514227   -134.87644    129.41552     10927.19 
   11010    312.94348    6.8373707    61.157332   -133.72254    1463.3685     10927.19 
   11020    311.96174    8.3338476    61.020552   -132.76945    1195.0053     10927.19 
   11030    328.98056    7.6916209    57.114412   -132.11408    793.23699     10927.19 
   11040    332.18067    6.5611082     57.40918   -132.42701   -821.42396     10927.19 
   11050    311.40852    5.8748911    62.836064   -134.15851   -1548.6729     10927.19 
   11060    302.11545    3.3166058    62.757721   -136.81857   -1584.1248     10927.19 
   11070    305.24841    2.3756156    59.972364   -140.89653    -1973.749     10927.19 
   11080    283.13624    4.0554825     66.28721   -146.51956   -157.37036     10927.19 
   11090     290.7102    6.4186453    55.178865   -152.72659    1635.2637     10927.19 
11100        0.96342299623089322491 10.21191467826195165 1 67 -289.33990285562890676
   11100      288.956    6.5272368    59.168907   -158.41882    2735.6491     10927.19 
   11110    290.60004    6.8995195    48.298911   -162.77959    -1209.418     10927.19 
   11120    280.17835    8.4305365    51.874484   -165.25772   -2362.6006     10927.19 
   11130    291.94104    10.184745    43.078113   -166.32691   -1926.3079     10927.19 
   11140    273.21159    7.3020146    62.229963   -166.49199     1231.302     10927.19 
   11150    304.64051    4.7986497    53.445332   -166.12249    4260.2736     10927.19 
   11160    299.25708    3.3002228    50.302602   -165.75806   -1708.1866     10927.19 
   11170     287.2298      3.33164    49.845317   -165.04874   -3427.4313     10927.19 
   11180    302.20634    4.5641294    51.546394   -163.61252     -928.439     10927.19 
   11190    280.18879    6.7065962    63.339392   -161.86811    3080.8852     10927.19 
11200        0.96867704816270705503 10.184262966906368675 1 67 -287.29513122914170253
   11200    281.26064    7.2712116    59.087816   -159.86068    -124.6713     10927.19 
   11210    290.03517    9.6467854    52.265412   -157.53189   -5301.5459     10927.19 
   11220    316.76078    7.7814723    50.886157   -154.77388   -2568.2656     10927.19 
   11230    315.51182    8.3649641    52.077879   -151.82827    5068.4611     10927.19 
   11240    296.42897    8.7975782     58.38433   -148.98884    4186.5064     10927.19 
   11250    286.26919    12.338629    56.299763   -146.05121   -564.18768     10927.19 
   11260     296.0745    10.332348    61.145248   -142.78688   -140.38983     10927.19 
   11270     302.7936    11.054038    60.421326   -139.61067    2462.9628     10927.19 
   11280    294.66769    13.214959    64.684933   -136.95864    2104.1717     10927.19 
   11290    318.17925    11.572719    64.501476   -134.80467   -2436.8095     10927.19 
11300        0.96623398815610317403 10.18085732285192968 1 71 -265.09060560557873032
   11300    289.90644    8.0996072     77.13129   -133.73889   -1952.7717     10927.19 
   11310    329.03378    4.9963161    63.562249   -133.42276    252.58857     10927.19 
   11320    310.26436    4.0888822    72.747326   -134.26291    619.12847     10927.19 
   11330    318.96391    7.3887609     63.96945    -135.7151   -1669.2412     10927.19 
   11340    305.74904    8.3576889    65.214447   -137.30816   -3491.1119     10927.19 
   11350    335.94873     10.99718    56.825075   -139.01677    820.23036     10927.19 
   11360    311.38848    9.9268648    60.482064   -140.95593    4128.2118     10927.19 
   11370    313.09143    7.8210748    61.226614   -142.54964    3995.1315     10927.19 
   11380    305.57009    6.4764151    65.630666   -143.89824   -930.12756     10927.19 
   11390     331.6095    6.0334091    56.518087   -145.54938   -2488.0249     10927.19 
11400        0.96328582221346004122 10.20653189347848766 1 70 -275.49373529936991645
   11400    282.40176    5.1455537    72.072413   -147.54226   -2246.0033     10927.19 
   11410    303.68315    4.4729163    61.831284   -148.99554    2105.7125     10927.19 
   11420    288.79078    4.5830166    61.682935   -150.41373   -55.502038     10927.19 
   11430    301.78226    6.2353248    58.755168   -151.78888   -783.92713     10927.19 
   11440    295.84422    8.2872474    52.897079   -153.19121    2699.4938     10927.19 
   11450    280.60584    8.5748145    52.441931   -154.22937     2652.605     10927.19 
   11460    291.38327    4.7671454    52.108816   -154.61784    2837.8482     10927.19 
   11470    279.66975    3.1113905    60.132639   -154.44738   -1922.0042     10927.19 
   11480    298.52051    2.3520105    53.602517   -153.79043   -2413.3499     10927.19 
   11490     278.6916    2.6472856    63.435347   -152.64924   -2064.9095     10927.19 
11500        0.95972364078789562658 10.229731347580093725 0.99735449735449732689 72 -297.31807088354241841
   11500    322.84303    4.0214804    50.350777   -151.04334    -331.8845     10927.19 
   11510    285.91521    6.4691585    63.399709   -149.80526   -1220.6789     10927.19 
   11520    307.83713    7.1762517    51.901277   -148.75846    1629.2083     10927.19 
   11530    286.98045    6.7520107    60.960529    -147.7139    1319.5316     10927.19 
   11540    303.70306    5.5438334    58.191686   -146.21711    376.37005     10927.19 
   11550    292.15771    6.0111632    55.912532    -144.1905   -3764.1435     10927.19 
   11560    295.68996    7.6596915    59.095722   -141.35828   -2137.0306     10927.19 
   11570    307.00238     9.862405    65.793893   -137.84298   -1290.0804     10927.19 
   11580    318.24194    9.6293817    58.967506   -134.03589    1316.1231     10927.19 
   11590    342.22225    7.9486217    51.672909   -130.43888    2752.2062     10927.19 
11600        0.96213755159979519327 10.201579163745313039 1 71 -270.93746948450865375
   11600    316.40134    6.2743552    68.022972   -127.58136    2442.3661     10927.19 
   11610     317.1132    4.0201698    58.167234   -125.33369     2265.235     10927.19 
   11620     301.6263    3.4798204    66.954253   -123.21656   -2050.7045     10927.19 
   11630    312.82259    4.0783346    59.295717   -121.19927   -5335.7902     10927.19 
   11640    329.10402    5.6314464    63.706232   -119.42432   -1012.4146     10927.19 
   11650    332.67372    7.3011067    60.728777    -118.5217   -974.79391     10927.19 
   11660    349.39435    9.2164099    58.578153    -118.7247    3715.0736     10927.19 
   11670    320.13298    12.486139     65.74415   -120.50358    1156.0399     10927.19 
   11680    311.83842    12.927959    57.205773   -123.79728    2538.6253     10927.19 
   11690    316.97439    11.264276    58.930202   -128.87497   -722.09821     10927.19 
11700        0.96509405847409679424 10.18892187647180414 1 67 -276.61532501298358966
   11700    311.45485     10.82838    56.656911   -135.50039    472.43684     10927.19 
   11710     302.6481    8.4347584    56.680691   -142.07892   -2789.3805     10927.19 
   11720    305.51006    6.8523102    53.327819   -147.10951    2866.2197     10927.19 
   11730    304.06517    6.0878247    55.730837   -150.47696    1050.4643     10927.19 
   11740    306.91534    5.2783368    56.171375   -153.06015    1769.9142     10927.19 
   11750     280.9498     5.856953    66.198098   -155.00567    903.24934     10927.19 
   11760    288.51688    6.2528554    51.673889   -156.62512   -1636.8419     10927.19 
   11770    266.06011    5.1456872    61.686736   -157.61266   -1832.0739     10927.19 
   11780    290.85231    4.8008243    50.637208   -157.61753   -1587.4204     10927.19 
   11790    281.48512    6.1033618    60.226534   -156.90111   -2712.5998     10927.19 
11800        0.96545704690533118431 10.191372980423919259 1 68 -289.20593164915089801
   11800    295.35192    7.0541281    51.513095   -155.38696   -3206.3151     10927.19 
   11810     330.4225    6.8814377    49.254304   -153.34756   -379.51654     10927.19 
   11820    291.96165    8.5392936    66.914148    -151.8012    4935.8266     10927.19 
   11830     317.2926    8.8077934    54.622183   -150.64855    3755.1762     10927.19 
   11840    265.21502    8.1394584    64.010598   -149.67183     1236.127     10927.19 
   11850    301.98072    6.1132771    53.819089   -148.11254   -63.728248     10927.19 
   11860    288.54841    6.9964555    65.958759    -146.0316    746.22246     10927.19 
   11870    312.60111    8.0811675     57.13809   -143.69676   -2623.6681     10927.19 
   11880    316.02382    9.8068327     55.06711   -140.87086   -4894.1708     10927.19 
   11890    320.17176    10.873317    53.369264   -137.81115   -1267.9778     10927.19 
11900        0.96798881986684748302 10.206993826529659586 1 69 -275.51977454282530289
   11900    310.98482    8.7472164    68.820633    -134.6178    955.77271     10927.19 
   11910    331.76435    5.1037198    60.637095   -131.40537    1458.0412     10927.19 
   11920    297.89006    4.1866396    66.858147   -128.81631   -844.26165     10927.19 
   11930    316.90843    3.6654682    63.002484   -126.69109   -277.95465     10927.19 
   11940    332.18451    5.0026328    58.865444   -124.59565     -1995.24     10927.19 
   11950    326.99014    6.5177991    59.567458   -123.11605    2176.6312     10927.19 
   11960    297.32352    8.7602888    69.257006   -122.07747    2977.1764     10927.19 
   11970    300.28534    8.9127978    66.266354   -121.11905    1492.9669     10927.19 
   11980    339.67325    6.5889495    55.552603   -120.32717   -2143.2525     10927.19 
   11990    321.66582    5.2688504    65.118576   -120.88102   -2360.8869     10927.19 
12000        0.9696234137287234045 10.195937356191910439 1 71 -273.86924977482817667
   12000    333.14384    5.7953918    66.236826    -122.9274    392.86058     10927.19 
   12010    335.66271    6.0025875     53.43327   -127.13174    168.94683     10927.19 
   12020    309.64233    6.5601378    54.425297    -132.3471   -283.39065     10927.19 
   12030    320.10848    6.5878529    52.172272   -137.69743    2058.3772     10927.19 
   12040    295.19864    6.8157201    57.395926   -142.30566   -1991.7112     10927.19 
   12050    302.81996    7.0293771    56.004206   -145.92349     1187.016     10927.19 
   12060    294.56055    7.6261074    55.677046   -148.69948   -1930.0503     10927.19 
   12070    283.08374    8.9948221    52.607301   -150.68255    1758.3874     10927.19 
   12080    276.05414    10.610659    59.979695   -151.71751    1106.0098     10927.19 
   12090    274.39635    8.5109474    56.198058   -152.04679    1110.9663     10927.19 
12100        0.96601351457688067192 10.195448952253283181 1 69 -270.83826595535640536
   12100    262.84372    6.1195793    67.581061   -151.74821     2238.389     10927.19 
   12110    290.19221    5.2713518    51.749163   -150.71391   -2901.6092     10927.19 
   12120    296.54922    7.5101399    56.814469   -149.31436   -6793.4311     10927.19 
   12130    311.53148    6.7009457    53.666307    -147.7246    -2354.515     10927.19 
   12140    302.83196     6.992886    53.285785   -146.17654     1601.296     10927.19 
   12150    300.20161    7.7680386    62.094391   -144.49183    6520.5249     10927.19 
   12160    294.92518      6.30232    57.284453   -142.30859    144.25215     10927.19 
   12170    290.68058    4.4360073    63.480751   -139.71926    6.4143348     10927.19 
   12180    294.54954    3.9509608    62.092742    -136.4073     1004.692     10927.19 
   12190    315.95134    3.1275841     53.44162   -132.17568    3878.2283     10927.19 
12200        0.96811617327546961587 10.178606068310731558 0.99735449735449732689 68 -270.54042923399396159
   12200     316.4471    3.7528405    59.886266   -127.16359   -2509.3365     10927.19 
   12210     319.3161     7.831925    58.280066   -121.77331   -3145.1087     10927.19 
   12220    309.07437    8.3197784    70.288095   -117.21055   -5668.1969     10927.19 
   12230    316.54764    5.6020078    70.558682   -114.20029     3183.447     10927.19 
   12240    314.27792    7.6603193    71.077418   -112.96676    493.13397     10927.19 
   12250    314.77394    8.5268306    65.635717   -112.99343    1403.4022     10927.19 
   12260    337.34615    6.5838176    63.066795   -113.99329    -345.4646     10927.19 
   12270    325.09971    4.7567459    68.049535   -115.77639     852.0442     10927.19 
   12280    326.52471    5.4729034    57.171119   -117.97459    1223.0721     10927.19 
   12290     325.0078    6.7533404    59.830962   -120.31548   -357.36345     10927.19 
12300        0.97449436077657836108 10.158371760485547242 1 67 -266.40209502217447834
   12300    317.46613    8.8507464    54.045132   -122.56355   -2713.1167     10927.19 
   12310    303.31216    9.5201576    60.547244   -124.45374   -1821.3633     10927.19 
   12320    307.69823    10.719968    59.585654   -126.20917    1308.7682     10927.19 
   12330    295.87312    8.9259511    65.010515   -127.80387    4383.1471     10927.19 
   12340     304.9423    9.2692989     57.90039   -129.17337    -619.6015     10927.19 
   12350    298.08808    9.4495945    58.995128   -130.35349    -6719.325     10927.19 
   12360    324.56783     10.08717    56.757901   -131.65446   -2745.2895     10927.19 
   12370    307.75189    7.0175016    65.397003   -133.62989   -713.36767     10927.19 
   12380    301.03326    5.8073885    61.783458   -136.06245    4053.6891     10927.19 
   12390    322.45815    5.7658439    56.423156   -139.03779   -117.33984     10927.19 
12400        0.98198485063628559999 10.119628975078573063 1 69 -285.28341848825357374
   12400    314.78935    6.6894759    57.066582   -142.65767    2905.6021     10927.19 
   12410    314.64332    6.5889758    55.893329   -146.22492    2587.4066     10927.19 
   12420    291.71871    5.8642679    57.201351   -149.53688   -1250.4504     10927.19 
   12430    296.83168    7.3909381    55.948547   -152.01384   -2024.1679     10927.19 
   12440    296.22765    11.658814    55.734051   -153.88208   -924.16569     10927.19 
   12450     306.9281    12.689363    48.075267   -155.28035    504.25212     10927.19 
   12460    288.84262    12.162016    53.689447   -156.24988    1802.5573     10927.19 
   12470    287.59895       10.607    55.301879   -156.50953    817.48481     10927.19 
   12480    291.25489     8.939754    53.774765   -156.02595    858.85136     10927.19 
   12490    320.93515    6.4966203    49.502766   -155.29539   -4365.7989     10927.19 
12500        0.98622023267305791716 10.115749755709909863 1 69 -286.89371873804105917
   12500    291.79968    6.0026153    52.837308   -154.68421   -842.26988     10927.19 
   12510    290.33505    4.5179282    51.078257   -153.88446   -1590.4674     10927.19 
   12520    280.74929    7.0292744    57.174335   -152.74044    785.72556     10927.19 
   12530    268.25825    9.3213222    59.225691   -151.09584      1028.95     10927.19 
   12540    299.97947    8.8674932    52.538223   -149.00367    713.33248     10927.19 
   12550    280.84593    5.7652151    64.739166   -146.91534   -722.77753     10927.19 
   12560    325.38242     5.662073    56.820316   -145.07603    -889.8699     10927.19 
   12570    287.31645    8.5868966    62.892704   -143.78684    1690.0007     10927.19 
   12580    332.98559    9.0198116    53.692367   -143.03671    3001.1114     10927.19 
   12590     316.9453    7.3257423    53.297829   -143.05349   -739.34785     10927.19 
12600        0.98875843762956572292 10.069659690912482475 1 66 -286.77555520289615743
   12600    315.95937    8.4863141    51.405269   -143.61969    1088.6218     10927.19 
   12610    294.31826     10.04104    57.371028   -144.30104     527.4971     10927.19 
   12620    297.63108    8.9161092    53.939963   -144.71574    2531.1324     10927.19 
   12630    302.45185    6.2663596    58.818627   -144.79083   -1631.6451     10927.19 
   12640    299.66507    5.6902409    57.061693    -145.0476   -836.62021     10927.19 
   12650    296.99869    4.2697168    55.392521   -145.20873   -2529.1667     10927.19 
   12660    323.12611    3.3155035    51.819881   -145.33757    2533.5873     10927.19 
   12670    285.84072    4.4286086    68.533104   -145.72415    753.71516     10927.19 
   12680    299.68752    7.5551967    54.156409   -146.05274   -2047.0295     10927.19 
   12690    291.37109    8.7451964    57.779027   -146.41762   -1546.6496     10927.19 
12700        0.99125243194510681555 10.068319189098179578 1 67 -284.54840980760928915
   12700     303.8864    9.1121862    63.013326   -146.86261     145.3638     10927.19 
   12710    302.05481    12.380055    61.525246   -147.70608    540.40123     10927.19 
   12720    311.60187    13.088408    52.728988    -148.6518    1612.8112     10927.19 
   12730    308.65066    11.796322    54.288413   -149.58592   -4395.9971     10927.19 
   12740    296.44742    10.104294    56.457438   -150.42375   -537.06881     10927.19 
   12750    284.30584    11.130883    54.914984   -151.02282   -194.51812     10927.19 
   12760    291.48895    11.671142    54.175858   -151.25747    3309.5736     10927.19 
   12770    298.69776    11.813613    56.812338   -151.12128     1164.671     10927.19 
   12780    319.63442    12.296861    51.452453   -150.94757     3237.717     10927.19 
   12790    289.75737    11.070442    57.140092   -151.00666   -1755.8243     10927.19 
12800        0.98733980255562647788 10.066220155641888212 1 67 -287.77465813398646333
   12800    302.63733    11.244317    45.139881   -150.65479   -810.78092     10927.19 
   12810    311.17273    13.004173    50.606728     -149.778   -310.55695     10927.19 
   12820    294.90273    12.180901    56.647474   -148.48128    2153.0508     10927.19 
   12830    281.68137    12.526384     46.24528   -146.19802    372.58428     10927.19 
   12840    276.22169      10.0897    57.786651   -142.49162    -535.2024     10927.19 
   12850    320.03132     8.999619    54.287591   -136.30079   -353.39104     10927.19 
   12860    322.63295    8.9727441    60.904873   -129.40178    -643.3418     10927.19 
   12870    314.94805    9.4305575    63.764605   -123.83278     1912.245     10927.19 
   12880    315.49433    9.2814015    63.220083   -120.13721    1406.3308     10927.19 
   12890    315.69024    9.8233533    65.146035   -117.91154    373.78602     10927.19 
12900        0.98567454771440976558 10.09934834717035379 1 67 -269.71172391575061056
   12900    337.42572     9.976056    56.343047   -116.82982   -1667.3081     10927.19 
   12910    314.41822    12.812642    59.485839   -116.80226   -936.91459     10927.19 
   12920     322.5836     12.72196    59.186319   -117.28234   -113.05323     10927.19 
   12930    338.02426    13.765422     57.84607   -118.48793    292.37281     10927.19 
   12940     306.0793    9.2202489      60.6637   -120.83735    356.97958     10927.19 
   12950    296.40568    8.0378396    66.429524   -123.49362    3529.0451     10927.19 
   12960    306.72812     8.711692    61.452638   -126.24175    258.69875     10927.19 
   12970     321.1929    9.0533208    58.638378   -129.31846   -953.37004     10927.19 
   12980      312.316    7.8712821    61.861251   -132.51391   -2535.5248     10927.19 
   12990    326.17671     8.544625     52.21553   -135.92626   -1794.6996     10927.19 
13000        0.98395657029930461146 10.146922293452293573 1 70 -291.52284035421746466
   13000    334.07946    8.2275697    52.553192   -140.15708    1199.1172     10927.19 
   13010    321.42694    7.2517007    52.944979   -144.47232    1490.2899     10927.19 
   13020    303.04326    4.9037495     48.67156   -147.77662   -48.640582     10927.19 
   13030    302.15683    4.7067599    48.693177   -149.85805    38.463959     10927.19 
   13040      299.759    5.2311013    56.270924   -151.04676    1720.4655     10927.19 
   13050    295.40466    6.9468582    56.284228   -151.62375   -3352.8891     10927.19 
   13060     294.3535    6.8516217    59.391956   -151.97387    995.68879     10927.19 
   13070    293.78394    6.6462955    59.388869   -152.32443   -2983.5501     10927.19 
   13080    303.59925    6.6437718    51.407878   -152.56494    2087.2413     10927.19 
   13090    303.88378    6.2773699    53.708921   -152.92841    880.86457     10927.19 
13100        0.97951770021156292501 10.158538277961969953 1 69 -287.06944561841044106
   13100     294.6492    5.3733436    51.910093   -153.56886      549.368     10927.19 
   13110    278.30937    2.5968898    55.749742   -154.22137   -1151.9192     10927.19 
   13120    293.82847    2.8967417    47.691826   -154.72313    -860.3597     10927.19 
   13130    288.09638    4.8155542    51.283976   -154.86751    12.753975     10927.19 
   13140    280.33756    6.3493913    45.702644   -154.43955    1948.4428     10927.19 
   13150    271.09868    9.3004893    55.736657   -153.21184    557.12671     10927.19 
   13160    291.61343    9.7993663    53.349885   -150.84745    1945.5374     10927.19 
   13170    316.76225    9.2350362    53.462755   -147.46122   -709.10771     10927.19 
   13180    348.67952      8.07716    48.567282   -143.15899    793.24311     10927.19 
   13190    329.31067    5.7654149     55.96686   -139.44429   -1272.7397     10927.19 
13200        0.9769593829531705298 10.179070564672066723 1 68 -275.56169811296922489
   13200    306.64473    4.8534903    56.655084   -136.62615   -3798.7164     10927.19 
   13210    315.24493    5.8952327    52.764694   -133.95444   -958.56718     10927.19 
   13220    337.05051     7.171394    54.673541   -131.22744   -1453.2748     10927.19 
   13230    359.87016    6.3310164    52.292714   -129.10477    2369.5454     10927.19 
   13240    327.47958    6.7300808    54.173462   -128.61549    -520.6259     10927.19 
   13250    309.99614    7.3667357     53.67779   -129.27273   -467.07928     10927.19 
   13260    305.10781    8.1854044    51.990972   -130.29325   -589.93264     10927.19 
   13270    316.52051    8.5568029    50.987992   -131.64235    1218.3097     10927.19 
   13280     298.0407      6.73849     58.89944   -133.87681   -2169.7041     10927.19 
   13290    286.90158    8.2656105    54.081792   -136.94528    708.75981     10927.19 
13300        0.97457563017710568953 10.188233413482475243 1 67 -272.33500123513084645
   13300    290.56688    7.8919835    58.550914   -140.68405   -793.13714     10927.19 
   13310    291.66058     8.048567    59.912261   -144.83193    2013.3943     10927.19 
   13320    290.36596    6.7961445    50.540828   -148.93788   -862.71122     10927.19 
   13330    276.87369    5.4906831    51.568749   -152.15707   -948.23461     10927.19 
   13340    296.79159    5.8392522     50.84036   -154.61611    3455.6675     10927.19 
   13350    284.42159    6.1954991     52.37222   -156.78368    551.41203     10927.19 
   13360    293.36537    8.1585142    50.375543   -158.88465   -2317.8633     10927.19 
   13370    270.25642    6.6333035    56.427156   -160.56401   -727.64184     10927.19 
   13380    291.26776    6.8534536    47.094398   -161.39078   -864.10136     10927.19 
   13390    275.56657    6.1213498    54.586002   -161.55238    4597.9236     10927.19 
13400        0.97700214694203169064 10.172524307363158158 1 69 -295.58241734858188465
   13400    296.92344    4.5985962    48.110211   -161.05141   -1965.0451     10927.19 
   13410    298.34521    5.0063512    46.380183   -159.99182   -2847.1775     10927.19 
   13420    308.60528    5.4554334    49.535794   -158.46342   -3493.2156     10927.19 
   13430    315.73682    10.032036    49.961909   -156.56546    276.10013     10927.19 
   13440    298.66991    12.119989    58.333019   -154.67233    1142.7082     10927.19 
   13450    294.87857    12.046317    51.414832   -152.14731    2356.1298     10927.19 
   13460    304.11599    10.405105    54.633539   -148.29767    1515.6693     10927.19 
   13470    296.03951    7.3155926    55.913672   -143.48645     3599.373     10927.19 
   13480    315.39971     5.043226    48.313039   -137.88043   -819.59335     10927.19 
   13490    305.79992    6.0355234     54.24177    -132.6445   -4540.9848     10927.19 
13500        0.97626343559530459615 10.161759888840949273 1 72 -276.89128819390026592
   13500    328.30052    6.1244969    54.710898   -128.14386   -2918.7951     10927.19 
   13510    321.31154    5.3555309    61.574194    -124.9165    767.24416     10927.19 
   13520     333.4784    6.2795066    52.728542   -123.10423    2629.9183     10927.19 
   13530     341.8291    6.3999463    51.669982    -122.7053   -1049.6456     10927.19 
   13540    296.92164    8.7126827    62.236118   -123.45288   -1504.6903     10927.19 
   13550    317.61113    6.5606722    53.966957   -124.44663    836.28572     10927.19 
   13560    304.92724    8.3699608    58.874918   -125.75693    4706.7281     10927.19 
   13570    302.43165    9.2572892    59.248164   -127.42857    4262.0785     10927.19 
   13580    291.89211    9.3705731    60.143479   -129.41303    -1998.973     10927.19 
   13590     308.0665    7.5381507    54.367185   -131.62799    -3784.239     10927.19 
13600        0.97650692423517038154 10.149737708353576693 1 64 -275.73933380777862112
   13600    312.20767    5.9602704    62.206702   -134.28331    689.14736     10927.19 
   13610    303.79093    7.6629989    60.291955   -137.63988    719.05992     10927.19 
   13620    293.79572     6.859886    57.223175   -141.25923   -1443.0552     10927.19 
   13630    295.26279    7.6711511    49.978343   -144.53899   -8.8879488     10927.19 
   13640    293.35134    6.2389293    50.743695   -146.88092    2816.0868     10927.19 
   13650    309.95481    6.6450389    47.905513   -148.64233     4283.207     10927.19 
   13660    281.41682    9.6052935    56.829903   -150.13466   -1906.1043     10927.19 
   13670    296.64478    9.9048247    50.884927   -151.17343   -3778.4022     10927.19 
   13680    289.55789    7.6784992    56.203366   -151.83601   -1575.8021     10927.19 
   13690     316.3501    6.2134069    53.872596   -152.43505    1759.9434     10927.19 
13700        0.97002004245043038644 10.180672658594133395 1 65 -286.37267234919522707
   13700    293.84856     7.484503    56.911202   -153.23485    1698.9527     10927.19 
   13710    308.90277    9.2931824    46.800545   -153.76223   -3454.9091     10927.19 
   13720    291.04572    11.033837    52.365376   -154.10937   -268.37884     10927.19 
   13730    288.92915    11.878629    53.481308   -154.14243    1614.7043     10927.19 
   13740    271.23942    7.8636862     56.33557   -153.93181    4147.1276     10927.19 
   13750    283.59824    6.2248388    49.010457   -153.33714    -695.1177     10927.19 
   13760    289.01016    7.8627226    45.939382   -151.91497     894.8661     10927.19 
   13770    306.98955    6.9983896    51.504108   -149.71953    2605.7805     10927.19 
   13780    312.46151    8.0582346    54.451108   -147.48113     301.7713     10927.19 
   13790    285.18187    8.4653653    58.424984   -145.93409   -3550.9761     10927.19 
13800        0.96519987884843094772 10.216598944099004598 0.99735449735449732689 61 -272.9658038946920442
   13800    283.75841    6.5221767    56.637403   -144.39966   -5409.0264     10927.19 
   13810    297.50014    4.0480245    55.636996   -142.36843   -2277.9743     10927.19 
   13820    307.95184    3.5671342     58.11603   -139.89742    2638.4995     10927.19 
   13830    333.71461    4.1458268    55.319292   -137.43773    2149.0878     10927.19 
   13840    305.11686    4.9181172    60.586264   -135.66436    111.52948     10927.19 
   13850    290.38697    6.2067562    61.171104   -134.31895    1096.5131     10927.19 
   13860    285.58529    6.8084689    56.101529   -132.58081   -2574.3093     10927.19 
   13870    325.85306     6.914678    52.713295   -129.85502    1393.4543     10927.19 
   13880    321.41127    5.2145711    60.044386   -125.81036      2672.51     10927.19 
   13890     329.3722    4.2755104    55.705479   -121.35844   -4555.6696     10927.19 
13900        0.95562218069006721333 10.258870925752622938 0.99735449735449732689 67 -259.41949433709766026
   13900    315.90113    4.2509356    59.121641   -116.29002   -3612.4413     10927.19 
   13910    328.93409    5.4414037     61.85676   -111.53405   -455.20571     10927.19 
   13920    339.27263    7.7062084    65.391833   -107.50733    5060.7481     10927.19 
   13930    338.68821    7.0851931    64.291473   -105.45926   -151.60059     10927.19 
   13940    357.88051    5.7998024    48.300285   -104.81879   -2304.5721     10927.19 
   13950    362.08149    6.1086044    55.154851   -105.70652   -180.37675     10927.19 
   13960    345.06581    7.8066388    59.451587   -108.98324    2123.2492     10927.19 
   13970     340.5914    5.5213041    55.941811   -114.65034    2125.1625     10927.19 
   13980    330.71919    2.7665377    58.757446   -121.74496    -826.3736     10927.19 
   13990    338.63428    4.8704295    46.008747   -128.15133   -1512.8064     10927.19 
14000        0.94604289283757581064 10.278719996983232576 0.99735449735449732689 64 -280.23160217118379478
   14000    325.38452     5.676671    50.038028   -132.80537   -179.87404     10927.19 
   14010    301.84599     6.033366    50.164571   -135.65049    -666.7964     10927.19 
   14020    272.85719    6.1890464     61.59761   -137.18709   -1183.9487     10927.19 
   14030     308.3753    7.3549918    49.561444   -137.72788   -2872.9461     10927.19 
   14040    307.83653    5.6489011    56.520762   -138.11029   -1613.1886     10927.19 
   14050    299.13654    5.9052134    59.858848   -138.69105     2435.481     10927.19 
   14060    311.81381    5.9676854     58.25544   -139.72313    698.34748     10927.19 
   14070     292.8324    11.436506    53.912806   -141.03802    -1209.544     10927.19 
   14080    304.27422    14.499597    46.774606   -141.92057    905.26361     10927.19 
   14090    301.50106    14.306626    55.304769   -142.56132    2630.5341     10927.19 
14100        0.95002634834501908934 10.254716374226433118 1 69 -276.85702587548712472
   14100    294.14758    10.617842    61.168694   -143.58372    4311.8915     10927.19 
   14110    294.85008    9.8422676    55.732627   -144.88559   -274.51128     10927.19 
   14120      297.124    9.5756381    51.742384   -146.32904   -3001.8537     10927.19 
   14130    289.52409    6.7130936    59.097416   -147.76747   -515.34073     10927.19 
   14140    306.31292    6.4476674     50.90604   -149.28322   -3015.6241     10927.19 
   14150     315.0902    8.2048071    46.943089   -151.44389   -212.64179     10927.19 
   14160    306.64835    7.0203629    52.566463   -154.16011   -798.06446     10927.19 
   14170    281.31429    5.3215628    53.699954   -157.20462    473.48274     10927.19 
   14180    258.60413    4.8171226    59.936759   -159.84338    -2313.038     10927.19 
   14190    266.37542    4.3570359    46.874188   -161.96087   -991.68745     10927.19 
14200        0.95006021653829519913 10.237131268073124346 1 68 -291.14974092097321545
   14200    282.04762     3.229479    53.226541   -163.35872   -1691.8442     10927.19 
   14210    307.05113    3.9379049     48.81832   -164.46997    1685.6046     10927.19 
   14220    293.87214    4.3320044    52.117839   -165.67002    858.42769     10927.19 
   14230    286.23256    5.4548551    48.818497   -166.94633     4311.823     10927.19 
   14240    262.15677    6.2681557    56.363459   -168.25487   -348.71037     10927.19 
   14250    252.27951    6.9282519    53.425241     -168.998     2849.327     10927.19 
   14260     257.0409    6.5759464    49.390328   -168.57817   -134.25898     10927.19 
   14270    264.68549    4.7679323    51.343581   -166.44492   -1625.7271     10927.19 
   14280    280.61406    4.2032158    56.211238   -162.30601   -3965.9968     10927.19 
   14290    276.19633    4.8504206    58.912313   -156.94614   -51.493057     10927.19 
14300        0.95677360023828872393 10.224165773789582801 1 66 -284.08910417130221049
   14300    292.92707    6.9396813    50.120614   -151.36879   -1711.9269     10927.19 
   14310    316.07633    8.4924135    50.203451   -146.27207    395.26454     10927.19 
   14320    309.47525    8.6435635    53.571874   -142.23474    1798.5648     10927.19 
   14330    291.48824    10.076674    64.388551   -139.32688    2004.4525     10927.19 
   14340    317.21422    7.9924268    60.899686   -137.30343    3077.2943     10927.19 
   14350    324.15752    7.2482182    56.609245   -136.44549    450.00618     10927.19 
   14360    329.35916    6.1042328    55.764226   -136.53812   -6650.1989     10927.19 
   14370    329.85514    5.2433429    57.874894   -137.67869   -4224.0184     10927.19 
   14380    314.81944    6.6410135    56.091566   -140.15368     1894.858     10927.19 
   14390    315.91515    8.4183329     51.16526   -143.59274     8000.873     10927.19 
14400        0.96657030983069536223 10.209884756202514566 1 64 -284.88349310576847984
   14400    304.14915    8.6476258    56.188274   -147.07864   -381.35195     10927.19 
   14410    321.75051    9.6699449    42.229555   -150.70109   -934.52106     10927.19 
   14420     284.1643    8.6582375    57.665579   -154.04498   -425.41369     10927.19 
   14430    285.56934    11.293218    52.275872   -156.58046   -244.58649     10927.19 
   14440    275.90932    10.183786    51.099083   -158.28038    -3484.048     10927.19 
   14450    279.24137    8.8936143    46.600797   -158.97192   -3525.6154     10927.19 
   14460    301.51975    8.0818862    49.295751   -158.90696    2674.4783     10927.19 
   14470    279.76856    7.7814705    53.979926   -158.55807    4797.3571     10927.19 
   14480    277.42275    9.1851388    49.749204   -157.84355     4523.744     10927.19 
   14490    293.78864    6.3335893    55.013435   -156.65504    490.35699     10927.19 
14500        0.96853432883743340032 10.216282383430918657 1 64 -290.0175772153077105
   14500    297.68047    6.6281936    51.329784   -155.14358   -4423.4529     10927.19 
   14510    300.81342    7.9221667    55.291507   -153.35162    -2251.245     10927.19 
   14520    297.93742    8.5573273    50.070759   -151.39849   -3116.9777     10927.19 
   14530    304.38084    6.5909762    52.597339   -149.36445   -1228.0321     10927.19 
   14540    304.72848    5.8974494    54.583954   -146.98243   -4818.8769     10927.19 
   14550    333.85356    7.5608069    46.429909   -144.09839    1387.0404     10927.19 
   14560    317.91292    9.6934956    56.597632   -141.00987     3684.754     10927.19 
   14570    324.84006    10.336262    49.707843   -137.38018    3416.0337     10927.19 
   14580     316.7032    8.0301496    60.688833   -132.57928    338.70322     10927.19 
   14590     337.1334    5.8777029    52.290492   -126.63787   -216.05381     10927.19 
14600        0.98197456830296225849 10.124050499515314883 1 67 -257.80742718156329829
   14600     302.5461    4.5460486    61.584794   -120.72889   -167.70977     10927.19 
   14610    344.97734    5.8646359    53.140101   -115.58763    694.53439     10927.19 
   14620    336.43266    5.8596899     59.98873   -112.02959   -1490.4675     10927.19 
   14630    342.17906    4.8293379    59.103812    -110.2754   -308.29462     10927.19 
   14640    318.46465    4.4766589    64.094543   -110.19652    -2510.929     10927.19 
   14650    333.82871    4.2792832    59.701864   -111.50931    -844.4346     10927.19 
   14660    330.49233    5.8720805    62.221498   -114.44604    1875.7727     10927.19 
   14670    333.11132    6.9380753    58.880001   -118.92336    2514.6851     10927.19 
   14680    307.90207    7.7251528    60.736977   -124.04408   -2933.2562     10927.19 
   14690    313.60123     7.786501    56.436653   -128.99721   -2811.1077     10927.19 
14700        0.9869077055077974947 10.054102410086432684 1 65 -267.9510791987844982
   14700    297.84028    7.5683372    60.195154   -133.00467    2797.1107     10927.19 
   14710    299.31157    7.6779922    54.629691   -135.61104    3375.0419     10927.19 
   14720    301.50619    6.1733513    55.896658   -137.24137    1758.3248     10927.19 
   14730     304.2778    6.6798506    56.801013   -138.70439    87.803438     10927.19 
   14740    295.32927    7.1648163    51.920701   -140.36193   -1502.1983     10927.19 
   14750     310.1687    8.0737307    58.058694   -141.85441    1051.1279     10927.19 
   14760     325.9978    8.6937145     51.33638   -143.62431   -1217.1312     10927.19 
   14770    313.62132     9.454744    57.356884   -145.93869    582.12766     10927.19 
   14780    313.91291    8.9330947    51.754045   -148.56275    -1575.429     10927.19 
   14790    296.07127    8.5265904    53.648636   -151.19203   -1793.3635     10927.19 
14800        0.98880342307634494503 10.039519198023564073 1 66 -277.94057784179005921
   14800    274.36805    10.476551    52.417858   -153.62904    1781.2251     10927.19 
   14810    256.60938    12.944526    57.393298   -155.11755   -7.9656972     10927.19 
   14820    300.84629    13.948115    44.675761   -155.50797    1324.8335     10927.19 
   14830    318.65838    13.695372     48.47714   -155.42583   -536.51847     10927.19 
   14840    302.49652     13.08799     50.42201   -155.68276    1932.3428     10927.19 
   14850      276.624    12.509491    58.999941   -156.17474    1847.0481     10927.19 
   14860    299.64376    11.732354    46.551767   -156.52151   -242.24468     10927.19 
   14870    311.71996    7.9785842    41.201316   -156.86546   -2875.9907     10927.19 
   14880    305.92493    5.9078785    50.865151   -157.69558    1848.1418     10927.19 
   14890    275.32149    4.4558722    57.552795   -158.94579    1022.5594     10927.19 
14900        0.98642475600591761342 10.025081240818563444 0.99735449735449732689 62 -291.82870607444948519
   14900    290.57118    3.5881646    42.978975   -160.17581    1667.3996     10927.19 
   14910    259.35064    3.6961317    53.356248    -161.2402   -3158.9334     10927.19 
   14920    282.27716    4.6568754    43.397182   -161.66255   -5312.3952     10927.19 
   14930    276.37086    5.0233596    50.887844   -161.40543   -246.44353     10927.19 
   14940    303.23505    4.8196132    44.189218   -160.45034     2665.138     10927.19 
   14950    275.76381    6.8293846    49.444753   -158.91624    2342.3608     10927.19 
   14960    261.73426    9.1222085    55.226878   -156.58464    583.26788     10927.19 
   14970    293.15271     12.07561    49.493164   -152.84793   -568.98494     10927.19 
   14980    293.35115    12.368782    56.572802   -148.41169    1615.4363     10927.19 
   14990    301.64091    10.718983    50.508818   -144.11584      1328.54     10927.19 
15000        0.98499903106006525544 10.0318319804899172 0.99470899470899465378 68 -268.93862514858471968
   15000    283.57807    8.5798989    54.797013   -140.45419    148.46027     10927.19 
   15010    311.41081     7.400612    53.263412    -136.6671   -2748.3645     10927.19 
   15020    307.55259    7.6711978    57.620323   -133.46592    2064.3334     10927.19 
   15030    300.43394    5.3671495    58.183514   -131.07911    51.943723     10927.19 
   15040    307.73683    6.8122846    48.688424   -129.15243   -1346.3974     10927.19 
   15050    299.43016    6.9132316    60.455408   -127.62583   -336.37496     10927.19 
   15060    346.04098    8.8586633    43.248576   -126.46343    1456.2251     10927.19 
   15070    312.26664    9.9450738    59.559869   -126.25982    979.14175     10927.19 
   15080    315.65629    7.8895261    50.901168   -126.87443    2951.2805     10927.19 
   15090    296.06332    6.3079133    54.318388   -127.90079   -1043.1866     10927.19 
15100        0.98018764426582305482 10.058951144395797073 0.99735449735449732689 68 -268.46669428085601794
   15100    307.91292    7.5470849    51.570284   -128.95655   -1293.9507     10927.19 
   15110    304.30323    7.6809637     54.62512   -130.16402   -1691.7517     10927.19 
   15120    297.46646     6.527805    53.581404   -131.71619   -1787.5122     10927.19 
   15130     311.6351     5.370732    53.515499   -133.67953   -1877.4215     10927.19 
   15140    310.40725    4.9511655    52.968244   -136.56692   -1676.7346     10927.19 
   15150    302.28875    6.3930013    55.012401   -140.54704    2166.4572     10927.19 
   15160    302.46849    8.0446846     44.05424   -145.47754    5148.2505     10927.19 
   15170    287.37368    7.5954525    48.078828   -150.62832    2261.2897     10927.19 
   15180    291.37574    6.5774183    46.119369   -154.96406    612.75269     10927.19 
   15190    266.31982    6.9117844    47.908834   -158.13732   -4497.3958     10927.19 
15200        0.97836847638654300674 10.055168728575686998 1 72 -277.04582189935240422
   15200    258.58718    5.1155676    52.179893   -159.88433   -825.55789     10927.19 
   15210     269.4889    4.7091964    48.876324   -160.20723   -1460.5103     10927.19 
   15220     283.5539    5.1791614    48.987803   -159.46948   -1396.9393     10927.19 
   15230    289.50227    6.0498432    50.022369   -158.09352   -681.34871     10927.19 
   15240    296.89697    8.7920707    50.556257   -156.45029    2146.6137     10927.19 
   15250    301.82305    12.210202    48.695482   -154.92845      2158.03     10927.19 
   15260     294.6325    13.611527    46.389481   -153.49453    2515.9127     10927.19 
   15270    280.96302    14.025728    51.901857   -151.98772   -663.63482     10927.19 
   15280     312.9629     12.39456    48.862834   -150.14485    1214.8167     10927.19 
   15290    295.75863    11.613994    49.386677   -148.36006   -1183.5941     10927.19 
15300        0.98683052249955405255 10.094637569636139673 1 71 -281.88364407076335283
   15300    298.46118    9.5720849      53.3206   -146.65592   -513.34618     10927.19 
   15310    311.21072    8.5456092    56.358731   -145.28949   -1336.7345     10927.19 
   15320    334.54922    7.9275885    46.868741   -144.85014    -2164.049     10927.19 
   15330    308.86788    8.2375525    55.582431    -145.3618   -1037.8198     10927.19 
   15340     299.2994    6.4138619    50.859262   -146.03366    1000.7506     10927.19 
   15350    305.34966    5.0734664    55.393119   -146.58735    670.05926     10927.19 
   15360    321.53834    6.9799472    53.241036   -147.35195    2086.5201     10927.19 
   15370    310.12051    5.4331752    48.022852   -148.30454    811.61956     10927.19 
   15380    300.00416    8.6354066    45.237185   -149.22623    1491.7626     10927.19 
   15390    276.52723    11.056971    53.494335   -149.77795     2718.922     10927.19 
15400        0.98930321196433046449 10.092322744402853374 1 70 -281.82676758507233217
   15400     291.4277    10.860547    50.501655   -149.78579   -45.639524     10927.19 
   15410    303.40359     9.882122     47.78284   -149.49667   -656.49794     10927.19 
   15420    320.22541    9.4910447    47.258489   -149.09498   -3745.2721     10927.19 
   15430    309.71774    9.8553658    54.582621   -148.69957   -1395.3679     10927.19 
   15440    293.80022    7.1590706    54.540407   -148.47863    1009.3924     10927.19 
   15450    299.09557    7.4759241    52.162183   -148.36472   -1678.5695     10927.19 
   15460    275.10145    9.5263541    59.981087   -148.02518   -1087.9692     10927.19 
   15470    310.69865    9.1262064    44.928443   -146.91653    434.76028     10927.19 
   15480    283.55973    7.7353833    60.796023   -144.89216    1576.9024     10927.19 
   15490    308.17685      8.10137    50.696932   -141.99004    256.83347     10927.19 
15500        0.98355609203949345698 10.146228261995473119 1 71 -281.66762646914287416
   15500    317.31078    9.8214935    55.905612   -137.89946   -3429.2165     10927.19 
   15510     357.3588    7.9771169    47.813155   -132.99213    1013.7576     10927.19 
   15520    349.82064     8.891389    52.851774    -128.8911    850.44491     10927.19 
   15530    326.25898    8.6695768    54.578675    -126.2068    2228.5046     10927.19 
   15540     316.6531    10.508599    59.283192   -124.69212    1532.4664     10927.19 
   15550    310.25326    8.3925306    57.625761   -123.98041    -1024.335     10927.19 
   15560    311.22541    7.7635046    59.425386    -123.6761   -2004.7691     10927.19 
   15570    305.71388    8.2674818     63.86759   -123.68536   -51.347667     10927.19 
   15580     324.7556    6.5219828    59.257793   -124.60683    1135.7552     10927.19 
   15590    317.89512    8.6775448    52.255191   -127.02125    239.32123     10927.19 
15600        0.96998481573255346255 10.16157976326182677 0.99470899470899465378 67 -267.69067102412600434
   15600    301.81191    12.005911    54.039922   -130.94479    788.95822     10927.19 
   15610    321.29675    11.885853     48.67583   -135.94561   -2407.1336     10927.19 
   15620    315.38733    10.004859    54.248038   -142.10998   -55.498126     10927.19 
   15630     319.0354    5.8761888    47.542663   -148.35911    1706.9905     10927.19 
   15640    289.11489    3.4001408    55.590287   -153.42496   -1258.7432     10927.19 
   15650    296.20225    2.5626403     47.90727   -156.95187    626.86448     10927.19 
   15660    291.28917    5.2077435    50.011618   -159.24119   -1471.5335     10927.19 
   15670     289.9061     7.487461    45.771006   -160.82128    51.206729     10927.19 
   15680    264.57454    5.3621281    54.657843   -161.71703    145.94853     10927.19 
   15690     269.8296    7.9199991    47.319836   -161.56147   -3316.8717     10927.19 
15700        0.96087491858134255196 10.193382387572624381 0.98941798941798930755 66 -289.80368401122257183
   15700    285.21371    10.428693    49.024113   -160.57816    -3448.638     10927.19 
   15710    295.36814    12.098518    50.616142   -158.96606    -1043.454     10927.19 
   15720    318.07255    6.9453416    51.121018   -156.87222    2852.2363     10927.19 
   15730    314.62802    4.5113603     51.51565   -155.19995    5516.1346     10927.19 
   15740    287.01006     6.951532    49.620729   -153.75095   -1104.7203     10927.19 
   15750    297.16455     7.243679    47.861935   -152.01405    3959.0012     10927.19 
   15760    279.96768    6.8317297    56.218964   -149.82021    1101.0553     10927.19 
   15770    307.87973    6.6772508    48.363506   -147.23235    1333.1757     10927.19 
   15780    287.36183    5.5783252    52.864669   -144.24686   -2496.4056     10927.19 
   15790    319.18686    4.8453752    51.866867   -140.66059   -3992.9689     10927.19 
15800        0.95598475578629793503 10.202655311799192717 0.99206349206349198067 64 -279.31932026582893513
   15800    314.75898    3.5597133    53.876135   -136.70734    806.64354     10927.19 
   15810    304.06044    3.6297064     55.95871    -133.1321   -2079.2261     10927.19 
   15820    283.84768    2.6842427     62.25664   -129.85399    878.59625     10927.19 
   15830    284.03006     3.504787    59.421712   -126.58881    1205.5992     10927.19 
   15840    327.73034    3.6713247    50.443713   -123.23939    2906.4252     10927.19 
   15850    323.56773    3.3652716    55.415828    -120.7567    2451.0157     10927.19 
   15860    302.89109    2.8767715    54.067812   -119.00863   -2425.0851     10927.19 
   15870    295.97189    2.0489432    59.135348   -117.72708   -7905.2048     10927.19 
   15880    325.79182    5.2990334     60.32612    -116.6063   -2044.9998     10927.19 
   15890     341.1533    5.2750775    62.402588    -116.5795    1234.1082     10927.19 
15900        0.95174602330699220598 10.218686965261191801 0.99470899470899465378 68 -266.96203184913321138
   15900     329.0841    6.0753184    52.728321   -117.85958    1944.8244     10927.19 
   15910    321.11082    6.9288288    62.292233   -119.77068   -2774.6231     10927.19 
   15920    322.02283    7.7095151    56.242732    -121.8304   -596.23607     10927.19 
   15930    332.13782    8.8278812    52.050342   -123.81339    2524.3243     10927.19 
   15940     330.9649    6.9055533    58.579581   -126.05005    3128.9235     10927.19 
   15950    331.94753    4.7260712    50.842029   -128.51253    636.46444     10927.19 
   15960    318.23235    4.1392122     53.13341   -131.19651   -355.35332     10927.19 
   15970    297.09911    6.1175107     62.84181   -134.06929    1413.9997     10927.19 
   15980    279.09898     6.906499    61.315535   -136.73055    -2217.752     10927.19 
   15990     307.3096    5.3114134    44.009932   -139.00733    225.80232     10927.19 
16000        0.95384391310426253074 10.185881686893830889 0.99470899470899465378 65 -269.36715485158356387
   16000    283.98718    3.6748855    54.485813   -140.69736   -533.43264     10927.19 
   16010    282.09805    7.3935023    55.099871   -141.85346    601.72088     10927.19 
   16020    277.00888    9.2223603     59.95921   -142.50287    1201.3068     10927.19 
   16030    293.17356    7.6167352     55.38801   -142.91828    777.73265     10927.19 
   16040    271.58347    8.1633924    55.308502   -143.27688   -2267.4623     10927.19 
   16050    273.89462    10.103399    53.257627   -142.90684    33.124697     10927.19 
   16060    284.57862    9.8299729    53.384644   -141.55877    671.12597     10927.19 
   16070    304.38108    8.1191675     60.12599   -139.33252    4903.4239     10927.19 
   16080    321.49402    8.4193309    56.476923   -136.56063    2557.2345     10927.19 
   16090    298.35332    10.546312    55.589436   -134.13182    -3966.112     10927.19 
16100        0.95181829229875114518 10.218977908713434033 0.99735449735449732689 70 -262.85862209179168758
   16100    290.12044    11.399414    61.022611   -131.40995    -2068.093     10927.19 
   16110    301.90571    10.805396     65.12389   -128.09105   -2706.8364     10927.19 
   16120    332.77995    10.238137     52.26974   -124.10904   -53.169991     10927.19 
   16130    326.55252     8.646911    65.157481   -120.85872    98.018756     10927.19 
   16140    363.78582    8.2135696    47.496236   -118.23795    1184.1445     10927.19 
   16150    352.33257    7.2515377    62.228409    -117.0444    2776.7603     10927.19 
   16160    357.93705     7.459895    47.499515   -117.88419    936.76459     10927.19 
   16170    307.45826    8.0224535    56.945194   -120.82945   -70.219199     10927.19 
   16180    297.28146    7.3330176    60.074716   -125.31818     867.8219     10927.19 
   16190    280.18308     5.618296    60.768674   -130.27137   -876.25521     10927.19 
16200        0.95777639858678154106 10.219106758950019298 0.99735449735449732689 76 -287.44662606903648339
   16200    335.37165    6.1859866    46.163162   -135.49539   -1235.4065     10927.19 
   16210     337.6314    5.6891495    46.286021   -141.44869   -195.93464     10927.19 
   16220    312.34183     4.949168    50.614261   -146.84273    1153.0959     10927.19 
   16230    301.09575    5.8324497    46.405883   -150.74495    1199.0617     10927.19 
   16240    274.76517    6.7672446    58.619782   -153.20871   -1760.6859     10927.19 
   16250    276.89875    11.127548    51.088911   -154.49545    631.32217     10927.19 
   16260    286.52578    8.7715879    50.403115   -154.92951   -715.19362     10927.19 
   16270    317.75053    7.3285091    43.331807   -154.75272   -1677.6994     10927.19 
   16280    328.49094    7.6658895    47.882861   -154.80335    -3572.297     10927.19 
   16290    289.47585    8.0178062    54.893222   -155.14987    128.04974     10927.19 
16300        0.9589493772042589903 10.225140801184313233 1 70 -290.4174703448351238
   16300    297.97707    7.0826331    57.584595   -155.40909    2376.0433     10927.19 
   16310     273.1885    5.8302341    64.633941   -155.79647    5531.6862     10927.19 
   16320    310.61615    6.3761819    52.355808   -156.06546    629.81558     10927.19 
   16330    304.55492    5.8880271    53.125467   -156.52282   -1032.7574     10927.19 
   16340    295.18342    6.1626363    54.010428   -157.14594   -3925.8841     10927.19 
   16350    294.11625    7.7022007    50.855168   -157.85387   -1199.5558     10927.19 
   16360    287.51192    7.2702466    61.774369    -158.7413    1722.8941     10927.19 
   16370    295.98671    7.5208328    48.129038   -160.10578   -912.78021     10927.19 
   16380    273.44931    5.7166056    48.267797   -161.55878   -1826.6397     10927.19 
   16390     290.6789    4.6550122    47.169941   -162.81255    282.42284     10927.19 
16400        0.95196048530583876612 10.241206977504536013 0.99470899470899465378 69 -300.23427490591046762
   16400    300.77543    2.7684288    47.832766     -163.958    2047.5211     10927.19 
   16410     276.2558    3.0975855    49.947665   -164.98477   -1481.2059     10927.19 
   16420    269.93629    5.4662414    49.324443   -165.38871   -1549.8541     10927.19 
   16430     256.4354    5.2105685    59.883221   -164.65857    2408.1197     10927.19 
   16440    277.52916    3.5481668    51.373402   -162.61243    2766.5634     10927.19 
   16450    268.70022    4.8808407    56.036384   -159.31494   -1890.3363     10927.19 
   16460    292.56104     6.650491    47.733185   -154.75461    -4373.733     10927.19 
   16470    288.93023    6.8862228    57.429889   -149.61713   -2544.8968     10927.19 
   16480    321.88665    4.8420606    53.430199   -144.29907     997.4964     10927.19 
   16490    299.23467    5.3269172    63.219482   -140.79624    2377.4059     10927.19 
16500        0.96315258196431130511 10.210692121012320044 1 67 -282.04803493565191275
   16500    317.29772    4.4029903     49.19351   -138.28579    1725.7106     10927.19 
   16510    285.29878    5.0089604    63.702237   -136.41637   -1960.2805     10927.19 
   16520    322.56771    3.5341664    53.546597   -134.56094   -1596.1129     10927.19 
   16530    283.84997    2.3309402    64.493579   -133.28361     1453.522     10927.19 
   16540    291.60198    2.8201043     59.07599   -132.53897    544.37434     10927.19 
   16550    298.07719    3.5848319    64.513832    -131.5092     -28.5884     10927.19 
   16560    343.74323    7.4111059    45.428838   -130.68962   -4154.7084     10927.19 
   16570    323.09876    8.5004695    60.769088   -131.08162   -3233.0799     10927.19 
   16580     307.8358    12.112173    56.674538   -132.64042    1603.2726     10927.19 
   16590    294.96445    13.139583    61.082064   -134.62168    2475.5482     10927.19 
16600        0.98170414165166908216 10.135068523582956956 1 66 -270.22613322127961055
   16600    293.60548    13.262244      60.0105   -137.19845    3245.0344     10927.19 
   16610    295.53353    10.606191    55.429029    -140.4537    1577.3173     10927.19 
   16620    291.92532    5.6705715    59.676542    -144.0744    1038.6011     10927.19 
   16630    311.91583    4.8430577    46.377311   -147.72024   -923.79062     10927.19 
   16640     284.4048    4.9914719    52.573284   -151.56348   -4093.8436     10927.19 
   16650     291.9037    4.2147748    52.568738   -155.37354    15.827551     10927.19 
   16660    277.34792    6.9039002    49.691456   -158.64758   -760.87071     10927.19 
   16670    275.88279    10.812345    51.385574   -161.14362    1441.3753     10927.19 
   16680    301.25914    9.7606909    43.757973   -163.13399    3015.4955     10927.19 
   16690    297.38152    5.8621431    47.122226   -164.81411    984.43475     10927.19 
16700        0.98957591346649698139 10.113325720591770818 1 65 -310.25268752988051801
   16700    318.27831    5.8088243    42.656047   -166.04616    443.57221     10927.19 
   16710    285.78641    4.8014062    54.175531   -167.14744   -221.16502     10927.19 
   16720    291.55979    3.4707237    52.873763   -168.09254    751.76477     10927.19 
   16730    275.50528    4.9097778    55.432438   -169.08803   -3599.1732     10927.19 
   16740    271.24422    8.9821198    52.570667   -170.13898    -3274.548     10927.19 
   16750    269.58995    9.9656522    57.104069   -170.97954   -2048.4766     10927.19 
   16760     278.1205    9.0733435    49.199048   -171.34542    564.66156     10927.19 
   16770    278.68482    9.6167295     53.05133   -170.81999    389.94504     10927.19 
   16780    261.14839    10.236593    56.441461    -169.0421    163.51817     10927.19 
   16790    286.88996    9.4370652    52.829613   -165.87543    1701.4553     10927.19 
16800        0.99326892751592865682 10.071124745525471766 1 70 -297.6591418573050305
   16800    299.61769    9.2867487    55.557569   -161.90742    2043.1246     10927.19 
   16810    312.23661    9.7538349    44.450114    -157.7767    2176.9126     10927.19 
   16820      292.355     11.14245    58.082532   -153.84171   -653.05467     10927.19 
   16830    288.69345    13.590011     53.65931   -150.20589   -626.50315     10927.19 
   16840     296.0342    15.790188    63.192382   -146.73994    -1495.768     10927.19 
   16850    347.55344    16.573864    55.117327   -143.81649    517.49575     10927.19 
   16860    354.11025    15.979371    50.775868   -142.26866   -1493.6004     10927.19 
   16870    322.88733    19.258961     55.64263   -142.47181    459.06222     10927.19 
   16880    295.91652    17.269283    57.224195   -143.50159     1099.458     10927.19 
   16890    287.59635    13.392866    57.827356   -144.86348    3622.8399     10927.19 
16900        0.98737701942183031534 10.051317505510198203 1 70 -284.63994334888798221
   16900    305.44419    12.256507    55.166206   -146.24833    1907.2023     10927.19 
   16910    288.58774    10.933499    60.168108   -147.76679    1255.5973     10927.19 
   16920    314.96551    7.2079238    52.152567   -149.51438   -1217.7455     10927.19 
   16930    285.47142    4.7384381    62.653784   -151.69788    2344.0752     10927.19 
   16940     294.3205    7.5328657    52.493021   -153.94601   -1948.6555     10927.19 
   16950    291.58651    8.9558236    54.941841   -156.19447   -193.33983     10927.19 
   16960     286.6097    5.8210601    60.157781   -158.53887   -8.4599828     10927.19 
   16970    297.40214    4.3804585    49.290857   -160.86364   -1463.7369     10927.19 
   16980     281.4424    3.6358387    56.596961   -163.36661   -1576.9151     10927.19 
   16990     286.0314    5.4682089     47.95601    -165.6307   -1902.6808     10927.19 
17000        0.98610475904264371927 10.103504491666509324 1 70 -293.19839361555693813
   17000    277.50792    5.4786202    51.765541   -167.46424    1182.6495     10927.19 
   17010    289.10757    5.7560426    48.486038   -168.84841    1816.3078     10927.19 
   17020    291.08459    5.5360619    52.131329   -170.22692    125.05525     10927.19 
   17030    286.07463    2.5497602     46.20124   -171.61042    1284.5517     10927.19 
   17040    275.52427     4.324129    54.065919   -172.72368    103.27273     10927.19 
   17050    274.79117    6.4788801     53.33041   -173.38104   -109.27637     10927.19 
   17060    268.68044    6.7713193    50.307202   -173.57736   -835.02817     10927.19 
   17070    258.27815    5.5052463    55.540857   -172.96059   -2533.4637     10927.19 
   17080    279.53914    6.7813324     50.10899   -170.93429   -1348.2043     10927.19 
   17090    271.68686    8.1445778    56.328381     -167.524    1117.7329     10927.19 
17100        0.98159566751623295033 10.113678125326552859 0.99735449735449732689 72 -288.70731418292376702
   17100    277.85567    9.6506268    50.127136    -162.8156    1068.8316     10927.19 
   17110    266.27872    10.241653    59.402961   -157.27875   -199.39784     10927.19 
   17120     312.3767    11.801413    49.590009   -151.64989   -1378.6754     10927.19 
   17130    284.86801    11.186969    56.567826   -147.30045    467.24553     10927.19 
   17140    307.97258    9.3238638    50.317086   -144.04726    1929.6023     10927.19 
   17150    299.25734    7.7442022    64.133401   -141.09753    339.68346     10927.19 
   17160    298.88337    8.1653707    54.487917   -138.64707   -1917.2736     10927.19 
   17170    283.23835    7.6867328    69.199186   -136.60708   -2585.6984     10927.19 
   17180    299.84307    7.4291816    61.540496   -134.85194    235.48277     10927.19 
   17190    324.93311    7.1494549    48.321733    -133.1817   -349.01091     10927.19 
17200        0.97865466503910358842 10.078346147469400051 1 72 -271.02692143818381965
   17200    307.81261     7.026963    60.738474   -131.56222    1551.8761     10927.19 
   17210    331.93967    8.0017306    50.500269   -129.84828    678.78644     10927.19 
   17220    304.95412    7.0705207     61.49625   -128.56037    923.64211     10927.19 
   17230    297.08043    7.9796576    60.843233   -127.79459    -739.1976     10927.19 
   17240    316.32824     8.189617    62.419568   -127.34454   -1342.5478     10927.19 
   17250    347.50177    7.6672615    54.310011   -127.93156     1651.766     10927.19 
   17260    324.40304    6.6120916    56.004075   -130.30736    954.15739     10927.19 
   17270    315.40829    6.9732039     54.95751   -133.75894    1441.3588     10927.19 
   17280    310.93082    8.1009186    60.303134   -138.29681    1332.5207     10927.19 
   17290    294.58595    8.5427423    63.141491   -143.39955   -2318.1543     10927.19 
17300        0.9820836330047296725 10.089653485447362513 1 70 -279.4071941739949807
   17300    289.21394    8.9259427    58.048136   -148.36924   -97.354796     10927.19 
   17310    304.98982    6.0706315    59.112256   -152.75249   -2341.3944     10927.19 
   17320    299.21116    5.5665539    62.626782   -156.40767   -123.20856     10927.19 
   17330    294.14292    6.1580165    60.453485   -158.88636    -2458.144     10927.19 
   17340    286.95596    8.4268292    52.848868   -160.44868   -4041.1644     10927.19 
   17350    292.53534    8.1617514    55.040309   -161.41982     808.2865     10927.19 
   17360    268.04225    9.4118802    61.765806   -161.94171    2590.7303     10927.19 
   17370    287.43471    9.4630445    51.564164   -161.76479    1647.7045     10927.19 
   17380    285.91523    10.088815    49.903336   -160.89422   -848.27236     10927.19 
   17390    291.40629    9.6937049    53.993405   -159.42651    1082.4248     10927.19 
17400        0.98053448638329654408 10.055453783716822969 1 65 -293.73428548024992324
   17400    300.82113    10.191431    57.383887   -157.43731    2258.0099     10927.19 
   17410    299.77113    12.473964    49.995277    -155.2842    923.18474     10927.19 
   17420     305.6407     11.16506    54.802442   -153.26399   -1629.6829     10927.19 
   17430    299.90843    12.791189     51.31346   -151.43588    558.72088     10927.19 
   17440    302.10006    10.984827    54.278711   -149.58187    875.36708     10927.19 
   17450     287.4532     11.27121    58.665313   -147.61413    272.10745     10927.19 
   17460    305.73683    9.0443048    48.793995   -144.83922    309.66888     10927.19 
   17470    307.42988    6.9020563    56.541279   -141.79687   -99.826757     10927.19 
   17480    311.28853    5.6357971    56.528553   -138.83976   -853.02959     10927.19 
   17490    306.98033     6.298451    56.470663   -136.25736   -318.55231     10927.19 
17500        0.98250231224593009838 10.055153222817395431 1 70 -276.03111950252997531
   17500    314.22234    8.1933092    60.307768   -133.66228    481.90686     10927.19 
   17510    328.90144    7.6171572    56.025103    -131.1853    -273.7029     10927.19 
   17520    332.79743    8.0362271    58.880169   -128.98566   -765.08884     10927.19 
   17530    330.48917    9.5827525    61.208631   -127.13919    1443.8429     10927.19 
   17540    311.07855    8.5082023    59.586394   -125.74558    2492.6413     10927.19 
   17550    291.58787    5.5993203    67.106506   -124.37147   -2154.1595     10927.19 
   17560    312.60444    4.0142548    62.854817   -122.67752   -418.19337     10927.19 
   17570    332.94585    4.0586319    53.567862   -120.69328   -2601.2746     10927.19 
   17580    348.78018    5.4051544    51.292907   -119.04947    239.82909     10927.19 
   17590    320.06298    5.7140972     62.02358   -118.21489    1112.7987     10927.19 
17600        0.98283373793221950887 10.072232999676776544 1 66 -261.08578330995646866
   17600    315.29634    7.9518001    58.752982   -118.23033    3414.0355     10927.19 
   17610    297.16727    7.1211582     69.47468   -118.94011     1900.305     10927.19 
   17620    315.17148    8.2642627    59.410361   -120.31566   -1718.8502     10927.19 
   17630    311.99945    11.010856    55.705477   -122.43667   -1231.3643     10927.19 
   17640    338.61551    12.405177    51.543735   -125.48558    2008.7114     10927.19 
   17650    317.49764    8.4078004    59.737567   -129.04446    461.46672     10927.19 
   17660    337.99104    8.4299403    50.435039    -133.6347   -2131.9449     10927.19 
   17670    289.35043    10.293456    62.587099   -138.56832   -4344.0334     10927.19 
   17680      292.283    9.2819228    59.829246   -142.94104    2803.5099     10927.19 
   17690    294.40579    10.770467    53.398721   -146.27285    1510.7764     10927.19 
17700        0.98336155110439604776 10.114009052027260083 1 69 -288.6685509880806535
   17700    308.57376    9.2838087    53.067754   -148.85899    377.16331     10927.19 
   17710    305.44763    8.7263551    52.798025   -151.01105    275.93559     10927.19 
   17720       292.14    9.7530272    54.419381   -152.87642    1018.2274     10927.19 
   17730    293.36344    6.6340576    55.936436   -154.53387    416.18413     10927.19 
   17740    308.18515    4.4641321    53.018228   -155.93945   -1005.1032     10927.19 
   17750    311.68072    5.1626871    54.265621   -157.46876   -2556.3154     10927.19 
   17760    292.99463    5.4448633    53.692964   -159.34254    2206.9584     10927.19 
   17770    281.98261    5.6463627    56.067491   -161.04598    836.51786     10927.19 
   17780    283.37542    4.3697397    57.950679   -162.37438    2574.3013     10927.19 
   17790    297.18113    6.7690817    50.719897   -163.31285   -3143.8647     10927.19 
17800        0.98010864136203068586 10.132335059376421427 1 67 -304.08451505670080905
   17800    308.77577    7.8905433    45.916216   -164.18342   -569.85876     10927.19 
   17810    281.83898    6.5876073    56.642156   -165.05371     1169.817     10927.19 
   17820    285.86686    6.1950361    51.494237   -165.57151    880.83556     10927.19 
   17830    260.02008    6.9059397    55.995003   -165.47619   -1299.3132     10927.19 
   17840    284.49672    8.1515719    48.926488   -164.22521   -2664.3184     10927.19 
   17850    285.06852    8.9566231    59.836543   -161.48839   -1081.5533     10927.19 
   17860    299.90259    8.8931523    59.946093   -157.21189    1021.3357     10927.19 
   17870    290.63026     11.56225    57.748479    -151.9738    91.855495     10927.19 
   17880     327.5558     8.263717    56.664774   -146.60209     1564.961     10927.19 
   17890    323.70428    7.8932609    55.977049   -141.86327      398.047     10927.19 
17900        0.97954529189731964767 10.159736661538193658 1 69 -286.08943744079010685
   17900     325.3594    8.6564085     56.75863   -138.67458     1203.758     10927.19 
   17910    313.73011    8.8047753    61.404676   -136.50629   -2597.8571     10927.19 
   17920    322.53717    7.0852321    64.914889   -135.35147   -417.65661     10927.19 
   17930    340.69589    6.5577679    61.348106   -135.46025   -1218.7507     10927.19 
   17940    307.49451    8.3085302    62.940909   -136.91034   -1086.5964     10927.19 
   17950    312.51485    6.2892516    54.405123   -138.90115    130.50873     10927.19 
   17960    286.50703    5.2692611    65.295056   -140.92675    4109.8129     10927.19 
   17970    307.41037    5.3127438     57.97873   -142.77209    3008.2601     10927.19 
   17980    270.39857    5.4045641      67.9365   -144.75091    1360.3474     10927.19 
   17990    286.52972    4.6952558    57.079265   -146.40092   -2434.2706     10927.19 
18000        0.9730142106253334422 10.163648589832142477 1 67 -281.24675514688112798
   18000    294.97286    3.8866275     56.39572   -147.59953    -751.9745     10927.19 
   18010    296.26084    2.9110031    58.221305    -148.6664    1328.4326     10927.19 
   18020    281.05572    3.2389828    52.648216   -149.50209   -1999.7658     10927.19 
   18030    256.34328    3.9111779    64.413232   -150.09873   -2382.7316     10927.19 
   18040    281.06862    4.9523315    59.220724   -150.09537   -137.76613     10927.19 
   18050    296.96058    4.0333281    59.303684   -149.29618    1698.0003     10927.19 
   18060    314.74886    3.0423479    52.747255   -148.03613    1088.2003     10927.19 
   18070    292.46555    3.9145059    56.305014   -146.18336   -1366.7277     10927.19 
   18080    302.50078     5.540247     54.86493   -143.39666    223.34165     10927.19 
   18090    296.15495    5.2520262    63.980467   -139.63246    1363.9337     10927.19 
18100        0.96325086896876932485 10.183908816772532901 0.99470899470899465378 69 -272.55932544285627728
   18100    302.19655     3.728637    69.277971   -135.63917    5377.1795     10927.19 
   18110    307.28399     6.655309    65.594839   -132.23191   -1029.7499     10927.19 
   18120    304.87456    11.473524      52.5522   -129.26962   -6636.7699     10927.19 
   18130    308.71594    11.764171    48.891041   -126.30489    -5748.659     10927.19 
   18140    311.03927    9.7640172    69.649021   -122.95594   -387.27175     10927.19 
   18150    328.59469    11.245277    71.737714   -120.03009    3569.2653     10927.19 
   18160    306.03327    14.674771    68.662384   -118.51165    1280.7067     10927.19 
   18170    315.90947    11.935265    63.656584   -118.41447    3361.1061     10927.19 
   18180    344.87291    9.4669547    57.756422   -118.98972    2604.1687     10927.19 
   18190    355.14337    7.1380681    55.603948   -120.74566     1783.449     10927.19 
18200        0.9618715279338879709 10.219132168339962519 1 68 -272.11385491499447653
   18200    327.52785    6.8101197    53.370504   -123.71651   -2364.4036     10927.19 
   18210    312.41526    5.9825678    61.663615   -127.88688   -1765.8404     10927.19 
   18220    328.30818    4.7308004    59.425791   -132.69647    2332.8138     10927.19 
   18230    308.54587    5.3669047    56.559832   -138.26503   -2420.1218     10927.19 
   18240    306.67484    7.6667458    61.727611   -142.72455    138.91114     10927.19 
   18250    318.36048    7.7221884    55.793081   -146.02357   -1955.1583     10927.19 
   18260    288.88531    6.9858636     61.80337   -148.54107    3220.6474     10927.19 
   18270    281.09325    4.8482248    64.340062   -150.01426    1151.2654     10927.19 
   18280    280.24518    4.5513594    58.503527   -151.00786   -560.83559     10927.19 
   18290     299.0986    6.6259948    57.489012   -151.57256   -1205.6956     10927.19 
18300        0.95534553170354430396 10.236894752113911977 0.99735449735449732689 68 -289.63291306148499871
   18300    304.25911    6.4263251    61.979427   -151.77824   -932.87644     10927.19 
   18310    339.52278    5.8545493    51.053545   -152.09926     90.53065     10927.19 
   18320    298.62095    5.5050071    63.845841   -153.29928   -1080.1107     10927.19 
   18330    287.69192    6.8535678    62.554972   -154.88146   -974.76749     10927.19 
   18340    290.75197    8.1880074    57.843215   -156.18928    1190.2296     10927.19 
   18350    297.01522    8.1180167    50.268128   -157.19182   -1397.9769     10927.19 
   18360     311.0808    6.8597579     53.34768   -157.77774     496.9245     10927.19 
   18370    299.15497    6.8133829    54.418608   -158.11974   -1440.4884     10927.19 
   18380    301.02686     7.311174    56.239682   -158.39678    2472.6643     10927.19 
   18390    287.73033    5.9852297    63.169574   -158.51335    1350.4609     10927.19 
18400        0.95361986595370884512 10.234641864048546367 0.99735449735449732689 66 -299.9690272975726657
   18400    311.88108    6.1513224    50.597308   -158.66097   -1062.0614     10927.19 
   18410    283.14861    7.3678426    51.311085    -158.9743    -3090.299     10927.19 
   18420    310.21727    7.5429414    49.066607   -158.72096    -2826.266     10927.19 
   18430    323.02041    7.4149049    51.539155   -157.98882    1294.1574     10927.19 
   18440    303.66604    7.0850705    55.462302    -157.3045    4201.2091     10927.19 
   18450    277.11562    8.6271727     58.73346   -156.42463    1344.1568     10927.19 
   18460    293.61058    7.8664594    56.689929   -154.95892   -1586.4309     10927.19 
   18470    280.98719     6.674802    59.951262   -152.75073   -1030.7247     10927.19 
   18480    305.58554    7.0056875    48.840428   -149.71349    116.27787     10927.19 
   18490    298.26305    4.5975164    60.016832   -145.84547   -617.00028     10927.19 
18500        0.95664747107210257315 10.230539849280376075 0.99735449735449732689 65 -273.99218537903931292
   18500    292.07066    4.9442415    62.093058    -141.6599   -684.82105     10927.19 
   18510    313.98997    5.1396547     60.41632   -137.37768    570.01656     10927.19 
   18520    317.09431     6.270905    67.114255   -133.62757    1621.2581     10927.19 
   18530    346.01254    5.6272535    59.210829   -131.28239   -1004.4511     10927.19 
   18540    311.14715    8.0975887    64.925099   -130.24005   -2219.9041     10927.19 
   18550    321.52548    8.7330484    62.435572   -130.12024   -1136.2826     10927.19 
   18560    321.91898    7.9263661    66.072745   -130.69011    2885.3161     10927.19 
   18570    325.41493    8.1701621    57.842102   -132.35273    1111.1182     10927.19 
   18580    294.68769    7.6156957    60.160181   -134.51165    1020.0793     10927.19 
   18590    315.69856    6.0003832    57.755642   -136.70236   -992.77464     10927.19 
18600        0.95380504849907610243 10.233961078264977473 0.99735449735449732689 71 -288.14570022354951107
   18600    328.22001    4.8326457    59.605452   -139.43475    1357.3419     10927.19 
   18610    311.79737    4.8376755    64.708675   -143.16294    762.70597     10927.19 
   18620     285.2821    5.5902826    62.080343   -147.19289   -1765.2427     10927.19 
   18630    279.14714    4.8905137    62.735071   -150.91693   -1599.1758     10927.19 
   18640    300.00472    4.7466834    51.184463   -154.22858   -2455.8662     10927.19 
   18650    304.75901    7.1451131     60.97953   -156.97789    2554.3087     10927.19 
   18660    305.13672     7.161154    56.586246    -159.5208    5599.3281     10927.19 
   18670    289.28462    5.5266241    54.679031   -161.56103   -1726.0593     10927.19 
   18680    260.62849    3.2475467    66.043391   -162.83795   -676.09708     10927.19 
   18690    278.66049    4.5674382    55.643466   -163.10885   -6056.0518     10927.19 
18700        0.95740327516281342746 10.239779676023552213 1 71 -292.10783360911801765
   18700    285.28046    6.2351924     62.03962   -162.85207   -2778.6573     10927.19 
   18710    302.11703    8.1616417    57.545595   -162.48522    369.32819     10927.19 
   18720    275.81861    9.3728808    62.230927   -161.98664   -109.55625     10927.19 
   18730    290.52649    8.3976229    60.962309   -161.08966    4853.9564     10927.19 
   18740    289.79132    8.3396507    55.897906   -160.01949    1154.6125     10927.19 
   18750    280.80646    8.3507655    56.586212   -159.02257    719.82753     10927.19 
   18760    290.67472    4.7955226    61.801057   -157.62768   -619.19978     10927.19 
   18770     303.8942    2.9174868    56.949103   -156.02674   -525.09359     10927.19 
   18780    276.06973    3.1505708    62.362161   -154.45374   -854.01692     10927.19 
   18790    314.85996    5.3442034    49.561724   -152.32296   -1641.4693     10927.19 
18800        0.96458175726556416585 10.209516808693591017 1 67 -285.99393125536215621
   18800    300.29125    5.1471461    60.887803   -149.93703    -1161.182     10927.19 
   18810    303.06886    6.9887584    57.831831   -147.80004    865.36459     10927.19 
   18820    305.20996    8.3558021    60.464495   -145.51586   -494.33332     10927.19 
   18830    339.11166    11.250546    51.094429    -143.6357    1752.0883     10927.19 
   18840    305.15054    12.668148    69.251219   -142.47842    3431.2795     10927.19 
   18850    331.14186    10.344925    60.622361   -141.67205    1193.0535     10927.19 
   18860    320.38902    7.2468632     65.37849   -141.54461   -4091.1531     10927.19 
   18870    315.00034    6.1862805    65.181132   -142.46457   -8623.2391     10927.19 
   18880    320.03884    9.8657832    57.474382   -144.50817    -195.1262     10927.19 
   18890      312.602    13.787931    59.610089   -147.92103    2926.3702     10927.19 
18900        0.97438258897407592496 10.165729104989940978 1 69 -289.56975105897896583
   18900    301.33474    13.163763    59.408212   -153.04007    4741.0011     10927.19 
   18910    272.56459    10.445128     58.78964   -158.75667    2049.1553     10927.19 
   18920    291.85051    9.5004327    51.650985    -164.7434   -2466.9507     10927.19 
   18930    276.10265    6.5806662    58.592382   -169.57067    404.01006     10927.19 
   18940    300.89906    5.0823209    57.128912   -173.12162    76.583942     10927.19 
   18950    285.13792    4.2300131    55.981375   -175.58822    1793.6726     10927.19 
   18960    270.82865    3.9980379    60.889154   -176.92755   -2207.2983     10927.19 
   18970    265.36406    3.8911356     55.88316    -177.2195    322.14359     10927.19 
   18980    256.02476    4.9966287    63.835771   -176.51885    636.00955     10927.19 
   18990    275.38653    5.4135612    49.259502   -174.89279    112.17162     10927.19 
19000        0.98253303859878970972 10.135602319954259087 1 71 -297.28838199838725131
   19000    275.23847    6.6875236    52.930984   -172.58247   -3026.3324     10927.19 
   19010    272.99736     5.907522    62.693933   -169.83327   -1747.7508     10927.19 
   19020    283.19213    6.4673418    57.360582   -166.73284   -270.29515     10927.19 
   19030    288.75512    7.6421881    62.572328    -163.5294    4842.9211     10927.19 
   19040    308.64861    7.7979906    57.030583   -160.59374    2827.5108     10927.19 
   19050    292.80825    8.8589849    56.936996   -157.90542   -779.57041     10927.19 
   19060    297.97732    8.9061687    63.089419   -155.62253    296.67376     10927.19 
   19070    283.32282    8.2698375    70.656071   -153.60114   -2439.6382     10927.19 
   19080    317.07273    8.6342751    58.072448   -151.74636   -559.14745     10927.19 
   19090    296.19498    9.9060726    63.534655   -150.26938   -3307.5871     10927.19 
19100        0.98942463882766040761 10.088939378975853245 1 70 -286.4183585325453123
   19100    303.00759     11.93696    59.105122   -149.13073   -4285.1552     10927.19 
   19110    297.37943    10.845379    62.776912   -148.41652    1702.3437    13774.761 
   19120    298.87043    8.2520465    67.463403   -148.14742    4126.7469    13774.761 
   19130    296.35573    8.3456501    60.393974    -148.1171     4323.154    13774.761 
   19140    279.40587    9.5819073    56.866039   -147.91358   -1858.5845    13774.761 
   19150    291.78001    7.9937443    55.748478   -147.09231   -1981.1572    13774.761 
   19160    290.36216    6.2771584    60.431057   -145.04481    1271.8788    13774.761 
   19170    307.28573    5.1478153    58.896996   -141.38867   -1262.8389    13774.761 
   19180    313.56584    6.7711397     58.77792   -136.71809    394.02784    13774.761 
   19190    346.07437    6.0373896    56.204238   -131.43323   -763.68943    13774.761 
19200        0.9892020818272865279 10.062685998210818994 1 71 -289.81374234859504213
   19200    359.57673    7.8260487    52.729831   -126.89559    1918.9359    13774.761 
   19210    327.78029    10.507669    57.333127   -123.47549    2725.5734    13774.761 
   19220    310.79074    14.242127    65.913709   -121.07175   -657.17473    13774.761 
   19230    324.45633    11.884391    66.798417   -119.23524   -313.33932    13774.761 
   19240     349.6154    12.132916    57.933968    -118.1747   -2410.4737    13774.761 
   19250    345.04561    9.1894397    66.994882   -118.53372    870.05557    13774.761 
   19260    321.15253    8.4786323     68.52128   -120.75645    680.10222    13774.761 
   19270    317.72367    8.5266256    63.866722   -125.06107   -330.03627    13774.761 
   19280    310.39764    9.9608692    62.773743   -130.80074     339.6792    13774.761 
   19290    304.52396    10.879425    55.118555   -137.48069    1704.0332    13774.761 
19300        0.98644862105648134509 10.089294011837099063 1 68 -276.59398435613627498
   19300    294.53184    8.9622578     58.28465   -143.14658    442.39526    13774.761 
   19310    284.12121    6.3019061    64.506025    -147.1916    1950.5055    13774.761 
   19320    288.67604    6.5353235    52.784243   -149.62002   -3170.1552    13774.761 
   19330    297.38026     5.782105    57.054081   -150.96085   -1206.9371    13774.761 
   19340    311.86591    4.6593953    55.074007    -151.7884   -1740.0204    13774.761 
   19350    294.14024    4.5579663    55.659816   -152.63817   -1936.8819    13774.761 
   19360    275.15722    5.7623147    59.154536   -153.22832    368.43523    13774.761 
   19370    317.41693     6.973537    46.108759   -153.30711   -747.56023    13774.761 
   19380    291.70761    7.1166233    60.573373   -153.37408    199.36495    13774.761 
   19390    293.03701    7.8842925    52.732746   -153.32217    2079.9568    13774.761 
19400        0.9818864445980943767 10.084147082632799908 1 63 -268.79307936563276371
   19400    255.96778    7.3815579    63.336952    -152.8184   -3.1378011    13774.761 
   19410     279.1991    6.1672955    58.137691   -151.36983    3351.6042    13774.761 
   19420    279.24634    6.2202913    55.507741   -148.79489   -965.38219    13774.761 
   19430    304.51651    6.9622014    56.246142   -145.34294   -490.37392    13774.761 
   19440     307.7084    7.1307511    56.152972   -141.37991   -2207.5822    13774.761 
   19450    299.66932    6.6917902    57.574419   -137.71634    261.76155    13774.761 
   19460    301.85777     9.099094    60.486803   -134.09969    403.22715    13774.761 
   19470    316.79762    11.454697    58.802722   -130.66109   -755.64839    13774.761 
   19480    338.56652    8.3342784    56.427951   -128.08123    2154.7837    13774.761 
   19490    295.23269    8.9847381    62.283403   -126.90856   -2069.2852    13774.761 
19500        0.98200359255787916801 10.078855226822218683 1 64 -271.78510003717133259
   19500    321.71479    6.9156847    57.825892   -126.02156    -480.4128    13774.761 
   19510    329.81056    5.6197379    61.829664   -125.67502   -795.85913    13774.761 
   19520    306.28227    6.2611929    60.135604   -126.05574    1258.6515    13774.761 
   19530    297.93188    7.1325189    65.848737   -126.53818    836.11912    13774.761 
   19540    311.83955    10.877745    65.213495   -127.22538   -167.43541    13774.761 
   19550    313.23104    13.567157    64.443293   -128.25686    592.74984    13774.761 
   19560    315.56792    14.272862    56.267697   -129.43805    -1492.464    13774.761 
   19570    316.36403    9.6248954    60.700158   -130.76129    1316.5793    13774.761 
   19580    296.11129    7.1807855    71.806017   -132.27723    511.60744    13774.761 
   19590    324.09124    8.6575543     57.79664   -133.94206   -1571.2578    13774.761 
19600        0.98184826974969907631 10.069701767204533027 1 63 -270.88045115078443814
   19600    298.75556    6.3915569    63.697621   -135.51935   -2126.4425    13774.761 
   19610    302.40598    4.6592445    58.013503   -136.91009   -3188.6737    13774.761 
   19620    291.46411    5.2576147    59.389192   -137.95694    1133.2369    13774.761 
   19630    319.63087    7.8923275    56.095712   -138.65357    1347.6868    13774.761 
   19640    300.18852    10.471145    58.055045   -139.26017    5117.7296    13774.761 
   19650    287.42215    9.6079877    59.535421   -139.52561    4422.8788    13774.761 
   19660    283.75205    9.8440764    64.620098   -139.40258   -1721.2142    13774.761 
   19670    325.05292    6.9117307    53.225533   -139.18191   -4858.8026    13774.761 
   19680    316.44082     6.267278    62.873755   -139.26648   -4560.0423    13774.761 
   19690    317.97521    6.3587701    52.079144   -139.84612   -2729.5622    12048.987 
19700        0.98511971288723609863 10.049615788053516852 1 68 -273.00590074560949461
   19700    291.72163    7.2683529    68.360223   -140.83175    1677.5128    12048.987 
   19710    316.77922    8.0209201    55.750151   -142.03817    2659.3224    12048.987 
   19720    288.36853    9.1441338    62.613025   -143.83447    3114.6106    12048.987 
   19730     278.0866    10.749808    62.023676   -145.29498    2538.5492    12048.987 
   19740    294.79545    10.499054    54.624065   -146.25375     2211.665    12048.987 
   19750     289.8107    8.6542051    63.670088   -147.10841    1116.4498    12048.987 
   19760    288.41841    7.2147205    59.085611   -148.13375   -1708.5554    12048.987 
   19770    310.73197    5.4571178    54.562146   -149.82407   -2132.9124    12048.987 
   19780     296.7226    5.2181514    61.501584   -152.74815   -737.01533    12048.987 
   19790    296.64746    6.2298131    55.016026   -156.57116   -2655.3292    12048.987 
19800        0.98811058171985133303 10.038537985865755076 1 68 -294.88165136556108337
   19800    294.48803    7.0256416    53.385917   -161.45409    747.37165    12048.987 
   19810    272.72087     8.954335    59.525367   -166.20036    1338.3261    12048.987 
   19820     274.1187    10.528187    59.161684   -170.17919    3028.7968    12048.987 
   19830     287.6784    8.6883459    49.905066   -173.18869    2110.6032    12048.987 
   19840    283.09436    8.9684557     48.33904   -175.39101   -1349.1065    12048.987 
   19850     279.7701    6.4918033    49.062424   -176.46816   -2261.0968    12048.987 
   19860    269.44115     4.724188    58.495865   -176.60588   -1015.4468    12048.987 
   19870    267.39018    5.1196694    58.054066   -176.11714    2697.5027    12048.987 
   19880    271.75188    6.3440109    57.163556   -174.86124    2026.7527    12048.987 
   19890    286.10956    7.3549042    53.747156   -172.63212   -1670.3476    12048.987 
19900        0.98963581657939925229 10.068333651850505106 1 65 -309.22589181681314585
   19900    308.04625    8.2764287     51.01093   -169.65533    -3527.595    12048.987 
   19910    282.27309    11.974684    63.559118   -166.49993   -727.80519    12048.987 
   19920    298.91475    13.650422     59.81602   -163.31722    411.00801    12048.987 
   19930    299.95567    11.746517    53.238782   -160.07089   -129.38849    12048.987 
   19940    295.04002    9.8922943    57.637973   -156.92777   -1315.0481    12048.987 
   19950    307.26308    7.1130434    57.535369   -153.65681    3154.8596    12048.987 
   19960    308.46909    5.6210962    61.840044   -150.45048    4179.9601    12048.987 
   19970    307.94354    6.4365429    60.802606   -147.92667    563.85671    12048.987 
   19980    306.39465    6.7323612    56.492871   -146.01806    -2974.233    12048.987 
   19990    304.56436    6.8405184    56.767519    -144.6411   -2685.8851    12048.987 
20000        0.98342162790836118447 10.094661802808760243 1 70 -284.10692987749303029
   20000    309.93253    8.8740254    57.038055   -143.68173    2378.0853    12048.987 
   20010     305.5185    10.278355     60.71447   -142.69304     522.9726    12048.987 
   20020    333.74379    9.7194102    54.022094   -141.99246    142.60325    12048.987 
   20030    294.98744    10.019108     69.24682   -142.28522    397.37838    12048.987 
   20040    322.49383    10.739769    46.596355   -142.90204    1932.1084    12048.987 
   20050    309.83486     10.31916    53.347116   -143.52888    2339.4522    12048.987 
   20060    320.76976    10.161868    50.211434   -143.91328   -2194.5846    12048.987 
   20070      296.675     9.879149    59.909425   -143.99977   -2946.6263    12048.987 
   20080    306.37724    9.2703993     55.70455   -144.03483    199.77987    12048.987 
   20090    317.44512    7.4370611    60.836932   -144.32128   -64.014173    12048.987 
20100        0.97923403183111901171 10.140015818356838295 1 71 -303.21925203383983671
   20100    348.19377    7.6636921    60.537518   -145.45853    656.80005    12048.987 
   20110    343.51765    10.329378    51.933155    -148.0641   -1067.1458    12048.987 
   20120    294.21483    9.4335457     64.11186   -151.35677    1209.2322    12048.987 
   20130     270.0045     7.762268    65.357331   -154.10804    2487.8301    12048.987 
   20140    276.37553    7.0675563    58.104348   -155.86549    1672.1193    12048.987 
   20150    283.87012    6.7830626    56.609623   -156.89226   -2113.6776    12048.987 
   20160    297.26502    5.7344783    54.043582   -157.57198   -5657.1505    12048.987 
   20170    297.32639    5.8277827    62.823103   -158.22958    676.76833    12048.987 
   20180    323.45007    6.4086006     55.97756   -159.26167    4045.7342    12048.987 
   20190    294.17431    5.8689156    63.690726   -160.65011    1196.8361    12048.987 
20200        0.97404542394159776553 10.166786474350912428 1 69 -300.27014106442402408
   20200    304.69663    4.1796519    58.325369   -162.21724    -1526.665    14154.442 
   20210    292.31058    4.9502119    58.120247   -163.96081    69.022214    14154.442 
   20220    292.72297    5.6218949    53.368556   -165.98163    463.74249    14154.442 
   20230    295.39081    6.7372404    54.880583   -168.12161    366.53423    14154.442 
   20240    301.79746    5.6283898    56.601981   -170.85774   -70.888567    14154.442 
   20250    302.40162    5.7136407    51.886794   -174.35053    275.48365    14154.442 
   20260    308.00986    4.5836161    46.270926   -178.72657   -3094.2306    14154.442 
   20270    283.31014    6.7225813    56.751785   -184.17637   -218.38661    14154.442 
   20280    277.21721    10.346438    46.506501   -189.15378    1500.6182    14154.442 
   20290     254.7564    10.823183    52.378599   -192.88323    2417.1493    14154.442 
20300        0.96502944699665649253 10.198972764324089724 1 71 -311.92122716798445481
   20300     259.1641    9.3241108    45.554595   -194.49835    1234.5651    14154.442 
   20310    250.37119    6.4035324     49.35362   -194.38749    2120.9979    14154.442 
   20320    262.07811    5.8759481    54.501812   -192.82439   -84.019985    14154.442 
   20330    260.95716    6.2911301    53.553928   -190.03581   -2439.3189    14154.442 
   20340     256.7758    6.2359001    53.693895   -186.57423   -2700.1495    14154.442 
   20350    281.09374    5.5079664    50.558323   -182.35663   -1084.2802    14154.442 
   20360     289.7499    4.6792585    55.559794   -178.54158    1126.1611    14154.442 
   20370    287.32265    5.3488091    54.071413   -175.54397    314.18101    14154.442 
   20380    288.52868    6.8863612    51.598834     -173.167   -967.37188    14154.442 
   20390    293.00648    5.6548498    57.838677   -170.91329    1498.0178    14154.442 
20400        0.96017796838256930236 10.229893539950079884 1 70 -300.66350190197562142
   20400    290.92562    5.5648917    57.044208   -168.85001    304.53684    14154.442 
   20410    278.28956    5.3258965    52.922145   -166.90161   -37.046842    14154.442 
   20420     277.6783    4.8566921    56.432597   -164.48523     -769.307    14154.442 
   20430    281.49574     6.766866    64.245404   -161.34067    512.58039    14154.442 
   20440    320.86401    5.7503888    54.021323   -157.98344    -415.2232    14154.442 
   20450    306.92781    6.8491633    60.240236   -155.20201   -82.052088    14154.442 
   20460    298.15502    6.1228657    64.645313   -153.00813   -1718.6547    14154.442 
   20470    313.00294    5.9648102    56.452992   -150.78009    1319.9582    14154.442 
   20480    309.41058    7.5140097    56.100924   -149.12446   -3068.9432    14154.442 
   20490    290.03218    6.6197995    53.302634   -147.86136    657.80257    14154.442 
20500        0.95308331782776412044 10.248038256575854987 1 67 -273.93598592603501629
   20500    281.43116    7.3101187    62.154882   -146.42428   -101.87722    14154.442 
   20510    311.00796    7.2403601    61.173771   -144.36631    1387.5647    14154.442 
   20520     332.7884     6.196009    57.566837    -142.1761    1896.3537    14154.442 
   20530    314.01245    5.1807318    63.266357   -140.62991    736.17904    14154.442 
   20540    306.97971    4.0760094    67.243704   -139.82908   -3899.5091    14154.442 
   20550    287.78053    4.0037594    59.615625   -139.37999   -2316.9003    14154.442 
   20560    330.29481     3.547389    54.350901   -138.70666    159.64951    14154.442 
   20570    312.50721    4.2157775    51.781343   -137.79729    3632.5203    14154.442 
   20580    308.41857    5.8191138     62.78292    -136.6794    -834.9113    14154.442 
   20590    315.81614      6.99184    59.406323   -135.21944    522.85156    14154.442 
20600        0.94806641307970629384 10.259405748036879658 0.99470899470899465378 64 -271.86457603146845941
   20600    304.09797    8.1398228    62.947549   -134.08292   -1038.3675    14154.442 
   20610    303.81238    6.9450306     64.47313   -132.88309    1006.3807    14154.442 
   20620    301.43748    8.0417081    67.407001   -131.30364   -1981.6731    14154.442 
   20630    300.39417    8.9472823    63.749069   -129.17111   -2468.0877    14154.442 
   20640    313.14236    6.8128938    67.317596    -126.7942   -26.180703    14154.442 
   20650    325.31154     5.772967    65.401151   -124.75307   -1113.0303    14154.442 
   20660    355.92834    5.0454478    59.350862   -123.94972    1506.6335    14154.442 
   20670    316.10758    5.8952521    67.698265   -125.14865    2070.9725    14154.442 
   20680    311.54448    8.3506882    60.181507   -127.28319    3850.6661    14154.442 
   20690    317.90143    8.2566167     61.64899   -130.21723     2100.351    14154.442 
20700        0.94939774263075993321 10.257682633363781832 0.99470899470899465378 67 -270.92121838118572441
   20700    302.87225    6.6456101    63.813533   -133.69491   -2210.9649    14154.442 
   20710    318.08767    4.2047835    57.715161   -137.76274   -3039.1074    14154.442 
   20720    287.11108    4.6174263    67.484528   -142.02681   -2961.1069    14154.442 
   20730    312.87334    5.1195086    65.181332   -146.50005    435.39721    14154.442 
   20740    292.84415    5.8728574    59.400856   -150.86793    539.56932    14154.442 
   20750    288.47099    6.8543063    56.709027   -154.14432   -125.55321    14154.442 
   20760    281.93523    7.6043864     55.28327   -156.35895    101.13839    14154.442 
   20770     261.7131    7.3630019    65.026849   -157.43594   -298.91368    14154.442 
   20780    292.46897    6.4124623     51.57751   -157.65279    659.58244    14154.442 
   20790    272.12713    7.7139598    60.986877   -157.27656    365.78002    14154.442 
20800        0.95369115336739396227 10.249125757558195104 0.99735449735449732689 69 -285.54343404164796993
   20800    285.51537    6.6544296    57.709925   -156.18124   -871.90929    14154.442 
   20810    299.41315    4.4492686    59.274688   -154.61924   -225.32893    14154.442 
   20820     324.6693    3.7687839    47.962079   -153.11076   -2495.0624    14154.442 
   20830    308.87228    5.5210507    52.657512   -151.74097   -520.44312    14154.442 
   20840    301.59712    8.3512401    55.782627   -149.95884    579.34702    14154.442 
   20850    325.79111    8.9539116    55.842957   -147.70265    764.03942    14154.442 
   20860    309.25256    9.7727725    60.722741    -145.7991    690.98532    14154.442 
   20870    291.37265    11.740069    55.995094   -144.14638    89.809568    14154.442 
   20880     303.8002     9.377321    55.793503   -141.53295    476.95984    14154.442 
   20890    333.97922    6.4074945    63.442842    -137.9661     2362.554    14154.442 
20900        0.96396730829525245632 10.203474786521354645 1 67 -292.28985536661866718
   20900    349.27415    3.7372951    57.696812   -134.03963    724.89899    14154.442 
   20910    325.36385     3.762578     57.92815   -130.55202    1248.9573    14154.442 
   20920     319.1186    4.8367505    66.772849   -126.76606   -595.07865    14154.442 
   20930    332.27821    4.4594999    65.421537   -122.08702    1154.4086    14154.442 
   20940    355.79229    4.4589416    65.663754   -117.07071    -2512.754    14154.442 
   20950     324.8776    6.7308014    74.842063    -113.4895   -1153.6836    14154.442 
   20960     341.0246    7.7897461    62.010089   -111.41844   -1866.9494    14154.442 
   20970    313.04109    8.7324752    72.944125   -110.53524     2255.917    14154.442 
   20980    362.35318    5.0288539    59.482562   -110.98509    289.75523    14154.442 
   20990    305.95486    4.0143144    76.893035   -113.41036    496.83626    14154.442 
21000        0.96449010265650725326 10.214170826721561625 0.99470899470899465378 66 -280.46019725074199869
   21000    358.28907    3.1478445    60.130086   -118.12546   -2113.9003    14154.442 
   21010    309.31203    3.0687059    70.999915   -125.55999    949.35191    14154.442 
   21020    326.66824    4.0406758    59.504819   -133.27725   -2746.8968    14154.442 
   21030    325.68888    5.5600069    57.119791   -139.86912    -647.0462    14154.442 
   21040    307.27669    7.9401421    60.021693   -144.49835   -1787.8519    14154.442 
   21050    299.72254    10.525238    55.289567   -147.72996    557.26174    14154.442 
   21060    298.20475     7.129797    62.459908   -149.90276    1619.5735    14154.442 
   21070    316.29424    7.1933094    59.457924   -151.87623     658.5575    14154.442 
   21080    296.36423     5.749726     62.82495   -154.27427    282.77258    14154.442 
   21090    278.93895    5.6887488    62.618531   -156.59496    470.05627    14154.442 
21100        0.97431401557295804761 10.168758125485323873 1 68 -293.32664537094973412
   21100    297.74337      4.66134    52.395084   -158.42415    1232.9034    14154.442 
   21110    282.36849    5.5822722    60.717493   -159.88598    1418.5912    14154.442 
   21120    305.16171    6.5699978    52.900178   -161.14209   -874.69571    14154.442 
   21130     268.0548    7.0183332     65.86765   -162.12387   -510.10847    14154.442 
   21140    311.39988    7.0117953    45.635631   -162.58835    1031.3509    14154.442 
   21150    285.33795    6.0388252     57.43165   -162.76056    947.38598    14154.442 
   21160    311.59489    4.9570159    47.596577   -162.58183   -1227.2768    14154.442 
   21170     294.0646    4.8171614    55.247152   -162.38745   -3016.2402    14154.442 
   21180    302.55442    5.5680364    51.604394   -161.90706    -705.8949    14154.442 
   21190    310.30586    7.7619117    55.398137   -161.16219    2508.6999    14154.442 
21200        0.9796373084096532402 10.152269567818169804 0.99470899470899465378 66 -293.0943351087775568
   21200    292.69246     7.608798    63.721738   -160.48032    -405.3052    14154.442 
   21210    298.61083    7.6330549    53.330813   -159.59475   -441.44013    14154.442 
   21220    285.10641    7.5160246    60.619135   -158.48671    -2621.491    14154.442 
   21230    301.09822    9.8527925     51.70237   -156.41443    3379.9527    14154.442 
   21240    306.28705    9.7284987     56.86157   -153.44799    3940.0232    14154.442 
   21250    298.41744    7.9418323    66.116107   -149.77448    1582.5007    14154.442 
   21260    302.07884    8.8304311    61.343954   -145.80752   -2282.9156    14154.442 
   21270    308.50811    7.1119944    59.869273   -141.62377   -3680.6964    14154.442 
   21280    299.11203    9.9376419    67.608177   -137.73534   -466.19075    14154.442 
   21290    298.90066    11.371589    66.837267   -134.57424   -784.13282    14154.442 
21300        0.98092745487027499518 10.136012185181774825 0.99470899470899465378 70 -268.42820732570885411
   21300    300.83777    12.177086    66.816378   -132.12369   -132.65697    14154.442 
   21310    320.57202    9.1786419    66.251387    -130.4571    2188.5073    14154.442 
   21320    303.83603    11.317902    66.211048   -129.59096    2528.0336    14154.442 
   21330    315.50943     11.03334    57.272831   -129.27029    2513.7494    14154.442 
   21340    315.36117     7.727571    68.743124   -129.21956   -746.00886    14154.442 
   21350    322.33625    5.6916636    62.731282    -130.0122   -601.71677    14154.442 
   21360    308.03542    4.7159403    59.456961   -131.80117   -1799.5198    14154.442 
   21370    306.25785    5.5175979    67.137854   -134.80007    -326.6267    14154.442 
   21380    324.51046    5.9385793    61.941798   -139.00475   -2479.3733    14154.442 
   21390    316.06202    7.5813994    58.531905   -145.41954   -664.10419    14154.442 
21400        0.98820172101358561001 10.092862924989598028 1 69 -285.19707221150042642
   21400    292.97838    6.6477928    62.399944   -152.45351    835.64839    14154.442 
   21410    300.93353    6.6994679     55.17627   -158.45609    3057.8397    14154.442 
   21420    307.40608    6.7403124    49.468495   -162.43374   -695.07662    14154.442 
   21430    296.84205    8.6464208     50.73198    -164.8087   -475.48305    14154.442 
   21440    284.80029     7.338059    59.887942   -166.04997   -1177.8118    14154.442 
   21450    274.88316    5.8207951    56.517772   -166.39798   -1370.1063    14154.442 
   21460     279.9384    9.7454567    56.991262   -165.94337   -488.54802    14154.442 
   21470     294.8494    11.734742    49.798255   -164.76052     1377.156    14154.442 
   21480    289.95975    14.365672    55.209746   -163.04038      3452.29    14154.442 
   21490      294.839    13.538211    55.510103   -161.00009    895.67376    14154.442 
21500        0.99263520742793287521 10.078140076533793845 1 70 -291.629377811626739
   21500    292.91939     10.76357    56.674763   -158.91255   -192.75237    14154.442 
   21510     299.9705    10.365531    62.452799   -156.99622   -3345.7843    14154.442 
   21520    311.10506    8.5395856    57.154368   -154.99643   -954.15349    14154.442 
   21530    312.18612    7.7751167    52.363062   -152.64534   -1389.6936    14154.442 
   21540    302.74447    7.5509388    59.926994   -150.22379    589.48312    14154.442 
   21550    314.24305    7.6699346    62.352409   -147.73374    1900.7137    14154.442 
   21560     319.8551    11.271744    54.836753   -145.56675    2980.6941    14154.442 
   21570    327.36324    7.9046953    56.733678   -143.80422    2343.6563    14154.442 
   21580    303.38619     7.313722    69.847022   -142.42777    4255.0278    14154.442 
   21590     312.9462    8.0143199    61.080997   -141.30388   -3357.3178    14154.442 
21600        0.98764099295438034787 10.114103536466407363 1 68 -277.82286598729581328
   21600    303.36841    8.8975413    63.469537   -140.37176   -5619.9827    14154.442 
   21610    329.25158     11.20937    55.461768   -139.89855   -3574.4936    14154.442 
   21620    285.43788    11.347299    76.743673   -140.06004    3321.1085    14154.442 
   21630    313.13158    10.426619    57.644033   -140.78588    622.34525    14154.442 
   21640    292.56585    9.5989174    59.252364   -142.33529   -1121.0775    14154.442 
   21650    299.44286    4.8613307     59.04773   -144.73354    514.42791    14154.442 
   21660    291.33568     5.292326    59.252922   -147.49525    2946.6909    14154.442 
   21670    312.92501    4.0571799    53.044049   -150.93869    1556.0235    14154.442 
   21680    302.31194    7.0126895    53.629651   -154.74849    249.31951    14154.442 
   21690    277.63103    6.2207218    61.545563   -158.70632   -1776.8754    14154.442 
21700        0.98372572597519014614 10.116986095188522654 1 67 -285.44667000774200005
   21700    272.52468    5.4370423    57.903945   -161.97034   -987.08656    14154.442 
   21710    275.82769    5.6575597    49.527054   -164.21937   -1676.1892    14154.442 
   21720    286.42743      7.56143    46.247426    -165.4353    5.9633438    14154.442 
   21730     277.8435    7.9422782    59.098442   -165.74841   -2899.4215    14154.442 
   21740    281.05096    10.724323    54.778003   -165.37744    1630.7288    14154.442 
   21750    310.59003     9.388719    55.321627   -164.62382    2677.0057    14154.442 
   21760    292.63123    10.543548    55.200291   -163.95572    4413.0309    14154.442 
   21770    302.59816    10.798081    48.164701   -163.18809   -4423.3702    14154.442 
   21780    291.01283    9.4579449     50.61848   -161.84993   -110.46015    14154.442 
   21790    291.54483    6.6544816    52.095472   -159.56547    777.08615    14154.442 
21800        0.98400299607550667513 10.12620158071574572 1 69 -274.98967401917911957
   21800    262.34333    7.3288149    70.345301   -156.12634    2164.6517    14154.442 
   21810     295.7675    7.0499052     59.22683   -151.23414   -3614.0017    14154.442 
   21820    296.24621    5.8720265    67.759198   -145.79887   -1437.2644    14154.442 
   21830    302.63807    7.0187388    60.385475    -140.8124   -2062.8709    14154.442 
   21840    320.30897    7.0520179    56.057892   -136.80451    900.71782    14154.442 
   21850    321.29336    8.8067464    58.813265   -133.83035    1183.8251    14154.442 
   21860    322.68388    8.8611846    60.775574   -132.47917    1891.7462    14154.442 
   21870    302.91815    6.7601265    63.008372    -132.2912   -1392.3007    14154.442 
   21880    301.60585    6.5949563    57.091358   -132.47965     461.5968    14154.442 
   21890    307.22891     6.232474    60.671006   -132.48927   -821.08975    14154.442 
21900        0.98515732746867712422 10.107342868179269857 1 66 -271.74531253749717052
   21900    307.28228    7.7967222    63.443634    -132.5209   -181.72666    14154.442 
   21910    318.84673    8.3153266    61.292281   -133.04974   -2738.0522    14154.442 
   21920    301.40878    7.7580066    68.934314   -134.50789   -533.38402    14154.442 
   21930    327.19437    9.0331364    57.200825   -136.34239   -83.722076    14154.442 
   21940     316.5462    7.8990661    58.708833   -138.66234    2622.8391    14154.442 
   21950    310.43597    6.5065197    53.825729   -141.12438     1205.904    14154.442 
   21960    285.59311     8.255194    63.687475   -143.45964     949.8853    14154.442 
   21970    287.43006    8.6002623    57.758581   -145.40081   -1286.9798    14154.442 
   21980    298.81065    10.470648    55.919427   -146.78833   -249.43422    14154.442 
   21990    314.71791    12.773388     49.96211   -148.03875    599.37718    14154.442 
22000        0.9873221975452006749 10.080073344937950708 1 70 -288.07077606136198256
   22000    306.51913    12.582269    54.478088   -149.19213   -42.888404    14154.442 
   22010    299.90187    12.816701     55.13927   -150.07132    53.783813    14154.442 
   22020    294.48104    11.590204    62.751124   -150.74571    -425.8679    14154.442 
   22030     284.1637    12.274752    64.880658   -151.25072    95.383899    14154.442 
   22040    282.82611    9.6319589    62.332031   -151.62318     2554.338    14154.442 
   22050    304.55826    8.3007603    52.564012   -151.79943   -99.528242    14154.442 
   22060    302.30055    8.1030939    59.577476   -151.95427   -85.828173    14154.442 
   22070    301.14346    5.7908825    56.439469   -152.08807    1110.9443    14154.442 
   22080     299.2874    4.6005601    61.966379   -151.98343    27.090384    14154.442 
   22090    278.70413    7.1703714    63.944374     -151.867   -577.91224    14154.442 
22100        0.98529587353608250044 10.092980791783348948 1 70 -280.5253095962833072
   22100    284.24463    8.0559037     58.94415   -151.73886   -3466.7533    14154.442 
   22110    292.53358    8.2446961    57.672623   -151.39535     1053.145    14154.442 
   22120    290.15361    6.9685599    59.794732   -150.98255    2447.8932    14154.442 
   22130    280.61529    9.1429631     56.83674   -150.59793    2728.9709    14154.442 
   22140    257.42323    11.667683    63.898799    -149.8045   -451.36699    14154.442 
   22150    284.48309    9.3644804    55.696854   -148.05126   -2844.4214    14154.442 
   22160    296.66117     6.070619    62.157583   -145.47793     -3396.26    14154.442 
   22170    332.84687       6.0684    54.518807   -142.83176    1224.0476    14154.442 
   22180    288.05433    8.3412838    64.163131    -140.7131   -633.54778    14154.442 
   22190    300.40069    7.8621523    58.180417   -138.69708    2556.4311    14154.442 
22200        0.97872113894547607682 10.110967338544949001 0.99735449735449732689 68 -277.55486180812420116
   22200    311.59252    6.1984543    59.677054   -136.37755    328.79141    14154.442 
   22210    351.82565    6.9822816    49.701749   -134.32265    1142.9002    14154.442 
   22220    321.05475    7.4431356    57.820822   -133.29823    595.20362    14154.442 
   22230    330.03877    5.7715875     56.65718   -133.11481   -2274.2978    14154.442 
   22240     336.3457    5.0369644    58.467959    -133.9935   -1144.4236    14154.442 
   22250    338.52272    5.0180127    54.926069   -136.71021   -3704.6671    14154.442 
   22260    318.63632    6.9759387    50.642561   -141.28505    724.20878    14154.442 
   22270    285.12346    8.1416094    51.383413     -146.509    1601.7974    14154.442 
   22280    278.13556    9.4209624    53.931241   -151.17215    1361.5482    14154.442 
   22290    282.22526    7.3745894    59.426379    -155.1199    2662.5968    14154.442 
22300        0.97900868660673323607 10.128264527015870655 0.99735449735449732689 66 -286.27772301626862372
   22300    282.37769    6.0436063    53.250465   -158.33716   -787.70153    14154.442 
   22310    289.09814    7.0808966    53.842485   -160.53395   -166.87278    14154.442 
   22320     273.9111    7.1037898    57.773634   -161.57128   -1179.4717    14154.442 
   22330    304.05041    6.7963495    48.038419   -161.72394   -3627.1625    14154.442 
   22340    277.49785    5.8870876    59.266717   -161.40569    486.00587    14154.442 
   22350    304.24537    5.1657717    50.045692   -160.65666    656.57947    14154.442 
   22360    291.68344    4.8887576    61.742795   -159.92666    4025.6583    14154.442 
   22370    298.62264    5.7502078    52.012444   -159.22633    363.70534    14154.442 
   22380    285.71749    7.3674919    54.747418   -158.33637   -311.82183    14154.442 
   22390     312.3966    7.2467682    55.369883   -157.27458   -823.07793    14154.442 
22400        0.97198187666034374654 10.181264053100452571 1 65 -291.99081590028072242
   22400    299.20235    6.4137205    57.035671   -156.42728   -2250.3283    14154.442 
   22410    287.33249    4.5447088    60.410729   -155.89086   -1817.3712    14154.442 
   22420    293.26766    4.5216058    52.657619   -155.23908   -21.487458    14154.442 
   22430    297.90525     4.477816    49.399018    -154.3685    1576.4342    14154.442 
   22440    289.76803    4.8944642    49.421711   -153.19429    2903.3434    14154.442 
   22450    295.96987    3.4071391     53.18847   -151.61544    2566.4513    14154.442 
   22460    299.40596    3.3272256    56.528275   -149.95519    68.933369    14154.442 
   22470    301.95866    3.3012772    56.652357   -148.62952   -3612.1589    14154.442 
   22480    303.55475    3.3533237    55.709176   -147.46147   -3532.1226    14154.442 
   22490     297.6517    4.3024476    54.779697   -146.62764    141.44347    14154.442 
22500        0.97387521730094606109 10.170701090111100129 1 68 -276.44873080897195905
   22500    287.92512    7.0902656    60.205878   -145.99472    541.22304    14154.442 
   22510    299.13034    7.3185122    59.619113   -145.32452    2077.2994    14154.442 
   22520    292.78461    7.9941879    55.912407   -144.67537    439.05717    14154.442 
   22530    291.66746    6.7680935    64.470679   -143.87455    1158.5691    14154.442 
   22540    319.28708    6.6419505    56.639386   -142.98893   -561.68861    14154.442 
   22550    322.47236    6.2090018    56.795763   -142.85946    350.76988    14154.442 
   22560    330.20793    7.9309086    59.512936   -143.73665   -391.98858    14154.442 
   22570    314.24146    10.501008    55.876658   -145.47691    434.19562    14154.442 
   22580    332.52683    9.9076482    55.529139   -147.80107    -2175.311    14154.442 
   22590    300.10461    12.192481    64.652263    -151.2334    787.82459    14154.442 
22600        0.97320942812530442101 10.189651819705288105 1 67 -289.56877102122120959
   22600    296.43866    11.053885    55.745252   -155.25742   -306.32648    14154.442 
   22610    286.06328    10.680713    58.305786   -159.68455    65.521303    14154.442 
   22620    299.99551    9.1463008    49.446829   -164.25512   -2655.1006    14154.442 
   22630    272.41966    10.498679    57.623589   -168.21199    213.31754    14154.442 
   22640    268.98189    15.639743    55.491762   -170.97737    920.20752    14154.442 
   22650      262.341    15.173613    51.932739   -172.32465    564.69973    14154.442 
   22660    255.78081    9.6873178    56.856247   -172.38953   -2067.8432    14154.442 
   22670    254.57776    6.9931922     61.18652   -171.54234    1599.2134    14154.442 
   22680    290.99632    6.4168859    52.115786   -170.22567    1000.7627    14154.442 
   22690    283.40681    7.3018198    51.499059   -168.93517    1540.6647    14154.442 
22700        0.96925420304560461204 10.18522406620851406 1 69 -292.87448340916694178
   22700     276.6785    6.3075791    54.608549   -167.51612   -276.92337    14154.442 
   22710    273.99234     9.262218    45.673201   -165.55474   -644.23777    14154.442 
   22720    256.67883    9.7633404    55.041457   -162.99325   -1526.6977    14154.442 
   22730    287.93014    10.599943    57.427183   -159.53436     1023.975    14154.442 
   22740    298.72525     10.59739    51.012502   -156.00378    1241.6624    14154.442 
   22750    310.23509    9.5480176    52.963569   -152.70763    887.07803    14154.442 
   22760    319.73668    8.3973404    54.678036    -149.8515    65.807577    14154.442 
   22770    317.93306     5.161171    51.830908   -147.53276    457.98608    14154.442 
   22780    294.99788    6.1578156    62.032707    -146.0264   -1763.8936    14154.442 
   22790    309.45056    8.4360576    55.011042   -144.99156    654.40186    14154.442 
22800        0.96634903884203493529 10.206883156003925706 1 71 -278.74862436123174803
   22800    296.47197      10.3082    61.307815   -144.42218    2526.8798    14154.442 
   22810    308.24739    10.209434    51.804417   -143.95121     1401.076    14154.442 
   22820    295.68385    10.895544    48.682506   -143.30083   -3669.5815    14154.442 
   22830    321.36071    7.2983218    54.037757   -142.58421   -2743.4197    14154.442 
   22840    298.37361     6.121365    56.977776   -142.12779   -1534.1988    14154.442 
   22850    288.33033    6.0551068    59.193871   -141.68547    1713.9765    14154.442 
   22860    259.28609     7.230072    57.877066   -140.36434   -486.05777    14154.442 
   22870    300.71488    5.3465823    53.641365   -137.28767     -240.785    14154.442 
   22880    293.96654     6.062348    63.080855   -132.68749   -840.85725    14154.442 
   22890    312.02781    7.8258739    64.628941   -127.65515    1340.1148    14154.442 
22900        0.96481717564507341045 10.193491340763657149 1 72 -274.79961793586022623
   22900     335.9473    6.2494123    62.866744   -122.58756    99.279332    14154.442 
   22910    338.78118    4.5370883    67.969305   -118.70306    1757.3072    14154.442 
   22920    350.86185    5.2445975    65.129005   -117.12597    -240.1929    14154.442 
   22930    328.51594    8.8642745     73.80901   -117.90062     2019.908    14154.442 
   22940    355.04318    6.0917203    54.712538   -120.43874   -1301.4196    14154.442 
   22950    311.90248    8.2524655    59.773622   -123.88791   -1558.7207    14154.442 
   22960    339.77578     10.59407     50.41203   -127.52304   -104.94444    14154.442 
   22970    308.26152      11.7099    60.075811   -131.18636    608.91975    14154.442 
   22980    328.61792    10.714249    48.204065   -134.12832    1441.6174    14154.442 
   22990    330.82963    6.7260921    58.014801   -136.96807    3284.4454    14154.442 
23000        0.96509524359951714967 10.182409325987713089 1 70 -289.71046094886139599
   23000    331.62015    7.9543112    54.545728   -139.45897   -2035.5422    14154.442 
   23010    295.74516     10.68429    56.956311   -141.52772   -2204.8908    14154.442 
   23020    289.81704    10.334277    60.597707   -142.83003   -1022.9372    14154.442 
   23030    310.57324    10.619762    54.820752   -144.00436    1273.6569    14154.442 
   23040    293.67698    10.831278    58.601657   -145.22766    2942.4351    14154.442 
   23050    314.90036    7.9455905    55.271828    -146.2157    2112.0471    14154.442 
   23060    306.01735     8.048013    59.470461   -147.32321    1520.4943    14154.442 
   23070    293.77452    7.8867792    57.296873   -148.73975   -2817.6876    14154.442 
   23080    288.74664    9.1983304    63.622842   -150.21822   -3082.7953    14154.442 
   23090    302.27713    8.3519046    54.780554   -151.62046   -2157.9601    14154.442 
23100        0.96280309837929611838 10.202106680309185549 1 69 -290.12477629445459115
   23100    301.92779    7.3762573    58.255854   -153.32639   -991.40498    14154.442 
   23110    283.34629    6.3849761    59.648667   -154.98267   -107.61603    14154.442 
   23120    307.78846    6.5113675    49.706278   -156.40006    1181.5933    14154.442 
   23130    275.31478    7.4596236    60.984862   -157.83917    1676.2426    14154.442 
   23140    293.59716    8.4304351    54.741726   -159.01621    744.41672    14154.442 
   23150    282.94384    8.1071849    55.273326   -160.18075    1455.4193    14154.442 
   23160     305.4558    7.5579661     56.01836   -161.38674    378.25103    14154.442 
   23170    295.23218    6.7377106    51.229775   -163.07024   -2312.6716    14154.442 
   23180     273.9736    7.0209193    56.241922   -165.15036   -2610.4733    14154.442 
   23190    283.79819    6.9207897    48.769488   -167.17641   -1833.2339    14154.442 
23200        0.96599097087774310477 10.200597026169996084 1 71 -290.72339398088246298
   23200    269.09787    7.0201922    56.913381   -168.79969    462.07469    14154.442 
   23210    244.82612    6.6719383     56.07619   -169.68436    3214.5108    14154.442 
   23220    267.45792    7.2947781    51.385465   -169.30384    643.21843    14154.442 
   23230    293.44627    5.3992221    48.375401   -167.52528    -1545.271    14154.442 
   23240    304.71577    4.6922945    50.446339   -164.80238   -269.18889    14154.442 
   23250    306.65733    4.5232405    50.321181   -161.47073    1203.7933    14154.442 
   23260    284.03254    5.9298004    60.605495   -157.81677    917.93732    14154.442 
   23270    289.02417    5.8699018    55.424577   -153.91694    415.03813    14154.442 
   23280    295.23072     5.213133    61.418803   -149.77211   -351.22863    14154.442 
   23290    311.77239    3.5320028    58.807416   -145.65142   -1100.1002    14154.442 
23300        0.97092718936862687507 10.198169016160100853 1 67 -287.68056593180517666
   23300    320.65245    3.6067342    60.700761   -142.39835   -2528.6976    14154.442 
   23310    306.79668     6.309149    59.153404   -140.10919   -553.39331    14154.442 
   23320    316.60038     8.237305    65.537145   -138.66954    927.29294    14154.442 
   23330     315.2873    7.9977312    62.989075   -138.30612    1758.6833    14154.442 
   23340    314.80468    11.308044    58.377922   -138.80657    613.93293    14154.442 
   23350     305.7507    10.053805    60.642042   -139.98558   -158.50271    14154.442 
   23360       299.63    9.3759177    63.409141   -141.15005   -441.28876    14154.442 
   23370    309.63233    7.3937444    55.401582   -142.26429   -724.96511    14154.442 
   23380    317.01037    6.7425918     53.90597   -143.67269   -686.50968    14154.442 
   23390    327.48306    4.8897433    54.238736   -145.62913    476.53314    14154.442 
23400        0.97310436028003155506 10.186030910150947193 1 70 -284.6682513114176345
   23400     300.7968    5.9310112    59.662674    -148.3823   -28.808736    14154.442 
   23410    293.94998    8.1457635    49.525999   -151.63835     208.1298    14154.442 
   23420    274.45038    8.7508175    56.447688   -155.28868    1405.1078    14154.442 
   23430    302.66272    4.5468266     53.10357   -159.00315    376.02941    14154.442 
   23440    287.38654    2.5488307    57.117003   -163.69025   -1711.5631    14154.442 
   23450    262.80124    2.2594246    58.749886   -168.00491   -1664.3773    14154.442 
   23460     275.9635     2.462664    50.060627   -171.70574   -2430.7271    14154.442 
   23470    262.07905     4.218617    56.065818   -174.60612   -420.52268    14154.442 
   23480    265.54921    6.7251344    47.669344   -176.38402    699.76465    14154.442 
   23490    263.69983    7.5867882    52.736147   -177.07325    3666.9546    14154.442 
23500        0.97921280369850316472 10.13191092589820741 1 70 -300.80943336555367296
   23500    274.23033    7.7715529     54.72285    -176.5603    4292.1008    14154.442 
   23510    271.45732    6.6960174    52.343088   -174.92491   -315.60353    14154.442 
   23520     261.0699    6.0113167    58.925019   -171.97289   -2894.9367    14154.442 
   23530    277.38736    4.7586145    56.041851   -166.33893   -3234.9245    14154.442 
   23540    269.87547    5.1199506    63.153141   -158.55946   -3113.9533    14154.442 
   23550    309.74829    5.7819663     55.28233   -150.46917   -889.67682    14154.442 
   23560    304.43631    5.6757973    60.678753    -145.6071    2548.6465    14154.442 
   23570    298.44196     7.407442    65.078057   -143.54705    2599.3884    14154.442 
   23580    311.20926     8.971454     59.52746   -142.45826    2014.4921    14154.442 
   23590    313.43556    9.1200793    53.921934   -141.80416   -171.69115    14154.442 
23600        0.98515519141860208308 10.11461359945948324 1 69 -277.76995338795688895
   23600    300.68973    7.5413039    61.511028   -141.53251   -2338.8537    14154.442 
   23610    290.34222    7.5544463    60.117033   -141.50385   -1435.9314    14154.442 
   23620    313.34455    6.7262133    54.732991   -141.60248    421.18248    14154.442 
   23630    316.97229    7.1681523    57.328297   -141.97957    2443.8725    14154.442 
   23640    313.83735    6.4531096    56.980895   -142.96782    4854.8019    14154.442 
   23650    310.84322    7.4046394     57.38039   -144.33312     263.6053    14154.442 
   23660    322.49256    5.1030182    57.528592   -146.15051   -2517.8065    14154.442 
   23670     309.6236    6.0469845    65.436054    -149.0883   -3601.0775    14154.442 
   23680    302.81824    7.6472264    61.456529   -153.14302   -25.028696    14154.442 
   23690    287.02952    8.8294762    59.459443   -157.56037   -4232.4627    14154.442 
23700        0.98637880530035715321 10.096885333784069161 1 69 -292.00927973082116296
   23700     288.5615    7.6355501    55.735958   -161.26693    751.77746    14154.442 
   23710    273.67419    8.6820643    57.577402   -164.18556    2162.9941    14154.442 
   23720    256.82686     10.30079     57.17876   -165.89538    4971.1942    14154.442 
   23730    256.84163    11.160484    59.087957   -166.30684    2437.4003    14154.442 
   23740    293.16427    9.0966171     51.97308   -165.75294    270.30188    14154.442 
   23750    287.00417    9.7799224    53.654655   -164.70923   -945.83858    14154.442 
   23760    286.84325    8.6499088    46.995439   -163.06304   -1630.2367    14154.442 
   23770    288.40131    9.0721143    53.217459   -160.50614   -2956.5441    14154.442 
   23780    309.60024     9.126205    48.389615   -157.02358    769.50693    14154.442 
   23790    316.96947    10.123784    50.830209   -152.87874   -1685.3211    14154.442 
23800        0.98995016590475326534 10.070764779881743678 1 67 -286.83983258453304188
   23800     303.6869    9.5057868    58.193587   -149.24442    1486.6506    14154.442 
   23810    315.50179    9.8218982    62.428919   -146.00159    940.26161    14154.442 
   23820    330.94692    7.9298868    59.460577    -143.9264    1802.0201    14154.442 
   23830    317.88094      6.87661    54.958912   -143.22474   -1644.0711    14154.442 
   23840    294.58877    6.8770481    57.353485   -143.17843   -1782.1908    14154.442 
   23850    325.87248    5.5309955     58.90678   -143.32913    577.61787    14154.442 
   23860    314.98167    7.8757861    67.471996   -144.39946    2485.4193    14154.442 
   23870    305.30219     7.782497    61.123466   -146.34777    1516.4338    14154.442 
   23880    278.73409    10.049041    62.263052   -148.16233    2669.8772    14154.442 
   23890    295.62676    10.087567    60.383212   -149.33236    4.7832777    14154.442 
23900        0.98720563314087839135 10.099073713300045441 1 64 -279.20060760697430169
   23900    284.99187    9.0204162    56.803401    -150.0756   -1023.6183    14154.442 
   23910    282.55857    6.3322367    55.604524   -150.25122   -3032.4724    14154.442 
   23920    280.12828     7.181324    63.691401   -149.90404    -407.5845    14154.442 
   23930    294.48282    7.0321872    62.170054   -149.44488    594.49018    14154.442 
   23940    307.29164      9.46885    57.773444   -149.16933    985.19015    14154.442 
   23950    322.70625    9.0560776    46.407816   -149.15677    213.63526    14154.442 
   23960    289.06381    10.641027    51.792246   -149.28033    -722.3042    14154.442 
   23970     295.5416    7.4040753    52.928356   -148.98647   -1290.4715    14154.442 
   23980    298.08211    4.2999282    54.491734   -148.38985   -458.70871    14154.442 
   23990    317.52337    3.7506092    46.555263   -147.70017    -1590.896    14154.442 
24000        0.98582601060950558747 10.119210116409313116 1 64 -283.92430943846113678
   24000    302.03005    6.1370165    62.665337   -147.07959    1233.4953    14154.442 
   24010    331.48097    6.3360027    47.921619   -146.85643    -2205.001    14154.442 
   24020    308.45248    7.6691235    54.376848   -147.25848   -614.86092    14154.442 
   24030    292.12135    10.545417    58.877106    -147.9135    103.69296    14154.442 
   24040    304.12524    10.974704    49.522849    -148.4505    1100.7703    14154.442 
   24050    277.78988    11.500658     60.62953   -148.94103    2282.6678    14154.442 
   24060    289.12683    11.918706    50.406122   -148.89501    1295.0073    14154.442 
   24070    279.69492    8.7905005    57.563928   -147.76924   -1137.2517    14154.442 
   24080    294.54091    6.2791156    53.551852   -145.12678   -2174.4755    14154.442 
   24090    307.03328    4.3621852    56.826068   -140.68743    -1348.525    14154.442 
24100        0.98362990537130845503 10.132522589996520779 1 69 -280.89190675452181267
   24100    321.30357    6.3359793    59.527462   -135.31468   -174.23657    14154.442 
   24110    328.60939    9.7466242    51.233124   -129.96207   -1728.5724    14154.442 
   24120    341.12113    8.6805418    54.958411   -125.59561   -1553.2897    14154.442 
   24130    312.75019    8.9291306    69.684119    -122.6584    1742.3712    14154.442 
   24140    337.83724    11.631969     55.77006   -120.96871    1810.8428    14154.442 
   24150    308.65186    13.153578    68.147454   -120.70099    25.717428    14154.442 
   24160    329.38405    11.400985    61.351886   -121.41831   -8.5829958    14154.442 
   24170    321.47679    10.079651    61.422401   -123.40552    137.10948    14154.442 
   24180    324.13189    9.3561998    61.706515   -126.56681    1608.7581    14154.442 
   24190    330.31444    9.8246211    50.989496   -130.60029    1393.5768    14154.442 
24200        0.98662950988323028234 10.102640536066704868 1 67 -271.45663697810886106
   24200     301.6347    7.5226856    55.254723   -134.79104    -85.25414    14154.442 
   24210    300.43063      5.56239    61.974917     -138.435    293.86287    14154.442 
   24220    296.87895    3.9361433      60.0259   -141.36262   -1117.9075    14154.442 
   24230    299.75011    4.5050472    48.199078   -143.66772   -1093.0003    14154.442 
   24240     292.5818    4.5438183    54.862295   -145.21766   -791.65251    14154.442 
   24250    296.61158    5.5820144    51.698857    -145.8702    -827.8026    14154.442 
   24260    303.43907    7.8182072    52.563019   -145.96768   -178.30079    14154.442 
   24270    285.79291    9.8463973    51.892265   -145.76117    1402.2894    14154.442 
   24280    282.11161    11.388657    55.671608   -145.05306    1237.0211    14154.442 
   24290    294.21305    12.868024    58.712001   -144.03499    2274.0355    14154.442 
24300        0.98881704261361613728 10.085671488725651557 1 70 -285.27617433913246714
   24300    313.71302    9.3303972     52.71387    -143.1381    453.04983    14154.442 
   24310    316.90142     4.895356    56.361607   -142.69307   -1327.2648    14154.442 
   24320    326.60223    3.4047651    54.466294   -142.82859    100.43606    14154.442 
   24330     308.0094    6.4021744    62.575947   -143.76545   -929.08178    14154.442 
   24340     300.0177    9.7754214    55.050432   -145.24381   -3558.9757    14154.442 
   24350    279.69807    11.224599    57.604722   -146.79505   -1383.7823    14154.442 
   24360    311.59958    12.670887    49.667468   -147.91808     643.5733    14154.442 
   24370    300.88615    13.675211    51.551365   -148.67978    2095.3173    14154.442 
   24380     288.2903    14.523689    57.777949   -149.03933    4412.9521    14154.442 
   24390    298.09482    10.581232     60.69374    -149.2688     2859.825    14154.442 
24400        0.98871373213093527443 10.085896103772714838 1 70 -288.89178088869158501
   24400    306.83081    9.7944518    55.830957   -149.87192    -456.4238    14154.442 
   24410    311.73083    7.2836658    48.155895   -150.57553   -2934.2093    14154.442 
   24420    322.82996    6.1461487    50.319497   -151.18182    -664.2759    14154.442 
   24430    315.72246    6.5313029     57.03856    -151.7868    496.21407    14154.442 
   24440    311.92387    8.3261951    63.289264    -152.6627   -782.06156    14154.442 
   24450    313.24371    13.102594    53.852141   -154.23002   -593.11383    14154.442 
   24460    298.31457    14.745813     56.72687   -155.98462    730.05578    14154.442 
   24470    307.81789    12.368143    50.578438   -157.66161    715.20379    14154.442 
   24480    289.99388    7.4495327    49.094181   -158.90396   -1076.3875    14154.442 
   24490    267.46279    4.5117432    58.024822   -159.54752   -2342.3117    14154.442 
24500        0.98018242562402180251 10.120795926181649804 1 68 -284.04239449950858898
   24500    275.24234    5.7131147    55.744219   -159.33473    662.84921    14154.442 
   24510    275.54398    6.5450756    56.777753   -158.17289    1010.8328    14154.442 
   24520    278.02389    9.2484321    51.330211   -156.18671    529.02119    14154.442 
   24530    274.44587    13.393882    56.057113   -153.14207    680.56167    14154.442 
   24540    291.60813    12.068162     52.79042   -149.23191    1232.6408    14154.442 
   24550    313.00793    7.9108456    50.539514   -145.01623    2105.0604    14154.442 
   24560    314.92522     6.300306    56.905825   -141.23862    1959.3153    14154.442 
   24570    336.55486    4.2746615    58.968367   -138.80828    -1517.578    14154.442 
   24580    311.67236      3.82913    62.358994   -137.94006   -3539.0638    14154.442 
   24590    311.71156    4.9922984    53.393471   -138.06232   -3817.9163    14154.442 
24600        0.97415641776497163828 10.153811470214325396 1 70 -274.00239076717724629
   24600    299.21841    8.4488619    57.411757   -138.43158    1034.9438    14154.442 
   24610    297.57017    8.7815758    55.011624   -138.80678     1133.975    14154.442 
   24620    292.10797    6.0705212     57.20973   -139.07382   -1590.1752    14154.442 
   24630    304.25679     3.187676    50.627086   -139.08207    959.77132    14154.442 
   24640    293.69729    2.3694106    55.485996    -138.9675    1744.6582    14154.442 
   24650    301.32591    3.4714737    50.116574   -138.60714    1396.3296    14154.442 
   24660    297.64279    3.1966642     55.48935   -137.88403   -1665.6863    14154.442 
   24670    314.81204    2.8449422    51.708099   -136.90337    1011.7935    14154.442 
   24680    297.41888    3.2686024    55.012246   -136.01361   -40.209896    14154.442 
   24690    303.43712    4.8145715    51.263861   -135.05332   -2461.7626    14154.442 
24700        0.96787002469144900463 10.17717019381127308 0.99735449735449732689 66 -269.58721163668110421
   24700    299.53374    5.2032127    61.798402   -133.87353   -1576.6789    14154.442 
   24710    324.30232    4.6477532    53.645902   -132.69032   -421.58681    14154.442 
   24720    309.61684    5.0047678    63.555111   -132.12156    607.92526    14154.442 
   24730     326.7603    5.2805939    54.460925   -132.22752    1034.9328    14154.442 
   24740    310.53078    5.1373781    54.571151   -133.16716    960.49676    14154.442 
   24750     314.9177    5.3696848    50.590332    -134.8972    2005.0649    14154.442 
   24760    282.37325    7.8582025    56.503062   -137.42578    -2647.567    14154.442 
   24770    279.65032    6.6453102    55.527912   -140.19672   -2111.5557    14154.442 
   24780    269.17336    7.3543928    62.049623   -143.03871   -411.13104    14154.442 
   24790    290.21975    6.0194568    55.761766   -145.69406    173.05148    14154.442 
24800        0.96231186571971272237 10.167139121588881778 0.99206349206349198067 67 -276.67669392452762622
   24800    283.76222    7.1954947    54.102184   -148.10882    3240.1041    14154.442 
   24810    298.64416    6.7423075    48.237402   -150.02784    3035.7973    14154.442 
   24820    293.86581    5.5487502     54.03593   -151.73493    1458.9562    14154.442 
   24830    294.17848    5.8927194    55.290466   -153.31178   -489.64564    14154.442 
   24840    306.95921    7.7431699    46.120832   -154.66377   -2502.7372    14154.442 
   24850    291.20079    6.0612621    61.779781   -156.09004    569.55355    14154.442 
   24860    294.45558    4.9107128    59.898329   -157.68719    -1943.576    14154.442 
   24870    292.62784    5.1326691    52.728424   -159.34374   -2071.3949    14154.442 
   24880     312.4633    5.3285236    42.934595   -160.81627    596.51218    14154.442 
   24890    297.11176    7.0536726    51.143758   -162.19577    4499.0366    14154.442 
24900        0.9676653759581342884 10.150190694936691571 0.99470899470899465378 68 -293.28032857949563095
   24900      286.049    8.4728875    51.047234   -163.67635    1288.5624    14154.442 
   24910    289.04382    6.9661727    49.999438    -165.2086   -1183.1601    14154.442 
   24920     269.1092    4.4701776    58.970077   -166.51075   -335.66293    14154.442 
   24930    275.61862    2.6276832     48.14717   -167.26829    628.86732    14154.442 
   24940    238.60819    2.3672468    59.307178   -167.08717    -3006.696    14154.442 
   24950    274.35874    2.5733584    46.247257   -165.25844   -297.03561    14154.442 
   24960    270.61804    4.3348131    57.532958   -161.45299   -2355.0007    14154.442 
   24970     297.4724    6.3670151    51.223963   -156.05723    1396.7738    14154.442 
   24980    272.97162    7.4077581    56.954247   -150.58605    1407.7923    14154.442 
   24990    280.67741    8.8668245    57.652877   -145.22343    1831.3899    14154.442 
25000        0.96366043707220216952 10.182972034136721362 0.98677248677248674547 66 -268.13778284188572343
   25000    280.82082    8.6242959    61.610946   -140.90261    1242.6712    14154.442 
   25010    309.09207    7.9392228    54.333281   -137.24034   -932.71469    14154.442 
   25020     317.4189    4.7463329    60.132251    -134.6877   -1511.2468    14154.442 
   25030    318.82238    5.1067803    56.400331   -133.43225   -2840.0091    14154.442 
   25040     311.4767    8.9125154    56.838757   -133.38613   -3148.9009    14154.442 
   25050     285.6707    9.3901147     60.44624   -133.58666   -928.13575    14154.442 
   25060    312.00479    4.8816506    47.593041   -133.52255    258.14333    14154.442 
   25070    304.06832    4.4690296    59.738805   -133.54603    3257.0183    14154.442 
   25080    302.21398    5.7613632    53.093315   -133.58853    2047.1275    14154.442 
   25090    315.74502    6.5999448    54.336659   -133.58014    2106.6671    14154.442 
25100        0.96006184114058168433 10.184936309554670331 0.99735449735449732689 68 -277.27604589791684475
   25100    316.81526    6.0024564     54.42736    -133.7324    391.16266    14154.442 
   25110    336.22882    5.3594866    44.466922   -134.47852   -1928.0609    14154.442 
   25120    296.23791    6.6068243    63.242677   -135.91268   -848.99855    14154.442 
   25130    320.40553    8.2924457    47.614592   -138.01074   -651.18116    14154.442 
   25140    298.78931    8.2998993    59.703272   -141.00856      1752.83    14154.442 
   25150    302.91449    7.0099161    49.077865   -145.07008    1084.7069    14154.442 
   25160    262.62242    4.8686086    57.398611   -148.93113   -2182.5615    14154.442 
   25170    286.18479    3.9274259    49.957853   -152.11995    1763.6057    14154.442 
   25180    296.90299    3.2845587    54.927938     -155.137    684.29074    14154.442 
   25190     309.4206    5.7637674     50.14209   -158.35868    311.33822    14154.442 
25200        0.96672288681098550445 10.211415738483236026 1 68 -290.914225648597494
   25200     285.1736    7.9997676    48.472113   -161.70688   -3743.2004    14154.442 
   25210    290.98577     9.741852    48.252427   -164.43644   -1214.6749    14154.442 
   25220    295.98168     9.408902    53.906074   -166.80115    2364.5089    14154.442 
   25230    279.45595    9.1856648     50.44557   -168.66374     1080.069    14154.442 
   25240    257.54551    9.2049898    48.461549   -169.72403   -935.16735    14154.442 
   25250    275.51735     5.189254    50.428368   -169.58348   -1582.4288    14154.442 
   25260    267.24524    4.0340352     57.89046   -168.46819    2014.9643    14154.442 
   25270    283.42084    5.1732674    49.794308   -166.81737    1589.2091    14154.442 
   25280    262.36116    5.8107105    52.449026   -164.56168   -1953.2933    14154.442 
   25290    291.27265    4.9400285    39.448528   -161.73676   -3168.0908    14154.442 
25300        0.96413354694256125921 10.216534040491710655 1 71 -280.11231922786646464
   25300    268.48775    5.5494119    48.610061   -158.46505   -2134.6831    14154.442 
   25310     294.2161    5.2542365     44.37251   -155.10066    3287.7164    14154.442 
   25320    286.18349    5.5822868    54.138316   -152.21268    2088.2804    14154.442 
   25330    307.41459    7.0354152    48.661839   -150.31519    533.54252    14154.442 
   25340    294.22386    8.3517394    55.671525   -149.17483   -1380.7224    14154.442 
   25350     317.5161    10.135654    50.795847   -148.48003    1374.1983    14154.442 
   25360    304.81159    6.4873694    50.743301   -148.18634    886.73951    14154.442 
   25370    298.88213    4.9178163    48.302449   -147.97494    530.58303    14154.442 
   25380    306.57666    4.3576158    53.195219   -147.66677   -1062.4773    14154.442 
   25390    310.21867      5.38877    52.895643   -147.47367   -2178.9273    14154.442 
25400        0.96198869094655881096 10.204942118237989135 1 67 -286.99423413919771519
   25400    307.53133    5.4763366    57.515743   -147.65698   -1025.9142    14154.442 
   25410     301.4607    6.2027709     57.45474   -148.17057    701.24579    14154.442 
   25420     286.9834    7.5645646    55.420754   -149.03043    1252.3998    14154.442 
   25430    301.24025    9.6628616    52.355468   -150.20276   -103.96048    14154.442 
   25440    283.92852    11.875025    55.429086    -151.3343    162.96182    14154.442 
   25450    300.57602     10.29548    46.552852   -151.99122    1433.2223    14154.442 
   25460    290.74158    10.331769    56.015178   -152.44778    514.52048    14154.442 
   25470    292.37758    10.502639    52.454928   -152.82237    -1260.307    14154.442 
   25480    280.78689    9.4324575    51.454702   -153.16344   -2379.1051    14154.442 
   25490    285.01254    9.4118089    55.104848   -153.01417    734.32177    14154.442 
25500        0.96296486650281054587 10.221551796260095912 1 66 -299.49689489197209014
   25500    324.67298     5.683031    49.389499   -152.39305    58.502978    14154.442 
   25510    288.91031    6.8577167    57.677641    -152.0177    480.22374    14154.442 
   25520    298.53457    7.9533089    50.468624   -151.62536    758.20822    14154.442 
   25530    269.56245    9.8506888    59.938722   -151.06482     1259.548    14154.442 
   25540    308.55928    10.461055    48.258527    -149.7716    1488.1743    14154.442 
   25550    297.39778    8.9041464    50.633633   -147.88246   -1272.0679    14154.442 
   25560     298.7368    6.6108289    50.484188    -145.4244   -1752.5926    14154.442 
   25570    305.58313    7.7238877    60.525165   -142.23892    -1750.377    14154.442 
   25580    329.03547    8.3175459     52.11674   -139.15666   -1586.8842    14154.442 
   25590    314.54269    7.6531767    57.697206   -136.86624    305.36596    14154.442 
25600        0.95671938350745322488 10.233053822709180736 0.99735449735449732689 68 -280.33470814522871706
   25600    320.53813    8.3703732    47.624393   -135.10429    3423.0867    14154.442 
   25610    303.71087    9.7318623    59.039524   -133.21367    2323.2679    14154.442 
   25620    304.92051    9.4587332     60.09387   -131.28785   -413.57163    14154.442 
   25630    291.62376    8.4501485    62.360788   -129.65586   -2069.0936    14154.442 
   25640     312.2352    5.7828545    56.634615   -128.10188   -105.82493    14154.442 
   25650    341.37859    5.3258123    55.067801   -126.82867   -680.20119    14154.442 
   25660    332.75249    7.5919813    57.669023   -126.32066    1154.9596    14154.442 
   25670    337.37289    11.098938    54.363889    -126.8429    2492.3958    14154.442 
   25680    310.96288    8.8952426     60.44245   -128.97353    875.34597    14154.442 
   25690    303.64685     9.314406    57.524825    -132.6683   -1429.9614    14154.442 
25700        0.95755518664613792357 10.247776451325314895 1 68 -270.93325479577163151
   25700    294.62824      8.80343    56.793063   -137.44217   -1408.8299    14154.442 
   25710    303.34447    7.2760183    51.994082    -142.3541   -720.59884    14154.442 
   25720    280.21981    8.7735735    51.307399   -146.73912   -1893.3498    14154.442 
   25730    292.11129    9.8701439    51.152728   -149.71548   -1623.5978    14154.442 
   25740    285.59051     7.400418    60.912245   -152.10242    1473.2659    14154.442 
   25750    303.37888    7.8368943    54.797906   -154.29182   -1110.0837    14154.442 
   25760    298.42206    5.7106009     54.59099   -156.53936    -813.0676    14154.442 
   25770    302.14761    6.5678291    49.416473    -158.6721    418.43994    14154.442 
   25780    280.67492    8.5071054    51.195684   -160.17711    1846.2567    14154.442 
   25790     292.0926    8.9780534    44.910662   -160.78173   -1160.4391    14154.442 
25800        0.97258483643875470737 10.184654092650951895 1 68 -291.65356518705488043
   25800     288.8749    7.1268452     52.22867   -160.76922   -875.24479    14154.442 
   25810    299.53526    4.0100748    51.469282   -160.48368   -1118.5125    14154.442 
   25820    279.88634    2.2116127     54.89945   -160.22997    434.94881    14154.442 
   25830    300.22663    3.6070619    51.782406   -159.74647    650.24041    14154.442 
   25840    298.17152    4.6965515    51.513773   -158.97021     306.6837    14154.442 
   25850    303.42358    6.7690628    47.818418   -157.86565   -1801.5059    14154.442 
   25860    283.45172    8.7701013    51.769516   -156.05676   -475.14953    14154.442 
   25870    293.28844     9.544032    55.939524   -152.99249    1598.8045    14154.442 
   25880    319.08687    9.5675054    53.923625   -147.81056    2981.9341    14154.442 
   25890    323.37656    10.799766    51.091981   -141.12493    -2268.356    14154.442 
25900        0.98490682434586440674 10.13630531280319147 1 66 -281.49540423764199204
   25900     324.4283    11.226775    56.471484   -134.50241    58.973753    14154.442 
   25910    328.61369    10.057808    55.416495   -128.88205   -1580.3368    14154.442 
   25920    311.51408    8.6254954     64.17707   -124.85626    2253.5863    14154.442 
   25930    350.86861    8.8238881    59.970999   -122.15068   -1372.9708    14154.442 
   25940    319.53242    8.3733853    67.705587   -121.94806   -99.681337    14154.442 
   25950    343.73291     5.207241    67.310737   -123.62715    2231.0181    14154.442 
   25960    325.13336    5.2483323    65.475669   -126.68352    2278.0008    14154.442 
   25970    331.74175    6.6468252    60.762201   -130.18697   -1205.6146    14154.442 
   25980    308.55565    8.5866807    60.909771   -133.97687   -3670.7461    14154.442 
   25990    299.21519    8.6473955    64.764313   -137.46069   -2267.0265    14154.442 
26000        0.98381331682718631271 10.101295136952844089 0.99735449735449732689 66 -271.35853078794445992
   26000    289.06648    7.0817818    60.342181   -140.38739    991.51209    14154.442 
   26010     277.5396    6.7739184    65.278169   -142.56612    2277.9695    14154.442 
   26020     307.7486    9.5001031    57.426246    -144.2566    1548.7403    14154.442 
   26030    295.83195    10.855222    58.296825   -145.86338    517.22071    14154.442 
   26040    287.07803    10.361728    60.464009   -147.10686    1734.9317    14154.442 
   26050    266.59857    9.3358584     63.70688   -147.73943    1675.8252    14154.442 
   26060    290.71339    8.2398195    57.483012   -147.66733    825.01943    14154.442 
   26070    311.67192    5.9704759    52.696084    -147.4715   -3190.4688    14154.442 
   26080    286.37846    5.9228638    56.237215   -147.79094   -3594.0746    14154.442 
   26090    310.33318    4.6499545     57.31564   -148.17077    1005.1381    14154.442 
26100        0.9851779211389154467 10.093026739860988528 1 67 -294.08111121074307448
   26100    320.42035    6.5539754     57.54636   -148.90406    2953.6962    14154.442 
   26110    335.24423    6.5504412    49.274143   -150.35993    2393.6495    14154.442 
   26120    303.60314    8.4910024    53.728537    -152.9184   -261.69542    14154.442 
   26130    291.84444    8.3608265    55.026461   -156.09124   -2410.6606    14154.442 
   26140    284.52899    10.637411    52.933474   -159.76931   -2038.9109    14154.442 
   26150    262.30504    10.919339    51.617988   -163.13136    548.46078    14154.442 
   26160    272.83068    8.6921556     52.04331   -165.57805     367.8295    14154.442 
   26170    292.56794    10.520517    47.834042   -167.43483   -1620.6326    14154.442 
   26180    278.82174    12.298072    52.701373    -169.0871   -1358.4589    14154.442 
   26190    279.55904    12.473342    51.901673    -170.2933    4758.3531    14154.442 
26200        0.982219209791125758 10.102057390562272587 1 69 -297.78103312917278345
   26200    279.76215    10.225937    50.431243   -171.02552    3012.2311    14154.442 
   26210    266.41403     7.723831    56.384674   -170.92699   -1934.8477    14154.442 
   26220    281.17863    4.8815691    53.107261   -169.48737   -4378.4163    14154.442 
   26230    302.80276    3.4027674    48.188117   -166.77494   -872.73416    14154.442 
   26240    274.98271    2.8874709    66.011528   -163.13696    3108.7032    14154.442 
   26250    277.13945    5.1863847    53.232679    -158.7801     862.3408    14154.442 
   26260     280.7256    8.2631109    55.304872   -153.34075   -184.23446    14154.442 
   26270    312.78526    7.9787242    53.536853   -147.98533   -381.99966    14154.442 
   26280    327.17125    6.7239737    53.647297   -143.59776    1287.1885    14154.442 
   26290    317.08875    7.6002316    59.225304   -140.59998    1601.7898    14154.442 
26300        0.9769122065100220853 10.101915502816247283 1 66 -281.09653116725974087
   26300    314.59963    9.3185406    56.055218   -138.55674    415.51843    14154.442 
   26310     314.2243     7.663754    60.167088   -137.30529   -955.81047    14154.442 
   26320    319.13507    3.6394563    57.306531   -136.64881   -947.53303    14154.442 
   26330    326.27649    4.0779807    59.287634   -136.61151    1424.1836    14154.442 
   26340    336.56292    5.6159542    54.521178   -137.27365   -2625.2723    14154.442 
   26350    303.28578    6.9066533    59.255998   -138.93403    -4720.539    14154.442 
   26360    295.56971    7.7021881    61.227914   -141.11461   -669.78096    14154.442 
   26370    278.81446    11.912022     61.80575   -143.35216    2632.5245    14154.442 
   26380    280.78126     10.26252    63.288075   -145.00193     2640.309    14154.442 
   26390    292.51127    9.2952709    53.075176   -146.08445    270.18721    14154.442 
26400        0.97661170005208197686 10.095172587952754739 1 72 -279.87682549096109597
   26400    293.38395    7.7353864    60.867476   -146.94951   -1443.8293    14154.442 
   26410    310.78319    10.842024    60.003523   -147.69219    542.64316    14154.442 
   26420    316.94736    12.503331    50.184633   -149.11695    228.24947    14154.442 
   26430    298.76016    12.592887    57.816126   -151.12009    3249.6798    14154.442 
   26440    298.29649    9.1903897    53.912302   -153.50594   -70.448091    14154.442 
   26450    301.71419    5.9593273    52.892957   -156.18629   -1752.8259    14154.442 
   26460    313.90776    5.1552173    52.949743   -159.99263   -2392.5509    14154.442 
   26470    295.43385    5.2255802    52.047714   -164.84965   -2006.5672    14154.442 
   26480    274.33062    4.9940911    56.028205   -169.51377    1856.6174    14154.442 
   26490    258.69504    4.6548397     57.77747   -172.98272    3596.2674    14154.442 
26500        0.97533789545336857518 10.080456307760073287 1 66 -301.81404404897227778
   26500    279.66354    5.4479281    48.924199   -175.10321    2380.9729    14154.442 
   26510    272.31128    6.1108138    49.993815   -176.19396   -3615.1032    14154.442 
   26520    262.85169    6.2439051    52.988246   -176.13377   -2205.7081    14154.442 
   26530    283.25449    6.7680296     48.18248   -174.82369    990.08882    14154.442 
   26540    258.81431     7.969136     60.28643   -172.59948    662.71003    14154.442 
   26550    264.42076    10.767109    50.947003   -169.49335    1599.4226    14154.442 
   26560      277.434    10.819515    54.206798   -165.16832    1312.8314    14154.442 
   26570    292.09722    8.3093922    58.283623   -160.65137     2951.661    14154.442 
   26580    303.72255    6.1815982    57.285324   -156.78017    -2773.528    14154.442 
   26590    309.23128    4.7334943    58.362515   -154.27305   -4138.8093    14154.442 
26600        0.9833877841776811346 10.105503679169249409 1 66 -286.34455580523570006
   26600    293.92407    5.7934674    63.569233   -153.17252   -594.30334    14154.442 
   26610    279.55071    7.6552338    60.683621   -152.83246    2396.1442    14154.442 
   26620    298.20216    8.7386174    57.038962   -152.56716    1161.8526    14154.442 
   26630     299.9806    7.9888296    62.970823   -152.40239   -1597.0574    14154.442 
   26640    303.85264    8.4995817    56.716238   -152.47366   -2726.7663    14154.442 
   26650    298.35127    9.8442597    58.714447   -152.67471    371.17105    14154.442 
   26660    303.03772    9.5299045    63.388265   -153.15612    1487.7677    14154.442 
   26670    312.21615    10.811255    55.683388    -154.0889    1302.2024    14154.442 
   26680    303.60337    13.657398    51.824756   -155.80538   -2410.3025    14154.442 
   26690    306.12924     12.73257    52.606727   -157.75645   -1635.5352    14154.442 
26700        0.98937056603665651799 10.085155583515287958 1 65 -291.92617514305334225
   26700    291.90115    10.589393    54.299099   -159.67069    3157.8749    14154.442 
   26710    303.51724    9.4001341    50.756481   -161.44899    1585.6993    14154.442 
   26720    289.53187    7.7598804    58.751416   -163.31857    588.14135    14154.442 
   26730    313.03394    6.1067062    46.232541   -165.20511   -3215.7476    14154.442 
   26740    297.10803    5.5066002    56.028766   -167.77399   -1069.5691    14154.442 
   26750    282.13858    4.2656709    55.935531   -170.55018   -533.10599    14154.442 
   26760     268.7685    2.9213521    55.165417   -173.48798   -1958.3902    14154.442 
   26770    262.30919    4.0326137    55.256824   -175.93695   -256.32964    14154.442 
   26780    274.42393    4.7332808    52.632019   -178.04562    1430.0436    14154.442 
   26790    267.99408    4.7325986    55.499763   -179.75293    2316.4689    14154.442 
26800        0.98883655644410139995 10.095876468725158759 1 66 -309.25454906606540817
   26800    281.95449     5.149397    53.378438   -181.50573   -1303.1147    14154.442 
   26810    259.21472     8.804953     55.38042   -183.33387   -1307.6581    14154.442 
   26820      282.195    8.0613463     51.11886   -185.00046    1423.8192    14154.442 
   26830    248.68585    8.3550542    58.717992   -186.26722      2640.76    14154.442 
   26840    264.51312    7.2189502    54.801491    -186.5048    108.14324    14154.442 
   26850    261.16175    7.1245424    47.727548   -185.40139   -1508.4514    14154.442 
   26860    260.36915    6.7100342    54.230438   -182.77455   -1899.2775    14154.442 
   26870    250.57256    7.8678983    58.487313   -178.50089    543.15511    14154.442 
   26880    291.17958    11.168231     49.51643   -172.68163    363.55605    14154.442 
   26890    291.18588    11.777581    56.632661   -167.12938    2161.7168    14154.442 
26900        0.98454559344802117238 10.107753126347452266 0.99470899470899465378 65 -308.86656264382281734
   26900    322.95342    9.6367426    53.177639   -162.54182     1340.545    14154.442 
   26910    298.40664    7.6281924    55.890252   -159.26145   -1907.4452    14154.442 
   26920     335.7519    5.0656318    48.997841   -156.77497    19.730541    14154.442 
   26930    319.87707     4.735356    54.023885   -155.30717   -1390.7148    14154.442 
   26940    309.99239    4.9004899    54.954502    -154.5483   -1337.4334    14154.442 
   26950    320.56294    7.1380364    52.104707   -154.01068    17.104592    14154.442 
   26960    336.06259    11.381002    50.468259   -153.92478    2946.7416    14154.442 
   26970     301.1548    11.760667    62.340341   -154.56252    2985.8052    14154.442 
   26980    308.05926    9.1531085    50.997598   -155.51396    540.49089    14154.442 
   26990    292.65672    7.0648131    56.085576    -156.3409   -839.36636    14154.442 
27000        0.97378115504196849361 10.163554098567258777 0.99735449735449732689 70 -289.56756010403535129
   27000    293.04279    6.5380945    57.911173   -156.79482   -1497.3079    14154.442 
   27010    283.75048    5.1161149    55.987858   -156.96863   -4096.1113    14154.442 
   27020    289.91049    4.7040969    55.945697   -156.81083   -1750.8807    14154.442 
   27030    302.76486    4.2927616    52.811162   -156.21866    293.78166    14154.442 
   27040    274.53523    5.8451637    55.778867   -155.22699    1451.3981    14154.442 
   27050    291.01735    5.1529137    57.085808   -153.37214     3326.006    14154.442 
   27060    286.85469    5.4902519    58.330602    -150.2925    1594.8885    14154.442 
   27070    317.75679    5.9823768    53.746743    -146.1153    1362.8152    14154.442 
   27080    302.18321    7.4658224    60.742765   -141.55119    -2731.587    14154.442 
   27090    306.43779    8.2365406    58.751288   -137.19967   -3361.1604    14154.442 
27100        0.96800445638371013235 10.195718570498428335 0.99735449735449732689 67 -286.71959796694881106
   27100    339.57171    7.2869033    55.752646   -132.86538     915.4719    14154.442 
   27110    321.27799    7.8183502    60.654071   -129.92095    540.06708    14154.442 
   27120     315.0553    10.524353    61.672417   -128.19176    700.49355    14154.442 
   27130    338.10737     8.931203    62.142075   -127.27772    922.67996    14154.442 
   27140    364.94165    7.8342481    55.171583   -127.75073    37.343983    14154.442 
   27150    336.64169    7.2642592    58.618543   -130.25599   -1420.9519    14154.442 
   27160    319.83165    8.9709022    58.574676   -133.87819   -2112.0154    14154.442 
   27170    331.67756    8.8241615    54.635781   -138.11364    422.20152    14154.442 
   27180    319.07258    7.6066961    57.883979   -142.70416    1898.2538    14154.442 
   27190    301.86935    7.7024089    58.181352   -146.81942    2267.2098    14154.442 
27200        0.96349394376469132961 10.190724675958783507 1 65 -279.01004801121752052
   27200    286.11789    8.3704011    59.616644   -149.37486    987.03036    14154.442 
   27210    290.83869     8.809663     55.74931   -150.69185    730.21933    14154.442 
   27220    302.74893    7.4531449    58.136545   -151.27421    -1940.237    14154.442 
   27230    297.71128    5.4655693    56.665435   -151.81415   -2218.3518    14154.442 
   27240    292.94566    3.8094849     60.49167   -152.31774   -912.20267    14154.442 
   27250    301.74552    3.6456805    53.660366   -152.72446      3330.33    14154.442 
   27260    299.05222    3.3499982    50.608046   -152.98645   -350.84342    14154.442 
   27270    297.48999    4.1611692    51.801047   -153.03701    -586.3596    14154.442 
   27280    278.60232    2.9312168     54.53293   -152.86956    771.13348    14154.442 
   27290    293.62405    3.5235334    55.417316   -151.98084    1810.8979    14154.442 
27300        0.96211429156048267064 10.219110939377772596 1 70 -288.82364484596678267
   27300    304.76464    3.8460614    53.435633   -150.73993   -1923.1222    14154.442 
   27310    314.07565    3.3244298    52.092284    -149.6298   -3159.1912    14154.442 
   27320    317.10408    3.6859057    57.641107   -148.70134    1557.6581    14154.442 
   27330    306.28491    6.3117879    59.833586   -148.42438    819.53629    14154.442 
   27340    296.69944    8.1472509    50.955891    -148.3953     480.4602    14154.442 
   27350    318.50278    8.6082867    51.668915   -148.37566   -2218.7575    14154.442 
   27360    315.57863    7.4076699    54.453199   -148.87743   -2373.7859    14154.442 
   27370    321.23184    6.2487288    50.927495   -150.39395   -1247.8881    14154.442 
   27380    294.99127    7.2257121    58.580449   -152.97025    3018.8127    14154.442 
   27390    313.59119    6.6687674    51.675744   -156.44186    1991.6085    14154.442 
27400        0.96830274523049131297 10.189349383190547726 1 67 -293.08714722715512835
   27400    292.07492    6.7953159     50.64123   -160.75293    -571.9663    14154.442 
   27410    257.42083    5.7838987    62.629785   -164.71597    579.44194    14154.442 
   27420    282.59373    5.5230138    46.301271   -167.45836    2591.8381    14154.442 
   27430    259.07103    6.4776103    52.749745   -169.21746   -1016.2619    14154.442 
   27440    297.08698    5.9727573    48.619321   -169.93557    265.01863    14154.442 
   27450    290.45526    5.3966065    51.700528   -170.34905   -1555.7621    14154.442 
   27460    291.18271    5.1626773    49.340789   -170.79517    990.49253    14154.442 
   27470     294.2814    6.0994939     48.94966   -170.95768   -1281.6338    14154.442 
   27480     276.1614    7.8623001    48.467242   -170.71889   -729.49893    14154.442 
   27490    265.83001    8.2069491    52.018116   -169.72143    114.40198    14154.442 
27500        0.96321983505718489216 10.21382659194177478 0.99735449735449732689 67 -285.09686181726806353
   27500    259.78125    7.8225836    53.924774   -167.39436    96.639596    14154.442 
   27510    271.04124     7.013387    52.186283   -163.27483   -1175.0288    14154.442 
   27520     268.0663    6.9942482    53.508759   -157.30432    498.65504    14154.442 
   27530    287.92168    6.2775664    61.743578     -150.723   -440.02974    14154.442 
   27540    314.57784    6.1936068    52.199967   -145.37621    2846.7962    14154.442 
   27550    281.02433    8.6287178    55.305988   -142.24201    973.86539    14154.442 
   27560    295.64753    11.065872    56.786455   -140.05071     2117.235    14154.442 
   27570      308.803    10.372096    57.057374   -137.98197   -2616.6317    14154.442 
   27580    332.28112    6.9904667    49.153012   -136.31372   -4107.2295    14154.442 
   27590    312.38715    5.2599662    58.469389   -135.35385   -2029.1477    14154.442 
27600        0.96326435838208779305 10.202785920123078611 0.99735449735449732689 65 -278.24677576083058739
   27600    315.66457    6.4734774    58.273578   -135.22448     1000.472    14154.442 
   27610     313.2576    7.3568373    51.013946   -135.74739    958.05473    14154.442 
   27620    318.63247      8.60766    50.324649   -136.68675    2387.3217    14154.442 
   27630    303.22058    9.1103056    57.936823   -137.80214    698.11233    14154.442 
   27640    308.94819    7.5654478    52.381226   -139.25067      1380.57    14154.442 
   27650    312.31659    6.9467687    60.077415   -141.46678   -3668.3305    14154.442 
   27660    309.14713    6.3336039    56.183947   -144.52076   -383.72048    14154.442 
   27670    291.40681    8.5128928    57.676207   -148.03087   -2929.1262    14154.442 
   27680    293.06693      9.07413    51.287825   -151.64416    860.88415    14154.442 
   27690    280.54076    9.1714289    55.311413    -154.7276    -1418.073    14154.442 
27700        0.96837546853901379507 10.182135938608626091 0.99735449735449732689 67 -288.8575013417511741
   27700    290.46004    7.9944544     48.77117   -157.25496    916.32237    14154.442 
   27710    283.64399    6.0208464    52.983523   -159.39333    3861.7483    14154.442 
   27720    289.97102      6.41136    52.101526   -160.97811    2310.6033    14154.442 
   27730    307.94977    7.5163452    40.492399   -162.16225   -1391.8401    14154.442 
   27740    297.71962    7.1256556    48.298547   -163.11825   -3160.6888    14154.442 
   27750    294.60819    8.5251002    45.534353   -163.91593   -3043.9624    14154.442 
   27760    265.56358    8.8564553    52.602897   -164.33584    436.90554    14154.442 
   27770    287.45381    9.7602679    45.491645   -163.74777    1490.2898    14154.442 
   27780    310.42603    8.0657401    49.234138   -161.96728    3043.8663    14154.442 
   27790    299.76987    6.5609874     47.68587   -159.05062    1962.4158    14154.442 
27800        0.96894779028173849689 10.185797865822815211 1 68 -277.04057848586245427
   27800    270.38319    7.0339779    57.888463   -154.53452   -1887.1244    14154.442 
   27810    285.02402    6.3665075    51.285707   -147.58632   -2654.6362    14154.442 
   27820    317.21609    5.5871294    49.637108   -140.03178   -2546.8014    14154.442 
   27830    336.97046    5.9581646    49.189941   -134.25601    1835.0397    14154.442 
   27840    346.20732    7.5944258    49.256698   -130.93095    1046.5942    14154.442 
   27850    348.98938    8.9824165    46.895608    -129.6623    633.40086    14154.442 
   27860    321.38152    10.521278    55.257325   -129.93764    1423.5404    14154.442 
   27870    318.54968    14.057595    44.871396   -130.93044    459.06972    14154.442 
   27880    316.30623    14.694474    47.966564   -132.18935    583.46088    14154.442 
   27890    322.96925    11.132241    50.618493   -133.70037    209.74919    14154.442 
27900        0.9710604135950116067 10.184150123873330074 1 64 -284.02510920560274599
   27900    328.28766    6.6833526    45.850579   -135.28351   -1095.8938    14154.442 
   27910    340.01005    3.9411868    45.789348   -137.80594   -3445.8171    14154.442 
   27920    321.30063    4.8811149    50.185262   -141.49613    -1011.139    14154.442 
   27930    294.81319    5.5362551    51.430574    -145.8075    265.24756    14154.442 
   27940    276.90855    7.3385128    50.561667   -149.31331    1165.5597    14154.442 
   27950    265.95787    9.5208719    49.795244   -151.65405    27.944838    14154.442 
   27960    279.91214    8.7579931    53.789836   -152.94243    3752.8404    14154.442 
   27970    288.70438    4.3958631    52.130162    -153.6842   -419.57882    14154.442 
   27980    301.35722    2.7635677    47.394282   -153.98541   -1080.2212    14154.442 
   27990    287.83126    3.4758696    52.394546   -154.00997    731.92867    14154.442 
28000        0.96891021841064273179 10.170570868121920682 1 65 -291.70932688812399647
   28000    303.95539    4.7435602     46.48707   -153.99227    1920.7323    14513.881 
   28010    282.60819    4.3972696    55.175098   -153.81878    1982.3501    14513.881 
   28020    305.36567    4.0691614    49.929713   -153.43518   -1082.2774    14513.881 
   28030    303.79051    6.1909522    51.909101    -153.2735   -2082.1564    14513.881 
   28040    304.29529    8.7614362     48.52288   -153.41404   -696.61043    14513.881 
   28050    273.79151    8.6918476    53.986379    -153.6522   -318.56842    14513.881 
   28060     282.5143    7.5610299    51.342502   -153.19064    2300.6378    14513.881 
   28070    286.20868      7.36853    48.866366   -151.58494   -950.05597    14513.881 
   28080    304.70685    6.8077284    48.991026   -148.75712    815.16113    14513.881 
   28090    284.36854    5.6358536    56.560469    -144.8441   -1963.2142    14513.881 
28100        0.9658673137513069662 10.201638679754957195 1 65 -278.68369554136842225
   28100    304.85226    4.3247958     47.26025   -140.56028   -965.83135    14513.881 
   28110    315.30505    3.9111606    51.199385   -136.05698   -93.272682    14513.881 
   28120    325.51651    5.7587947    50.531158   -132.08726    185.91019    14513.881 
   28130    334.19513    9.1571946    52.928029   -128.89904    426.43017    14513.881 
   28140     349.8824    8.2792162    53.295373   -127.26551    3316.0525    14513.881 
   28150    342.09977    5.2322583    54.218079   -127.52343    47.226037    14513.881 
   28160    316.64978    4.5574763    56.767415   -129.19178    1147.8219    14513.881 
   28170    312.14885    5.6020326    62.568683   -131.79257   -1741.5732    14513.881 
   28180    318.05016    5.5580543    58.006401   -135.04918   -1057.2988    14513.881 
   28190    320.12717    4.9022061    51.135341   -138.92978     -2933.08    14513.881 
28200        0.96709904594607742911 10.20757838328588285 1 64 -277.99805057994149138
   28200    297.74543    5.2740911    53.670982   -143.09462   -150.60529    14513.881 
   28210    298.16887    5.7908667    55.343579   -146.82365    232.92938    14513.881 
   28220    306.06247    7.1209285    52.047917   -150.14399    595.87244    14513.881 
   28230    279.47071    7.9431547    52.864089   -152.81041   -691.07108    14513.881 
   28240    268.98802     7.189097    49.715525   -154.26496    1129.8214    14513.881 
   28250    274.23663    3.2964437    49.612591   -154.47705    1226.8712    14513.881 
   28260    289.32077    4.2398439    49.903385   -153.73432   -1920.7616    14513.881 
   28270    318.46954    5.3563467    51.380656   -152.72189   -1432.4199    14513.881 
   28280    312.88966    6.1475323    55.405361   -152.31136   -2886.2176    14513.881 
   28290    303.67827    8.0246443    50.528361   -152.38615    955.43418    14513.881 
28300        0.98250806269373203161 10.139215151029373985 1 67 -287.95644823788177291
   28300    298.83516    6.7149851    56.337528   -152.55928   -577.08048    14513.881 
   28310    312.88627    6.5016908    46.266352   -152.74201    1815.4291    14513.881 
   28320    326.26342    6.2065494    54.992546    -153.5064    207.49919    14513.881 
   28330    295.72785    8.7933853    58.107563   -155.18063    1871.5487    14513.881 
   28340    295.64515    10.996275    52.322899   -157.14994   -1172.0094    14513.881 
   28350     290.7941    12.226787     47.01379    -159.0913    3114.3801    14513.881 
   28360    287.08113    12.590305     54.07337     -160.693    -8.891695    14513.881 
   28370    277.41395    11.708092    56.167123   -161.72159    1582.3817    14513.881 
   28380    295.53581    9.7143358    49.915306   -162.37246    383.39891    14513.881 
   28390      313.106    5.9468442    48.862197   -163.21372   -1333.0155    14513.881 
28400        0.99001580587797166633 10.096385244152163096 1 71 -297.85455990842098117
   28400    292.92885    6.5521246     53.68999   -165.13344   -2545.9613    14513.881 
   28410    265.96095    7.0839406    49.627955   -168.10562   -2671.5408    14513.881 
   28420      248.438    9.1726194    46.829625   -170.96341    2062.2467    14513.881 
   28430    257.52542    9.3635768    50.623927   -173.13464    399.42781    14513.881 
   28440    257.60682    11.413681    45.494451   -174.09117    531.09677    14513.881 
   28450    289.26124    11.134241    44.176891   -173.95109    1632.4673    14513.881 
   28460    289.14995    11.523483    44.262936   -173.06959   -945.96446    14513.881 
   28470    285.79412    9.7586453    47.758875   -171.38626    591.42222    14513.881 
   28480    279.02065    11.467378    53.836694   -169.00414    -2584.301    14513.881 
   28490    291.26844    12.047707    52.088423   -166.02411   -556.68408    14513.881 
28500        0.98966891662800426932 10.081520032515685514 1 70 -300.04308529768877634
   28500      303.301    9.6506519     55.31245   -162.62252   -920.81828    14513.881 
   28510    317.60997    9.2240203    51.116844   -159.58246    2554.5723    14513.881 
   28520    312.23032    7.2643226    51.602764   -157.19199     2199.571    14513.881 
   28530    299.46133    5.7903387     49.77652    -155.2761    1568.6133    14513.881 
   28540    293.25281    5.9553355    54.172733    -153.3011   -1606.6845    14513.881 
   28550    287.40754    6.7855304    58.357127   -151.14236   -571.23527    14513.881 
   28560    309.89426    6.5051927     44.01622   -148.74768   -2820.6096    14513.881 
   28570    298.33803    4.8887011    58.461257   -146.12192    1218.4214    14513.881 
   28580    312.54988    4.6371727    53.360851   -143.21379    2116.6566    14513.881 
   28590    313.55981     5.969959    53.601336   -140.33018   -598.62097    14513.881 
28600        0.98384537331917731873 10.10101988102489301 1 70 -286.6301116603009973
   28600    328.20492    7.9896967    50.370214     -137.926   -369.34667    14513.881 
   28610    331.87284    6.7123829    53.431479   -136.30863   -139.19864    14513.881 
   28620    333.04111     8.003507     49.09134   -135.66199     1874.553    14513.881 
   28630    308.12267    8.1412378    57.001312    -135.5611    2193.1986    14513.881 
   28640    319.00588    8.8551694    54.736075   -135.81367    559.65593    14513.881 
   28650    336.05587    6.9338155    51.018772   -136.85119    136.35456    14513.881 
   28660    324.61623      6.13771    56.620151   -139.65499   -1587.3725    14513.881 
   28670    322.11463     8.713793    44.691715   -144.35154   -2138.5732    14513.881 
   28680    309.14839    11.469381    47.533092   -150.45027   -2886.6791    14513.881 
   28690     315.4168    14.493611     48.73121   -156.84563   -2742.6253    14513.881 
28700        0.98128980263619192126 10.123171974467854994 1 68 -302.47921257608072665
   28700    308.02832       12.994     53.19085   -162.91678   -50.556058    14513.881 
   28710    287.30342    11.072717    47.315916    -167.3998    1517.5566    14513.881 
   28720    294.22291    8.9276033    47.284713    -170.0029    3314.9077    14513.881 
   28730    297.16835    5.6878098    39.817915   -171.57488    2145.2591    14513.881 
   28740    283.48965    4.3872837    45.469604   -172.40538   -456.56022    14513.881 
   28750    264.77988    3.8171313     55.42733   -172.32698    -1496.875    14513.881 
   28760    267.76471    5.8354835    51.127306    -171.1635   -850.26858    14513.881 
   28770    273.52733    7.7325945    51.826161    -168.8878   -1615.7919    14513.881 
   28780    290.94323     9.083001    50.696582   -165.80215    1006.7573    14513.881 
   28790    305.91031    7.6303646    53.900005   -162.61354   -992.77084    14513.881 
28800        0.98159759426306669727 10.108576499358939316 0.99470899470899465378 67 -293.3545778453172943
   28800    294.28926     9.305355    53.502539   -160.01708    1549.9884    14513.881 
   28810    289.65964    8.1275347     54.16823   -157.95152   -1152.3522    14513.881 
   28820    292.90335    8.2185191    51.524963   -155.76652    1495.4953    14513.881 
   28830     302.7991    6.3403424    51.523405   -153.28367   -335.95135    14513.881 
   28840    306.25754    6.1792224    52.039182    -150.5518    1020.7597    14513.881 
   28850    314.39834    5.5702603    54.907561   -148.24954    77.121768    14513.881 
   28860     297.7345     5.091498    56.492819   -146.68286    2110.6814    14513.881 
   28870    314.25717    4.4842158    48.200197   -145.37755   -2199.6951    14513.881 
   28880    306.29332    5.0592706    55.920818   -144.15237   -651.81448    14513.881 
   28890    320.29265    4.5698213    55.888428   -143.07946   -2411.0517    14513.881 
28900        0.98460323045169406697 10.106674908326379381 0.99735449735449732689 68 -289.72773762481085669
   28900    325.08347    5.8441315     49.59522    -142.4379    2.4668704    14513.881 
   28910    318.87112    6.7470971    53.161495   -142.39419   -596.96249    14513.881 
   28920    323.72865    7.4471279    49.353298   -142.81905    657.01816    14513.881 
   28930    325.26264    8.2524794    51.709208   -144.10591    3238.6088    14513.881 
   28940    318.55155    6.6670655    51.906194   -147.06179    1846.1494    14513.881 
   28950    282.15471    5.7979192    54.370911   -152.01232   -202.84407    14513.881 
   28960    277.89721    6.4511135    51.116835   -157.68655   -1072.6245    14513.881 
   28970    300.19817    5.3296646    46.380797   -163.23371   -904.01739    14513.881 
   28980    299.57032    6.5687092    43.070555   -167.97149   -37.372627    14513.881 
   28990    295.22516    9.7462156     41.88228   -171.27139   -872.24986    14513.881 
29000        0.98751314034253467877 10.115964418971264749 1 65 -304.19889571243072623
   29000    288.46623    10.928502    46.533309   -173.49971    644.76298    14513.881 
   29010    294.08686    10.084932    47.405299   -174.97536    1024.6672    14513.881 
   29020    300.32146    6.9079936    48.557931   -176.18598    791.36043    14513.881 
   29030    276.26658    6.1070513    48.466529   -177.06614   -2436.3127    14513.881 
   29040    266.83323    6.7431231    47.626368   -177.26476   -1366.8958    14513.881 
   29050    262.44278    7.9243768     53.59023   -176.60309    369.25902    14513.881 
   29060    279.22998    10.365924    49.456143    -174.9808    3939.7759    14513.881 
   29070      284.364    10.027121    48.488544   -172.43273     1563.816    14513.881 
   29080    300.13951    11.481996    49.398476   -168.87171    1902.1072    14513.881 
   29090    284.46135    8.7417506    50.640456   -164.76244   -1320.0412    14513.881 
29100        0.98678885443710706582 10.113464341095365739 1 66 -288.80329492246806922
   29100    283.26345     5.944841     56.41231    -160.4614   -1606.5351    14513.881 
   29110    301.07634     5.966008    58.219436   -156.14806   -855.89094    14513.881 
   29120    317.40803    6.3434599    54.967675   -153.10129   -1092.8328    14513.881 
   29130     326.0047    9.6027568    49.576607   -151.52697   -571.24529    14513.881 
   29140    293.64764    9.7537018    54.553179   -150.84254    716.33479    14513.881 
   29150    304.19666    6.7004276    51.442399    -150.1673    2104.7927    14513.881 
   29160    305.31618    6.2473122    58.872548    -149.6841    1910.7602    14513.881 
   29170    315.14924     7.348309    53.916959   -149.83065    28.954024    14513.881 
   29180    289.88891    9.9209063    61.001753   -150.49233   -1089.9399    14513.881 
   29190    296.84056    8.3103504    57.375543   -151.30124    849.38718    14513.881 
29200        0.98277497500399513264 10.121232197747147552 1 66 -279.95808588732171529
   29200    282.34763    10.693436    58.721688   -152.03114   -1770.4109    14513.881 
   29210    296.36447      12.9913    49.252648   -152.44786   -775.79259    14513.881 
   29220    283.89838    12.654034    57.332652   -152.56438   -1140.3021    14513.881 
   29230    297.83497    10.157387    53.106055   -152.26432   -762.84109    14513.881 
   29240    287.25621    7.7616746    58.409318    -151.6382    1201.2512    14513.881 
   29250    300.64934    7.8486177    60.547822   -150.87453   -620.57263    14513.881 
   29260    294.36964     8.266863    56.546618   -150.48678    375.88047    14513.881 
   29270     285.7803    8.8413927    54.146462   -150.12332   -2652.2816    14513.881 
   29280    307.74973    8.5172101    52.069024   -149.33817    430.73158    14513.881 
   29290    301.08456    7.8889219    62.454416   -148.27101     4462.805    14513.881 
29300        0.97408709811897775666 10.161590679040813257 0.99735449735449732689 69 -284.91470601655896644
   29300    304.28255    6.9258487    49.817434   -147.04942    1297.0498    14513.881 
   29310    280.05523    6.6970368    60.857434   -145.62561   -247.93171    14513.881 
   29320    309.12282    5.3972887    43.460412   -143.08922   -2459.0665    14513.881 
   29330    314.86619    5.4377565    47.794729   -139.68974   -3657.1221    14513.881 
   29340    324.94622    6.5910975    58.851953   -135.79831     1274.468    14513.881 
   29350     331.2265    7.3185276    54.767599   -132.91133   -746.80786    14513.881 
   29360    337.09734    8.6371866    57.892845   -131.17299    3415.3484    14513.881 
   29370    346.65555    10.139027     56.23314   -130.58698    1330.9175    14513.881 
   29380    320.16562    9.9874769    58.430108   -131.17218   -69.982222    14513.881 
   29390    316.60052     8.158891    63.331921   -132.83397    695.74057    14513.881 
29400        0.96314062921083853919 10.205091734451679386 0.99735449735449732689 65 -272.44315875427878382
   29400    302.21308    8.4192115    65.281668   -135.51551   -1208.1093    14513.881 
   29410    312.10674    7.9263086    58.090695   -139.37833    109.14157    14513.881 
   29420    287.45005    6.2089043     59.20359   -143.65036    1679.8233    14513.881 
   29430    297.89748    4.8054343    52.415254   -147.38011    1130.7305    14513.881 
   29440    274.30619    6.0523477    54.755731   -150.11649   -1567.6065    14513.881 
   29450    291.53594    4.6086525    52.972396   -152.04026   -4009.0943    14513.881 
   29460     277.6607    4.1005827    54.247153   -153.58754    100.86742    14513.881 
   29470    287.61537    3.4429708    54.025132    -154.5746    536.41493    14513.881 
   29480    276.45763    5.6921703    51.822054   -154.87203   -476.38986    14513.881 
   29490    287.33874    6.1410478    64.290271   -154.35588   -2006.5863    14513.881 
29500        0.954415395531771793 10.247321347890681054 1 66 -289.91211418720018855
   29500    301.19536    6.1926785    54.698944   -153.44558    203.42479    14513.881 
   29510    287.43805     4.892884    60.036266   -152.71427    1625.4368    14513.881 
   29520     261.4717    5.7043482    59.411363   -151.63426    1792.6532    14513.881 
   29530    275.96693    5.9525692    57.931096   -149.26437   -130.09876    14513.881 
   29540    292.44638    6.5826054    59.276066   -144.86778    231.61007    14513.881 
   29550    316.82688    6.8173935    56.968953   -138.83529   -2650.3485    14513.881 
   29560    332.54282    8.1886473    54.839507   -132.36458   -2842.1627    14513.881 
   29570    326.29027    7.1938895    64.710049   -127.30303     1997.129    14513.881 
   29580    342.33027    7.5538229    54.165044   -124.13232   -1785.5318    14513.881 
   29590    328.61083    6.9427232    60.689056   -122.93783    2148.8633    14513.881 
29600        0.94917660612770737849 10.264558763690970977 1 67 -285.1056827488921499
   29600    356.30116    6.2732578    53.156276   -123.67164    598.22742    14513.881 
   29610     327.6597    5.8947858    59.891788   -125.69838    1616.9749    14513.881 
   29620    348.53612    5.8804761    57.818136   -128.01354    -1258.591    14513.881 
   29630     302.4183    8.2208624    64.097017   -130.94774   -3331.2461    14513.881 
   29640    313.60266    9.6972933    54.682424   -133.40675    2160.5104    14513.881 
   29650    296.14944    7.2739942    61.944669   -135.46346   -84.155267    14513.881 
   29660    321.91864    7.0995673    52.996917    -137.2109   -1338.4423    14513.881 
   29670    307.78566    6.8832683    57.328712   -138.96383   -821.94946    14513.881 
   29680    290.38716    6.5335246    59.305963   -140.60129   -413.98512    14513.881 
   29690    291.28747    6.9527877    61.026134   -141.83822    2452.9096    14513.881 
29700        0.94446778380943541276 10.260458728249016502 0.99470899470899465378 69 -280.25355710190990521
   29700    302.84276    6.1926554    53.493378   -143.04061    629.41637    14513.881 
   29710     302.9384    5.6688414    60.479999   -144.26227    340.15866    14513.881 
   29720    274.64308    6.1801568    63.476845   -145.52648   -1455.9973    14513.881 
   29730    277.83744    4.1022431    59.226522   -146.34443   -1500.5547    14513.881 
   29740    288.72651    2.6703635     65.25473   -146.60386   -268.33888    14513.881 
   29750    323.85487    2.0065205    55.179305    -146.9361   -517.19167    14513.881 
   29760    322.09956    2.4091379    56.266167   -148.24233   -2201.1981    14513.881 
   29770    307.99923    6.0187979    53.830667   -150.83301    504.95391    14513.881 
   29780    279.12418    6.9234442    53.534588   -153.97687    2052.1776    14513.881 
   29790      270.678    4.8091992      58.8376     -157.219    2710.2867    14513.881 
29800        0.94979816970415398281 10.234638336160438499 0.98941798941798930755 71 -285.6042668499693491
   29800    277.15064    5.3842124    51.308046   -160.03199  0.028892632    14513.881 
   29810    287.91839    6.0497734    44.949614   -162.46571    115.22723    14513.881 
   29820    266.66693    4.7159605    59.539351   -164.82768    1272.9955    14513.881 
   29830    273.51159    4.9119417    48.525414   -166.93126   -1846.2925    14513.881 
   29840    264.88372    5.3142942     55.00541   -168.59678   -2789.2582    14513.881 
   29850    297.89722    4.6322708    46.745631    -169.7291    517.84833    14513.881 
   29860    292.27544    5.4135416    49.726058   -170.69042   -47.959561    14513.881 
   29870    283.92541    5.5063269    57.131598   -171.49964    2194.3893    14513.881 
   29880     264.1551    6.1826507    49.619245     -171.937    -1246.292    14513.881 
   29890    281.14186    6.2913818    50.217644   -171.53389    1219.5205    14513.881 
29900        0.95210718851495224069 10.245237435854095409 1 72 -295.56006234213782591
   29900    277.23704    8.8599635    49.823324   -169.94864     764.5419    14513.881 
   29910    286.10662    11.140501    48.614579   -167.09043   -1329.3742    14513.881 
   29920    301.73537    8.4126911    55.028679   -162.78521   -938.73288    14513.881 
   29930    309.25891    6.7399114    54.556482   -158.29284    -4147.065    14513.881 
   29940    305.62619    7.0434204    55.432346   -154.24521    1915.8245    14513.881 
   29950    314.89401    9.8555938    51.600774   -150.93561   -1071.5861    14513.881 
   29960    298.28025    9.3060497    54.711414   -148.04311   -226.57497    14513.881 
   29970    297.60141    5.9083764    60.098044   -145.36837    1408.8679    14513.881 
   29980    287.67017    5.4319485    61.135578   -142.80371    1320.0328    14513.881 
   29990    314.22433    7.1102873    61.303535   -140.52018    2003.1102    14513.881 
30000        0.96757814001023656481 10.193079504539857894 1 75 -285.89441833486301903
   30000    324.62348    7.6418959    54.905649   -138.81299   -566.80297    14513.881 
   30010      322.746    8.4748383    52.717378   -137.71856    499.03575    14513.881 
   30020    301.39029    10.340084    63.957101   -136.99259     2864.085    14513.881 
   30030    313.21053    8.5531058    59.443669    -136.5164   -893.04181    14513.881 
   30040    322.83573    8.6225462    57.465028   -136.82008   -1054.8904    14513.881 
   30050    324.08741    8.2509269    55.229835   -138.13884   -1444.1274    14513.881 
   30060    302.20036     6.056632    56.768422   -140.22049   -282.41917    14513.881 
   30070     313.0922     7.536016    57.229885   -142.94665    2505.5209    14513.881 
   30080    300.36086     9.989094    59.226108   -146.86835   -1086.2239    14513.881 
   30090    296.17955    12.187608    52.469811   -151.70945   -1392.1907    14513.881 
30100        0.97402843955824902622 10.175769933092647435 1 70 -288.57615808903335619
   30100    290.78624    11.395119    50.088049   -156.82582    791.85496    14513.881 
   30110    293.01069    11.407301    56.640054   -161.67372    694.46414    14513.881 
   30120    295.18393     14.34656    54.212209   -166.08207    3066.3479    14513.881 
   30130    300.57637    13.625491     46.38764   -169.34474   -1309.2425    14513.881 
   30140    296.58819     9.000095    49.095392   -171.57565   -492.63803    14513.881 
   30150    283.69232    7.3229119    56.839148   -172.67249   -100.11383    14513.881 
   30160    279.95889    5.0343833      49.9311   -173.00712   -2092.5808    14513.881 
   30170    268.38652    3.4233472    59.597958   -172.72134   -369.31144    14513.881 
   30180     297.0178    3.7041845       50.375   -171.83249    561.07352    14513.881 
   30190     285.3365    4.6706283    49.767105   -170.65941   -596.44875    14513.881 
30200        0.97770181206986439548 10.145939352975823056 1 70 -300.65815630795179914
   30200    290.36101    5.8233276    45.158077   -169.10048    2157.5599    14513.881 
   30210    277.20746     4.181889    53.944556   -167.26673    1336.9457    14513.881 
   30220    280.39076    2.6017909    57.739648      -165.13    2754.2629    14513.881 
   30230    270.54516    4.8764888      56.5928   -162.66197   -166.98037    14513.881 
   30240    288.60884    7.7369444    56.644673   -159.90336   -417.63454    14513.881 
   30250    296.21718    8.6597702    57.958801   -156.93307    830.37649    14513.881 
   30260    296.82777    8.9464395    54.785318   -154.27104    -500.2221    14513.881 
   30270     303.1792    11.108476    49.456314   -151.89666   -3094.0995    14513.881 
   30280    304.18059    10.077286    57.095077   -149.94529   -3152.9585    14513.881 
   30290    316.61884    6.4582431     48.20217     -148.335    705.82678    14513.881 
30300        0.97831852729927748502 10.1636093956858371 1 67 -270.41370798880211623
   30300    272.52349    5.4308424    65.083089   -146.93791     2029.353    14513.881 
   30310    309.70991    4.9007552    50.920512   -145.22119   -1285.6303    14513.881 
   30320    287.27462    4.5936037    63.947688   -143.64908    -817.2175    14513.881 
   30330     313.2618    5.4562063    58.671926   -142.21991    516.12799    14513.881 
   30340     276.9842    6.3288613    68.062752   -141.14209   -369.29964    14513.881 
   30350     289.2884    8.4884417    62.597115   -140.00612    2076.9231    14513.881 
   30360    316.01231    10.031931    53.541095   -138.90324    -210.3267    14513.881 
   30370    322.70386    11.321375    56.930778   -138.29057    264.09122    14513.881 
   30380    321.11986    11.728507    51.133992   -138.20558    843.11393    14513.881 
   30390    295.72135    10.805551    63.124255   -138.64121    1753.7505    14513.881 
30400        0.98394366050157544556 10.12377409458249744 1 66 -274.7585154809390815
   30400    298.59512    12.342209    62.792732    -139.4701    25.017264    14513.881 
   30410    294.59414    12.062834     63.89784   -140.55581   -1576.7884    14513.881 
   30420    325.22515    10.287507    52.002385   -142.03177    323.58346    14513.881 
   30430    312.79599    10.387313    49.016208   -143.95738    913.11559    14513.881 
   30440    309.75786    8.2282478    54.260232   -146.43161   -926.90909    14513.881 
   30450    302.34974    6.2863054    54.537281   -150.44583   -190.74363    14513.881 
   30460    280.26836    6.9327693    62.165182   -156.66908   -1947.3339    14513.881 
   30470    265.83305    8.3972983    59.044641   -164.53263    858.96892    14513.881 
   30480    262.18721     8.854409    56.223111    -170.5155   -880.47705    14513.881 
   30490    260.07436    7.5748166    46.496117   -173.87818   -1349.5176    14513.881 
30500        0.9796633524273294924 10.143577653186239829 1 70 -298.30965854034644735
   30500    271.58864    5.4596442    49.464143   -175.25743   -523.38798    14513.881 
   30510    271.74132    4.3796445    49.964868   -175.44243   -654.38299    14513.881 
   30520    276.02159     4.932886    51.317259   -174.92184    940.02811    14513.881 
   30530    261.46459    4.9152313    58.509409   -173.82677    487.66392    14513.881 
   30540    280.23979    5.7515354    45.695089   -172.00732    342.59138    14513.881 
   30550    245.35307     5.946697    61.420087   -169.47297    1260.6978    14513.881 
   30560    278.28492    5.7368039    52.021436   -166.05885    692.75624    14513.881 
   30570    273.87634    4.3075595    59.369757   -161.95373    35.000623    14513.881 
   30580    278.71479    4.0987589    57.358092   -158.03236   -1592.7017    14513.881 
   30590    289.04005    4.8587513    53.186072   -154.27674    112.82933    14513.881 
30600        0.98182632741875064397 10.143674166539971893 1 66 -285.12636609067612881
   30600    295.99098    6.2469264    56.459152   -151.01785   -1495.7206    14513.881 
   30610    328.53789    5.6851867    57.444766   -148.36965   -2315.4452    14513.881 
   30620    308.90033     4.639936    65.881483   -147.11234    421.13044    14513.881 
   30630    303.45276     5.300992    57.333588   -146.97975    293.61963    14513.881 
   30640    281.72932    5.3271137    69.139531   -147.39445    2390.9315    14513.881 
   30650    306.95037    4.3538137    60.296732   -147.97717    980.05768    14513.881 
   30660    298.77125    5.6847562    57.129616   -148.97631    580.33855    14513.881 
   30670     286.6833    10.397488    57.516462   -150.11833    -397.7279    14513.881 
   30680    266.03541    12.950322     59.77084   -151.02969   -1265.2161    14513.881 
   30690    296.52126    9.2613045     60.61138   -151.59998    413.26737    14513.881 
30700        0.98452370892016649595 10.129030055947831457 1 65 -279.83674515016895157
   30700     281.5679    8.7326914    59.339133   -152.26308    627.64967    14513.881 
   30710    291.87794    7.7850809    51.410632   -152.86052    205.46758    14513.881 
   30720    293.37403    10.054299    55.310043   -153.08285    1479.2092    14513.881 
   30730    298.22672     8.770004    55.620404   -153.09913   -1278.0196    14513.881 
   30740    316.19818    9.2719806    53.603313   -153.25119   -209.57425    14513.881 
   30750    295.30198    9.9594703    57.279389   -153.90217    -2746.904    14513.881 
   30760    286.16657    11.077857    54.630593   -154.78661   -791.37069    14513.881 
   30770    255.21548     9.365831    61.057491   -155.36683    432.65033    14513.881 
   30780    258.47716    7.6144797    60.635968   -154.96698    646.14898    14513.881 
   30790    265.45673    7.6558626    63.205809   -153.24317    49.127602    14513.881 
30800        0.98453394228815904743 10.099939423427503726 1 68 -280.02878360224400467
   30800    286.25908    9.2900244    56.564115   -150.32962    2264.1948    14513.881 
   30810    315.05103    7.4313807     52.92605   -146.37296    1526.5926    14513.881 
   30820     293.8874    6.8203358    65.209534   -142.27616   -2855.6706    14513.881 
   30830    316.23665    6.5121568    59.444114   -138.47341   -3009.4029    14513.881 
   30840    305.74609     7.826897     67.29458   -135.64025   -1827.2688    14513.881 
   30850    329.93061    8.3411092    59.010191   -133.74022    1014.9235    14513.881 
   30860    320.12417    8.9687304    60.276134   -132.84385    1463.1772    14513.881 
   30870    307.09673     11.02932      57.7062   -132.59597    1962.3223    14513.881 
   30880     298.3016    8.0625047    66.139371   -132.73903    1333.9287    14513.881 
   30890    320.38241    5.8336276    57.277019   -133.33886    1993.3958    14513.881 
30900        0.98651112746003588594 10.083803133506313188 1 71 -273.51327919610076833
   30900    306.57257    4.6289492    68.837538   -134.61042    422.23791    14513.881 
   30910    322.00973    5.7243442    55.505359   -136.62326   -2650.6176    14513.881 
   30920    279.09671     6.610332    62.323261   -139.45578   -2443.0189    14513.881 
   30930    300.14566    5.4144728    50.655736   -142.39624   -499.04124    14513.881 
   30940    296.26856    7.3371431    59.854125    -145.7246    1568.2652    14513.881 
   30950    288.39097    8.2737482    54.487365   -149.31857    729.00787    14513.881 
   30960    290.11215    9.6803434    54.896144   -152.78503    1315.4442    14513.881 
   30970      287.888    9.9889518    54.704774   -156.10481    362.35847    14513.881 
   30980     303.8391    9.6261709    53.755208   -159.43458    1886.8806    14513.881 
   30990    276.95697    7.7808711    58.007952   -162.63224   -2800.4826    14513.881 
31000        0.98592801949033637143 10.08357336743849153 1 69 -294.91159069575661533
   31000    285.72812    7.1461948    52.205236     -165.453   -1539.6617    14513.881 
   31010    275.85887    7.4731002    59.652918    -167.8907    294.29302    14513.881 
   31020    273.90571    9.3122744    48.834886    -169.6723    1446.0487    14513.881 
   31030    273.10759    9.9095922    47.066279   -170.38106   -122.51555    14513.881 
   31040    258.57881    10.389302    57.552902   -170.01662     2160.366    14513.881 
   31050    276.51075    9.5656105    56.709506   -168.50031     353.2722    14513.881 
   31060    282.70788     8.597388    57.137473   -165.34074    526.16624    14513.881 
   31070    320.50267    7.1328657    49.851801   -159.96604   -1674.7782    14513.881 
   31080     316.2519     6.369728      53.8703   -152.41598    236.67363    14513.881 
   31090    312.69049    5.7355138    60.312375   -144.84722   -565.18212    14513.881 
31100        0.98492247151393541582 10.129674908784693343 1 71 -285.18454150153547744
   31100    321.60561    6.3674361    53.942985   -139.47047    288.89292    14513.881 
   31110    307.09437    6.9888471    58.625639   -136.20395    2736.9775    14513.881 
   31120    337.70786    5.1083191    50.094381   -134.29815   -646.15313    14513.881 
   31130    314.60164    6.0229257    61.843746   -133.42334   -1770.1194    14513.881 
   31140    326.34984    6.9073024    50.079767   -133.47073   -1576.3154    14513.881 
   31150    308.20895    8.2649373    56.107785   -134.03994     916.2752    14513.881 
   31160    303.65659    7.5281774     63.71378   -134.72252    256.30323    14513.881 
   31170    309.51812    7.7535033    50.762659   -135.62047   -364.86936    14513.881 
   31180    301.47468    8.4007904     54.05973   -136.38152     -1120.21    14513.881 
   31190     322.5546    9.7065042    58.847639    -137.0734    2120.8386    14513.881 
31200        0.98093599009011722689 10.156256363158263412 1 70 -290.29343615097775455
   31200    335.16312    9.7763927    55.407824   -138.43668   -352.42181    14513.881 
   31210    322.05048    9.3768225    58.717173   -141.32995   -1440.5748    14513.881 
   31220    299.99415    9.4017089    63.123675   -145.23152   -2827.4175    14513.881 
   31230    306.95264    9.2994171    62.450579   -149.60971    1812.9956    14513.881 
   31240    313.42488    9.6850557    55.560197    -154.3835    1304.2882    14513.881 
   31250    293.07663    7.7305746    55.290901   -159.16843    952.29842    14513.881 
   31260    258.60362    7.4778595    60.837725   -163.05222    31.486446    14513.881 
   31270    252.47422    6.0837316    54.619736   -164.91083     1788.881    14513.881 
   31280    273.30266    5.5740455    47.892393   -165.14353   -1606.5537    14513.881 
   31290    279.02874    8.0018437    54.056378    -164.3766   -451.83412    14513.881 
31300        0.97202935200329620979 10.194346313001226179 1 68 -287.23559574196121957
   31300    274.14854    7.1671237    55.513024   -163.02352   -1826.4437    14513.881 
   31310    264.58504    5.2899813    57.765968   -161.17694     71.91644    14513.881 
   31320    283.35278    5.4574857    53.783877   -158.78623    182.73601    14513.881 
   31330    295.83128    6.1353763    49.484039   -156.27522    936.24531    14513.881 
   31340    290.56051    5.6111393    51.707754    -153.6494   -380.26314    14513.881 
   31350    282.48205    4.9865531     56.57003   -151.00983    504.75287    14513.881 
   31360    314.97992    4.3792402    47.312502   -148.29707    16.594659    14513.881 
   31370    328.27209    4.8786024    56.203084   -145.76748   -438.85629    14513.881 
   31380    358.59652     5.116986    48.389546   -144.45044   -378.15708    14513.881 
   31390    313.89658    6.3557807    62.363093   -144.59879   -548.91285    14513.881 
31400        0.97728083300510026898 10.183405136988703532 1 69 -293.00662511737550631
   31400    325.63482     8.610979    52.200984   -145.46698     725.9627    14513.881 
   31410    306.44034    7.3391579    63.849807   -146.58776    3617.9265    14513.881 
   31420    322.76225    8.7608538    52.995711   -148.04399   -415.79292    14513.881 
   31430    309.26738    6.9079264     53.92232   -150.00067   -3894.6555    14513.881 
   31440    312.96626    5.8487563    57.348093   -152.63015   -1353.1463    14513.881 
   31450    316.63151    5.0313717    49.553816    -155.9009   -328.98189    14513.881 
   31460    289.73159    5.5456834    51.827236   -158.94566    1865.9481    14513.881 
   31470    293.50162    6.8356761    54.055787   -161.05202    -199.7025    14513.881 
   31480    298.96893    7.7745732    55.061684   -162.66519   -673.92737    14513.881 
   31490    291.04275    9.7140473    54.278164   -163.97172    625.75045    14513.881 
31500        0.97987898330778000489 10.156064218556341672 1 69 -296.74644436417742099
   31500    290.96322     9.633199    44.854599   -164.91592   -1135.8759    14513.881 
   31510     263.5052    8.1551393    57.797277   -165.11663     -397.119    14513.881 
   31520     291.1743    5.3634376     48.17918   -164.49061      1784.55    14513.881 
   31530    282.18943     6.166664    48.386508   -163.28615     1809.974    14513.881 
   31540    287.14424    7.9692396    56.863613   -161.27899    1726.2576    14513.881 
   31550    312.83533    10.231247    50.351345   -158.72539    253.13876    14513.881 
   31560    309.35581    9.9303111    53.980635   -156.26349   -582.38961    14513.881 
   31570    314.12818    9.7510125    49.068667   -154.05377   -3555.4924    14513.881 
   31580     279.4994    8.8827854    54.124932   -151.77247   -79.538369    14513.881 
   31590    289.45733    7.3864704    52.200721   -148.36862   -1614.6411    14513.881 
31600        0.97120874806313661765 10.184172583539412571 1 70 -285.13433809260459384
   31600    313.47935    7.9778915    53.010847   -143.10213   -396.47534    14513.881 
   31610    336.01188    7.4494913    52.973451   -135.51894   -919.01667    14513.881 
   31620    341.55007    8.0420638    55.652484   -126.66413    1626.0806    14513.881 
   31630    339.80186    7.9902591    64.281159   -119.53726    1479.0588    14513.881 
   31640    333.80052    8.7710722    62.340141   -115.69954    94.358918    14513.881 
   31650    347.92453    7.4713286    53.800454   -114.50653   -280.97047    14513.881 
   31660    314.68915    5.9775541    71.432698   -114.68247   -1700.4624    14513.881 
   31670    326.86787    7.5459217      55.3992   -115.31051   -1986.9799    14513.881 
   31680    301.56694    7.0270789    71.084075   -116.62495   -897.99959    14513.881 
   31690    313.93164    5.9833942    67.096891   -118.58509    2301.7301    14513.881 
31700        0.9744229051703667821 10.153320932008718103 0.99735449735449732689 72 -265.34292784373985796
   31700    317.54641    3.5628454    64.599299   -121.46801    1709.9716    14513.881 
   31710    318.00991     3.909637     58.82487   -125.26259    951.43916    14513.881 
   31720    307.69216    4.0093962     65.29402   -129.67234    1931.1082    14513.881 
   31730    299.57811    4.8181652    63.128276   -134.26478    3131.5774    14513.881 
   31740    300.48416    6.1217551    60.530756   -138.29548    265.19382    14513.881 
   31750    308.72904    4.1771921    54.371974   -142.27157   -1371.4044    14513.881 
   31760    300.41589    3.0895538    59.466394   -145.92611   -2631.9302    14513.881 
   31770    317.62538    2.8380863    49.097104   -149.47957   -886.61106    14513.881 
   31780    298.44558    3.7510007    52.583618   -152.71159    2695.0674    14513.881 
   31790    273.97122    5.0208567    55.007182   -155.34354    187.68355    14513.881 
31800        0.97230148585915343595 10.151376901260661612 1 72 -280.49202263038978344
   31800    272.59001    4.4609466     57.69257   -156.98609    1520.7233    14513.881 
   31810    284.30425    5.4551448    54.155176    -157.8383   -2564.4761    14513.881 
   31820    288.84537     6.886927    52.752025   -157.97756    -178.8656    14513.881 
   31830    291.03746    7.3253267    57.727436   -157.58971   -1109.7493    14513.881 
   31840     303.3466    8.7335935    49.189188   -156.77254   -1717.0305    14513.881 
   31850    311.16115    7.9492891    53.065349     -155.564   -986.80125    14513.881 
   31860    293.76493    7.8096623    56.838933   -154.10276    1295.6009    14513.881 
   31870    302.86403    6.4337956    57.379061   -152.04221    2016.6825    14513.881 
   31880    285.54511    6.4493166    62.305984   -149.64459     491.2071    14513.881 
   31890    321.52377    7.4966034    49.097103   -146.55464   -939.75571    14513.881 
31900        0.9731381804024528126 10.183325953010450959 1 69 -281.35121552219084151
   31900    305.22244    6.3568836    60.934853   -143.06008    1465.8602    14513.881 
   31910    318.97716    5.6690312    66.153303   -139.74774    779.09929    14513.881 
   31920    307.62817    5.2498466    67.131038   -137.48425   -825.25989    14513.881 
   31930    319.08883    6.7173107    58.959724   -136.19225    1185.1453    14513.881 
   31940    307.22147    5.3530215    62.640439   -135.42427   -2280.7738    14513.881 
   31950     305.1781    5.5170462    60.455858   -135.03833    1698.1693    14513.881 
   31960    280.23808      6.40002    62.485684   -134.93947   -1390.8301    14513.881 
   31970    292.67481    6.7584855     60.63615   -134.47463   -3767.3555    14513.881 
   31980     313.1365    7.1463899    55.899899   -133.53182    256.45205    14513.881 
   31990    324.26572     5.336884    60.456719   -132.50409   -1067.7723    14513.881 
32000        0.96993234743509437745 10.181083512591754925 1 68 -266.01691834642718959
   32000    296.44391    7.8882567    55.459828   -131.70319    1485.8961    14513.881 
   32010    293.47856    7.5464266    57.386398   -130.73496     42.35668    14513.881 
   32020    289.67929    8.5649942     66.77977   -129.27917    1772.2033    14513.881 
   32030    307.38155     7.950762    65.030767    -127.6288    1978.7677    14513.881 
   32040    293.93814     9.378156    65.820552   -126.29149    501.98672    14513.881 
   32050    316.78123    11.779926    56.709998   -125.14065   -857.04832    14513.881 
   32060    304.79635    13.748545    63.473497   -123.94501   -958.72228    14513.881 
   32070    318.32535    8.1973316    61.020875   -122.97352    -2472.692    14513.881 
   32080    339.77038    6.8070878    60.850041   -123.11381   -1048.7288    14513.881 
   32090    335.79436    5.0381112    60.844004   -124.99292   -484.54007    14513.881 
32100        0.9698584869425826982 10.17602557520859996 1 70 -278.27998717366210712
   32100     331.0843    3.9176047    59.061682   -128.27128    3776.1439    14513.881 
   32110    300.78343    3.1345856    62.399964   -132.38774    2465.9878    14513.881 
   32120     314.9255    5.6925569    57.824052   -137.12096   -207.66339    14513.881 
   32130    269.30651    7.3692073    64.785143   -141.63836    316.60195    14513.881 
   32140    296.86528    5.5524105    56.297571   -145.29047   -2645.7789    14513.881 
   32150     283.2785    4.6357319    58.935123   -148.04014   -1278.3352    14513.881 
   32160    323.26314    4.5358579    46.898638   -149.99407    774.98437    14513.881 
   32170    286.30706    5.5325386    61.176424   -151.64179    256.77542    14513.881 
   32180    301.69919     5.615523    52.526136   -152.94792    1451.6775    14513.881 
   32190     277.9025    7.0984847    59.525897   -153.97739   -1912.5629    14513.881 
32200        0.96703677297384404987 10.200783973857863174 1 67 -282.03970812050073391
   32200    281.84828    8.7791133    54.636785   -154.33901    970.41456    14513.881 
   32210     282.2793    7.4656036    58.509615   -154.03752    570.74751    14513.881 
   32220    291.73933    5.6985893    62.085705    -153.0663    139.30814    14513.881 
   32230    309.54336    5.2723811    54.275191   -151.78282   -762.70807    14513.881 
   32240    312.24597    6.7132471    57.729464   -150.77961    884.17104    14513.881 
   32250    308.55748    8.8619258    54.128216   -149.94072   -1481.1861    14513.881 
   32260    280.62166    10.219727    58.931832   -149.21975   -2956.0606    14513.881 
   32270    288.90081    10.099746    60.500761   -147.89805   -3297.2305    14513.881 
   32280    319.10086    10.318501    55.262457   -145.75208    1714.9643    14513.881 
   32290    313.96933    12.079692    56.969377   -142.78449     232.1944    14513.881 
32300        0.97271161742683664997 10.186634848470509596 1 68 -275.70580395042208011
   32300    302.02552    10.502542    59.340665   -138.86314    2209.6526    14513.881 
   32310    322.05403    8.6253218    56.197783   -133.58469    1388.9384    14513.881 
   32320    327.63619    7.1605297     62.21079   -128.06156   -1084.4299    14513.881 
   32330    353.19809    9.8934957    58.199498   -123.42225    1316.9379    14513.881 
   32340    325.13428    10.340812    67.881854   -120.71187   -887.73045    14513.881 
   32350    335.92224    9.2718795     59.11896   -119.77145    2097.7998    14513.881 
   32360    322.06637    7.5677894    63.160256   -119.80791    -836.1649    14513.881 
   32370      340.943     6.150314    55.346823   -120.98807    607.90559    14513.881 
   32380    297.06726    6.3337299    69.187089   -123.41293     863.5148    14513.881 
   32390    315.69511     5.642001    56.182093   -126.57347   -625.92974    14513.881 
32400        0.9785894123956824231 10.160505549248430412 1 67 -259.49698944773922449
   32400    285.78158    4.2211198    61.438208   -130.01418   -561.07828    14513.881 
   32410    307.59263    4.8325329    52.203313    -132.9489   -1818.6183    14513.881 
   32420    292.43801    5.1354481    55.416151   -135.67784   -692.76024    14513.881 
   32430    317.95565    4.8660619    49.505726   -138.09971    66.551797    14513.881 
   32440    274.84519    4.3701403    62.699507   -140.31682    1405.3444    14513.881 
   32450    311.20557    3.7840298    56.073802   -142.41766   -1068.9686    14513.881 
   32460    294.40719    5.3615349    58.603456   -145.01538    900.41405    14513.881 
   32470    313.76917    8.6812133    49.096922   -147.84373    1791.3672    14513.881 
   32480    303.51912    10.254667    54.092207   -150.86421    3223.4044    14513.881 
   32490     290.7354    7.8526642    55.587917   -153.76598    423.24657    14513.881 
32500        0.9826014248600447587 10.145273423573133442 1 70 -287.10059143007822513
   32500    288.33773    5.9824078    49.349487   -156.45963   -1705.4816    14513.881 
   32510    298.57007    6.5791102    55.656815   -158.71913   -1228.6025    14513.881 
   32520    302.97313    7.1111245    50.080339   -160.85874    2802.1702    14513.881 
   32530    287.54473    6.9447039    55.169624   -162.84223    142.14733    14513.881 
   32540    272.98417    7.6168843     55.81799   -164.62765   -2615.4296    14513.881 
   32550    272.42994    7.8282623    54.424226   -166.29567   -3628.9634    14513.881 
   32560    284.58036    7.1015016    51.113638   -168.37973    1125.8821    14513.881 
   32570     242.6305    7.3940875    65.148114   -171.48195    2329.7438    14513.881 
   32580    266.26295    7.9328901    52.842355   -175.39282    955.54766    14513.881 
   32590    250.43461    10.740041    53.400425    -179.2482   -1045.2036    14513.881 
32600        0.97529099484814552046 10.176602888093311705 1 67 -304.57270649800767615
   32600      270.125     8.593167    48.141207   -182.18363   -1130.0215    14513.881 
   32610    270.77612    5.6715935    52.473762   -184.30061    1895.0051    14513.881 
   32620    275.64107    5.4697561    53.045824   -185.67999    364.57199    14513.881 
   32630    277.62929    6.4882843    45.839148   -186.31008   -3128.9404    14513.881 
   32640    270.84247    6.1224772    53.038009   -186.09338   -462.16734    14513.881 
   32650    260.85625    7.0324276    55.952287    -184.9578    139.82565    14513.881 
   32660     248.9861    6.0459021    61.481008   -182.65581    2322.6357    14513.881 
   32670    279.25744    7.6662545    50.090747   -178.82207   -1040.1466    14513.881 
   32680    275.25036    8.8916475    52.912399   -174.24195     -812.711    14513.881 
   32690    267.75545    6.5910131     54.67336    -169.5629   -1399.2814    14513.881 
32700        0.97754869929165810749 10.180422025243316853 1 68 -289.8683686527857617
   32700    275.64596    7.0384324    47.915692   -164.97784    -34.48414    14513.881 
   32710    261.81428    5.8314038    60.618997   -160.49321    1892.2661    14513.881 
   32720    290.37464    7.7850926    59.325145   -156.25791    1071.8861    14513.881 
   32730    314.70062    6.2658585    54.983493   -152.32329    413.41684    14513.881 
   32740    306.10988    5.7214819    61.562856   -149.55904   -294.23194    14513.881 
   32750    300.59609    6.9735597    61.062205   -147.56762   -1471.3756    14513.881 
   32760    310.23124    8.1923382    62.961427   -146.16647   -1379.7217    14513.881 
   32770    337.35118    11.101443    46.956556   -145.18606   -3033.2219    14513.881 
   32780    316.28716    10.879422    60.479389   -145.24297    125.80991    14513.881 
   32790    287.99676    10.761415    58.947145    -145.8219   -123.54924    14513.881 
32800        0.98533408002527889114 10.126809792908380459 1 69 -273.95626806552178323
   32800    281.74885    10.804617    62.213164   -146.30062    1451.3015    14513.881 
   32810     305.2153    12.609328    60.551492   -146.52071    1931.4079    14513.881 
   32820    312.89848    11.413582    55.769591   -146.86676    1546.9001    14513.881 
   32830    284.59459    10.901889    58.763205   -147.31936    393.47896    14513.881 
   32840    280.65218    8.9970927    60.417711   -147.20298   -296.17891    14513.881 
   32850    294.77952    9.3025708    67.675126   -146.56929    2270.1288    14513.881 
   32860    308.74381    8.9129637    61.561722   -146.05018    2323.2254    14513.881 
   32870    295.86629    8.8998496    63.387524    -146.2598   -327.03417    14513.881 
   32880    287.89337    9.6942454     61.23201   -146.62235   -2484.2333    14513.881 
   32890    321.87038    6.8677871    52.195143   -146.87076   -37.588887    14513.881 
32900        0.98239647659401807545 10.1529184197514315 1 68 -279.26306012949521573
   32900    290.77528    5.1266865    65.321408   -147.51769     118.2429    14513.881 
   32910    288.36675    6.5585868    58.637888   -148.24365    -1192.461    14513.881 
   32920     264.9268    8.3375813    61.878556   -148.67244    -2675.948    14513.881 
   32930    297.64854    7.4953171    56.863933   -148.43336    -1167.817    14513.881 
   32940    304.10722    6.4429833    59.860692    -147.7621    1177.0601    14513.881 
   32950    328.35859    6.3626437    51.951934   -147.09683    90.919495    14513.881 
   32960    311.34499    6.8064664     64.91077   -146.84127   -843.56452    14513.881 
   32970     312.9152    9.1144515     59.81497   -147.01767   -390.05635    14513.881 
   32980    333.40513    8.7718708    55.897741   -147.74041     895.1782    14513.881 
   32990    334.76747    6.9638192    51.061106   -149.51535    2938.7783    14513.881 
33000        0.98280686629817559652 10.14603658240691253 1 66 -293.77522118226414705
   33000    312.01032    3.6827662    54.423756   -152.40861   -2078.9142    14513.881 
   33010    285.50661    4.6481819    55.990526   -155.57662   -28.662583    14513.881 
   33020    268.42234    7.0835096     56.64795   -158.16895   -53.172892    14513.881 
   33030    289.89239    8.2519785    51.150346   -159.93088    2077.3978    14513.881 
   33040    273.57307    8.5153925    58.541633   -161.14803    383.08925    14513.881 
   33050    267.36307       10.012    54.373969   -161.56239   -899.66486    14513.881 
   33060    270.87202    9.1476295     56.95496   -160.86807   -1873.2879    14513.881 
   33070    276.50014    6.5647916    54.783087   -159.16964   -79.974783    14513.881 
   33080    279.34101    6.1416044    56.852489   -156.54795    2844.9602    14513.881 
   33090    289.52526    6.5437637    59.987076   -152.65665    2091.1125    14513.881 
33100        0.98375033995335792181 10.15186672515508981 1 67 -282.13209926653019011
   33100    296.27401    7.8736678    55.430068   -147.89535    -2337.777    14513.881 
   33110    314.01293    8.3475338    62.692324   -142.59746   -1134.7559    14513.881 
   33120    316.18477    7.9463647    60.257682   -138.63731   -1705.8774    14513.881 
   33130    305.32587    7.3180964    66.734907   -136.03967   -1519.3171    14513.881 
   33140    334.44805    10.154199    53.939597   -134.22046    228.64505    14513.881 
   33150      299.166    11.362229    65.171886   -133.16175    2089.7841    14513.881 
   33160    323.01012    8.5794672     62.20006   -132.60994     3108.577    14513.881 
   33170    309.96739    6.0297749    73.581328   -132.89026    1155.6306    14513.881 
   33180    319.20917    5.4164542    58.063137   -133.98304   -2043.7779    14513.881 
   33190    309.66252    6.4625591    65.026908   -135.51036   -804.49565    14513.881 
33200        0.98628460372879322993 10.130454302818394652 1 65 -286.69746518707108862
   33200     329.9358    8.3538622    55.903368   -137.20912   -2018.1516    14513.881 
   33210    320.62402     10.46264    59.416911   -139.29249    2185.1418    14513.881 
   33220    312.96556    10.741421    66.759099   -141.65717    783.61242    14513.881 
   33230    284.96415    11.952486     60.90553   -144.08848   -22.498506    14513.881 
   33240    294.68275    9.2737913    62.155338   -145.85955   -1649.0739    14513.881 
   33250     319.6655    10.480349    58.407921   -147.27506   -646.35335    14513.881 
   33260    310.58197    9.4628234    63.931693   -148.68557    1017.6193    14513.881 
   33270    285.63505    8.7504832     62.74109   -150.09812   -325.50267    14513.881 
   33280    301.04714    8.0319751    62.908032   -151.32658    441.13933    14513.881 
   33290    298.25534    6.4139945    61.666833   -152.60843    1555.2945    14513.881 
33300        0.98516791739348474888 10.133789320790954847 1 69 -288.8219142640527366
   33300    298.07423    7.0257745    55.429578   -153.76951   -1650.0231    14513.881 
   33310    279.97361    6.4084543    64.146314   -154.33241   -1027.1536    14513.881 
   33320    291.56781    5.2911581     63.84808   -154.42632   -1406.3309    14513.881 
   33330    284.89237    6.5045611    64.541814   -154.33724    697.22571    14513.881 
   33340    290.22029    6.8162666    59.159759   -153.99776    690.78835    14513.881 
   33350    295.87384    7.0993108    54.572378   -153.35435    902.04298    14513.881 
   33360    281.55181    6.3570148    63.978334   -152.43475    647.75952    14513.881 
   33370    300.01852    5.8421575    61.355285   -151.27675    1318.5367    14513.881 
   33380    292.48345    6.2821443    64.834529   -150.12516    443.32027    14513.881 
   33390    292.44099    6.7737584    63.557184   -149.01621    622.84011    14513.881 
33400        0.97946168212883788495 10.159554708427030789 1 68 -280.44849744166822347
   33400    292.92174    5.8646205    65.650772    -147.7306   -2564.4502    14513.881 
   33410    321.91389    6.4911748    63.021952   -146.32082   -1632.8219    14513.881 
   33420    316.39169    6.0755243    64.482256   -145.17384   -2050.9988    14513.881 
   33430    302.61806    6.4352789    63.690912   -144.51308    409.85457    14513.881 
   33440    297.11967    6.7628546    62.400149   -143.98202   -345.61557    14513.881 
   33450    300.25356    9.6769181    56.247668   -143.36628    1402.3104    14513.881 
   33460    293.90129    11.805222    63.921266   -142.27721    1408.5809    14513.881 
   33470    295.80345    11.736994    65.235468   -140.35097    594.75153    14513.881 
   33480    303.46318     10.89959    67.215682   -137.45915   -933.52956    14513.881 
   33490    312.62668     11.50397    65.312177   -134.13999    1198.1393    14513.881 
33500        0.97499369544785585706 10.150333250978603061 1 70 -281.05917276112177206
   33500    331.57653    6.2260823     64.00661   -130.82744    547.33252    14513.881 
   33510    316.44134    4.1471719    63.075169    -128.7964    2528.7838    14513.881 
   33520    317.69337    1.8986033    62.419462   -127.88436   -2510.5624    14513.881 
   33530    317.20844    2.9892704    59.757992    -127.8198   -505.39265    14513.881 
   33540    325.70854    4.4897543     56.52097   -128.57927   -274.14193    14513.881 
   33550    300.37649    5.8058686     65.80652   -130.01213    1272.6097    14513.881 
   33560    313.09276    5.8667501    63.413426   -131.86458   -1378.0162    14513.881 
   33570    320.51468    9.0467916    60.197469   -134.42676    -864.7161    14513.881 
   33580    318.85366    7.1616698    57.578086    -138.4509   -538.52671    14513.881 
   33590    286.74141    5.3981164    63.694191   -142.81817    2552.4503    14513.881 
33600        0.97575303407963143165 10.151233296944660367 1 67 -281.73258005633499579
   33600    297.70311    6.9447594    52.505076   -146.84833    929.53113    14513.881 
   33610    301.69338    5.7879016    61.900716   -150.30932    164.32758    14513.881 
   33620    299.51821    6.3676047    59.151761    -153.9249   -1364.8187    14513.881 
   33630    300.83915    6.4183213    56.499263    -157.1882    581.21146    14513.881 
   33640    302.22835    7.2754271    52.518289   -160.09678     885.0683    14513.881 
   33650    280.66084    7.2082358    61.076687     -162.445    905.52967    14513.881 
   33660    278.19241     6.041492    57.656817   -164.04213    493.90004    14513.881 
   33670    273.84934    6.3839463    59.750978   -164.94405   -416.53631    14513.881 
   33680    279.38367    4.1770153    58.045313   -165.31075    277.34724    14513.881 
   33690    295.19568    3.3289402    52.679243   -165.26843   -2249.8803    14513.881 
33700        0.9697770031932291257 10.209153433632216945 1 66 -300.77347524078282959
   33700    299.88844    3.4149815    47.704691   -164.89908   -2344.0255    14513.881 
   33710    273.79751    4.2794953    54.681068   -164.16998   -1564.0044    14513.881 
   33720    246.12248    6.9212036    60.995667   -162.54341   -195.51534    14513.881 
   33730    291.84842    7.2026452    52.998396   -159.56388    633.00991    14513.881 
   33740    289.33788      7.88426    56.542102   -155.97916    1109.5016    14513.881 
   33750    291.63955    7.7821449    51.976565   -152.40662    151.88355    14513.881 
   33760      269.243    9.0091803    58.083298   -148.63603    1907.2005    14513.881 
   33770    291.12064    7.5577763    56.697288   -144.52942   -924.31746    14513.881 
   33780    292.54891    4.5672108    65.343254   -140.98323     719.4308    14513.881 
   33790    310.24328    4.7324209    58.393715   -138.84593   -886.89432    14513.881 
33800        0.97380961216924266655 10.19872309653147191 1 66 -276.24056802573699088
   33800     305.3016    5.8121398    55.840964   -137.91356   -2159.0973    14513.881 
   33810    313.92928    8.6319187    53.075092   -137.39098   -88.386852    14513.881 
   33820    331.59606    9.0702892    55.734732   -136.94652    124.43677    14513.881 
   33830    312.24348    6.1672976    64.917963   -137.14804    3052.9796    14513.881 
   33840    303.39331    9.1931422    64.026605   -138.17874   -2120.7793    14513.881 
   33850     293.7645     11.22321    58.846657   -139.50653    -2674.625    14513.881 
   33860    333.75841    8.7752937    52.335887   -140.85592   -704.23413    14513.881 
   33870    312.48096    6.0247623    58.371954   -143.02101    1579.2225    14513.881 
   33880    298.57714    6.0711348    56.654526   -145.42882    1167.4747    14513.881 
   33890    316.52847    7.5896022     54.17464   -147.89853    413.04072    14513.881 
33900        0.97948797570523349343 10.167774301815860838 1 69 -297.52088002374449616
   33900    323.07575    6.7852942    55.694786   -151.14071   -606.35596    14513.881 
   33910    278.50127        8.059    58.375133   -155.01998    354.78546    14513.881 
   33920    275.12463    10.101013     55.23793   -158.36346   -808.93071    14513.881 
   33930    283.86952    9.3367802    57.943675   -160.80604     3105.578    14513.881 
   33940     296.1432    7.9602585    50.902495   -162.58174    -1493.808    14513.881 
   33950    292.43976    6.2687351    50.110203   -163.92276    -1233.267    14513.881 
   33960    286.29412    6.6047702    56.673356   -164.83849    -825.2872    14513.881 
   33970    289.81242    7.3154301    52.228866   -165.28236    1073.1598    14513.881 
   33980    294.19324    5.0290248    56.470477   -165.34429    372.64394    14513.881 
   33990    277.03151    4.6221652    55.361835    -164.9178    1062.2249    14513.881 
34000        0.97553217240353673478 10.167662272837251436 0.99470899470899465378 68 -290.43861014532080844
   34000    279.83499    1.8745313    56.084689    -163.6501   -735.72603    14513.881 
   34010    297.62259    2.6017248     52.34597    -161.3898    2999.0919    14513.881 
   34020    263.92354    5.2122321    56.419076   -157.96919   -1714.8127    14513.881 
   34030     279.4692     9.191264    53.517902   -152.10898   -2064.5802    14513.881 
   34040    299.99878    11.025042    60.134621   -143.96751   -2551.8789    14513.881 
   34050    339.79093    11.033761    56.557848   -137.09084    1252.1709    14513.881 
   34060    327.39938    9.0117733    66.842724   -133.49553    3002.2749    14513.881 
   34070    326.06589    6.7163163    55.012537   -132.23591    2323.0127    14513.881 
   34080    319.50523    5.2701621    52.194606   -132.09935     -872.894    14513.881 
   34090    290.55007    5.5653314    62.555617   -132.24113   -2256.2708    14513.881 
34100        0.97201783055896662233 10.163377091149746079 0.99470899470899465378 69 -275.98936626160792684
   34100    317.56015    6.8188782    54.995861   -132.10822    105.13683    14513.881 
   34110    308.97537    7.9474591    63.604487   -132.36508    1615.0205    14513.881 
   34120     317.9295    10.595921    61.361531   -133.26596   -1176.6041    14513.881 
   34130    327.33459    12.719643    55.314612   -134.39687   -2303.6134    14513.881 
   34140    330.09862     13.16602    52.951121   -136.24676   -496.57559    14513.881 
   34150    269.54018      11.3187    72.162191   -138.58104    1600.1233    14513.881 
   34160    297.00698    10.498934    53.972272   -140.80878    1308.9157    14513.881 
   34170    298.62177    7.4795336     57.91319   -143.18846    -1983.494    14513.881 
   34180    334.53281    4.7039582     49.73016   -146.12173   -193.88848    14513.881 
   34190    303.23519    6.2488342    55.738977   -149.76269    3090.6276    14513.881 
34200        0.96681469230993111186 10.188358096444995127 0.99470899470899465378 70 -286.31761976632049027
   34200    293.38095    4.6385244    55.244585   -153.39166    3100.7273    14513.881 
   34210    286.73413    5.7246309     50.30872   -156.69041   -112.65995    14513.881 
   34220    281.30616    5.0250454    54.378067   -159.22904   -3758.2545    14513.881 
   34230      283.365    7.9640152    50.596761   -160.89983   -3560.2795    14513.881 
   34240    290.33524    8.0815489    54.251537   -161.89133    2322.3829    14513.881 
   34250     295.5289    7.5662629      56.5417   -162.63009    1087.8122    14513.881 
   34260    277.27803    7.1395097     57.09667   -162.95825    539.56186    14513.881 
   34270    280.22989    6.6632314    55.408561   -162.80876   -807.13995    14513.881 
   34280    273.72323    6.2550808    56.854851   -162.17194    1044.0816    14513.881 
   34290    281.11391    5.6721918    53.653931   -160.58312   -90.834102    14513.881 
34300        0.9637479188642136263 10.214068645624152509 0.99735449735449732689 69 -287.00876523157450038
   34300    285.47013    4.7526509     52.47446   -157.66706   -89.865899    14513.881 
   34310     295.2885    5.0557671    64.164181   -152.45316   -532.30522    14513.881 
   34320    331.60926    5.2859792    52.969663    -144.8893    1911.2832    14513.881 
   34330    302.61496    8.2348917    64.596558   -137.32356   -270.60605    14513.881 
   34340    313.60881    6.9343873     61.16168   -131.64024   -401.90874    14513.881 
   34350    343.83772    6.1932527    60.233001   -128.19998   -2011.8941    14513.881 
   34360    328.89233    10.054088    60.775532    -127.3123    360.66837    14513.881 
   34370    320.90409    11.420768    59.754965   -128.01675   -1258.8638    14513.881 
   34380    284.14081    11.913872    62.324295   -129.21958    1466.6771    14513.881 
   34390    301.45274    9.6874269    60.322963   -130.20371   -480.53898    14513.881 
34400        0.95722517608804336131 10.228174780688807033 1 69 -270.00998462574017367
   34400    306.66481    8.5269767    57.104015   -131.06533    2170.6655    14513.881 
   34410    300.17455    7.9592433     59.01777   -131.87673   -1909.5374    14513.881 
   34420    312.37162    6.2207317    52.077412   -132.45134    485.71345    14513.881 
   34430    315.85239    3.7678702    63.932602   -133.45405    2252.7683    14513.881 
   34440    315.50221    3.4325573    54.041161    -135.2147    2101.0706    14513.881 
   34450    303.27042    2.8220368    56.488975   -137.48134   -3633.5526    14513.881 
   34460    301.11181    2.1251796     56.69609   -139.86406   -3179.5417    14513.881 
   34470    312.28591    2.2182587    57.462712   -142.23987   -1963.1034    14513.881 
   34480    289.58203    2.4261758    59.449729    -144.9045    490.93373    14513.881 
   34490     267.9723    4.2326317    61.478738   -147.11815    -1350.647    14513.881 
34500        0.96180136042655151041 10.224193745956378976 1 67 -277.1407653247645726
   34500    284.02478    4.1587224    58.874489   -148.45393    824.75424    14513.881 
   34510    319.45505    4.2517945    51.742987   -149.81023    1577.7091    14513.881 
   34520    293.99134    3.7971452    60.148741   -151.70311    3774.8862    14513.881 
   34530    303.79956    4.0407988    52.260531   -154.04709     19.99187    14513.881 
   34540    294.65227    3.9703664    55.794125   -156.61708    -1100.929    14513.881 
   34550    300.22201    2.8746356    56.628951   -160.05446   -876.17739    14513.881 
   34560    269.11086    2.9562579    62.230673   -164.01299   -1714.7061    14513.881 
   34570    284.95697    4.3994381    51.542768   -168.14607    -957.9775    14513.881 
   34580    278.81248    7.1863315    53.568336   -172.17793   -291.66927    14513.881 
   34590    266.83779    7.4018743    58.186433   -175.44627   -577.46597    14513.881 
34600        0.97017449187916826592 10.190897908499868763 1 71 -308.18701726664050966
   34600    286.57965    6.1151517    52.450314   -178.34262    3144.2607    14513.881 
   34610    244.55602    7.0977542    57.297195   -180.53786    1021.2376    14513.881 
   34620    266.47295    7.0523028    49.031736   -181.57393   -850.45241    14513.881 
   34630    258.61465     8.872308    54.694587   -181.37007   -3516.7841    14513.881 
   34640    303.74485    8.7703873    49.706624   -179.93439   -2379.5014    14513.881 
   34650     294.6132    9.5825671    55.949502   -177.77315    2482.6788    14513.881 
   34660    298.80934    11.272502    57.449962    -174.8919     908.9662    14513.881 
   34670    284.21545      11.3925    52.904697    -171.1371    306.43062    14513.881 
   34680    274.48951    9.7624333    54.941186   -165.91134    26.604846    14513.881 
   34690    305.26375    8.5143737    51.388482   -158.91814    1447.8986    14513.881 
34700        0.97608235824618283516 10.134911153202928347 1 72 -286.31016677237727208
   34700    296.30956    10.258983    53.300555    -152.0573    1765.7385    14513.881 
   34710    322.54431    8.8044682    48.384143   -147.30234   -1770.1183    14513.881 
   34720    310.57329    8.8602207    61.476151   -144.42385    726.87108    14513.881 
   34730    315.24229    11.406997     53.67161   -142.94521    830.75131    14513.881 
   34740    278.43538    12.992743    63.012037   -142.24604   -396.14345    14513.881 
   34750    289.69051     10.03105    57.453409   -141.38791   -201.34948    14513.881 
   34760    285.41273    8.2941373    55.709525   -140.10218   -2930.9495    14513.881 
   34770    304.93816    6.5601502    58.647323   -138.43763    1712.0346    14513.881 
   34780    289.86242    5.5710678     66.19066   -136.84964    -347.3396    14513.881 
   34790    311.43259    5.3074879    54.442451   -135.49777   -243.85034    14513.881 
34800        0.98348730955400820442 10.110951045540685911 1 68 -266.45950491608374477
   34800    291.32047    4.9617482    63.386625   -134.46711   -814.24468    14513.881 
   34810    310.71859    7.0305155    59.502925   -133.36705    1105.1861    14513.881 
   34820    314.29149    7.7278057    66.542326   -132.52436    2090.8895    14513.881 
   34830      326.229    9.4781504    60.753624   -132.72093   -27.224461    14513.881 
   34840    318.13356    12.719519    63.341507   -134.37987   -2268.7889    14513.881 
   34850    333.94509    13.387992     51.59349    -137.2226   -401.85906    14513.881 
   34860    323.79086    13.384803    55.267295   -141.39518    608.26123    14513.881 
   34870    301.72092    10.696216    57.336557   -146.26138    1056.9076    14513.881 
   34880    300.78533    8.4064937    49.530903   -151.01329    462.94345    14513.881 
   34890    305.64587     8.159201    53.852188   -155.26425    1389.2801    14513.881 
34900        0.98283985514431260189 10.118372250303577786 1 66 -296.87769814973023585
   34900    304.37242    8.6628266     49.34695   -158.97169    164.97319    14513.881 
   34910    292.44727    6.8999077    55.440903   -161.54001    1226.0851    14513.881 
   34920    293.03881      8.33603    52.616488   -163.33658    182.42776    14513.881 
   34930    285.06067    7.7372036    54.246313   -164.28014    158.59317    14513.881 
   34940    272.57382    7.1554865    57.986623   -164.43789   -948.30186    14513.881 
   34950    292.78334    6.2666751    50.629017   -163.94332   -1905.7293    14513.881 
   34960    287.87379    6.6165925    55.644918   -163.03408   -1429.9509    14513.881 
   34970    294.98879    7.0934371    54.503401   -162.00515    671.53345    14513.881 
   34980    276.77942     5.164843    58.247015   -160.88651    1082.2168    14513.881 
   34990    280.02089    6.8288825    53.703146   -159.18052    1234.6332    14513.881 
35000        0.98607488290386524632 10.126091751539696872 1 73 -299.97699127572963107
   35000    316.22597    6.7514203    47.165797   -156.70034   -583.68249    14513.881 
   35010    289.53097    7.8860625    55.984612   -154.15791    476.66774    14513.881 
   35020    311.31473    7.7451837    48.229451    -151.2411   -1715.0622    14513.881 
   35030    297.35272    6.0844175    59.626014   -148.56208   -1773.7163    14513.881 
   35040    315.01281    9.0883497    50.478864   -146.30824    993.49105    14513.881 
   35050    286.93252    9.8733569    57.992071   -144.51992    1010.2561    14513.881 
   35060    318.44071    7.3997094    54.671018   -142.51904     1170.303    14513.881 
   35070    302.47592    6.6765549    60.487872   -141.06829   -432.48787    14513.881 
   35080    303.32338    7.0971115    61.945304   -140.26351    -686.0062    14513.881 
   35090    307.20925    6.9321011    64.970174   -140.07427    390.88447    14513.881 
35100        0.98562555241464067102 10.112798810791257864 1 66 -284.11998372865730289
   35100    317.35727    11.192076    55.063644   -140.33076   -1125.4024    14513.881 
   35110    305.94209    13.311613    56.786082   -140.96396   -1479.8053    14513.881 
   35120    332.79859     12.86037    45.476862   -141.68867    -780.7633    14513.881 
   35130    304.56034    9.7581714    56.211352   -142.72611    6.1911444    14513.881 
   35140    288.29811    11.051554    59.883965   -143.66707    3161.4581    14513.881 
   35150    279.87527    11.110353     61.12226   -144.13056    2332.0302    14513.881 
   35160     295.6341    9.4420939    54.358076   -144.09529    1220.2973    14513.881 
   35170    296.96447    8.5992643    56.938973   -143.64914   -1272.1623    14513.881 
   35180    311.44448    11.456675    55.860898   -143.09917   -1918.9887    14513.881 
   35190    298.94697    11.892253    55.782841   -142.72298    735.69023    14513.881 
35200        0.98394751111757550177 10.099533719806068177 1 68 -274.93208711013971879
   35200    292.56354    12.028288    62.745212   -142.37648    1727.6304    14513.881 
   35210    300.36793    9.9999244    56.450752   -141.95386    791.22112    14513.881 
   35220    291.39579    10.315907    56.154869   -141.43465   -490.01316    14513.881 
   35230    301.76546    7.4370429    55.677666   -140.85775   -1043.3744    14513.881 
   35240    307.17559    6.5909827    50.009353   -140.20372   -106.47314    14513.881 
   35250    302.25556     7.828922     59.19274   -139.37215    572.80335    14513.881 
   35260    324.48524    5.5737212    59.140778   -138.61465   -1407.0247    14513.881 
   35270     312.6995    5.8829967    60.487358   -138.35201   -2594.2259    14513.881 
   35280    339.48426    5.1780046    55.352701   -138.95638   -293.17052    14513.881 
   35290    299.75991    5.3547911    59.815643    -141.1009    1382.7162    14513.881 
35300        0.98103079268268866819 10.126690510137473566 1 68 -275.86611021659268772
   35300    290.95391    5.7389042    57.612936    -144.0398    1985.0411    14513.881 
   35310    276.18586     4.898793    56.244993    -147.2271    514.16738    14513.881 
   35320    288.46276    4.6979642    55.548067   -150.46736    845.88872    14513.881 
   35330    286.86075    3.7213838    51.016377   -153.76919    1526.1926    14513.881 
   35340    303.86279    4.3806119    47.280626   -156.60725   -200.76687    14513.881 
   35350    315.60075    4.9487042    47.691616    -159.4102   -1113.7689    14513.881 
   35360    293.21846    5.3358956    51.762297   -162.11971   -2876.6322    14513.881 
   35370    276.18732    6.2614433    49.242644    -164.4133    868.13072    14513.881 
   35380    268.72557    7.0595413    51.884288    -165.6809    1201.9671    14513.881 
   35390    286.61875    8.3647213    47.678711   -166.03686   -82.873629    14513.881 
35400        0.98033905727954251397 10.150264817189606603 1 66 -291.15045084641519679
   35400    276.91331    6.4991484    51.632136    -165.6857   -2941.6133    14513.881 
   35410    288.16609    6.2892966    50.789071   -164.36648   -1115.2266    14513.881 
   35420    278.58315    4.6641741     54.94412   -162.03325    785.26737    14513.881 
   35430    279.90739    3.2842811    58.822788   -158.64059    2378.5254    14513.881 
   35440    278.33073    5.1190771    55.012317   -153.96767   -1216.9438    14513.881 
   35450    297.55916    10.590033     52.76797   -148.48172    275.08304    14513.881 
   35460     303.3112    13.495469    53.279606   -143.07528     1739.343    14513.881 
   35470       288.51    13.575199    57.631838   -138.93996    673.52352    14513.881 
   35480    321.70295    9.2879255    53.755035   -135.83049   -1862.6997    14513.881 
   35490    334.37608    8.2379184       61.827   -134.11605   -908.38881    14513.881 
35500        0.9847271032534906654 10.148168299322641417 1 69 -298.5715873588342788
   35500    362.30551    5.1955172    59.223844   -134.41707    108.16563    14513.881 
   35510    320.75093    6.1274665    60.114915   -136.58358    2065.6569    14513.881 
   35520    302.45801    9.0679156    55.312812   -139.09628   -1617.7513    14513.881 
   35530    300.33744    9.1264395    54.341065   -141.10962    440.40089    14513.881 
   35540    309.51867    10.804887    61.215243   -143.07106    1802.3356    14513.881 
   35550    307.88372    12.151884    58.893357   -145.37839    4489.8338    14513.881 
   35560     313.4887    11.193121    53.499802    -148.0951   -409.69521    14513.881 
   35570    302.59811    10.103276    52.663117   -150.92955   -4080.9555    14513.881 
   35580    289.21957    8.9280094    51.291396   -153.46569   -3687.7355    14513.881 
   35590    263.04996    6.2765836    51.130775   -155.24739   -1916.6515    14513.881 
35600        0.97879560481760052859 10.16800684095088414 1 70 -272.04424668321314584
   35600    256.33758    6.0350869    55.088171   -155.90201    255.38678    14513.881 
   35610    279.27605    6.8911394    57.399587   -155.42928    758.21311    14513.881 
   35620     291.8519    8.9208981    54.957598   -154.36098    685.49599    14513.881 
   35630    296.38222    9.7862189    56.594759   -153.11282    901.14611    14513.881 
   35640    301.59828    7.9181102    59.706375   -151.57377   -68.329424    14513.881 
   35650    317.81752     5.422607    55.290969   -150.00042    726.13987    14513.881 
   35660    300.54623    7.7142122    54.262634   -148.38807   -2086.6198    14513.881 
   35670    306.94964    9.6600068    49.981908   -146.24979    1734.8796    14513.881 
   35680     306.2655    8.4584525    62.214552   -142.92675    3064.5776    14513.881 
   35690    325.65852    6.4367538    52.492669   -138.47571    739.56605    14513.881 
35700        0.97743591560420539643 10.176754840418333004 1 70 -275.11085838781463053
   35700    312.77143     4.977347    62.731926    -133.3994   -3672.5988    14513.881 
   35710    331.82997    5.5886508    53.440762   -128.02838   -1673.9292    14513.881 
   35720    337.08847    6.1375453    63.095562   -123.29045    3097.2513    14513.881 
   35730      329.395    8.7202169    63.369769   -120.12669    609.29916    14513.881 
   35740    329.11519    10.319593    54.087008   -118.65898   -2661.3762    14513.881 
   35750    309.93746    9.5075432     71.56832   -118.14398    -444.1909    14513.881 
   35760    347.66884    9.1141985    64.948049   -118.42917    3033.4267    14513.881 
   35770    339.69276    8.0959582    61.219724   -120.25042   -511.62307    14513.881 
   35780    321.95627    7.0028605    64.504498   -123.97609   -885.31519    14513.881 
   35790    302.50314    7.6059236    62.943078   -128.27272   -3295.0269    14513.881 
35800        0.97765075562188474834 10.151806585246468728 1 63 -271.90075652408052065
   35800    307.33452    7.6686748    57.359504   -132.65267    315.20596    14513.881 
   35810    295.60633    9.5534063       59.978   -136.18564   -1179.8708    14513.881 
   35820    319.48163    9.7913339    56.340872   -138.86803    476.81383    14513.881 
   35830    311.31888    8.2424468    59.704958   -141.34433    842.95422    14513.881 
   35840    288.46121    7.4047683    66.764578   -143.12854    2257.2972    14513.881 
   35850    304.65194    8.3098001    59.973194   -144.42425   -327.50101    14513.881 
   35860    302.10698     8.956682    62.782928   -145.35983    421.23136    14513.881 
   35870    313.28435    8.3150261    57.258962   -146.35808   -1194.6434    14513.881 
   35880    298.20399    8.4064713    60.399694   -147.61408   -814.75458    14513.881 
   35890    305.40425    9.2967509    58.261001   -149.08301    540.38064    14513.881 
35900        0.98237246146960965909 10.129978889517531115 1 68 -286.24844113894749853
   35900    299.40822    8.3791931    51.859263   -150.59163     2942.783    14513.881 
   35910    291.47699    7.9866479    52.513365   -151.74369   -182.68513    14513.881 
   35920    283.28681    5.1479067    59.493102   -152.43839   -1114.3325    14513.881 
   35930    302.70726    4.4271881    56.911908   -152.78024    130.26957    14513.881 
   35940    305.91235    5.3473148    57.609246   -153.24693    755.77871    14513.881 
   35950    304.00902    8.6830266    56.725581   -154.20713    1092.3721    14513.881 
   35960    296.83879    8.9453599    58.153882   -155.31488    318.13072    14513.881 
   35970    307.31442    8.8287688    55.674816    -156.6095   -193.71273    14513.881 
   35980    299.02269     5.370214    55.187533    -158.4866   -1642.2248    14513.881 
   35990    295.33745     5.182795    50.948628   -160.90494   -3254.2262    14513.881 
36000        0.98129461866044698226 10.129904923188474797 1 69 -291.8893692507303399
   36000    282.44066    6.9931201    58.899528   -163.92027    2096.9913    14513.881 
   36010    291.99941    9.8079507    50.575525    -167.2149     1902.201    14513.881 
   36020    257.31644    10.984272    50.930744   -170.46456     1062.502    14513.881 
   36030    256.07172    12.680876    51.856326   -172.64052    839.58909    14513.881 
   36040    260.85479    12.130798    54.349156   -173.74079    830.80289    14513.881 
   36050    275.01643    7.9246055    56.720186   -173.91407    567.76177    14513.881 
   36060    282.67672    6.8659719    50.341686   -173.37424    -2986.909    14513.881 
   36070    299.42642    4.6499807    52.843274   -172.18654   -748.07129    14513.881 
   36080    290.33399    5.5773006    52.555138   -170.21875   -2659.0942    14513.881 
   36090    291.34319    6.4524668    49.970347   -167.35451   -384.82402    14513.881 
36100        0.97306799860083825759 10.177200466510605281 1 68 -307.53888536950478283
   36100     318.4851    3.7731453     49.10394   -163.23866    2220.6039    14513.881 
   36110    274.58112    4.9532954    54.624145   -158.59857    2515.6666    14513.881 
   36120    295.55997    6.0229737    54.754164   -153.52671    2647.7914    14513.881 
   36130    285.62443    7.4372837    61.703489   -148.37578    2082.5754    14513.881 
   36140    308.20188    6.5028135    57.121694   -144.10537   -219.56179    14513.881 
   36150    317.41866    6.6122669    60.318104   -140.74829   -2706.7531    14513.881 
   36160    312.53178    6.3832076    54.642706   -138.77944   -6338.4942    14513.881 
   36170    276.44401    6.8318274    68.862623   -137.65513   -1536.0792    14513.881 
   36180    290.85666     6.023535    65.339751    -136.7871   -27.149353    14513.881 
   36190    296.94849    6.1577745    66.642957   -136.01216    1131.6431    14513.881 
36200        0.96120142861327717565 10.226928519744355128 1 69 -278.77111393113193571
   36200    316.23517    8.4296806    52.788774   -135.49029   -1346.5129    14513.881 
   36210    323.27727    9.2147827    55.536708   -135.22644    27.917328    14513.881 
   36220    333.05826    8.1588069     57.62473   -135.48188    4485.6742    14513.881 
   36230    313.96807    5.3014398    55.176616   -136.93041    677.63344    14513.881 
   36240    292.79727    6.4893714    58.606803   -138.93621   -2983.3329    14513.881 
   36250    284.26421    8.2583415    54.249647   -141.04351   -3171.3768    14513.881 
   36260    278.40184    8.8020991    54.905571     -142.925   -1963.9442    14513.881 
   36270    307.92711    6.2991531    51.720094   -144.60966    2905.6413    14513.881 
   36280    291.69078    7.2615005    54.027588   -146.28355    2685.9624    14513.881 
   36290    320.02177    7.2225187    49.388065   -148.16829    2559.6928    14513.881 
36300        0.96694624059779765712 10.18428991146481799 0.99735449735449732689 75 -282.9541702404226271
   36300    291.19375    8.4908707    53.991163   -151.01919     1886.348    14513.881 
   36310    272.31103    10.292328    55.988456   -154.49897   -542.90894    14513.881 
   36320     277.0471    8.8056969    55.777545   -158.26772   -626.28416    14513.881 
   36330    274.31177    8.3288403    49.421512   -161.70372   -3876.9562    14513.881 
   36340    295.60749    9.4123659    47.770064    -164.6713   -3113.5824    14513.881 
   36350    291.19078    8.3337904     52.33939   -167.25562   -1806.1795    14513.881 
   36360    285.60403     8.203006    50.730348   -169.53915    910.48596    14513.881 
   36370    282.22782    7.9156738    55.954935   -171.52783    3487.1014    14513.881 
   36380    295.66388     8.066905    52.980335   -173.29026    1705.3326    14513.881 
   36390    295.62815     9.840241    49.208842   -175.29185   -685.12298    14513.881 
36400        0.97429090675854668202 10.167242011647894984 0.99735449735449732689 74 -294.08292611843438635
   36400    258.48697    12.812789    50.561435   -176.96684   -1434.0227    14513.881 
   36410    250.76592    13.669754     55.13848   -177.44554   -505.55582    14513.881 
   36420    276.62116    9.1434946    53.339288   -176.52479    1616.5018    14513.881 
   36430    290.16953    7.6255672    53.708793   -174.27521   -455.08644    14513.881 
   36440    308.42197    4.6680458    51.399737   -170.66585   -823.01453    14513.881 
   36450    291.95112    5.2434542    59.050212   -165.85758    438.03713    14513.881 
   36460    311.78339    5.1610257    51.707882   -160.46138    1163.8521    14513.881 
   36470    292.11848    7.1046922    53.598167   -155.09155   -1379.7795    14513.881 
   36480    310.19025    7.5255605    51.554599   -150.35967   -837.49023    14513.881 
   36490    305.16796    6.8828144    57.270162    -146.4838    70.802675    14513.881 
36500        0.9768930155329677012 10.133870301412429171 1 70 -281.94171223157258055
   36500    305.26608    8.2874038    60.070025    -143.6308    3774.6091    14513.881 
   36510    309.43498    10.124535    54.526823   -141.51526    1423.4554    14513.881 
   36520    312.15911    11.263698    59.462871   -140.02148    -440.1311    14513.881 
   36530     307.6421    12.333794    63.947507   -139.19777   -47.837357    14513.881 
   36540    291.67196     12.04692    65.173779   -138.90888   -640.90459    14513.881 
   36550    288.27474    10.007834    62.868921   -138.56088    496.14914    14513.881 
   36560     325.0622     6.212027    59.435721   -138.23522   -1670.4633    14513.881 
   36570    303.33341    6.7975301    63.452005   -138.48119   -2356.7214    14513.881 
   36580    285.53867    9.1710416    62.799349   -138.74684    23.041929    14513.881 
   36590    283.14745    9.5712009    66.422198   -138.59796    1616.2984    14513.881 
36600        0.97633535841791785348 10.1357100147328687 0.99735449735449732689 68 -276.66925652576924222
   36600    304.82913    8.5946834       65.646   -138.55632    1058.7574    14513.881 
   36610    315.30416    7.6418092    53.634964   -139.36687   -1389.0286    14513.881 
   36620    301.26858    6.6839583    62.871667   -140.73998   -2741.8599    14513.881 
   36630    317.20436    5.4264333    60.456346    -142.4995     1822.225    14513.881 
   36640    323.40331    6.3233213    58.775916   -145.94802    667.13541    14513.881 
   36650    310.24528    7.1591474    63.578852   -151.64599     2890.316    14513.881 
   36660    304.14803    5.6871406    49.356226   -158.83524   -798.54726    14513.881 
   36670    285.26201     5.809001    55.962184   -164.79565    546.53806    14513.881 
   36680    273.32384     5.805556      51.7825   -168.80074     1362.772    14513.881 
   36690    245.98574    4.9123465     54.05182   -170.60808   -1287.1442    14513.881 
36700        0.97426846831608859834 10.14152200986149488 0.99735449735449732689 67 -295.9014850137131134
   36700    276.14269      3.51629    50.140221   -170.78589   -1400.6431    14513.881 
   36710    280.06125     4.396538    50.292896   -170.06367   -443.34449    14513.881 
   36720    261.73434    6.4567685    54.675126   -168.78017    751.91776    14513.881 
   36730    259.00303    5.6156112    54.073972   -166.88036    2282.1021    14513.881 
   36740    259.12328    4.7226269    59.299966   -164.03593   -2235.4543    14513.881 
   36750    291.04665    4.8921238    54.505442   -160.16677   -1675.7832    14513.881 
   36760    292.08102    5.1461727    57.678733   -156.39198    403.79389    14513.881 
   36770    308.42089    5.6900217    52.878364   -153.07549   -566.94722    14513.881 
   36780    283.87488    6.7758522    61.409492   -150.55631    84.978364    14513.881 
   36790    308.96014    6.6070559    54.680477   -148.41194   -1480.1004    14513.881 
36800        0.96912993802122016085 10.147800103115084625 0.99206349206349198067 70 -273.45807140810285318
   36800    280.07728     8.440287    60.391762   -146.55978    1469.3769    14513.881 
   36810    313.84274    10.669361    52.164241   -144.81075    519.40777    14513.881 
   36820    292.41766    12.222643    63.553143   -143.30795    1470.9157    14513.881 
   36830    276.83426    12.739563    60.787478   -142.22496   -319.18608    14513.881 
   36840    279.62492    15.352383    55.870668   -140.81287    345.16778    14513.881 
   36850    300.34487    12.616903    58.610603     -138.897    1086.8018    14513.881 
   36860    300.65406    9.8340105    60.209487   -136.63071   -1582.6985    14513.881 
   36870    291.86838    7.3309501    60.395618    -134.5795   -1722.3353    14513.881 
   36880    294.24649    7.5162683    62.600744   -132.43786    122.86103    14513.881 
   36890    302.14458    6.4192577    62.398923   -130.00752    966.66216    14513.881 
36900        0.97234417356208047156 10.147209802874780138 0.99470899470899465378 73 -272.86794000660643178
   36900    320.18263    6.2686772    59.608999   -127.79859    1117.7761    14513.881 
   36910    314.36904     6.073446    59.183524   -125.97765    -2687.139    14513.881 
   36920     312.6137    6.6393642    63.064799   -124.73078   -1998.1226    14513.881 
   36930     305.8917    7.8195147    63.430974   -123.81672    3276.7721    14513.881 
   36940    309.66248    7.4662698    59.540495   -123.30668    -723.3166    14513.881 
   36950    322.92058     6.486611    65.920977   -123.27481   -1284.3689    14513.881 
   36960    306.21611     4.825837    67.049787   -124.37088    443.83208    14513.881 
   36970    301.37551    4.4459968    63.760989   -126.61134    2555.2215    14513.881 
   36980    300.49971    5.4253624     63.59914   -129.94916    1330.1956    14513.881 
   36990    307.89104    5.6582088    60.105102   -135.52303   -1324.8207    14513.881 
37000        0.97788385668685806618 10.128938507288697934 0.99735449735449732689 68 -271.34689869201105239
   37000    282.35362    5.6495728    67.508574   -143.41724    -1010.298    14513.881 
   37010    308.49531    6.5115947    56.464359   -153.05455    1819.3118    14513.881 
   37020    274.17871    6.1082935    58.081674    -159.7702   -2279.3318    14513.881 
   37030     279.7373    6.2907484    50.824427   -163.11671   -2458.0679    14513.881 
   37040    271.37712    6.9775138    53.400499   -164.34649   -1198.6704    14513.881 
   37050    283.86927    8.8906652    48.439091    -164.5347    1198.5656    14513.881 
   37060    276.28007    8.6568427     49.42918    -163.8972    3877.8825    14513.881 
   37070    266.51541    5.8663673    57.684318   -162.17075    1813.4094    14513.881 
   37080    270.65063    4.3269554    55.286486   -159.46754   -593.12938    14513.881 
   37090    291.15398     3.727039    57.743122   -155.85973   -1517.2549    14513.881 
37100        0.98102766222853388101 10.091380733614187193 1 71 -288.72023629238174181
   37100    301.46826    3.9268927    48.584028   -152.13005     1379.092    14513.881 
   37110    299.59746    3.1051256    57.350518   -148.36179    716.81947    14513.881 
   37120    298.33681    4.2597106    61.751912   -144.79192   -940.02536    14513.881 
   37130    320.84734    5.3277753    54.312743   -141.68649   -3578.9992    14513.881 
   37140    307.20413    6.7169623    61.751738   -139.33514   -1601.5594    14513.881 
   37150    322.64831    7.5253932    53.015786   -137.48203   -10.794327    14513.881 
   37160    297.79286    6.9927295    63.077714   -136.15548     1742.792    14513.881 
   37170    300.10822    8.3718869    58.701164   -135.06485    1920.0294    14513.881 
   37180    325.19806    5.7187701    55.200349   -134.07275    3755.1892    14513.881 
   37190    305.48372       4.9985    64.944971   -133.73794    1371.0665    14513.881 
37200        0.98895137102842511911 10.102053363043403067 1 70 -277.20899872088796201
   37200     315.6665    4.1789782    58.755373   -134.18583   -3055.8714    14513.881 
   37210    300.20974    5.3677187    58.876864   -135.36563    -4285.265    14513.881 
   37220    293.76853    4.8551425    61.204903   -137.05845   -32.704777    14513.881 
   37230    297.69916    7.8188255    53.877101    -138.7291    292.61888    14513.881 
   37240    294.15438    8.8756555    58.110483   -140.43041    844.03668    14513.881 
   37250    299.32525    11.004851    53.914423   -142.51095    1044.7816    14513.881 
   37260    290.66842    11.101359    62.321658   -144.82722      1823.63    14513.881 
   37270     306.3573    10.651981    52.421744   -147.50417     -446.897    14513.881 
   37280    285.34572    10.186831    50.227815   -150.43464   -986.43595    14513.881 
   37290    271.04748    9.1696261    60.205605   -153.21428   -1281.5769    14513.881 
37300        0.98918276613115396767 10.0727518031658132 0.99470899470899465378 67 -276.04233688803515179
   37300    265.97701    10.399986     57.04133   -155.53264    1898.5664    14513.881 
   37310    267.43838    8.9068899    53.882953   -157.37429    3213.2592    14513.881 
   37320    283.95964    7.9435677    49.077526   -158.57283    791.60789    14513.881 
   37330    269.54682    6.4323765    60.214028   -158.83445    1266.1769    14513.881 
   37340    307.07677     8.261698    49.373533   -158.24724   -880.90857    14513.881 
   37350    280.32121    9.1305767    63.338193   -157.24887   -503.29335    14513.881 
   37360    304.88025    7.7255667    54.990896   -155.82041   -4013.4475    14513.881 
   37370    292.93536    8.3386301    54.150406   -154.10165   -3279.9516    14513.881 
   37380    290.35286    9.1904334    58.491336   -151.70462    795.88507    14513.881 
   37390     291.9919    7.0422793    59.271132   -148.47802    2502.6017    14513.881 
37400        0.98507292578822847062 10.099715050252946469 0.99470899470899465378 64 -278.98072506789543468
   37400    297.16139    6.1785471    65.593843   -144.34191      4049.65    14513.881 
   37410    324.43129    8.0766489     52.34404   -140.09797   -905.14963    14513.881 
   37420    304.84077    11.889169    57.373593   -136.60894   -3563.1771    14513.881 
   37430    343.71929    8.1617845    60.932463    -133.5828    -1536.102    14513.881 
   37440    343.78116    8.9730031    56.616229   -131.56519    733.13777    14513.881 
   37450    330.01674     9.440237    59.061233   -131.10296    327.60764    14513.881 
   37460    317.87394    7.9604288    64.161182   -132.00552    1155.0315    14513.881 
   37470    307.55577    3.5921237    62.615354   -133.62566    2009.6515    14513.881 
   37480      306.218    4.8623786    53.343493   -135.54925     1015.207    14513.881 
   37490    298.40618    5.5598978    55.884918   -137.89644   -1968.4132    14513.881 
37500        0.97510605529654303947 10.141682513079761208 0.99470899470899465378 68 -275.69687800195549698
   37500    298.26719    7.8199752    62.814215   -140.55705   -2346.8983    14513.881 
   37510    308.90503    8.7511308    56.927716   -144.18111   -1206.8165    14513.881 
   37520    294.47209    8.3975934    56.715621   -148.59692    474.54362    14513.881 
   37530    294.67807     7.599809    51.926998   -153.49857    1383.6096    14513.881 
   37540    261.29997    5.1137805    64.612982   -157.65468     2408.333    14513.881 
   37550    276.65196    5.6698082    55.470406   -160.92931     1415.551    14513.881 
   37560    249.15908    5.1618324     59.58789   -163.05807   -1677.8971    14513.881 
   37570    272.81469    4.6437196     52.91357   -163.87798   -1398.8711    14513.881 
   37580    290.79764    4.4913712    55.530683   -163.79715     -1087.64    14513.881 
   37590    280.88024    6.8634538    53.867396   -163.34991   -737.56242    14513.881 
37600        0.97242101517997237003 10.130160921253647643 0.99470899470899465378 64 -281.06895957897967264
   37600    261.53409    6.8585599    52.276648   -162.57228   -1028.5878    14513.881 
   37610    271.61942    5.0430342    52.080647    -161.1829     443.6613    14513.881 
   37620    276.55023     5.881999    54.932034   -159.31491   -84.643909    14513.881 
   37630    280.64866    7.7203078    53.624523   -157.25349   -353.06133    14513.881 
   37640    282.16098    5.5924694    55.105833   -155.14624   -253.22475    14513.881 
   37650    285.50752    3.7645006    58.738272   -153.13648   -55.560141    14513.881 
   37660    273.70175    4.7382227    63.565523   -151.25395    1056.4773    14513.881 
   37670     286.6048    5.9924561    59.452318   -149.41085     530.1414    14513.881 
   37680    293.46756    6.1827277    56.739367   -147.63774    919.83356    14513.881 
   37690    299.75813    6.6998208    64.801889   -146.06649    669.54073    14513.881 
37700        0.97479980761144635615 10.113755720123601023 0.99470899470899465378 64 -285.3146426812419918
   37700    310.39747    7.2497154    53.942717   -144.67879   -1618.6137    14513.881 
   37710    306.42746    7.3852991    60.203856   -143.50936   -2792.1763    14513.881 
   37720    269.51763    8.2796545    72.058236   -142.49261  -0.82879651    14513.881 
   37730    314.92165    9.0270365    59.723317   -141.04051   -786.82712    14513.881 
   37740    316.00965    10.219707    57.633389   -139.84157   -1220.3597    14513.881 
   37750    304.58183    7.9620409     60.47951   -139.14478    458.63503    14513.881 
   37760    297.00202    6.3567832    60.439426   -138.54068    4325.1968    14513.881 
   37770    284.72115    7.2240588    63.255598   -137.89101    4781.8769    14513.881 
   37780    305.29605    6.9301934    61.363207   -136.86257    18.851348    14513.881 
   37790    309.99585    7.6997438    62.918744   -135.65563   -1772.3618    14513.881 
37800        0.97808661543765640367 10.081205172864450503 0.99470899470899465378 61 -274.57706169914536076
   37800    309.30119    6.6661921    63.386071   -134.43791   -1404.0174    14513.881 
   37810    300.76036    7.1406215    58.504679   -133.31408    58.019487    14513.881 
   37820    282.49995    6.2146752    64.630045   -131.90126    234.74342    14513.881 
   37830    310.03453    7.7600308    61.716566   -129.63578   -1254.1004    14513.881 
   37840    311.85529    7.0859789    69.376822   -126.92582   -903.16276    14513.881 
   37850    321.68623    8.1689732     60.70975    -124.2899   -171.17263    14513.881 
   37860    298.51153    9.7041135    67.684566   -121.88752    2822.8327    14513.881 
   37870    315.20432    9.3091596    60.161479   -119.55865   -62.762368    14513.881 
   37880    316.00294    9.1269979    62.772875   -117.23517   -424.70904    14513.881 
   37890    333.17667    7.9271703    56.148355   -115.03921    -2640.836    14513.881 
37900        0.9799350262223953667 10.114086525952400208 0.99470899470899465378 63 -265.182030953294543
   37900    334.58526    8.1169336    68.912221    -113.5871    3878.3306    14513.881 
   37910    344.34131    9.6128919    74.304743   -114.08634    1343.7953    14513.881 
   37920    345.01529    8.2773424    63.534301   -117.07614    274.68592    14513.881 
   37930    349.87788    7.6741731    52.419368   -122.11502   -3814.5045    14513.881 
   37940     339.6365    5.4824131    58.156217   -128.22965   -856.64484    14513.881 
   37950    304.66208    3.9618297    65.894473   -134.62979    813.50093    14513.881 
   37960    306.83148    6.3308816    56.509865   -139.61044   -1673.1601    14513.881 
   37970    294.31969    8.8907524    59.157989   -143.46297    595.60863    14513.881 
   37980    284.77654     9.881308    60.058238   -145.72563    1404.6892    14513.881 
   37990    281.58365    10.056956    66.088179   -146.97074    4715.3557    14513.881 
38000        0.97393016534258480821 10.152220869822293992 0.99206349206349198067 67 -274.43720863861403814
   38000     279.7236    8.1440611    59.114098   -147.69917    1879.4054    16299.924 
   38010    280.16712    6.6235812    59.180421   -147.85094    -1104.004    16299.924 
   38020    282.37726     5.598348    59.926567   -147.56257    -3753.843    16299.924 
   38030    270.87102    7.4569391    64.469809   -146.77645   -976.86488    16299.924 
   38040    280.68152    7.8167222    56.529646   -145.13888    969.67803    16299.924 
   38050    276.83189    8.1635149    65.609243   -142.64322    845.76713    16299.924 
   38060    320.61787    6.7734624    53.990058   -139.41564   -1812.5428    16299.924 
   38070    315.02548    6.0817996    62.178348   -136.43928    -2344.282    16299.924 
   38080     315.7313    7.1168874    61.458419   -133.84092   -1356.6141    16299.924 
   38090     317.8191     6.642835    64.823116    -131.5848    888.48516    16299.924 
38100        0.96728347012505044855 10.193014741707688842 0.99470899470899465378 71 -278.70349139451724341
   38100    328.14872    6.7727634    66.658457   -130.02484    662.91313    16299.924 
   38110    358.11409    7.5555851    52.460369   -129.82984   -2194.6518    16299.924 
   38120    303.33342    9.6433025    62.553998   -131.09689    379.42447    16299.924 
   38130    312.81729    10.040827    63.285101   -132.78748    2728.3405    16299.924 
   38140    305.11747    10.364215    66.719398   -135.16438    2513.9408    16299.924 
   38150    323.79972       10.985    53.926014   -138.48159   -2144.9102    16299.924 
   38160    304.27451    7.2509847    58.196795   -143.13628   -3256.5209    16299.924 
   38170    298.16601    5.3171103    53.678854   -148.66738   -366.74939    16299.924 
   38180    266.76452    4.9310473    62.532424   -153.86443    334.17403    16299.924 
   38190     288.4988    5.3608747    55.377685   -157.98889      2126.61    16299.924 
38200        0.96482369782925170298 10.190134742518473843 0.99470899470899465378 70 -284.20380898494693156
   38200    272.20786    4.4547557    60.296343   -160.87102   -153.22359    16299.924 
   38210    272.20218    3.4504778    54.338311   -162.34345    1221.8199    16299.924 
   38220    268.44356     2.723907    60.452111   -162.59168    1066.1366    16299.924 
   38230     273.0125    2.8995664      61.8923   -161.97185   -548.74071    16299.924 
   38240    283.83994    2.5682465    61.503346   -161.01818   -3142.3841    16299.924 
   38250    287.57196     2.509603    56.327572   -160.19331    -1094.794    16299.924 
   38260    287.06007    2.9783516    59.820983   -159.47046    648.68313    16299.924 
   38270    287.22623    4.8826298    53.475895   -158.53819    1596.3681    16299.924 
   38280    280.06937    6.5326324    54.617471   -157.05975     405.1399    16299.924 
   38290    290.73094    6.0284005    57.081429   -154.99013    268.60989    16299.924 
38300        0.96270635654940195369 10.176379551281440783 0.99470899470899465378 66 -277.61592704029840206
   38300    275.52044    5.2528889    64.178563   -152.78227     387.4806    16299.924 
   38310    297.14718    4.8611719      52.4087   -150.47172    566.76388    16299.924 
   38320    294.13706    3.6831802    63.801599   -148.05704   -194.61571    16299.924 
   38330    302.60572     2.473765    53.384765   -146.11489    416.77165    16299.924 
   38340    279.90368    2.8034184    64.515841   -144.40123    341.94478    16299.924 
   38350    289.53097    3.7454811    54.731951   -142.55719   -980.86435    16299.924 
   38360    288.47687    4.8496036     56.56262    -140.4536   -684.65218    16299.924 
   38370    293.75292    4.2635374    68.149535   -138.25971   -635.14666    16299.924 
   38380    290.45073    3.8147421     63.78616   -136.22364   -70.132921    16299.924 
   38390    311.75482    5.2886632    59.263873   -134.47225   -618.68878    16299.924 
38400        0.95984800740782971751 10.185982014394912909 0.99735449735449732689 68 -274.55557655143820739
   38400    312.00632    8.7016357    60.983273   -133.19078     -616.867    16299.924 
   38410    333.88975    9.3188069    56.562305   -132.35716    1503.3611    16299.924 
   38420    309.44074    9.2028197    58.521473   -132.33401    769.26752    16299.924 
   38430    302.85087    8.0965211    65.523892   -132.71868   -77.838165    16299.924 
   38440    308.68943    7.6242207    57.510551   -133.40289   -758.65664    16299.924 
   38450    315.51269    8.7789118    58.950126   -134.09239    249.25077    16299.924 
   38460    314.49688    8.5471352    60.280236   -134.76509   -225.27186    16299.924 
   38470    311.36408    8.1944848    59.389264   -135.74003    1468.8793    16299.924 
   38480    316.51961    7.5265636    55.067872   -136.95776    1044.4064    16299.924 
   38490    313.12318     7.032237    55.855516   -138.07893    2754.6238    16299.924 
38500        0.95796358752534815917 10.212217563634029105 0.99470899470899465378 68 -279.88951751665672418
   38500    310.52769    4.8753721     62.39909   -139.19466   -970.82931    16299.924 
   38510    296.89826     4.658695    62.908478   -140.53634   -977.15171    16299.924 
   38520    279.20207    2.4126816     70.18443   -141.90658    -2546.131    16299.924 
   38530    278.04683    2.2814136    62.659528   -142.77473   -1601.0333    16299.924 
   38540    289.25678    2.4518456    58.960532   -143.07709   -1234.4428    16299.924 
   38550    260.11666     1.834763     66.12711    -142.7297     1345.342    16299.924 
   38560    297.78264    2.2437455    55.828364   -141.64946    2332.0754    16299.924 
   38570    256.66895    2.3250341     64.33879   -140.17786    426.39209    16299.924 
   38580    302.68681     3.134887    60.665132   -138.18975   -1136.9208    16299.924 
   38590    311.58247    3.6198088     70.14472   -136.52718    1661.7831    16299.924 
38600        0.95971699257833864571 10.218836521044332599 0.99470899470899465378 69 -281.6931030833100067
   38600    321.81464    4.9515788     58.34237   -135.88432    1894.8747    16299.924 
   38610    311.04858    5.3571363     64.89244   -136.02018    276.23722    16299.924 
   38620    311.31708    5.7229093    60.749741   -136.46866   -2367.6074    16299.924 
   38630    314.74451    6.3603522    58.944167   -137.25798   -2263.4821    16299.924 
   38640    291.99691    5.7963195    62.503651   -138.32262    709.23373    16299.924 
   38650    287.10535    5.0886544    67.436751    -138.9325    1051.0742    16299.924 
   38660    313.18265    4.8559057    58.072378    -139.4173   -1290.4593    16299.924 
   38670    288.71412    3.1312556    66.899164   -140.07905   -1079.2771    16299.924 
   38680    320.80829    2.9381749    56.888186   -140.83009   -1212.6341    16299.924 
   38690    298.94821    3.8981462    61.272249   -142.03607    985.62525    16299.924 
38700        0.96193610800629569813 10.198889418111367178 0.99470899470899465378 69 -277.03571539158730275
   38700    295.43734    7.5539612    56.831057   -143.17804    46.721059    16299.924 
   38710    282.47941    6.5545466     60.52883   -143.88457   -361.57395    16299.924 
   38720    293.84237    5.8758772    56.125247   -144.13953   -83.834669    16299.924 
   38730    282.03188    8.2759647    63.801407   -144.03754    110.25606    16299.924 
   38740    279.21058    9.3137025    59.698095   -143.48239    -575.8819    16299.924 
   38750    303.85482    8.5286972    61.326116   -142.42862    679.33326    16299.924 
   38760    301.60806    8.8018326    67.958902   -141.08294    667.39886    16299.924 
   38770    306.93958    10.373908    63.126447   -139.80604    1352.6917    16299.924 
   38780    299.47116    12.816416    60.691363   -138.55363    1324.1087    16299.924 
   38790    313.37954    10.745384    60.940751   -136.87886    83.681023    16299.924 
38800        0.96609320664631892495 10.181693710198995717 0.99470899470899465378 64 -272.62994181943849981
   38800    304.08515      11.8174    60.984713   -134.85409   -824.76672    16299.924 
   38810    301.64715    9.6354673    67.118064   -132.24423   -2386.1776    16299.924 
   38820     324.1968    8.3336898     66.39809   -128.88065   -145.07047    16299.924 
   38830    331.34312    6.8836227    67.968463   -125.23462   -1216.0091    16299.924 
   38840    349.80668     7.714538     62.55912   -122.05634   -152.02021    16299.924 
   38850    336.27819    7.2973606    67.895309   -119.75132     975.3843    16299.924 
   38860    323.80067    4.8242444     64.94829   -118.76674    1157.6342    16299.924 
   38870    322.45255     3.609645    70.900614   -119.12826   -38.389154    16299.924 
   38880    301.59298    4.6526781    70.612163   -120.75652    173.46814    16299.924 
   38890    310.50238    5.7489476    57.101406   -123.37958   -713.71043    16299.924 
38900        0.97199011262606216377 10.169556227429071171 0.99470899470899465378 67 -262.78337854187651601
   38900    300.71664    6.6808415    69.891598   -126.53374     567.2648    16299.924 
   38910    316.83804    7.2340758    61.675407    -130.2867   -1349.3823    16299.924 
   38920    287.54491     7.780325    65.518428   -134.35254    123.43563    16299.924 
   38930    304.38503    8.3094427     57.99053   -138.25187   -396.61495    16299.924 
   38940    288.87497    8.8076404    64.870885   -141.70198    563.98609    16299.924 
   38950    300.39913    6.2264096     62.04245    -144.8503    871.74615    16299.924 
   38960    289.85175    6.0231885    53.936202   -147.63366    582.75139    16299.924 
   38970    313.99996    8.2229197    55.146351   -149.95695    489.00521    16299.924 
   38980     297.9984     9.524109    56.952794   -152.07023   -366.50835    16299.924 
   38990    297.56268    8.6942504    56.049366   -153.90263    572.70489    16299.924 
39000        0.97556680572919673988 10.161129736529032286 0.99470899470899465378 68 -282.87031020137618498
   39000     281.1347    7.6486978    61.669576   -155.49292   -866.28877    16299.924 
   39010    302.27202    6.3227141     51.88124   -156.48631    -1693.376    16299.924 
   39020    288.80306     5.121146    55.859972   -157.08125    993.85452    16299.924 
   39030    288.65682    5.9729617    50.878619   -157.17474    22.569139    16299.924 
   39040    260.70547    5.1799586     57.75603   -156.45372    1176.0888    16299.924 
   39050    286.76846    4.7170224    50.816831   -154.83179   -1558.6912    16299.924 
   39060    308.02372    5.4847608    54.019834   -152.47327    1485.8275    16299.924 
   39070    312.73975     7.449094    53.957574   -149.92544    1161.3174    16299.924 
   39080    286.67196    6.6682696    55.643473   -147.36214   -1381.8978    16299.924 
   39090    269.97448    5.0270429    62.707529   -144.08802   -1276.3066    16299.924 
39100        0.97608595845662748935 10.134157370528770414 0.99470899470899465378 68 -267.42838983816920972
   39100     282.3429    5.1377584    62.147064   -139.50358    303.38309    16299.924 
   39110    294.06561    4.7662051     69.55941    -134.1754    2097.4746    16299.924 
   39120    327.29338    5.0435954    54.159116   -128.67438   -712.26067    16299.924 
   39130    341.07666    6.3852545    59.942509   -124.74047    -1456.657    16299.924 
   39140    334.02697    6.2634385    57.484486   -123.16387    367.00029    16299.924 
   39150    324.12958    7.4535035    62.176009   -123.07567    854.35062    16299.924 
   39160    296.16268    7.5917804    64.791809   -123.43914    1889.3946    16299.924 
   39170    312.00223    6.9218312    59.274958   -123.64376   -1092.9481    16299.924 
   39180    323.71813     5.188277     61.25259   -124.20932    -1269.266    16299.924 
   39190    338.20667    4.2832989    61.986793   -125.73797   -1895.2102    16299.924 
39200        0.97872985051413297075 10.129112906220036905 0.99206349206349198067 68 -280.23570048183989911
   39200    334.76517    4.9905561    55.521245   -128.55925   -857.83526    16299.924 
   39210    299.92944    5.2038221    67.016211   -131.64994    263.39611    16299.924 
   39220    312.55439     4.621156    53.845599   -134.51976    818.02854    16299.924 
   39230    282.41229    5.6764424    65.960408   -137.10717    720.71361    16299.924 
   39240    323.93954    7.2999123    55.471959   -139.73567   -394.59872    16299.924 
   39250    295.80628    9.6153993    63.150606   -142.90231   -1107.5423    16299.924 
   39260    321.98437    8.8214457    50.676562   -145.81693    514.90991    16299.924 
   39270    290.67045    9.0785946    59.553392    -148.6817     869.8234    16299.924 
   39280    284.73376    11.316991    58.659584   -150.81003    1110.1351    16299.924 
   39290    278.22058    10.149441    55.247944   -152.34487   -270.83296    16299.924 
39300        0.98021235822444019448 10.102922055510139998 0.99206349206349198067 65 -281.95721720574681513
   39300    284.06352    9.0997005    57.864897   -153.25283    100.96959    16299.924 
   39310    307.26848    9.1957571    55.715813   -153.71874    1292.2798    16299.924 
   39320    295.01918    7.8915822    59.135783   -154.29848   -1309.2185    16299.924 
   39330    297.72658    9.0796364     54.63121    -154.8045    306.26631    16299.924 
   39340    284.59818    9.5133998    59.889944   -154.97414   -605.03945    16299.924 
   39350    282.60927    8.5791878    56.505174   -154.53189    1098.0651    16299.924 
   39360    278.73268    7.0203636    61.219744   -153.02601   -176.39743    16299.924 
   39370    301.22433    6.8579684    61.214781   -150.01691    -2286.333    16299.924 
   39380    316.25037    7.5077801    62.297402   -145.66224    -909.1569    16299.924 
   39390    319.01407    6.3706089    61.448167   -140.62813    586.19165    16299.924 
39400        0.9851078981282352931 10.086339976104476079 0.99470899470899465378 64 -280.67320740555669545
   39400     319.7078    6.9760717    67.350624     -135.819    4017.1694    16299.924 
   39410    319.94681    10.606193     59.37156   -131.73058    890.60928    16299.924 
   39420    311.46038    13.059147    60.623862   -128.56046   -1154.4414    16299.924 
   39430    299.69321    10.155731    62.936104   -125.94218   -2329.9772    16299.924 
   39440    316.25574     8.260466    62.821744   -123.86782   -101.39287    16299.924 
   39450    299.41094    7.8712218    68.203542   -122.13057    1499.7362    16299.924 
   39460    310.31986    3.7486319    64.385418   -120.82172   -1091.2481    16299.924 
   39470    335.03536    3.5349533    59.609675   -120.19912   -939.47289    16299.924 
   39480    320.60547    3.9728976    69.727304   -120.87931    355.65295    16299.924 
   39490    314.57459    6.6400225    64.475711    -123.2229    509.23198    16299.924 
39500        0.98729546227927622581 10.071408037273327452 0.99470899470899465378 68 -260.61362788573734406
   39500    294.92634    6.4527815    71.865779   -126.98748     1131.407    16299.924 
   39510     309.5006    5.5273477    61.090511   -132.30132   -981.38529    16299.924 
   39520    317.06229    6.3839252      60.2627   -139.17504   -701.67756    16299.924 
   39530    312.86714    7.4718172    57.708692   -146.38596   -649.56187    16299.924 
   39540    296.27327     8.507366    57.399102   -151.78385   -833.36302    16299.924 
   39550    281.59917    11.609484    58.017443   -155.20282    568.02006    16299.924 
   39560    279.47939    11.851243    58.459231   -156.74066   -148.33609    16299.924 
   39570    277.52352    10.360559    51.299736   -157.17675    2571.1649    16299.924 
   39580     294.4571     9.859751    56.016188   -156.95386    2547.5452    16299.924 
   39590    288.79447    11.382281    60.266383   -156.39872    629.91679    16299.924 
39600        0.98683497220322546895 10.109730412869927463 0.99470899470899465378 67 -285.25760525756004427
   39600    286.21231    11.413414    49.548371   -155.57964   -3650.9973    16299.924 
   39610    276.57262    13.600642    57.605814   -154.11655   -1567.5485    16299.924 
   39620    309.49903    14.789262      58.1344   -152.09266    293.10849    16299.924 
   39630    311.52276    11.496576    55.938361   -150.19721    927.51321    16299.924 
   39640    302.30508    8.9250995    59.558946   -148.35714    1740.7288    16299.924 
   39650    288.47729    11.611826    59.177941   -146.41098   -189.24106    16299.924 
   39660    291.50087     8.805689    57.420976   -143.99558   -95.168148    16299.924 
   39670    285.20999    5.2733653    62.725302   -141.26899   -532.67995    16299.924 
   39680    287.65897    5.1778477    66.665516   -138.15059    66.926403    16299.924 
   39690    300.15923    5.3743398    64.006203   -134.83507   -490.55706    16299.924 
39700        0.98409236298801805454 10.098453662005550058 0.99470899470899465378 66 -269.19743023402998006
   39700    303.43813    6.1278295    60.168198   -131.71474    232.97608    16299.924 
   39710     329.8044     6.550683    54.592152   -128.77563   -642.72992    16299.924 
   39720     309.2588    7.1374758    63.153633   -126.66722    440.46489    16299.924 
   39730    317.11128    8.6698272    63.551874   -125.14147    1524.9015    16299.924 
   39740    306.40099    6.3965964    72.188168   -124.05981    708.65045    16299.924 
   39750    348.55208    7.5393802    55.809831   -123.77516   -621.82783    16299.924 
   39760    314.23849    9.6632173    65.292548   -124.79221   -1666.1755    16299.924 
   39770    327.43973    9.6798482    53.660733   -126.90492    366.57118    16299.924 
   39780    274.83681    8.2119236    70.012313   -129.95359    1117.7766    16299.924 
   39790    293.67727    9.3814325    57.074469   -133.64662   -1221.7637    16299.924 
39800        0.97893019302281714111 10.117021642127921766 0.99470899470899465378 64 -259.18823498040757158
   39800    267.08557    7.4744091     70.49177   -138.17627   -746.50709    16299.924 
   39810    295.88865    5.4877043    56.119646   -143.25211    438.31306    16299.924 
   39820     294.1239    3.1398229    61.116611   -148.77107    960.73245    16299.924 
   39830    285.83819    5.4975898    59.418435   -154.18163   -459.22616    16299.924 
   39840    286.36702    5.4171756    57.281871   -158.61966   -1194.7927    16299.924 
   39850     288.7313    4.7692765    63.922978   -161.66249    595.52489    16299.924 
   39860    308.52457     5.635137    59.092322   -163.87576    2704.5911    16299.924 
   39870    267.94042    7.0639554     65.80835   -165.47868    402.60499    16299.924 
   39880    278.88123    4.6076389    52.444907    -166.2377   -141.86193    16299.924 
   39890    275.94183    4.2483557    60.124243   -166.27873   -2921.2337    16299.924 
39900        0.97926228378847302025 10.132843273230964343 0.99206349206349198067 66 -302.45640109190355815
   39900    301.15276    5.1947036    49.720924   -166.00917   -524.03123    16299.924 
   39910    278.59911    6.0325753    52.941205    -165.6145    1320.8767    16299.924 
   39920    259.46139    7.0250983     57.71983   -164.67343    396.71914    16299.924 
   39930    275.01076    7.8384382    50.818301   -162.77192    -281.3506    16299.924 
   39940    270.73347    9.7926754    54.185821   -159.61567   -361.05205    16299.924 
   39950    297.31295    12.107396    52.998533   -155.70495     -623.272    16299.924 
   39960    281.52366    12.401696    59.144079   -151.64281   -197.38457    16299.924 
   39970    291.95803    10.781741    58.381517   -147.93153   -59.901324    16299.924 
   39980    274.02738     7.196994    63.929369   -144.39381   -277.90461    16299.924 
   39990    328.89375    5.9759834    58.330571   -141.41575    -30.85457    16299.924 
40000        0.97771090036403185408 10.134476337811410218 0.99470899470899465378 64 -284.40128896010293147
   40000     320.1564    6.5314953    62.971499   -139.34383    853.46843    16299.924 
   40010    302.67698    7.7280657    62.464964   -138.57329   -833.93912    16299.924 
   40020    315.95297    7.4623653    55.579315   -138.34017   -1403.6477    16299.924 
   40030    302.73227    7.8517675    57.611849   -138.40386   -1751.5402    16299.924 
   40040    307.30571    8.5720262    54.210195   -138.29097    955.91213    16299.924 
   40050    302.23158     6.720879    65.691345   -137.87621    1831.7065    16299.924 
   40060    326.72129    6.8057013    59.751507   -137.59122    449.48027    16299.924 
   40070     320.3301    5.5074414     59.41326   -138.15102   -1512.9556    16299.924 
   40080    292.90057    5.7281677    62.592702    -139.1937    473.11463    16299.924 
   40090    276.40815    5.6624181    60.222043   -140.41639   -877.57653    16299.924 
40100        0.97618917355177070583 10.133657899892433818 0.99470899470899465378 64 -269.86452902548620614
   40100      283.325    5.4779293    64.803978   -141.49475    1311.3152    16299.924 
   40110    298.71775     6.837554    56.586785   -142.73928   -644.84825    16299.924 
   40120    311.90393    6.0900546    56.303162   -144.30332    871.38808    16299.924 
   40130    290.65574    6.5123836    53.463465   -146.59322      663.098    16299.924 
   40140    271.90442     5.757274    61.605238   -149.32901    289.96269    16299.924 
   40150    259.02393     8.247632    58.508953   -151.74827    1759.3529    16299.924 
   40160    278.02283    8.3169939    55.820235    -153.8159    989.54916    16299.924 
   40170    270.72659    5.9209995    61.441188   -155.33889   -1861.5108    16299.924 
   40180     306.3934    6.7692658    47.816292   -156.31275   -1943.2485    16299.924 
   40190    290.91282    6.3794938     54.43366   -156.93009   -742.67772    16299.924 
40200        0.97502604069632203831 10.137557496216938802 0.99470899470899465378 64 -291.86503874888637711
   40200    297.10173    5.6880778    57.420855   -157.25326   -180.06548    16299.924 
   40210    297.19586    5.7550814    50.308367   -157.53477   -286.03693    16299.924 
   40220    294.62977    6.6993014    59.961482   -157.87204    1375.9434    16299.924 
   40230    291.61796    9.2077775    52.147088   -158.12901     2006.719    16299.924 
   40240    280.46249    10.798934    57.601325     -157.824   -208.21604    16299.924 
   40250    303.46892    7.7484898    47.592679   -156.73509   -1697.1117    16299.924 
   40260     290.9404    5.8719007    59.931819   -155.07983   -1295.4828    16299.924 
   40270    292.85307    6.2187361    53.117288   -152.98019    566.27736    16299.924 
   40280    270.36767    5.9947961    63.187867   -150.40441    1422.0485    16299.924 
   40290    290.13293    6.4700677    59.731163   -146.66586    1434.1034    16299.924 
40300        0.97165069843064866273 10.151739579238116207 0.99470899470899465378 62 -279.64416123156661342
   40300    303.59161    5.5560126    58.821386   -142.09192    119.84158    16299.924 
   40310    308.29792    5.8015353    58.594567   -137.81195   -2148.6744    16299.924 
   40320    309.86785    3.5644244    60.685857   -134.16013   -529.51365    16299.924 
   40330    310.11169    2.6738712    55.164912   -131.06195   -2493.0356    16299.924 
   40340    328.81886    4.1312877    57.886171   -128.30323   -2125.7053    16299.924 
   40350    317.13047    5.8957304    57.277973   -126.31462   -1152.0667    16299.924 
   40360    323.80144    7.3961935    55.706576   -124.94463    3085.9433    16299.924 
   40370    309.49787    7.2048667    59.288676    -124.1648    1899.2677    16299.924 
   40380    310.82333    8.3371622    59.272335   -123.63569    1753.5322    16299.924 
   40390    288.69506    6.1302481    70.836233   -123.62083    893.41111    16299.924 
40400        0.96108834674935095244 10.186188647337584001 0.99206349206349198067 71 -262.81214058447193338
   40400    306.62916    5.4953547     66.45198   -123.88364    1247.8389    16299.924 
   40410    298.15179    4.5954793    70.328151   -124.34358    1579.3043    16299.924 
   40420    318.74927    2.9381646    60.304122   -125.02448     -2279.86    16299.924 
   40430    298.71841    5.1048545    62.614741   -126.11756   -1041.7205    16299.924 
   40440    293.88621    7.3357707    65.687504   -127.32052    672.64841    16299.924 
   40450    288.19606     9.191002    68.868239   -129.06321    2388.3351    16299.924 
   40460    316.52018    7.7973257    68.413369    -132.0879    1471.6753    16299.924 
   40470    323.75926    8.6369605    56.158722   -137.83242   -1262.4351    16299.924 
   40480    297.88581    8.6194522    53.457003   -144.93074   -2143.6838    16299.924 
   40490    289.42395     7.009713     55.86676   -151.51778   -2706.3584    16299.924 
40500        0.96240788192447923599 10.2222275180848019 0.99206349206349198067 68 -283.4247912562339593
   40500     280.5671    5.5936388    60.530171   -156.30457    -947.4434    16299.924 
   40510    271.45522     5.476328    58.015079   -159.34043   -245.97687    16299.924 
   40520    273.69913     6.012151    52.050616   -160.80785   -880.09348    16299.924 
   40530    265.53523    5.1603384     59.65991   -160.89497    531.59003    16299.924 
   40540    287.11335    4.8448444    54.349568    -159.9929   -512.53197    16299.924 
   40550    282.50457    5.6359475    56.932482   -158.63354    269.26283    16299.924 
   40560    294.65655    3.6402458    51.537607   -156.75785   -1268.8341    16299.924 
   40570    302.73152    2.9182671    53.985203   -154.26593    249.04712    16299.924 
   40580    302.52864     2.996234     57.54982   -151.42816    910.36241    16299.924 
   40590    291.83547    5.6190968    63.145041   -148.58837   -430.21402    16299.924 
40600        0.9698246650482870157 10.171745362001400892 1 68 -281.16678387476326861
   40600    298.47278    4.6263633    58.925707    -145.9338    1686.6019    16299.924 
   40610     288.1278    4.8827378    62.221431   -143.29722   -640.82341    16299.924 
   40620    300.37344    6.2770106    61.180204   -140.51512    650.08083    16299.924 
   40630    288.35592     6.915952     65.11451   -137.62648   -1277.1098    16299.924 
   40640    314.11386    5.1622408    60.190451   -134.97904    -838.4713    16299.924 
   40650    318.82468     5.297229    68.341423   -132.92509    3613.7505    16299.924 
   40660    318.05656    6.3196379    58.931209   -131.85409   -565.96036    16299.924 
   40670    295.60798    7.6863834    65.147975   -131.30703    1692.1883    16299.924 
   40680    314.52171    6.2155773    60.226447   -131.03009   -502.99061    16299.924 
   40690     307.5585    8.3433584    62.427356   -131.20455   -582.89615    16299.924 
40700        0.97368435284918453121 10.178988416794279459 1 70 -274.00039027615360965
   40700    314.03905    7.3145878    57.888143   -131.71459   -2618.9059    16299.924 
   40710    339.95249    8.1580354    55.135165   -132.55304   -2925.2603    16299.924 
   40720     345.4919    4.8896014    59.211204   -134.75041    1163.4255    16299.924 
   40730    313.18741    5.8534378    60.769885    -138.1291    979.54934    16299.924 
   40740    299.70574    7.6737125    54.472494   -142.13379    2307.9761    16299.924 
   40750     296.6237    5.1435051    60.839437    -145.8645    827.84874    16299.924 
   40760     313.8889    7.6994362    57.047609   -149.62625    1093.9005    16299.924 
   40770    302.98412    7.5040612    65.184276   -152.86882   -1098.4818    16299.924 
   40780    310.35869    9.4402015    50.070035   -155.54947   -779.50101    16299.924 
   40790    274.68391    8.5458227    63.748373   -156.88893    405.43094    16299.924 
40800        0.98341201529601218745 10.125620925815455919 1 71 -294.1195164035855214
   40800    302.55961    11.527591    52.211921   -157.03486   -296.41545    16299.924 
   40810    289.23694    11.957379    62.014436     -156.906   -1827.5518    16299.924 
   40820    282.51396    9.8853042    67.115047   -156.64438   -79.326414    16299.924 
   40830    295.80878    8.5154948    60.835548   -156.43807   -143.70211    16299.924 
   40840    292.94864    6.6396774    60.730072   -156.50662   -292.08854    16299.924 
   40850    300.97169    5.3501911    55.294684   -156.48144    -1159.023    16299.924 
   40860    287.34039    7.2234905    61.081942   -156.39381    1504.9275    16299.924 
   40870    288.34777    7.6953423    62.810366   -156.15791    30.435215    16299.924 
   40880    279.87412    9.4812556    58.993688   -155.57697     525.8719    16299.924 
   40890    286.54736    10.141288    63.369761   -154.51185    1250.3548    16299.924 
40900        0.98485539939056454539 10.069829179582159284 1 71 -282.77250702009769157
   40900    286.80568    9.9879228    56.524464   -152.82569    2439.0038    16299.924 
   40910    286.28286    8.9397212    64.563427   -150.60717   -888.41146    16299.924 
   40920    275.60192    6.4912394    65.064479   -148.03619     2152.087    16299.924 
   40930    313.15317    6.5970023    53.094279   -144.90822    1304.2232    16299.924 
   40940    316.39883    7.0583808    60.571554   -141.53603     1253.868    16299.924 
   40950    330.91446     7.138362    53.878665   -138.39242   -453.81229    16299.924 
   40960    299.77408    7.0299935    69.927658   -135.79067   -862.50049    16299.924 
   40970    329.61531    7.1318249    65.722552    -133.8752   -216.01259    16299.924 
   40980    307.97378    6.1400625    68.222749   -133.12803    -2849.458    16299.924 
   40990    320.83472     5.207975    62.360808   -133.24789    -278.4727    16299.924 
41000        0.98375986795182490674 10.129386920756338952 0.99470899470899465378 71 -272.06328606365752876
   41000    304.56363    8.1636086    68.066187   -134.07064    1809.0502    16299.924 
   41010    333.62882    6.7356862    56.519412   -135.57607    -133.0784    16299.924 
   41020    317.45102    6.6854671    61.252305   -138.69984    569.09176    16299.924 
   41030    314.68378    6.8904522    61.162052   -143.55537   -306.96847    16299.924 
   41040    282.67562    7.7449922     63.84065   -149.28564    501.25546    16299.924 
   41050    290.07124    8.9781617    59.279388   -154.71542   -329.06001    16299.924 
   41060    280.49273    6.5820903    60.859884   -159.13601    -2330.137    16299.924 
   41070    287.05485    5.5409772    57.228486   -162.27271    -464.5017    16299.924 
   41080     286.5956    5.2110067    58.544741   -164.12412    215.38997    16299.924 
   41090    271.03822    6.3382659    57.704644   -165.13522   -367.14894    16299.924 
41100        0.97981761297570180158 10.15969190198807226 0.99470899470899465378 66 -286.67745171705303164
   41100    268.04242     4.419709    55.103055   -165.23195    -19.06698    16299.924 
   41110    281.33732    3.1990253    50.646709   -164.46916    -105.7384    16299.924 
   41120    281.14197    2.9274545    57.178771   -163.08473    1780.9676    16299.924 
   41130    279.17788    4.0055501    57.809526    -161.1011   -414.09534    16299.924 
   41140    286.53961    5.5486056    56.776315   -158.80699    1778.8322    16299.924 
   41150    275.90252    5.5253118    62.898978   -156.54917    -801.4948    16299.924 
   41160    310.32328    5.1741231    53.644551   -154.18968    809.58667    16299.924 
   41170    308.12808    4.2622844    55.001219   -152.12568   -2419.8032    16299.924 
   41180    309.74038    4.0738493    58.752775   -150.50632   -166.61864    16299.924 
   41190    305.98617    3.2264791    60.806258   -149.10045   -895.63473    16299.924 
41200        0.97697956617360548481 10.164107557167874063 0.99470899470899465378 65 -283.42036375366478751
   41200    298.39862    3.6889401    63.194833   -148.22099    1972.0923    16299.924 
   41210    290.02836     5.880738    67.349664   -147.81539   -399.86719    16299.924 
   41220    305.67865     7.976909     54.26331    -147.7211    223.43734    16299.924 
   41230    295.42541    8.4776886    56.616677   -147.60758    -998.4868    16299.924 
   41240    306.73721    8.8919434    51.557873   -146.99875   -152.92345    16299.924 
   41250    317.93778    9.4729374    56.556106    -146.0865   -960.55088    16299.924 
   41260    298.79158    12.047662    59.480132   -145.35775    657.31125    16299.924 
   41270    297.02279    11.268748    55.754353   -144.57839    277.64413    16299.924 
   41280    295.60597    8.6936304    55.961345   -143.09559    1168.5293    16299.924 
   41290    286.33882    9.4043596    58.670003   -140.37752   -16.702773    16299.924 
41300        0.97804734416026595234 10.169445551402775507 0.99206349206349198067 64 -274.01810877361776875
   41300    303.29079    8.7800115    65.499509   -136.60217   -922.48011    16299.924 
   41310    313.78668    7.4143981    65.954634   -132.16666   -678.06926    16299.924 
   41320    347.35022    6.0618665    59.922055   -128.05399    3360.6884    16299.924 
   41330    340.29338    6.0190393    61.651586   -125.29761    144.28047    16299.924 
   41340    347.57412    6.8970032    60.210903    -123.8151    -2157.173    16299.924 
   41350     328.0486    6.2898103    66.604579   -123.99085   -4065.0088    16299.924 
   41360    321.81243    7.3668094    68.554301   -126.04744   -289.61132    16299.924 
   41370    322.38739    8.5586387    65.611898   -129.68176    -268.7785    16299.924 
   41380     318.6554    9.7300716    59.592247   -134.24168    1075.5688    16299.924 
   41390    303.92775    10.295392    51.986233   -138.69378    60.797352    16299.924 
41400        0.97626728098470227923 10.14017743824685347 0.99470899470899465378 64 -271.23739113526181654
   41400    284.85234    9.3245466    62.686419    -142.1756    732.18801    16299.924 
   41410    299.25073    8.6223345    59.458539    -144.9905    599.90289    16299.924 
   41420    295.90455    8.7397272    58.937005   -147.61871   -96.901308    16299.924 
   41430    291.36483    6.2414042    62.261057    -149.8835    465.73076    16299.924 
   41440     291.3085    5.6332247    59.326168   -151.73534    179.00739    16299.924 
   41450    298.14608    7.1035614    52.398318   -153.23024   -749.61308    16299.924 
   41460    261.82598    7.5596566    59.223949     -154.088    85.656089    16299.924 
   41470    266.97197    5.3141292    55.101325   -153.70195    1281.7236    16299.924 
   41480    281.37833    4.8501275    59.749722   -152.23098   -1908.2199    16299.924 
   41490    287.20903    5.6981178    57.460517   -150.22183    190.03961    16299.924 
41500        0.98137506871501023475 10.111783693959750963 0.99735449735449732689 64 -282.61288601283519029
   41500    297.94664    6.3563235    53.199891   -147.61829   -557.86763    16299.924 
   41510    307.88334    8.3413853    56.417176   -144.73086    1148.1048    16299.924 
   41520     317.8773    9.7085297    57.880457   -142.09354    1357.9514    16299.924 
   41530    314.60602    7.9610344    63.322033    -140.4626     263.2385    16299.924 
   41540    330.54745    7.5805669    60.215541   -139.99296   -995.18669    16299.924 
   41550    347.81015    7.8142574    55.637034   -140.51933   -1042.7892    16299.924 
   41560    329.24158    8.9885012    59.723364   -142.05745    415.38879    16299.924 
   41570    312.83631     8.487523    58.258341   -143.95973    3055.5434    16299.924 
   41580    312.69415    11.030633    63.861964   -145.81459   -846.34799    16299.924 
   41590    296.08137    11.333044    58.429335   -147.53708   -1532.3624    16299.924 
41600        0.98810955429743840828 10.107853231749782452 1 66 -282.71652599345486578
   41600    295.43158    10.814126     58.00165   -148.86146   -1683.8018    16299.924 
   41610     310.7212    7.5144864    57.110878    -149.9629    1094.0857    16299.924 
   41620    307.98871    7.7713397    57.847995   -151.04093     -437.637    16299.924 
   41630    302.61872    11.560631     58.35639   -151.94039   -1039.4679    16299.924 
   41640    283.29556    9.8708929    63.602778   -152.58235    -1045.513    16299.924 
   41650    307.45237    10.390593    56.582309   -153.13535    3883.6609    16299.924 
   41660    301.00301    9.5042653    67.316833   -153.91764    867.23648    16299.924 
   41670    293.43395    10.256419    63.730522   -155.02883   -14.825403    16299.924 
   41680      291.783    10.919402    57.291196   -156.18932   -2713.0925    16299.924 
   41690    290.43639    10.365894    56.665768    -157.3138   -1217.8786    16299.924 
41700        0.98653572494474806032 10.116968112457819018 1 69 -299.13383465725388533
   41700    311.17334     11.40288     54.76481   -158.14645    35.469853    16299.924 
   41710    312.28579    9.5940604    52.657539   -159.08007    1285.9278    16299.924 
   41720    289.78983    9.6638669    55.595424   -160.53207    918.81975    16299.924 
   41730    272.81752    7.1253993    60.467055   -162.08635     661.4058    16299.924 
   41740    266.96268    5.2569553    56.627521   -163.67148   -600.66839    16299.924 
   41750     264.1013    5.6091174    59.283927   -164.81426    62.226483    16299.924 
   41760    281.36333    6.6608092    56.634969   -165.32585   -1330.3494    16299.924 
   41770    286.42303    8.1073599    56.189131   -165.18068       2370.2    16299.924 
   41780     301.9976     7.371627    56.464607   -164.46982   -496.07846    16299.924 
   41790    266.88397    7.5817805    59.737643   -163.57518   -39.550239    16299.924 
41800        0.98040320268596392594 10.121208308812091659 1 70 -290.25032643060569626
   41800    283.49066    6.8807722     52.25585   -161.80549   -1841.7262    16299.924 
   41810    281.87142    6.5956855    58.179752   -158.68025    1012.2481    16299.924 
   41820    284.20815    6.6620799    59.456737   -154.54026     -1541.96    16299.924 
   41830    295.61578     8.857282    59.710059   -149.74373   -1286.8085    16299.924 
   41840    284.89564    6.9458964    68.040223   -145.29618    404.60971    16299.924 
   41850    305.72679    6.4591471    60.034531   -141.27083    458.71812    16299.924 
   41860    306.69607    8.1784033    66.950821   -138.02136    1211.1233    16299.924 
   41870    301.68409    9.4097089    63.551146   -135.77402    683.55867    16299.924 
   41880    288.62759    8.2770242    61.144022   -133.94361    658.13596    16299.924 
   41890    326.43856    9.1773617    57.464483   -132.02195    2202.3401    16299.924 
41900        0.97807561649079122201 10.12922940653561632 1 70 -280.7991306046744171
   41900    331.78495    10.831084    58.331481   -130.47297    -1335.407    16299.924 
   41910    352.66883    8.8996097    55.368716   -130.05263   -240.81936    16299.924 
   41920    308.39107    7.0666173     64.70527   -130.97734   -4216.8905    16299.924 
   41930    324.31953    5.5295777    57.280777   -132.46691    478.43407    16299.924 
   41940      300.056     4.763048    62.789562   -134.29948   -40.967777    16299.924 
   41950     318.2512    6.4392259    55.645769   -136.31679    1307.3796    16299.924 
   41960    326.34624    9.9015849    55.882507   -138.68736    1616.6483    16299.924 
   41970    310.67952    11.417269    52.447093   -141.79654   -1295.6168    16299.924 
   41980    293.95904     6.348224    63.006618   -145.74575    895.82997    16299.924 
   41990    298.20768    4.6931737    55.554827   -150.12215    40.848714    16299.924 
42000        0.98019255115894765584 10.105901744991511393 1 67 -304.11849932876270941
   42000    329.55938    4.6714362    49.643703    -154.8007   -1547.3242    16299.924 
   42010    326.96346    4.6276032    48.651499    -159.6986   -568.36272    16299.924 
   42020    283.34892    2.9170873     56.28451   -163.98741    193.61965    16299.924 
   42030    275.17769    5.5403469    52.873993   -166.65813    2100.1865    16299.924 
   42040    257.45662    10.076037    49.694387   -167.77548     673.5308    16299.924 
   42050     263.3759    8.8613411    54.406966   -167.43786     553.8963    16299.924 
   42060    257.67539    7.2787045    56.335191   -165.92438    379.01998    16299.924 
   42070     266.7904    6.0142774    55.467393   -163.73723    212.74335    16299.924 
   42080    276.71642    4.5382874    58.811825    -161.2625    728.75115    16299.924 
   42090    295.34067    6.1262872    54.407713   -158.68426   -588.76285    16299.924 
42100        0.97530400402037153995 10.147955906828483919 1 68 -296.91050359708407314
   42100    310.54451    6.5162043    53.992133   -156.20803   -358.48623    16299.924 
   42110    290.72593    10.526444    59.362948   -153.86377   -1169.7991    16299.924 
   42120    292.52874    9.4739556    58.658958   -151.68441   -105.17602    16299.924 
   42130    297.52218    6.7576708    55.341748   -149.43031   -487.98799    16299.924 
   42140    313.80994    8.3332081    55.801333    -147.2649    1494.7922    16299.924 
   42150    324.19277    8.4204729     54.78427    -145.4674    1250.2371    16299.924 
   42160    324.77218    6.2702425    61.817292   -144.69813    737.37893    16299.924 
   42170    338.62668    6.2078713    52.757272   -144.86259   -1356.4484    16299.924 
   42180    317.86318    6.1820527    57.798043   -145.65873   -810.51099    16299.924 
   42190    319.68954     4.926553    56.005416   -147.13561    581.49724    16299.924 
42200        0.97117104207665438942 10.176148289323265317 1 68 -283.41109714806032116
   42200    296.05711    5.2583274     62.20444   -149.27262    1817.0959    16299.924 
   42210    273.96916    8.1398721    62.510886   -151.58154    1513.6843    16299.924 
   42220    292.15339    8.2195313    55.186329   -153.55328   -572.67498    16299.924 
   42230    287.76006    6.3321511    61.952563   -155.39343   -1447.7049    16299.924 
   42240    290.11119    8.3363711    58.721269   -157.06896    -2253.075    16299.924 
   42250    280.57505    8.6087298    58.751554   -158.74242   -1241.6011    16299.924 
   42260     281.9772    8.8790118    55.817938   -160.58475    522.67376    16299.924 
   42270    273.61327    7.9763668    54.266596   -162.57858    486.03646    16299.924 
   42280    281.32953    5.1311575    55.293604   -164.27423    2114.2351    16299.924 
   42290    287.52528    4.7715462     51.84983   -165.58537    839.24682    16299.924 
42300        0.962392426531023637 10.218924118943435886 1 66 -292.47763093504744347
   42300    277.79754    4.9757186    55.005588   -166.61225   -2105.5812    16299.924 
   42310    278.21449    4.7728687    55.512845   -167.29159   -1437.7437    16299.924 
   42320     279.2191    4.6410102    53.908699   -167.58439   -247.21439    16299.924 
   42330     265.5694    5.7123561    61.543388   -167.08931    1541.5243    16299.924 
   42340    279.08585    5.1118722    52.726195   -165.46871    -321.8166    16299.924 
   42350    267.27951    4.3583278    56.063271   -162.79704   -480.01523    16299.924 
   42360    280.86982    3.2910595    53.175616   -158.74096    213.25701    16299.924 
   42370    276.87847    3.4475664     59.15361   -153.89867     575.7372    16299.924 
   42380     305.1367    5.1904244    60.196896   -148.64783    1056.8936    16299.924 
   42390    311.95583    4.6391377    53.256024   -144.31529    -2124.867    16299.924 
42400        0.96208059516638222419 10.230202046648839698 1 66 -288.4766785438088732
   42400    324.99607    6.0356097    52.955259   -141.22644   -2707.8252    16299.924 
   42410    320.01947    8.1587114    58.596881   -138.99991    1944.5093    16299.924 
   42420    294.79011    9.0635525    66.252827   -137.53398    877.31129    16299.924 
   42430    322.19011    8.2304783    55.905728   -136.50498    686.79565    16299.924 
   42440    305.70196    7.4770408    58.553115   -136.04976   -641.02669    16299.924 
   42450    328.00991    7.2286868    51.781392   -135.74291    78.172848    16299.924 
   42460    284.62169    7.3625103    63.313807   -135.46542    1542.3612    16299.924 
   42470    309.24972    7.3910573    56.333418   -134.81034  -0.48132109    16299.924 
   42480    316.12273    7.2458755    57.978893   -133.96007   -786.70835    16299.924 
   42490    344.00436    6.7257342    53.214054   -133.28656   -2390.8616    16299.924 
42500        0.9675952352852950078 10.206086237347658852 1 68 -280.8188937500198108
   42500    325.34548    8.5722107    62.955586   -133.41035   -1149.0767    16299.924 
   42510    325.75939    10.500603    61.931282    -134.9339    1184.6683    16299.924 
   42520     300.7771    10.600534    59.726235   -137.76742    1671.6714    16299.924 
   42530    312.29312    8.8324713    56.460557   -141.54772    550.77022    16299.924 
   42540    305.03566     5.480889    60.277436   -146.40881   -2496.1348    16299.924 
   42550    308.46991    3.6110625    58.212306    -152.0522   -105.19668    16299.924 
   42560    303.03997    2.2546054    57.253652   -158.14785   -78.431791    16299.924 
   42570    276.33802    2.6361579    60.529612   -162.68571    -1569.324    16299.924 
   42580     269.5796    4.7419779    51.619855   -165.33377   -1040.2407    16299.924 
   42590     267.6772     5.549816    60.031633   -166.41232    479.70765    16299.924 
42600        0.96982175432572148566 10.180367518256096204 1 63 -288.91753854561443404
   42600    269.36703    5.6128773    64.494664   -166.87188    1327.4072    16299.924 
   42610    288.93124     8.284609    51.070683    -166.8394    1313.8651    16299.924 
   42620    286.26292    8.8104568    54.362603   -166.21951    2326.0446    16299.924 
   42630    274.25218    8.7895769      58.1547   -165.01583    843.11304    16299.924 
   42640    254.78516    6.4559361    62.690794   -163.12629   -1933.9811    16299.924 
   42650    271.57188    6.2208497      60.7237   -160.73498   -1600.6568    16299.924 
   42660    269.81473    7.8438337    63.890945   -157.76169    48.943273    16299.924 
   42670    284.53628    9.0565004    58.932409   -154.46308    41.895022    16299.924 
   42680    290.28202    9.4921021    63.182361   -150.98944   -589.98052    16299.924 
   42690    305.30016    10.185125    60.369245   -148.15968    421.59234    16299.924 
42700        0.96932751201818934117 10.15050219720413871 1 66 -290.8421272061241325
   42700    318.98133    7.5623242    62.717165   -146.31707    2853.8814    16299.924 
   42710    300.25597    6.5307261    65.214939   -145.40484    672.62408    16299.924 
   42720    272.12432    7.8072276    64.812869   -144.84653   -130.20105    16299.924 
   42730    263.41073    7.0466812    63.212223   -144.09209   -538.63315    16299.924 
   42740    303.38605    9.3443169    52.366989   -142.80849    1289.8411    16299.924 
   42750    310.29665    10.204156    57.604648    -141.2765   -34.434725    16299.924 
   42760    327.37069     11.46457    56.993642   -140.06756    683.57701    16299.924 
   42770    303.96713    9.2027041    68.050871    -139.7693    517.26732    16299.924 
   42780    306.63084    7.7301256    57.112653   -139.96884   -3054.6323    16299.924 
   42790    309.22034    7.2923169    53.613208   -140.45397   -1463.7468    16299.924 
42800        0.96485256060398161271 10.207253073441835411 1 66 -281.40450486264694518
   42800     310.1299    6.1855923    56.383969   -140.88988   -555.82137    16299.924 
   42810    337.72766    6.6103709    49.113518   -141.32408    1058.4933    16299.924 
   42820    302.49311    6.7592467    65.464606   -142.18933    1882.9803    16299.924 
   42830    299.72184    6.0345219    60.442241   -143.06717    -235.2869    16299.924 
   42840    290.08418    6.4011673    61.195169   -143.81701    1232.4563    16299.924 
   42850    319.10292    5.4147241    53.634573   -144.35254   -633.82986    16299.924 
   42860     298.7869    4.8706235    61.236607   -144.79811     -2412.69    16299.924 
   42870     320.8334    6.8837275    55.285375   -145.45213   -1431.9075    16299.924 
   42880    318.06176    7.4974813    61.604503   -146.56476   -1741.5748    16299.924 
   42890    313.14542    5.5587053     62.03818   -147.88089    238.74522    16299.924 
42900        0.97139979414648702782 10.188237856352996502 1 68 -292.08547980525918319
   42900    315.56684    6.6453284     57.10767   -149.10747    552.41694    16299.924 
   42910    297.76828    8.5037247    60.476373    -150.2382    1997.9638    16299.924 
   42920     306.1277     11.62555    55.546714   -151.14557    467.49527    16299.924 
   42930    287.79531    12.784021    57.863913   -151.81471   -1322.2464    16299.924 
   42940    301.52574    11.393875    54.717437   -152.05919    558.25657    16299.924 
   42950    318.70403    11.127434    50.909357   -152.25515    89.384496    16299.924 
   42960    293.70445    10.720115     55.32356   -152.76331   -655.84919    16299.924 
   42970    300.28534     11.42999    57.593962   -153.18904    720.81427    16299.924 
   42980    287.94629    11.124953    56.229057   -153.12317    80.090166    16299.924 
   42990    299.79413    7.3749586    55.715213   -152.24466   -51.875993    16299.924 
43000        0.97325330986032632108 10.181691540259381057 1 68 -287.68149965428312953
   43000    301.96696     5.457583    56.997489   -150.86537    645.25484    16299.924 
   43010    296.77263    5.6005002    61.139452    -149.3915   -1853.6641    16299.924 
   43020    314.44586    7.2117341     51.68023   -147.74316   -2.2740946    16299.924 
   43030    317.55797    8.0976139    61.745004   -146.05213    442.79038    16299.924 
   43040    301.60907    8.8418326    56.974811    -144.5073    234.70302    16299.924 
   43050    269.15873    10.239915    69.850062   -143.00908   -418.06118    16299.924 
   43060    303.46608    9.3748195    59.912196   -140.64399   -1400.6899    16299.924 
   43070    322.27082    8.6942037    57.398822   -137.59615   -1144.4834    16299.924 
   43080    327.16073    6.9403477     58.66677   -134.07932    -319.7575    16299.924 
   43090    298.71898    6.4556304    62.287638   -130.36874   -687.08933    16299.924 
43100        0.97835147309973125029 10.159966238442438069 1 67 -274.45976827547264065
   43100    326.78644    4.6321484     60.12693   -126.39835    680.20793    16299.924 
   43110    329.07218    5.1924953    61.703177    -123.1672    1282.4006    16299.924 
   43120    339.30642    6.3936517    56.050054    -120.8621    3157.7076    16299.924 
   43130    311.64894    5.2509375    57.739262   -118.97152    968.55571    16299.924 
   43140    300.70541    6.6383976    69.851802   -117.14728   -786.49464    16299.924 
   43150    311.47119    9.7564872    67.380466   -115.39931   -1326.9209    16299.924 
   43160     351.1177    7.8743536    57.351442    -114.0344   -2059.0109    16299.924 
   43170     335.3239    4.6877207    68.272231   -113.81842    390.12913    16299.924 
   43180    324.10134    7.5004769    63.874013   -114.95157    869.64249    16299.924 
   43190    313.05906    7.7870137    67.741083   -117.96554   -515.85146    16299.924 
43200        0.98356091656844690796 10.125423559418686992 1 69 -274.76730911976488869
   43200    334.10624     7.485527    64.090105   -123.38941    765.40728    16299.924 
   43210    327.10299     7.365331     58.09338    -131.4899    1531.3959    16299.924 
   43220    314.70933    6.9750085    66.573848   -139.20887     917.5434    16299.924 
   43230    310.30185    8.5109131    60.402898    -145.2503   -789.68002    16299.924 
   43240    307.07047    8.3360804    56.757646    -149.3592   -2408.5943    16299.924 
   43250    294.99369    7.6061485    60.825386   -152.32266    1171.4121    16299.924 
   43260    295.56112    8.9559247     57.72894   -154.41079    626.70781    16299.924 
   43270    280.33414    8.3385701     59.44176   -155.54289    1780.3359    16299.924 
   43280     304.2796    10.880158    53.784412   -155.88253    423.53435    16299.924 
   43290     276.0774    10.422763    60.709429   -156.03492     1284.558    16299.924 
43300        0.98192993760330693487 10.120579614337525953 1 71 -287.54012586445480792
   43300    290.54744    10.767394    54.176053   -155.89798   -986.84184    16299.924 
   43310    281.66697    11.306778    55.192222   -155.27504   -14.799336    16299.924 
   43320    291.58752    11.986683     56.48129   -153.93056   -1207.4544    16299.924 
   43330    274.11424    9.5486542    64.648706   -151.87192    432.81161    16299.924 
   43340    273.41954     7.183334    67.031262   -149.29159    1.4681702    16299.924 
   43350     311.3949    5.2463323    57.918781     -145.945    -712.9281    16299.924 
   43360     313.0411    7.7518306    54.208451   -142.25101   -2525.4436    16299.924 
   43370    298.43183     7.358642    64.834688   -138.65105    -1971.911    16299.924 
   43380    295.89971    6.9612706     74.00442   -135.44821   -543.67144    16299.924 
   43390    315.44652    6.4015909     57.65811   -133.18673    2032.5796    16299.924 
43400        0.9813442617449934513 10.110062904308938059 1 73 -269.29626602745645414
   43400    303.46426    6.2320817    60.391926   -131.80173    837.02063    16299.924 
   43410    314.94742    6.1839194    58.307079   -130.31785    2869.8408    16299.924 
   43420    309.93987    6.9214964    60.758847   -128.60833   -1546.2625    16299.924 
   43430    306.80312    5.9628928    66.058073   -126.89592   -238.25634    16299.924 
   43440    318.87914    3.8089598    66.769385   -125.69177   -1577.8618    16299.924 
   43450    307.10684    3.6783132    66.093191   -125.19897   -1340.1704    16299.924 
   43460    324.72486    5.4622339    59.255477    -125.4298   -529.27144    16299.924 
   43470     329.3418    9.7957997    59.666762   -126.35974    1148.8937    16299.924 
   43480    321.32486    11.599367    57.389624   -128.47235    744.43905    16299.924 
   43490    292.30197    11.583778    64.118529   -131.76907    2792.1232    16299.924 
43500        0.98506287199317177361 10.093068094643506072 1 71 -260.59546609546487161
   43500    273.71119    9.3968939    63.910196   -136.58155   -327.93382    16299.924 
   43510    298.95929    7.7921219    58.756856   -142.31189    898.06845    16299.924 
   43520    301.56469    6.5959395     57.74617   -148.52474   -1205.6398    16299.924 
   43530      287.465     8.484703     56.17113   -153.90428   -877.45149    16299.924 
   43540    280.54714    9.7281067    61.237825   -157.55513   -1382.7223    16299.924 
   43550    276.49756    10.664786    56.100485   -160.02909    -433.6469    16299.924 
   43560    265.08782    8.4011925    56.770663   -161.20036    520.94363    16299.924 
   43570    269.97051    6.7116058    55.255997   -161.21036   -153.18063    16299.924 
   43580     279.6933    7.4260174    55.278828   -160.34022    1401.2446    16299.924 
   43590    277.94974    5.9514005    61.039663    -158.8336    131.30616    16299.924 
43600        0.98564724919264579128 10.060159927887616149 1 71 -292.66432246031746445
   43600    299.47643    5.2225924    57.943845    -156.9766    1160.1726    16299.924 
   43610     298.0197    7.2728427     55.11316   -155.03069   -463.26524    16299.924 
   43620    290.71877    9.6283304    52.908046   -153.01224   -511.51889    16299.924 
   43630    295.08371    9.1154662    57.694835   -150.66138   -530.66969    16299.924 
   43640    280.06101    5.8935144    66.469031   -147.90905   -200.78358    16299.924 
   43650    313.49961    5.6664591    59.522794   -145.11976   -79.865881    16299.924 
   43660    311.26787    6.4904941    56.761056   -142.92477    1360.1913    16299.924 
   43670    314.00441    6.3431185    59.343258   -141.34055   -644.66835    16299.924 
   43680    314.38243    7.4536757    64.340679   -140.14016    1230.2908    16299.924 
   43690    305.99348    7.2046273    65.914024   -139.54035   -778.53728    16299.924 
43700        0.98661571909270329162 10.075274429025046885 1 75 -272.41386063365314385
   43700    293.43541    9.6613442    64.466485   -139.46323   -414.10909    16299.924 
   43710    310.21598    11.447873    60.124146   -139.38878    109.85725    16299.924 
   43720    318.88714    11.088973    57.523107    -139.8765    950.88721    16299.924 
   43730    315.98604    8.7928648    60.938921   -141.52517    2989.4645    16299.924 
   43740    287.03752    6.4688799    62.876799   -144.66263   -928.36818    16299.924 
   43750    281.58345    5.7948087    60.527966   -149.17986   -101.40457    16299.924 
   43760    256.90752    5.6958928    68.693725   -154.32582   -684.02261    16299.924 
   43770    286.18272    8.4410282    53.071137   -159.39334   -91.243994    16299.924 
   43780    274.15818    10.573726    51.371244   -163.62188    -2232.906    16299.924 
   43790    277.03729    11.442892    50.800235   -166.63201   -647.74537    16299.924 
43800        0.98547436679335675969 10.065106622545766157 1 71 -288.58461784812016049
   43800    265.11442    13.322132    52.949109   -168.46575    15.108515    16299.924 
   43810    234.98784    16.068579    57.263808   -168.90252    762.18915    16299.924 
   43820    270.48196    12.068023    56.139229    -167.9787    765.60718    16299.924 
   43830    282.30096    8.6293379    60.674268   -166.23005    2194.7895    16299.924 
   43840    306.30452    7.7714311    49.224579   -164.24654    949.60634    16299.924 
   43850    268.06874    7.9092174     56.70305   -162.13103   -1934.9556    16299.924 
   43860    290.85597    7.0051677    59.227896   -159.28703   -1954.6492    16299.924 
   43870     292.9142    6.5888547    61.322307   -156.07822   -469.94607    16299.924 
   43880    325.28991    5.7937651     47.45462   -152.89624    1899.0543    16299.924 
   43890    300.54636    6.1852726    53.608869   -150.12541    2703.0509    16299.924 
43900        0.98497321540262661177 10.082613005034327003 1 76 -286.58266627529070547
   43900    307.45711    6.2786936    54.375658   -147.27904    394.97946    16299.924 
   43910    287.28971    6.8824059    57.418334   -144.42905     1102.629    16299.924 
   43920    284.53059    6.8475835    61.020972   -141.67178   -1628.2945    16299.924 
   43930    297.94931    6.0795503    59.789862   -139.08304   -378.71583    16299.924 
   43940    285.62957    6.5106278    65.657666   -136.81051   -2948.2856    16299.924 
   43950    321.49216    8.0805801    49.622327   -134.77834   -1427.0638    16299.924 
   43960    308.16718    6.8776772    63.184121   -133.40401    1650.7812    16299.924 
   43970    318.99546    6.0411274    55.756934   -132.62043    3062.9397    16299.924 
   43980    299.24317     5.760078    62.632293    -132.3253    312.85252    16299.924 
   43990    294.57337    8.7043651    59.550911    -132.0098   -1876.0708    16299.924 
44000        0.98278104714420733146 10.135647282781997447 1 71 -279.01552615417404013
   44000    325.02564    9.8681801     62.34598   -131.75189    380.28984    16299.924 
   44010    323.98935    10.756787    60.772299   -132.12571    1498.8163    16299.924 
   44020     341.3263    11.178318    55.931353   -133.67656   -3329.9559    16299.924 
   44030    329.88067    9.5527979    61.800428   -136.45332   -1845.1463    16299.924 
   44040    333.86368    7.6252679    51.814812   -140.50973    1034.0337    16299.924 
   44050    286.84391    7.9031779    68.269953   -144.56792    3867.9688    16299.924 
   44060    291.46687    8.7816896    55.510908   -147.58161     2291.006    16299.924 
   44070    289.62884    8.1029219    58.513677    -149.7671   -384.53253    16299.924 
   44080    306.78541    6.5423584    59.958774   -151.43515   -2085.6496    16299.924 
   44090    277.83137    7.1944253    63.493674   -153.18713   -1832.1143    16299.924 
44100        0.98522973774780153722 10.118648230821211342 1 71 -266.28503027107001344
   44100    247.05216    7.3445253    62.484889   -154.34987   -1337.4603    16299.924 
   44110    259.91719    6.6612798    63.254978   -154.41508    2167.1128    16299.924 
   44120    283.64734    6.7078833    54.843806   -153.43458   -864.03594    16299.924 
   44130    328.07685    6.5916823     43.79869   -151.73291    1151.8718    16299.924 
   44140    282.14062    6.0224572    64.529552   -150.04911    289.59793    16299.924 
   44150    313.42816    5.4681245    53.648933   -148.13852   -396.27304    16299.924 
   44160    272.35105    6.2941795    68.379718   -146.11602   -1311.2231    16299.924 
   44170    292.65232    6.2610094    61.250797   -143.81861   -353.95612    16299.924 
   44180    286.61957    7.5454957     64.98006   -140.93942    2993.4222    16299.924 
   44190    316.11347    5.7706817     59.88714   -137.88942   -782.42052    16299.924 
44200        0.98217550447981605277 10.161991920316483018 1 69 -274.35229284909382841
   44200    307.98769    7.6107859    58.189296   -134.80826   -2161.4278    16299.924 
   44210     312.6997    8.9881796    68.724463   -132.13734   -954.59316    16299.924 
   44220    306.25881    6.8538091    68.565996    -129.9999   -90.189996    16299.924 
   44230    309.18041    8.1900737    67.924657   -128.19878    621.89896    16299.924 
   44240    304.19509    10.933186    63.363942   -126.30549   -625.63379    16299.924 
   44250    304.48706     10.14284    66.457871   -123.49236    581.96027    16299.924 
   44260    343.27587    8.6017652    60.824957    -118.6147    329.89461    16299.924 
   44270    340.94864    8.8852486    64.161824   -112.14508    1768.1116    16299.924 
   44280    353.23438    8.9624732    60.910447    -105.8459    181.20557    16299.924 
   44290    334.76237    8.6778226     76.52054   -100.88615   -979.98008    16299.924 
44300        0.9758485061130111049 10.183785018638380038 1 70 -265.67016366277306361
   44300     369.9947    8.3764714    71.853008   -98.031806   -204.56742    16299.924 
   44310    339.03597    7.1569173    79.400892   -98.130373    1634.4307    16299.924 
   44320     325.8324    10.079416    73.418003   -100.70398   -382.94051    16299.924 
   44330    324.46988     13.03949    70.356395   -104.44819    -619.3342    16299.924 
   44340    350.60962    11.579963    60.790158   -109.15555    644.19266    16299.924 
   44350     342.5835    8.2194899    61.469108   -114.33552    793.02285    16299.924 
   44360    335.09285        5.943    56.023524   -119.45941   -679.36483    16299.924 
   44370    315.27435    4.4977195    67.674099   -123.76923    -362.6153    16299.924 
   44380    321.14892    4.2217966    69.283206   -127.70315    28.483512    16299.924 
   44390    309.90632    6.7611631     68.75448   -131.47104    626.70547    16299.924 
44400        0.96666539730057554625 10.21117897521187956 1 66 -268.95148971287540007
   44400    295.73897    11.315234    70.909183   -134.95715   -405.95344    16299.924 
   44410    307.77995    10.618903    66.882281   -138.19488   -1223.3422    16299.924 
   44420    291.83668    7.6739104     67.44487   -141.13014   -1540.0867    16299.924 
   44430    319.02929    7.2820667    56.544735   -143.82864    364.23256    16299.924 
   44440    299.55651    7.2314859    60.421537     -146.352   -92.482192    16299.924 
   44450    319.41343    6.1795823     47.24364   -148.55561   -1169.3485    16299.924 
   44460    324.44408    3.6542907    53.248643   -150.92726   -473.69096    16299.924 
   44470     307.1322    2.7318108    62.671624   -153.49643    3204.8396    16299.924 
   44480    285.50334    2.6484219    58.067456    -155.9459    1633.5267    16299.924 
   44490    272.50772    2.9227902    56.419181   -157.81062   -1365.5585    16299.924 
44500        0.95998001373037777917 10.238796575268844791 1 65 -282.58343772120900894
   44500    272.96143    3.8299508    60.682518   -158.90922   -2134.9479    16299.924 
   44510    281.26166    6.3223705    57.740466   -159.11532   -910.33523    16299.924 
   44520    306.82473    6.1958159    57.870299   -158.68901    266.22787    16299.924 
   44530    286.06986    6.4408625    59.352427    -158.1791   -1935.9098    16299.924 
   44540    282.65114    6.1422333    63.122075   -157.33585   -110.05359    16299.924 
   44550     302.5293    5.8275286    61.901466   -155.92991    1072.6278    16299.924 
   44560    316.03289    7.9066298    58.453787   -154.26677    2290.7036    16299.924 
   44570    307.50671     10.11099    54.599302     -152.574   -788.56369    16299.924 
   44580    321.63572    9.3935419    56.052283   -150.75921    270.82568    16299.924 
   44590    326.87103    10.304555    59.932255   -148.96671   -1272.2824    16299.924 
44600        0.97001038789751670155 10.198416172585773154 1 65 -297.87719319257149664
   44600    331.16395     14.24542    57.685064   -147.83239    1081.6169    16299.924 
   44610    310.51599    12.232648    61.482079    -147.4808    297.08518    16299.924 
   44620    307.39426    9.5937585    62.555195   -147.64535   -1157.9458    16299.924 
   44630    303.44224    5.7946426    57.458778   -148.01571   -3240.2408    16299.924 
   44640    288.67224    6.7663362    69.544717   -148.62515   -1623.3025    16299.924 
   44650    297.19823    6.4656679     57.22654   -149.13387    389.23228    16299.924 
   44660    291.40146    4.5874369    63.519475   -149.56659    2784.0145    16299.924 
   44670    316.44799    5.6845769    44.264357   -149.87594    2719.3712    16299.924 
   44680    288.24946    8.0327681    56.940615   -150.03847    2657.6234    16299.924 
   44690    301.07686    10.706076    53.472747   -149.55786    1426.9549    16299.924 
44700        0.96842591635013985929 10.176764095181935588 1 65 -272.92049025717443556
   44700    274.83771    10.903118    60.415453   -148.39616   -2101.2674    16299.924 
   44710    291.41663    9.9288459    57.875774   -146.47207   -2097.3558    16299.924 
   44720    302.11507    5.6441063    62.475643   -143.91484   -2205.4771    16299.924 
   44730    307.73209    4.1455359    61.522612   -141.07254   -1332.3871    16299.924 
   44740    322.57018    4.2721866    58.879926    -138.0182    1214.4014    16299.924 
   44750    290.61914    8.0629217    68.955432   -135.34383    2614.1484    16299.924 
   44760    310.06869    9.0320685    59.220958   -132.57766    3583.2331    16299.924 
   44770    319.03491    6.5696829    68.721558   -130.05725   -1253.1609    16299.924 
   44780    337.96042    6.5454456    65.920242   -128.33803   -520.59615    16299.924 
   44790    320.80364    5.2625538    64.752354   -128.38901   -1937.9553    16299.924 
44800        0.95937908600711363505 10.202198527409640505 0.99735449735449732689 66 -253.57379808006433564
   44800    274.57139    4.8439784     73.01688   -129.17013    -380.1958    16299.924 
   44810     301.8944    3.9443541    61.935861   -129.85577   -2259.7585    16299.924 
   44820    311.00117     4.946524     67.48891   -130.76081      1180.24    16299.924 
   44830    339.68993    6.2665028    55.815715   -133.24588    516.73851    16299.924 
   44840     306.5726    4.7754067    56.830484   -137.57016    3281.1169    16299.924 
   44850     285.5881    5.4040919    57.787945   -142.95107    812.20603    16299.924 
   44860    285.76885    5.1750463    54.683776   -147.97459   -704.21832    16299.924 
   44870    259.39529    5.0585918    55.385801   -151.91626   -1559.8495    16299.924 
   44880    270.22497     3.332124    59.609938   -154.30848   -764.08256    16299.924 
   44890    269.20275    2.5253656    62.774892   -155.28912   -669.88773    16299.924 
44900        0.95952530556073323265 10.212632238051652322 0.99735449735449732689 67 -283.58413744523681999
   44900    282.96193    5.9964559     55.05919   -155.37886   -3791.4114    16299.924 
   44910    261.30456    8.6338035    60.568538   -154.78611    299.82232    16299.924 
   44920    280.75871    6.3598404    60.615908   -153.38362    1828.9682    16299.924 
   44930    282.24819    6.2164047    56.591252   -151.43472    2822.5842    16299.924 
   44940    284.86374    7.4049509    59.228325   -148.92031    160.74539    16299.924 
   44950    285.62695     8.121533    59.453599   -145.95044    1114.5625    16299.924 
   44960    317.54902    4.3091922    62.411894   -142.97399   -59.568838    16299.924 
   44970     318.5962    4.5304965    61.274853   -141.08055    2576.6175    16299.924 
   44980    308.07097    5.0877402    67.678727   -140.81207   -2355.7166    16299.924 
   44990    293.99198    5.6123169     66.52376   -141.45104    332.40931    16299.924 
45000        0.96673259522986154657 10.191121865474912056 1 69 -271.14190397344282246
   45000    283.98501    4.7894838    65.861072   -142.47309    -2929.937    16299.924 
   45010    278.46279    3.8113479    64.523528   -143.17258    1156.3922    16299.924 
   45020    294.70283    6.3618399    65.596318   -143.36338   -1840.2423    16299.924 
   45030    310.08071    7.0887985    57.269825   -143.47689   -1317.3285    16299.924 
   45040    300.19313      6.81966    62.468599   -144.03943    5.1726714    16299.924 
   45050    300.21548    5.9925493    56.857621   -144.77646    2304.6066    16299.924 
   45060    298.27583    7.1504505    55.854938   -145.19627    315.51978    16299.924 
   45070    316.83875     8.756851     50.00805   -145.25009     478.8382    16299.924 
   45080     328.8492    8.8077359    56.352543   -145.30791   -888.14116    16299.924 
   45090    324.45319    7.4998192    50.368625   -145.88496    242.78871    16299.924 
45100        0.97193928346151226005 10.182518613923969397 1 72 -297.11851449988876084
   45100    331.39182    6.6291119    53.386012   -146.97047   -2802.7889    16299.924 
   45110    329.00496    7.9667957    53.800699    -148.8398   -315.99348    16299.924 
   45120    309.52955    8.0032174    56.555081   -151.61874    1320.1372    16299.924 
   45130    271.07693    7.8486156    55.346497   -154.50499    3846.2427    16299.924 
   45140    261.19805    7.3766415    56.077605   -156.62451   -332.70495    16299.924 
   45150    277.20935     6.667363    54.003653   -157.96184    28.454311    16299.924 
   45160    290.22381    7.6377995    52.641072   -158.91548   -2301.3551    16299.924 
   45170    293.59645    7.3047839    51.517166   -159.43807    55.397099    16299.924 
   45180    301.84421    7.5622825    47.270288   -159.34808   -2052.0477    16299.924 
   45190    307.19911    6.8542377    50.465534   -158.64453   -171.77799    16299.924 
45200        0.97371235891095597736 10.153724471544165908 1 66 -285.82754759365639075
   45200    283.95533    7.9848541    58.484316   -157.17218    1309.7831    16299.924 
   45210    294.97944    7.4637713    57.707769   -154.71029    652.91421    16299.924 
   45220     292.1521    8.8483756    62.945267   -151.34879    3420.1074    16299.924 
   45230    320.83967    8.2618567    58.008072   -147.63337   -1961.7079    16299.924 
   45240    324.21932    8.5627708    58.059111   -144.04322   -1351.5841    16299.924 
   45250    336.63927    8.5104609    56.669023   -140.99873   -742.23702    16299.924 
   45260    319.54756    8.4250673    59.468665   -139.06136    2769.0773    16299.924 
   45270    326.43988    7.2467998    56.743803   -137.92038    1800.4366    16299.924 
   45280     314.4201    9.8607211    58.214253   -137.36105   -1263.9115    16299.924 
   45290    319.08188     11.26196    62.335354   -137.32211   -2170.1535    16299.924 
45300        0.97753533142870552286 10.174524678173922254 1 66 -278.72629470997787848
   45300    310.45651    16.497878    58.082086   -138.06369    799.16136    16299.924 
   45310    319.56957    12.359288    58.795349   -139.30636   -1916.3972    16299.924 
   45320    317.48058    8.9058443    61.237933   -141.26564    -1035.191    16299.924 
   45330    306.63014    6.8271783    62.815445   -144.18743    -3476.213    16299.924 
   45340    320.42463    6.3824288    60.669279   -148.51436    2848.6315    16299.924 
   45350    285.15027    6.3921894     64.47333   -153.61439      3038.42    16299.924 
   45360    310.62393    8.4887149    55.594028   -158.18582    3535.2609    16299.924 
   45370    297.07368    7.4973327    64.986235   -162.36303    -1687.871    16299.924 
   45380    296.57768     7.053248    51.233594   -165.90927    -983.5993    16299.924 
   45390     283.2297    6.9281882    61.623464   -168.45843   -1029.1678    16299.924 
45400        0.9776836702416192848 10.17121085949570336 1 67 -305.48612223196909099
   45400    298.89946     5.833166    55.175015   -170.05982    635.15181    16299.924 
   45410     282.6756    3.3787749    59.870991   -170.93509   -2543.4262    16299.924 
   45420    266.54799    3.9346933    53.544533   -171.15174   -2875.3191    16299.924 
   45430    257.69293    5.1617968    61.017797   -170.47916    536.48894    16299.924 
   45440    279.07766     5.049757    52.789054   -168.95002    2731.3853    16299.924 
   45450    254.50241    4.9405325    64.744883   -166.88221    1318.6532    16299.924 
   45460    282.88914    5.6771059    55.106971   -163.80982    450.63029    16299.924 
   45470    267.51004    8.2026911    65.981465   -160.40085   -1195.6797    16299.924 
   45480     283.1978    9.3604854    63.582193   -156.88744    662.13585    16299.924 
   45490    275.52856    11.934808    65.122336   -154.06929    309.97259    16299.924 
45500        0.98446259321603213355 10.126186412089964506 1 70 -291.45044170006622153
   45500    308.27078    13.283166    57.815523   -151.77815   -1206.0362    16299.924 
   45510    296.41571    12.246723    59.465613   -150.10562   -2556.6687    16299.924 
   45520    305.43638    10.583479    56.492407   -148.77944   -3043.5648    16299.924 
   45530    305.27656     9.873033    62.924463   -147.83792    1535.5366    16299.924 
   45540    291.56511    9.0918133    64.484638   -147.53948    1021.8888    16299.924 
   45550    305.93077    7.1840774    53.684137    -147.3073    419.35929    16299.924 
   45560    292.74944    6.4138059    65.767768   -147.00342   -56.382587    16299.924 
   45570    312.41593    9.2406862    52.831058   -146.58043   -1434.0825    16299.924 
   45580      287.087    11.972143    67.008767   -146.30977     3038.532    16299.924 
   45590    304.11746    12.619038     64.59655   -146.21437    919.25006    16299.924 
45600        0.99135969855291650177 10.066571645600078 1 71 -284.61007327568404435
   45600    304.90418    13.704047    61.674333   -146.46313   -174.09812    16299.924 
   45610    331.35777    12.337414    56.686338   -147.28562    -779.1276    16299.924 
   45620    327.39913    9.4530161     61.75484   -149.16014    641.88143    16299.924 
   45630    295.91966    7.8088307    60.949809   -152.07833    1824.8768    16299.924 
   45640     283.6229    8.5150735    69.738933   -155.79507    630.60307    16299.924 
   45650    296.59498    8.4423521    55.148935   -160.35092   -1304.1902    16299.924 
   45660    274.88971       8.2014    58.858216   -165.34958    -978.7913    16299.924 
   45670    296.82392    9.4714649    55.057334   -170.36716    1150.4651    16299.924 
   45680    275.40815    12.184601    54.480803   -174.76098    677.61649    16299.924 
   45690    290.41541    11.173631    45.426995    -177.8196   -1455.3312    16299.924 
45700        0.99161341273527014994 10.062479814961827529 1 69 -298.74732906796930365
   45700    263.43478    9.8444771    58.106737   -179.38947   -613.90749    16299.924 
   45710    276.32744    7.9368209     52.28989   -179.69242     703.0652    16299.924 
   45720    262.43652    7.4444351    59.493872   -179.06887    1097.9919    16299.924 
   45730    275.51257    5.6460623    54.582949   -177.58563   -625.95565    16299.924 
   45740    283.50105    6.2473818    54.374931   -175.43427   -2866.1375    16299.924 
   45750    304.52382    9.3155713    50.056875    -172.9214   -1476.9979    16299.924 
   45760    296.10539    12.231332    53.414135    -170.7235    3641.9736    16299.924 
   45770    279.80279    12.022344    62.990163   -168.95486    2151.1267    16299.924 
   45780    288.29973    15.864177      46.1007   -167.10037   -807.43868    16299.924 
   45790    270.76881    13.966423    59.751171   -165.05317   -2369.4773    16299.924 
45800        0.99010191436407013477 10.053504492844082208 1 66 -292.10913091894701665
   45800    285.98269    12.966997    57.963587    -162.5352    1729.6607    16299.924 
   45810    291.58496    9.1263743    61.682232    -159.9297    1596.3614    16299.924 
   45820    304.82688    6.3895885    55.415708   -157.55532   -1449.5146    16299.924 
   45830    290.72244    3.6585951    61.023826    -155.6712    858.91922    16299.924 
   45840    302.35439    5.6532253    57.866432   -153.80726    2318.2472    16299.924 
   45850    295.97035    6.8439582    63.132547   -151.78202    -81.64006    16299.924 
   45860    308.89841     9.704677    57.657357   -149.83287   -468.56642    16299.924 
   45870    306.48724    9.9340754    59.934227   -148.24678   -87.361866    16299.924 
   45880    323.87222    9.9891792    59.348823   -147.19422    528.15112    16299.924 
   45890    311.97616    9.6123941     56.06123   -146.62692    148.46128    16299.924 
45900        0.98827972341006886658 10.091222650121373761 0.99735449735449732689 65 -279.90469053549594491
   45900    294.53152    6.1591192    68.116341   -146.45743    -1244.463    16299.924 
   45910    301.07471    5.6947385    59.161728    -146.3161   -678.12487    16299.924 
   45920     303.3484    8.0997449    59.246537   -146.09111   -2339.5874    16299.924 
   45930     322.1304     9.097385    57.090777   -146.00133    1574.5816    16299.924 
   45940    314.05981    8.9735337    65.546724    -146.5103    1952.7141    16299.924 
   45950    296.52203     8.267674    69.038323   -148.07002    802.33702    16299.924 
   45960    284.96989    11.133523    57.534534   -150.82173   -3144.3965    16299.924 
   45970    268.87815    9.9178108    65.348158   -154.39841   -975.91861    16299.924 
   45980     293.8964     6.387173    63.630108   -158.55871    392.04196    16299.924 
   45990    287.28283    5.7335649    58.666456    -163.1159    1379.2711    16299.924 
46000        0.98212319458434238495 10.098262421811876166 0.99470899470899465378 69 -291.27834068451039684
   46000    274.51324    8.9657671    53.131186   -166.90102    197.64661    16299.924 
   46010    261.37652    8.4641816    57.192927    -169.5202    803.80427    16299.924 
   46020    276.58475    8.3917179    54.460202   -170.91863   -518.84792    16299.924 
   46030    288.36541    6.0691482    56.147309   -171.57631   -1878.6083    16299.924 
   46040    293.07378    5.1934584    54.275096   -171.74489   -1035.7704    16299.924 
   46050    293.42058    5.4095814    51.886298   -171.46521    1608.4916    16299.924 
   46060    282.19925    6.1017547    56.993103   -170.64281    631.72045    16299.924 
   46070    315.38541    4.9433686    50.740919   -169.04254    646.12466    16299.924 
   46080    286.25828     6.217651    55.915511   -167.00468    1387.5081    16299.924 
   46090    289.81272    8.0246385    55.009709   -164.11245    1718.4464    16299.924 
46100        0.97878054483837528821 10.115686106341312822 0.99470899470899465378 69 -288.13715711508888262
   46100    283.27048    5.3722516    57.397143   -159.79208   -406.70192    16299.924 
   46110    287.71564    4.6022156    59.173657   -154.26554   -2039.1479    16299.924 
   46120    286.72361      2.97716    69.685833   -148.29244     288.7325    16299.924 
   46130    279.97927    3.2080702     69.81948   -143.72703    8.4975164    16299.924 
   46140    290.58239    3.1836933    60.999357   -140.19059   -2728.0915    16299.924 
   46150    322.28606    4.4641597    59.209285   -137.73231   -2231.3188    16299.924 
   46160    308.85634     5.995538    66.223317   -136.26475   -909.63963    16299.924 
   46170    308.43262    7.3430982    59.825387   -135.68863    603.04203    16299.924 
   46180    287.73926    6.3019149    70.458533   -135.68771    1248.6528    16299.924 
   46190     314.6376    5.0689846    57.516893   -135.86379    1299.6445    16299.924 
46200        0.9803996783609187915 10.126858452712927061 1 73 -278.86051609408991681
   46200    314.68857    5.1001281    66.857063   -136.28043    2017.7766    16299.924 
   46210    313.63198    5.5316992    64.729691   -137.24419   -634.90602    16299.924 
   46220    303.48943    6.9581946    61.280033   -138.66031    117.69583    16299.924 
   46230    290.88642    8.4725557    65.028141   -140.47517   -1419.6845    16299.924 
   46240    305.66905    5.4688483    56.233278   -142.40136   -2365.5392    16299.924 
   46250    290.41847    5.1623786    61.615985   -144.40804   -1097.2556    16299.924 
   46260     286.6832     5.697812    58.439485   -146.36089     2049.366    16299.924 
   46270    269.55047    8.1430134    63.317547   -147.88984    3903.9115    16299.924 
   46280    268.46117    9.1667495    58.926828     -148.727   -376.46858    16299.924 
   46290    285.11265    9.7135917    53.066475   -148.82293   -229.75749    16299.924 
46300        0.98091297042425640296 10.121289171443716981 1 73 -287.87750588864793144
   46300    307.82174    8.7840797    60.726092   -148.40867    205.75589    16299.924 
   46310    309.18329    7.0503126    56.556998   -147.79618    2009.2137    16299.924 
   46320    316.65047     6.799577    61.449498   -147.28192   -2289.0755    16299.924 
   46330    309.94215    7.5597396    64.162771   -147.50539    101.61849    16299.924 
   46340    291.86574    8.0583843    67.982086    -148.4356   -138.48369    16299.924 
   46350    303.51637    8.4483757    59.660189   -149.93089    2339.3467    16299.924 
   46360    309.44631    9.4012736    58.793372   -151.94961   -1293.8117    16299.924 
   46370    304.44218     11.45274    59.297838   -154.84882   -974.59133    16299.924 
   46380    277.23275    14.717195     65.01578   -158.15214   -1303.2022    16299.924 
   46390    289.99893    13.360278     56.61005   -161.33415    1389.3631    16299.924 
46400        0.9782006283950053227 10.142920176123521259 1 75 -283.2315564016208782
   46400    263.67546    11.258573    62.507506   -163.76465    556.58082    16299.924 
   46410    286.41167    7.6587292    51.312014   -165.42953   -1661.1964    16299.924 
   46420    272.47477    5.5855125    66.934481   -166.61217    -2870.328    16299.924 
   46430    296.86158     4.771676     53.44793   -167.47477    543.12608    16299.924 
   46440    277.63179    4.9706973    54.925764   -168.12266    2589.1531    16299.924 
   46450    289.29924    6.5428798    49.684257   -168.09631    1118.1989    16299.924 
   46460    289.01225    9.1575123    48.047586    -167.0963   -1042.8199    16299.924 
   46470    283.68659    8.0626426    55.214564   -164.92704    1687.1298    16299.924 
   46480    300.20985    6.4126311    54.113122   -161.55093    366.34623    16299.924 
   46490    283.14391     7.151312     63.49221    -157.6318    550.17863    16299.924 
46500        0.97651760592594294419 10.174626061620600126 1 73 -289.89579995347560271
   46500    301.75756    8.2852533    56.381067   -153.17454   -3142.8671    16299.924 
   46510    335.30045    8.1338473    52.966338   -148.59951    1069.9743    16299.924 
   46520    342.54832    5.5185178    55.155128    -144.7978    668.39456    16299.924 
   46530    340.06377    7.3753341    52.875391   -142.62616    679.96944    16299.924 
   46540    325.44001    7.2326306    54.579258   -141.70215    28.337305    16299.924 
   46550    334.06344    7.4280866    49.859663   -141.37179     881.0484    16299.924 
   46560     304.6144    8.3650704    65.865042   -141.46615     997.2983    16299.924 
   46570    315.22679    8.1704673     60.28291   -141.92343    419.68053    16299.924 
   46580    306.77628    9.1426982    56.568373    -142.8173   -2032.4857    16299.924 
   46590    298.97877    6.5914874    59.763443   -143.83198   -3596.7665    16299.924 
46600        0.96445116504931427404 10.230492782075168989 1 69 -293.3340273268216265
   46600    328.56776    4.7427025     52.22412   -144.46552   -2272.8554    16299.924 
   46610    325.85434    4.1411846    57.491111   -145.35123    1998.1589    16299.924 
   46620     293.7224    3.5229696    60.368978   -147.31864    1191.9606    16299.924 
   46630    263.17496    3.7345057    58.762777   -149.96558   -98.676326    16299.924 
   46640    255.80171    2.4928755     64.46149   -152.83082    549.22158    16299.924 
   46650    262.77173    3.3436293    62.039044   -156.06564    1592.3516    16299.924 
   46660    259.34864    3.1562751    60.448963   -159.88531   -1422.1124    16299.924 
   46670    272.08909    3.2111796    56.330531   -163.77213    -862.3577    16299.924 
   46680    267.70853    2.8282475    61.579306    -167.8791   -536.66245    16299.924 
   46690    267.36817     2.383313    57.867799   -171.13886    74.779188    16299.924 
46700        0.96164843467455496384 10.21199319414393436 1 68 -298.20907368874537724
   46700    274.98532    3.6944008    56.554939   -173.61786    578.49217    16299.924 
   46710    259.77745    4.6073712    54.420638   -175.06711     186.5523    16299.924 
   46720    264.75555    4.9630175    51.763452   -175.35755    1919.1667    16299.924 
   46730    259.00156     5.193212    58.653284   -174.38379    442.40877    16299.924 
   46740     286.3843    6.7748101    53.128908   -172.18276   -775.95743    16299.924 
   46750    287.02059     6.159819    55.989272   -169.31025   -1107.1462    16299.924 
   46760    305.73743    5.7907367    52.535244   -165.47527   -854.09373    16299.924 
   46770    306.99404    7.1914435    54.145834   -161.42266   -519.22128    16299.924 
   46780    293.01159    8.8666612     59.49648   -157.50264   -1066.8543    16299.924 
   46790    292.66737    9.3913831    62.766096   -153.90545    340.29782    16299.924 
46800        0.96278282757925170987 10.200673366850356416 1 68 -291.0696887326560045
   46800    310.07726    7.2915073    60.040989   -150.57891    -668.4582    16299.924 
   46810    297.98266    10.292509    62.323313   -148.10312    988.32307    16299.924 
   46820    288.86437    9.0720725    66.281255   -146.05429    375.54252    16299.924 
   46830    307.76411     6.833771    56.396988   -144.36418   -1295.6627    16299.924 
   46840    324.73187    6.9655787    57.898456   -143.46867   -575.93874    16299.924 
   46850    328.13737     7.296794    65.673474   -143.34647    2226.8488    16299.924 
   46860    332.31068    7.7970682    58.040189   -144.16548    640.26342    16299.924 
   46870     300.2371     7.052348    62.439893   -145.56994   -636.00709    16299.924 
   46880    286.63235    7.5834395    59.863282   -146.83707   -1600.8231    16299.924 
   46890    274.44015    8.9347973    61.129237   -147.60051   -862.22256    16299.924 
46900        0.97304787224738009677 10.169951619777933161 1 69 -284.16655841680005778
   46900    300.68031    8.1751681    56.622746   -147.93339     2532.732    16299.924 
   46910    285.01962    6.5509676    60.795174   -147.90812   -1145.2747    16299.924 
   46920    303.14319     5.845733    57.670887   -147.48877    865.06819    16299.924 
   46930     297.7883    5.6810866    62.652584   -146.90468    911.97804    16299.924 
   46940    291.10888    6.0777272    66.832089   -146.22524    1663.2096    16299.924 
   46950    304.88372    6.1918703     61.89899   -145.61354   -633.69483    16299.924 
   46960    290.18299    9.1485658    63.543201   -145.05188   -1627.2306    16299.924 
   46970    314.90767    9.7989154    63.193409   -144.48846   -2054.0501    16299.924 
   46980    312.91417    10.865391    63.778716   -144.21941    272.78966    16299.924 
   46990     319.0681    9.6674863    60.924777   -144.23312   -1364.9181    16299.924 
47000        0.98083819584992359975 10.157119526089838146 1 70 -291.01311430233425881
   47000    322.22535    8.7365704    63.721829   -145.01824    1407.7933    16299.924 
   47010    297.87801    8.2383696    61.855368   -146.95539   -397.39503    16299.924 
   47020    321.12854    6.3929876    60.160268   -150.52675   -123.45134    16299.924 
   47030    294.83443    8.8972184    66.512079   -155.46952    -1084.807    16299.924 
   47040    318.84151     7.404968    49.911928   -161.07486    2298.9867    16299.924 
   47050    287.72778    9.6287456    56.980283   -166.42432   -810.22835    16299.924 
   47060    283.17127    11.965608    57.024926   -170.30949    1307.7618    16299.924 
   47070    273.22344    10.828278    58.303336   -172.93485   -1736.7701    16299.924 
   47080      277.788    10.536881     50.80834   -174.47126     704.9455    16299.924 
   47090    272.81776    8.3859369    52.742719   -174.80448   -1707.0287    16299.924 
47100        0.9819166956251068612 10.119229690207795613 1 68 -301.69929583369042803
   47100    281.47913    6.3970644    58.823561   -174.16585    832.50275    16299.924 
   47110     284.1889    5.7366136    62.739502   -173.08272    1165.4943    16299.924 
   47120     287.2678    7.2566816    55.111688   -171.65427    1986.1715    16299.924 
   47130    280.87809    8.3128239     57.51942   -169.71116    586.71214    16299.924 
   47140    292.79641    7.4693137    53.283415   -166.93112    783.81764    16299.924 
   47150    288.79818    6.2089537     60.55572   -163.44258   -532.78682    16299.924 
   47160    294.82468    6.9424895    57.244944   -159.55641   -1272.1777    16299.924 
   47170    293.76483    9.4147219    55.620079   -155.56788   -1958.5435    16299.924 
   47180    277.90989    9.7473516    63.000266   -151.78741    1332.0366    16299.924 
   47190    281.87553    10.225042    67.024589   -148.46752    124.64379    16299.924 
47200        0.97998945527011416257 10.148554568944291532 1 69 -286.39046833476947995
   47200     311.4083     9.161075    61.540521   -145.29662   -71.941073    16299.924 
   47210    300.09996    7.3805941    68.540761   -143.11003    195.11652    16299.924 
   47220    293.10975    5.6651731    70.239935   -141.87255   -265.36314    16299.924 
   47230    318.38049    5.0893152    69.791371   -141.41645    1012.4918    16299.924 
   47240    306.06822    5.1514413    65.495379   -141.66328    -290.0447    16299.924 
   47250    303.24322    4.5476937    61.292349   -142.11148   -1598.2842    16299.924 
   47260    290.71788    3.4125141    70.499678   -142.61027   -407.80357    16299.924 
   47270    322.36454    4.7395555    57.544156   -143.23516    948.70019    16299.924 
   47280    308.86122    6.2506807    66.478794   -144.22241    2127.6356    16299.924 
   47290    314.20494    5.2546268    61.867606   -145.33866   -1157.5872    16299.924 
47300        0.97836954107906914935 10.151068258504761133 1 66 -288.11343983666233726
   47300    311.57714    4.6481817    61.369876   -146.94309   -1216.3445    16299.924 
   47310    305.76337    4.5896304    62.667393   -148.95005    1737.1064    16299.924 
   47320    299.83983    5.5906281     59.27031   -151.09317    936.47269    16299.924 
   47330    304.99102    6.0917643    63.768996   -153.29772   -12.540423    16299.924 
   47340    306.52646    7.3018547    53.787464   -155.93121    -1678.118    16299.924 
   47350    297.56218     9.020852    55.568404   -158.82816   -563.89803    16299.924 
   47360    286.53847    9.5622274    61.189635   -162.29759    2943.1473    16299.924 
   47370    299.41717     7.072414     57.03914   -166.60895    294.31343    16299.924 
   47380    285.31858    7.8622252    52.416732   -171.76722      -2420.4    16299.924 
   47390    292.13556    6.9951824    50.598486   -176.95745   -1108.7854    16299.924 
47400        0.9784467081284807799 10.166348808361473033 1 70 -311.90699817555395157
   47400    287.16147    7.4600159     56.28431   -181.79898    828.60943    16299.924 
   47410    254.73369    8.5131614    56.567893   -185.39109    2411.4515    16299.924 
   47420    249.64164    7.6120353    55.810565    -187.1498   -905.71562    16299.924 
   47430    265.05566    7.4644079    50.609058   -187.36743   -746.60715    16299.924 
   47440    266.09334    6.5978194    57.384639   -186.51884   -1762.3048    16299.924 
   47450    246.50085    7.2587209    61.621156    -184.8664   -1955.5088    16299.924 
   47460    257.31239    6.9782653     61.03571   -182.59718   -1870.6782    16299.924 
   47470    270.10525    5.6943985    60.942358    -180.1406    1059.1032    16299.924 
   47480    272.58116    7.0149548     52.93812   -177.73119    282.47048    16299.924 
   47490    279.26246    8.4140632    55.514323   -175.41803    1725.2278    16299.924 
47500        0.98367113362618829875 10.145594846168275893 1 71 -288.1356981140460789
   47500    254.26213    6.4731991     71.25432   -172.93382    1167.7496    16299.924 
   47510     275.8153    7.1365197    55.450418   -170.33547    2280.1252    16299.924 
   47520    270.79101    8.8173662    64.056746   -167.41158   -805.40578    16299.924 
   47530    294.05484    5.2441077    62.892089   -164.26038   -764.78054    16299.924 
   47540    283.71161    5.0282503    66.039113   -161.27465   -576.77074    16299.924 
   47550    302.52598    5.4664986    59.344266   -158.25776   -481.67223    16299.924 
   47560    301.00212     4.535693    61.444447   -155.55422   -725.98121    16299.924 
   47570    301.56867    7.0345596    62.387198   -153.06253    320.52725    16299.924 
   47580    306.50151    6.4889144    66.745948   -151.12013   -1650.9758    16299.924 
   47590    302.53247    9.0177717    63.202867   -149.63533   -1201.5655    16299.924 
47600        0.98860282355879747218 10.118274918338341806 1 71 -293.10795334827355418
   47600    318.69503    9.3629449    54.506957   -148.71261    -395.4051    16299.924 
   47610    288.29645    10.902854    73.686989   -148.17654    3408.0984    16299.924 
   47620    313.80497    13.256621    55.507316   -147.47928   -1765.3676    16299.924 
   47630    284.77351    12.502605    62.381408   -146.63063   -633.48539    16299.924 
   47640    300.85725    9.5724468    66.789322   -145.48734    1159.4264    16299.924 
   47650    302.73789    9.0224837    71.471697   -144.49497    2942.8906    16299.924 
   47660    328.97585     9.703291    55.940004   -144.06335   -1754.6637    16299.924 
   47670    332.40857    7.2957628    61.804308   -144.50767   -2457.2144    16299.924 
   47680    337.19311    6.2100499    65.379613   -146.08125   -1888.5086    16299.924 
   47690     316.6185    5.4835826    66.073354   -149.97801    1621.1856    16299.924 
47700        0.99187547926736607806 10.059900340718392897 1 71 -290.00687806264249957
   47700    297.74448    7.4109992    59.392491   -155.10388    109.16909    16299.924 
   47710    262.76328    9.6691653    70.746818   -160.52673    2634.0796    16299.924 
   47720    293.17164    7.8274468    52.228629   -164.61436    2242.9345    16299.924 
   47730    279.66757    8.6582537    57.717477   -168.10011    4919.6647    16299.924 
   47740    284.54079    7.5504348    53.586632     -170.301    -671.0125    16299.924 
   47750    269.54324     6.335751    59.473817   -171.53092   -2008.2507    16299.924 
   47760    259.10776    5.9488208    60.992746    -171.7353   -6425.5619    16299.924 
   47770    247.82009     6.461616    67.367565    -170.8467    -790.9155    16299.924 
   47780    259.94687    6.8398592    63.220185   -168.94866     1022.295    16299.924 
   47790    278.56554     8.023813    61.345413   -166.00256    2941.1665    16299.924 
47800        0.99037831773475626385 10.061674868154151241 1 68 -294.60485792576497488
   47800     291.7241    8.9911212    62.473728   -162.42959   -1521.0654    16299.924 
   47810    292.25236    10.339739    60.042066   -159.10858    1904.6396    16299.924 
   47820     266.8633    10.133009    70.671997   -156.16076    1983.6983    16299.924 
   47830    293.60235    9.6993238     57.32843   -153.40593     910.0507    16299.924 
   47840    300.15972    8.8565852    58.615451   -150.97037   -2774.0363    16299.924 
   47850    300.80826    8.9236915    60.389522   -149.09493    1057.6456    16299.924 
   47860    295.65897    9.5805979    63.259346   -147.79526    127.66361    16299.924 
   47870    296.72347    11.930587    60.928757   -146.51894     761.6388    16299.924 
   47880    310.86071    10.122246     66.79733   -145.50572   -2821.6449    16299.924 
   47890    327.09671    8.0308904    68.654385    -145.4713    1168.3441    16299.924 
47900        0.98691296341759682242 10.112765711627542231 1 68 -288.66114802375545878
   47900    313.23198    7.0949283    64.108493   -146.74102   -2208.1662    16299.924 
   47910    301.78536    7.0377362    65.307339   -148.58685    1640.4445    16299.924 
   47920    299.81167    5.5234693    65.707382   -150.27302    362.32545    16299.924 
   47930    297.55789    6.1362294    63.233122    -151.8724   -138.60995    16299.924 
   47940    271.22486     5.981169    73.669257   -153.09238   -1812.3587    16299.924 
   47950    282.56071    5.9342424    66.418562   -153.94034    1016.4806    16299.924 
   47960      281.258    4.9356682    67.547484    -154.7372    1626.7901    16299.924 
   47970    297.82549    7.4492317    59.479914    -155.2055   -138.40653    16299.924 
   47980     287.3418    9.8563895    60.884989   -155.49476   -1420.6185    16299.924 
   47990    296.46454    6.5696804    64.400193   -155.42198    649.93503    16299.924 
48000        0.98420994061440392198 10.130673528742210721 1 68 -290.11356839972222588
   48000    297.40715    3.7170839    66.113222   -155.36341    325.10882    16299.924 
   48010    298.35866    4.5237993    60.562644    -155.5984    77.315554    16299.924 
   48020    279.47619    7.8929222    62.037164   -155.78622   -1230.7197    16299.924 
   48030    292.02661    10.072894    63.222217   -155.61942   -490.60332    16299.924 
   48040    294.52349    9.1320133    62.832588   -154.70691   -14.991567    16299.924 
   48050    300.71355    10.267667    63.065761   -153.29912   -1478.9825    16299.924 
   48060    292.02762     14.09209    63.457586   -151.49384   -548.71762    16299.924 
   48070    313.78077    11.395364    56.250767   -149.41657    103.16567    16299.924 
   48080    307.61897    10.634514    66.069979   -147.05614    3400.5512    16299.924 
   48090    306.08941    8.2854622    65.309011   -144.67549    847.06589    16299.924 
48100        0.98206248992037326051 10.12942140055007556 1 67 -281.93662321638748836
   48100    308.16353    4.5259731    63.098003   -142.31293   -2117.2191    16299.924 
   48110    325.69908    3.0460131    63.516122   -140.30386   -2365.9692    16299.924 
   48120    324.17046    3.0634078    66.298856   -138.82465   -1124.9025    16299.924 
   48130    312.23755    3.8603715    62.302727   -137.93834    67.289495    16299.924 
   48140    291.47454    4.9008887    60.017813   -137.50923   -543.22413    16299.924 
   48150     311.8392    5.8836948    54.268147   -137.04535    303.07538    16299.924 
   48160    307.14073     4.942021    67.942125   -136.17527    3742.1753    16299.924 
   48170    313.18331    5.9540686    63.624651   -134.96991    1447.1065    16299.924 
   48180    298.54879     5.788758    67.414678   -133.68059    153.33576    16299.924 
   48190     327.4766    5.9955185    64.820049   -132.39707   -1792.0935    16299.924 
48200        0.98031889363722379827 10.142983505890985185 1 65 -278.68144514492098551
   48200    324.73665    6.8942634    68.924883   -131.54875   -2180.7372    16299.924 
   48210    329.76846    6.9094389    62.939258   -131.68874   -526.44506    16299.924 
   48220    318.63573    7.2763293    66.596479   -133.22242    1500.5917    16299.924 
   48230    305.17238     8.047194    66.044267   -135.66962    66.698493    16299.924 
   48240    317.21937    9.8179194    62.038471   -138.98664    1176.0785    16299.924 
   48250    288.43916    9.3342638    72.936324   -143.71357    631.57442    16299.924 
   48260    276.66174    11.760946    62.897288   -148.60885    2607.9383    16299.924 
   48270    266.40655    12.391818    67.509148   -152.23956   -179.45912    16299.924 
   48280    287.28013    10.629841    57.344839    -154.6495   -2433.5648    16299.924 
   48290    279.31552    6.8810407    69.768721   -156.47099   -2169.0265    16299.924 
48300        0.98010730325259387552 10.142622667440431172 1 68 -287.61966830090273106
   48300    286.20529    8.9521695    67.461325   -157.94488    755.91321    16299.924 
   48310    295.63148    9.1899189    57.006873   -159.56547   -976.21352    16299.924 
   48320    293.45925    8.4344848    62.799175   -160.96683    505.59535    16299.924 
   48330    306.49866    9.9414661      55.3438   -162.32391    1774.0679    16299.924 
   48340    291.33085    8.2020803    62.521301   -163.86157    2320.4549    16299.924 
   48350    301.44656    5.7828961    56.480538   -165.48142    216.89352    16299.924 
   48360    291.84864    4.0134302    58.422823    -166.9708   -1126.8927    16299.924 
   48370     303.4268    3.1894651    54.121581   -168.42196   -1448.9241    16299.924 
   48380    291.08642    5.2486087    57.194655   -170.27192   -2297.7187    16299.924 
   48390    282.11728     4.902144    55.682794   -172.17095   -280.96025    16299.924 
48400        0.97873945906422232799 10.150533080197744695 1 68 -308.95930091444859045
   48400    297.47274    6.6952936    49.498304   -174.17942    665.41388    16299.924 
   48410    302.78982    7.6080451    47.151137   -176.67541    534.95466    16299.924 
   48420    280.59356    7.7676407    50.489932   -179.55176    103.15441    16299.924 
   48430    278.13764    6.5412925    45.731675   -182.18695    511.03597    16299.924 
   48440    264.18812    7.5478589      57.0283   -184.45216     1728.609    16299.924 
   48450    254.64684    7.8162513    52.738926   -185.90319   -282.51158    16299.924 
   48460    248.31359    8.2095119    50.403063   -186.09673   -1426.9372    16299.924 
   48470    253.97905    8.5512931    56.153576   -184.53676    347.68181    16299.924 
   48480    258.36746    11.586529    55.766122   -180.87196    991.07052    16299.924 
   48490    281.64778    11.204262    58.612856    -175.9103     1925.114    16299.924 
48500        0.97773110624120984635 10.160693061725961428 1 73 -307.97589507760841343
   48500    303.39269    10.017961    51.601684   -170.51379   -1637.4384    16299.924 
   48510    276.74017    7.9171355    58.140684   -166.20253     152.6144    16299.924 
   48520    287.73282    7.0618399    54.849636   -162.19625    1215.3628    16299.924 
   48530     270.6964    7.2326284    73.044977   -158.51383    787.23043    16299.924 
   48540    303.25892    6.2664066    58.848219   -155.41022   -1567.0702    16299.924 
   48550    275.62908    7.3877491    69.160788   -153.20967   -1880.2456    16299.924 
   48560    323.19287    6.4214313    56.444661   -151.24505   -727.82959    16299.924 
   48570    303.13737    8.5706144    66.446266   -149.93491    507.56422    16299.924 
   48580    295.27814    9.7535825    60.874019   -149.13027   -2119.4741    16299.924 
   48590    284.10943    9.6391717    66.316143   -148.32957     852.5171    16299.924 
48600        0.97237355368234246189 10.190540548068671711 1 71 -291.18810962974265522
   48600    317.01729    8.1187772     54.37612   -147.55293    597.89671    16299.924 
   48610     298.0462    7.7145843    66.750945   -147.15768    996.30771    16299.924 
   48620    292.61331    6.4828967    65.852568   -146.92569    366.98849    16299.924 
   48630    284.74117    5.3431277    67.467399   -146.61458   -841.83725    16299.924 
   48640    286.92313     4.979632    68.418153    -146.3838   -236.54613    16299.924 
   48650    307.84668     4.785383    65.370121   -146.03199   -532.12485    16299.924 
   48660    311.37817    5.7578497    64.823051   -146.00498    237.61363    16299.924 
   48670    322.81531    6.5420489    57.159542    -146.7884   -2204.7662    16299.924 
   48680    264.48715    10.152423    64.067296   -148.24277   -815.31844    16299.924 
   48690    291.03633    10.429278    60.347708   -149.39266    1227.8373    16299.924 
48700        0.97390572538147901493 10.18574326891606141 1 72 -275.36334415928143926
   48700    276.13589    7.4870939    62.666557   -150.25083    1748.5997    16299.924 
   48710    296.34262    6.5837801    65.005863   -151.06119    2612.7637    16299.924 
   48720    295.71195    6.9271965    61.196885    -151.9015   -273.25951    16299.924 
   48730    326.65554    6.9987522    55.209582   -153.08782   -1013.9796    16299.924 
   48740    318.50591    6.0186301    55.657538     -154.943    -750.9077    16299.924 
   48750     313.1385     6.840588    50.335695   -157.43124   -2749.8213    16299.924 
   48760    296.68776    7.8990612    51.779739   -160.24655    559.83007    16299.924 
   48770    286.91012    5.2646679    57.438997   -163.02242    486.46209    16299.924 
   48780    295.45243    4.3971503    55.618585    -165.5739    2680.9876    16299.924 
   48790    299.01924    4.3025495    59.856539   -168.38525   -474.10686    15758.111 
48800        0.97662854278328770086 10.166622496722384383 1 68 -306.7763715620203584
   48800    299.62919    5.4012326    48.765807   -171.01944    -1485.088    15758.111 
   48810    308.90584    5.0786375    49.594032   -173.39478   -1529.2655    15758.111 
   48820    296.98753    6.1884738    48.100016   -175.29202   -2180.3271    15758.111 
   48830    277.65904    7.7498475    51.487601   -176.85273    820.74497    15758.111 
   48840    247.03103    7.1237864    61.945758   -177.53498    708.51263    15758.111 
   48850     297.4818    6.0597619    51.118832   -177.16112    2096.6341    15758.111 
   48860    286.97234    5.6200161    56.956144   -176.12809    1053.8794    15758.111 
   48870    301.21208    6.4707622    49.384225   -174.34995   -1007.1461    15758.111 
   48880    279.94651    4.1604148    57.423421   -171.81098   -1051.6373    15758.111 
   48890     274.6402    5.2811168    56.427326    -167.6751    27.112547    15758.111 
48900        0.97666771396601104183 10.142984521130363973 1 68 -285.30583518724199621
   48900    272.09606    5.8382957    63.143086    -162.0237    1397.6975    15758.111 
   48910     275.0787    5.3113076    60.583184   -155.56681    403.40559    15758.111 
   48920    286.81988    5.5005955    61.627931   -149.89266   -2516.9251    15758.111 
   48930    311.23894    4.5136629    56.485351   -145.66709    82.685852    15758.111 
   48940    299.82638     5.128138    70.794648   -143.07735    1064.2802    15758.111 
   48950     313.1419    6.7446837    59.018324   -141.60952    696.58775    15758.111 
   48960    301.95569     7.782482    55.101386   -140.63674   -1473.2481    15758.111 
   48970    314.62379    7.2145927     54.11512   -139.63093   -216.05835    15758.111 
   48980    298.55259    7.5274376    74.320367   -138.89502    3663.0956    15758.111 
   48990    312.45343    8.6471206    59.947613   -138.53956    199.46764    15758.111 
49000        0.97751085729161213411 10.130389379709940911 1 70 -277.6755464941044238
   49000    306.91191    8.5748566    58.036607   -138.61894   -1749.5438    15758.111 
   49010    333.99537    5.4277336    60.135094   -139.03504   -874.01246    15758.111 
   49020    313.45533    4.8018903    65.159926    -140.2975   -1229.1168    15758.111 
   49030    315.29975    7.6519594    62.780487   -142.33302   -909.40452    15758.111 
   49040    292.32456    9.9829294    62.472854     -145.044    1579.3927    15758.111 
   49050    294.72223    7.7592185    64.524811   -147.85977     2426.301    15758.111 
   49060    327.97832    7.2807411    59.990011   -151.45083    3479.4396    15758.111 
   49070    326.61498    9.4903652    51.825515   -156.19104   -900.79221    15758.111 
   49080    287.98972    10.602196    59.694379   -160.90822   -1417.4093    15758.111 
   49090    272.98822    9.7239379    62.132564   -164.14017    258.50383    15758.111 
49100        0.98185353761558802344 10.136440758233817405 1 73 -296.4634036290729
   49100    286.91875    6.6196919    64.322021   -166.46536   -2854.5917    15758.111 
   49110    277.79005    7.8072868    62.667415   -168.19282    68.935759    15758.111 
   49120     302.5177    6.9244995    53.226996   -169.28512   -102.56661    15758.111 
   49130    285.41762    5.8284857    56.547463   -170.08848     2425.223    15758.111 
   49140    287.66087     5.623937    51.465027   -170.36896    1484.3015    15758.111 
   49150    274.35847    7.4621525     55.24445   -169.91276    245.11124    15758.111 
   49160    298.87674    7.8992788    57.281787   -168.80709   -1421.2096    15758.111 
   49170     301.0777    9.5932568    55.882367    -167.6616   -2856.0521    15758.111 
   49180    282.21366    10.862841    58.715681   -166.67664   -278.57035    15758.111 
   49190    297.82255    11.437357    54.351433   -165.35912   -535.11432    15758.111 
49200        0.98119950949970780041 10.145143264014512496 1 68 -292.59209630594148166
   49200    284.08213    10.999421    59.684635   -163.87928    1343.2731    15758.111 
   49210    306.37275    7.1437556    58.030195   -162.37119    851.12929    15758.111 
   49220    306.88153    5.4231074    52.946171   -161.09711    1708.2982    15758.111 
   49230    301.52289    4.9099129    58.090472    -159.9493    1684.5024    15758.111 
   49240    296.96869     5.438649    58.229665   -158.49151   -145.52491    15758.111 
   49250    297.75002    4.4087798    58.250277   -156.38424   -4200.7276    15758.111 
   49260    293.11966     3.706402    58.534939   -153.05189    939.86109    15758.111 
   49270    301.01087     5.645475    60.868374   -147.62879    349.30319    15758.111 
   49280    313.34457    5.3918797    55.317324   -139.67387    2441.6031    15758.111 
   49290    340.92211    6.4527994    66.108092   -131.40899    168.61805    15758.111 
49300        0.98070636005238986943 10.167888215702321375 1 65 -278.30921712280462543
   49300    336.56968    9.4682534    64.077838   -125.81518   -1029.8214    15758.111 
   49310     343.4498    8.7668803    71.816442   -123.31658    596.60783    15758.111 
   49320    333.19655    7.5052877    70.472572   -123.11423   -940.48677    15758.111 
   49330    345.09187     8.069007    63.380395   -124.45033   -1168.2591    15758.111 
   49340     316.7776    8.2778037    68.636342   -126.81158   -164.61284    15758.111 
   49350    322.00566     6.846287    61.734401      -129.58   -742.16832    15758.111 
   49360    300.57631    6.5707405    77.602867   -133.08681    2107.7032    15758.111 
   49370    315.36898    7.4633862    60.913346   -137.06183    1437.6279    15758.111 
   49380    305.86265    6.7496878    59.916492   -141.51653    68.084721    15758.111 
   49390    290.35414    4.8979852    61.590229   -145.20968   -1949.8679    15758.111 
49400        0.97420312026044597609 10.1930532497456241 1 68 -281.80254579182377483
   49400     295.1796    3.6310211    60.180685   -148.06165   -1946.4675    15846.832 
   49410    275.71456    4.7982142    67.978388   -150.05378    1170.3052    15846.832 
   49420     299.2986    5.5120261    53.915216   -151.40354   -286.35949    15846.832 
   49430    289.67514    5.6765217    65.225682   -152.50239   -2722.0244    15846.832 
   49440    320.30173    6.2576915    57.853671   -153.43756    142.04981    15846.832 
   49450     296.4083    8.0391817      62.2203    -154.5493    984.06726    15846.832 
   49460    291.63108     6.727726    63.154017   -155.63077    2863.6091    15846.832 
   49470    280.26611    7.8943167    60.836204   -156.43101   -2479.7482    15846.832 
   49480    289.97128    9.4134123    59.599263   -157.06986    598.88736    15846.832 
   49490    299.41875    10.676529    50.346264   -157.55297   -1880.5015    15846.832 
49500        0.97857505668033950563 10.166788679778012039 1 70 -288.8947124368694972
   49500    288.99985    9.5264411    55.731338   -157.95376    883.28672    15846.832 
   49510    304.87698    8.5076232     55.45483   -158.10598    862.22472    15846.832 
   49520    290.47473    8.0237122    60.411018   -158.26855   -1164.7069    15846.832 
   49530    303.96155    7.7366831    56.340993   -158.73985   -2423.6277    15846.832 
   49540    304.44667    7.2804605    52.410339   -159.47497   -343.49824    15846.832 
   49550    281.03234    8.4484898    55.143122   -160.15706    2160.2966    15846.832 
   49560    282.66165    6.9350877    59.328326   -160.12364    3016.5968    15846.832 
   49570    272.53242    4.4722875    57.627382    -159.2594    323.45414    15846.832 
   49580    300.35005    3.1874146    60.301799   -157.72548    1086.8751    15846.832 
   49590    276.27479    5.7836352    68.775122   -155.77534    269.10786    15846.832 
49600        0.98372306980785029218 10.139414127646519503 1 69 -282.90854588477293419
   49600    286.39466    7.0889082    59.908143   -153.14796   -1935.1366    15846.832 
   49610    271.50526    8.2104124    65.237352    -149.6373   -2673.8367    15846.832 
   49620    284.06557    11.503761     61.14831   -145.71466   -466.91202    15846.832 
   49630     304.7928    12.466158    56.077639   -141.87484    2323.6135    15846.832 
   49640    319.31637    10.858685    59.682739   -138.41443    3370.1763    15846.832 
   49650    336.50654    12.086356    51.384962   -135.74036    13.172222    15846.832 
   49660    291.01721    11.976974    70.365041   -134.01987   -618.84569    15846.832 
   49670    312.33174    8.1750943    61.733711   -132.74092   -2557.4008    15846.832 
   49680    328.86487    4.7433174    60.746122   -131.90942   -1266.5253    15846.832 
   49690     335.2643    5.1187154    62.347271   -132.04343   -2401.4808    15846.832 
49700        0.98461996422261388595 10.158543287677192168 1 72 -288.5537144700468275
   49700    342.68131    5.6649039    56.588136   -133.29059   -1567.2282    15846.832 
   49710    335.20849     6.424811    64.130062   -136.32718   -6.3257086    15846.832 
   49720     325.0752    6.7826302    50.311083   -141.10758    807.98824    15846.832 
   49730    301.12115    12.538991    52.706374   -146.34002    2240.7693    15846.832 
   49740    301.54079    12.042164    48.211537   -150.60381    1734.0274    15846.832 
   49750    289.06717    8.0034805     58.22994   -153.73497   -425.99861    15846.832 
   49760    306.46397    4.8428434    57.053744   -156.01287    1455.4489    15846.832 
   49770    277.89168    4.1391448    56.881186   -157.53319   -118.60674    15846.832 
   49780    288.76829     3.494726     49.87252   -158.06734   -291.82214    15846.832 
   49790    278.83459     3.458106    58.252501   -157.73407   -2286.6773    15846.832 
49800        0.98266509655189848704 10.137660158703660329 1 68 -296.61122948250147147
   49800    308.60559    3.8485354    49.575942   -156.78725   -2197.3318    15846.832 
   49810    305.18473    6.0559652    52.587695   -155.87484    510.62539    15846.832 
   49820    294.00618    8.1887014    45.211586    -154.9933    217.57266    15846.832 
   49830    271.53489    7.6491408     58.12043    -153.7611    950.45663    15846.832 
   49840    300.27341    6.0780444    50.296982   -151.98304   -835.30055    15846.832 
   49850    311.03189    6.3290868     51.47146   -149.92154   -423.47847    15846.832 
   49860    303.94902     5.148283    55.855297   -148.01846    1210.5289    15846.832 
   49870    276.37395    6.7597901    62.484082   -145.89319    742.48798    15846.832 
   49880    286.53875    8.3959716      63.8241   -143.50014    2734.4516    15846.832 
   49890    311.93957     11.31113    63.302891   -141.01841    730.62103    15846.832 
49900        0.98175182649144177027 10.131270226702300263 1 70 -293.86769532551704742
   49900    340.91728    13.221022     54.43577   -139.40383   -1363.2332    15846.832 
   49910    330.88652    14.716511    58.018191   -139.02781    -513.3391    15846.832 
   49920    331.20804    13.164929    58.664842   -139.82841   -1152.8431    15846.832 
   49930    322.49685    8.5495113    63.608566   -141.64653    692.19427    15846.832 
   49940    308.85863    7.3717093     59.80855   -144.31541    507.52471    15846.832 
   49950    292.19957     7.238677    64.408675   -147.00127    582.56507    15846.832 
   49960    286.29845    7.1898947    59.563135   -149.04578   -206.34724    15846.832 
   49970    292.36891    8.8264502     57.22513   -150.55227   -2259.7293    15846.832 
   49980    284.66025    11.152625     56.74203   -151.32933   -199.82084    15846.832 
   49990    293.39447    10.866529    55.872529   -151.61732   -480.07568    15846.832 
50000        0.9784711308999611834 10.146294077212122176 1 67 -283.23186664352681419
   50000    290.50806    9.5947988    55.381804   -151.60757    135.64158    15846.832 
Loop time of 196.757 on 1 procs for 50000 steps with 153 atoms

Pair  time (%) = 8.84894 (4.4974)
Bond  time (%) = 0.676151 (0.343648)
Neigh time (%) = 0.00619793 (0.00315004)
Comm  time (%) = 0.0714931 (0.0363358)
Outpt time (%) = 0.682656 (0.346954)
Other time (%) = 186.471 (94.7725)

Nlocal:    153 ave 153 max 153 min
Histogram: 1 0 0 0 0 0 0 0 0 0
Nghost:    0 ave 0 max 0 min
Histogram: 1 0 0 0 0 0 0 0 0 0
Neighs:    5968 ave 5968 max 5968 min
Histogram: 1 0 0 0 0 0 0 0 0 0
FullNghs:  11936 ave 11936 max 11936 min
Histogram: 1 0 0 0 0 0 0 0 0 0

Total # of neighbors = 11936
Ave neighs/atom = 78.0131
Ave special neighs/atom = 2.64052
Neighbor list builds = 8
Dangerous builds = 0
