LAMMPS (9 Oct 2012)
# 3d protein simulation

units real

timestep 2

dimension	3

boundary s s s
#boundary p p p

neighbor	10 bin
neigh_modify	delay 5

atom_modify sort 0 0.0

special_bonds fene

atom_style	peptide

bond_style harmonic

pair_style vexcluded 2 3.5 3.5

read_data data.testeo
  3 = max bonds/atom
  orthogonal box = (-200 -200 -200) to (200 200 200)
  1 by 1 by 1 MPI processor grid
  153 atoms
  202 bonds
  5 = max # of 1-2 neighbors
  5 = max # of special neighbors

pair_coeff * * 0.0
pair_coeff 1 1 20.0 3.5 4.5
pair_coeff 1 4 20.0 3.5 4.5
pair_coeff 4 4 20.0 3.5 4.5
pair_coeff 3 3 20.0 3.5 3.5


velocity	all create 300.0 2815672

group		alpha_carbons id 1 4 7 10 13 16 19 22 25 28 31 34 37 40 43 46 49 52 55 58 61 64 67 70 73 76 79 82 85 88 91 94 97 100 103 106 109 112 115 118 121 124 127 130 133 136 139 142 145 148 151
51 atoms in group alpha_carbons

group		beta_atoms id 3 6 9 12 15 18 21 24 27 30 33 36 39 42 45 48 51 54 57 60 63 66 69 72 75 78 81 84 87 90 93 96 99 102 105 108 111 114 117 120 123 126 129 132 135 138 141 144 147 150 153
51 atoms in group beta_atoms

group		oxygens id 2 5 8 11 14 17 20 23 26 29 32 35 38 41 44 47 50 53 56 59 62 65 68 71 74 77 80 83 86 89 92 95 98 101 104 107 110 113 116 119 122 125 128 131 134 137 140 143 146 149 152
51 atoms in group oxygens


fix		  1 all nvt temp 300.0 300.0 100.0
fix		  2 alpha_carbons backbone beta_atoms oxygens fix_backbone_coeff.data testeo.seq
Chain flag on
Chi flag on
Rama flag on
Rama_P flag on
SSWeight flag on
ABC flag on
Dssp_Hdrgn flag on
P_AP flag on
Water flag on
Burial flag on
Helix flag on
Fragment_Memory_Table flag on
DebyeHuckel on

Reading fragments...
Computing FM table...

variable      biasinge equal f_qbias
# output wham.dat, a file with collective variables that can be used to compute pmfs
compute     qw alpha_carbons qwolynes rnative.dat 2 0.15
variable    qw equal c_qw
compute     rg alpha_carbons gyration
variable    rg equal c_rg
compute     qo alpha_carbons qonuchic cutoff 12.0 nativecoords.dat 1.2
variable    qo equal c_qo
compute     tc beta_atoms totalcontacts 6.5 2
variable    tc equal c_tc
variable    step equal step
variable    E_P equal pe

fix         wham all print 100 "${step}        ${qw} ${rg} ${qo} ${tc} ${E_P}"

thermo		10
dump		1 all atom 50 dump.lammpstrjPH


dump_modify	1 sort id

reset_timestep	0
run		50000
Memory usage per processor = 0.857471 Mbytes
Step Temp E_pair E_mol TotEng Press Volume 
       0          300    54.408864    955.49334    708.60995    -33253.58    10890.368 
      10    1267.6476    54.872876    296.66711    647.70859    9366.5596    10890.368 
      20    756.32321    21.363225    491.00872    559.10758    6954.7058    10890.368 
      30    1015.0251    10.460774    351.54425    483.94599    30106.682    10890.368 
      40    794.54395    6.0313884    341.49439    391.10596   -32725.455    10890.368 
      50      744.092    4.8459574    268.36892    321.95026   -4210.7406    10890.368 
      60    752.30237    6.4401328     234.0528    250.70397   -7925.8948    10890.368 
      70    648.04522    8.9552966    228.59006    194.18118    24812.627    10890.368 
      80    651.85958    15.352052    174.07746    144.07669   -714.75686    10890.368 
      90    438.01449    8.9354523    203.49665    99.409182   -15243.039    10890.368 
100        0.99095145391506700427 10.077640997572375525 0.99735449735449732689 69 -162.23853532036901015
     100    496.07663    4.7676805    179.17454    62.525418    4841.5074    10890.368 
     110    420.75649    2.4031176    177.77009    25.142548    8795.3157    10890.368 
     120    446.36391    5.0758819     152.0049   -5.4170281   -433.45437    10890.368 
     130    412.32546    4.8275346    118.75464   -32.662854    -13300.41    10890.368 
     140    420.45266    5.1089576    112.19741   -55.657733   -9791.9914    10890.368 
     150     391.7744    4.7764692      112.973   -78.001623    14593.318    10890.368 
     160    365.32788    8.6861869    105.90772   -96.601217    5355.9275    10890.368 
     170    370.60854    10.440979    93.868953    -114.3362    3430.7833    10890.368 
     180    350.16548    8.8493584    99.185715   -130.47559   -10813.968    10890.368 
     190    320.72243    8.0351149    92.236723   -144.76058   -732.49177    10890.368 
200        0.98798969683577886336 10.127932863604806712 1 70 -288.78232619091789957
     200     289.2068    6.9316736    104.30486   -157.74761      665.754    10890.368 
     210    288.99671    8.5129145    83.618507   -168.29536    778.39686    10890.368 
     220    276.95361    5.8365293     91.06811   -177.94324   -3066.1537    10890.368 
     230    285.53599    7.2024456    68.784718   -185.64371    282.16963    10890.368 
     240    270.02924    8.2405158    73.056864   -191.84722    3870.8058    10890.368 
     250    263.56848    7.7992564    78.661565   -196.33553    5965.3306    10890.368 
     260    283.65609    8.9054586    68.231604   -199.57747   -1384.4739    10890.368 
     270    271.84354     8.259735     69.43706   -201.87675   -4467.8509    10890.368 
     280    283.01368    8.6640681    60.489743   -202.78989   -2257.5087    10890.368 
     290    262.40124    5.1456711    78.893998   -205.96578    906.99976    10890.368 
300        0.98825295868306162195 10.115304533364012585 1 67 -318.21198383553939948
     300    251.48397    5.8196682    76.901789   -204.26884    1728.2196    10890.368 
     310    250.37935    4.5037835    78.598027   -200.92127   -9.6852159    10890.368 
     320    253.51395    6.7374907    81.863892   -196.35092   -3290.1109    10890.368 
     330    270.34678    9.5678944    75.681698   -190.82236    274.03017    10890.368 
     340    291.56986      8.87817    72.739803   -184.47792    2750.0988    10890.368 
     350    298.35228    5.4535218    79.349014   -173.82359   -481.68128    10890.368 
     360    295.11479    5.1413232    82.986604   -170.11731   -204.32954    10890.368 
     370    315.14108    6.6212504    83.886025   -161.84854   -3321.1149    10890.368 
     380    309.79291    5.2861936    93.968266   -153.71298    2230.6497    10890.368 
     390    318.60178    5.8557659    96.041389   -146.16747    4672.2693    10890.368 
400        0.98718924988842626789 10.114480195470299861 1 67 -297.51678933023401896
     400    358.24028    5.7688179    84.399515   -135.20416    1777.4402    10890.368 
     410    359.01063    7.0562573     88.00902   -129.48086   -5230.1814    10890.368 
     420     355.9993    5.4182786    96.962164   -125.39351   -4444.8904    10890.368 
     430    325.90267    4.1867943    104.92352   -122.85655    4355.8343    10890.368 
     440    330.88943    6.4642466    109.33422   -122.08002    3384.1034    10890.368 
     450    343.56724    8.0586943    100.08594   -122.92296    703.57692    10890.368 
     460    320.43171    7.2261781    97.941057   -125.55723    -4268.989    10890.368 
     470    357.08202    5.6717685    87.215272   -134.67108    2268.7062    10890.368 
     480    310.16448     8.321361     101.2484   -139.70908    3720.9909    10890.368 
     490    360.33767    9.1287164    82.747754   -145.38172   -366.11539    10890.368 
500        0.98313100905226735726 10.132008669534098289 1 68 -282.51045887793401334
     500    286.33831    7.5961953    103.49019    -152.7754   -158.13675    10890.368 
     510    292.29376    6.0483504    92.790027   -159.40406   -2043.8261    10890.368 
     520    278.95644     4.967821     95.28776   -166.34469     1516.248    10890.368 
     530     277.5775    6.2880191    82.751097   -172.20629   -4095.0077    10890.368 
     540     326.6342     7.634802    74.908975   -177.41263   -92.141572    10890.368 
     550    264.63657     8.704871    80.257802   -182.42633   -5800.0589    10890.368 
     560    278.43255    7.3088511    77.253399    -185.8776    3159.9075    10890.368 
     570    237.34596    4.1034576    99.158118   -183.84883    5518.1342    10890.368 
     580    249.76693     5.871866     83.85992   -190.67208   -838.65562    10890.368 
     590     279.1068    4.8903534    73.386835     -191.316   -5255.1185    10890.368 
600        0.98044715153846817568 10.131725182338383817 1 69 -303.12465015354371189
     600    247.19637    4.0269635    84.343992   -191.12415   -591.03477    10890.368 
     610    278.28335    5.5267255    71.543865   -189.57087    1517.6482    10890.368 
     620    243.29227    6.6548939    91.998969    -186.8567    4742.1137    10890.368 
     630    295.16637    7.2707469    74.224519   -183.26188   -829.91245    10890.368 
     640    269.29718    7.7114679    90.974595   -178.67625    4445.3868    10890.368 
     650     302.4511    10.828639    72.762692    -174.1123   -6413.8534    10890.368 
     660    276.05619     7.231869    89.570064   -163.80087   -2769.7462    10890.368 
     670     324.6368    4.7306739    82.244276   -162.72798    2315.5569    10890.368 
     680    300.64451     6.426983     91.43597   -157.65165    2686.0866    10890.368 
     690    318.90108    6.7542019     89.03191   -153.15848   -2253.7792    10890.368 
700        0.98305435014946862537 10.141333600590686004 1 69 -288.80037620463838266
     700    307.74651    11.512959     86.85066   -149.36563   -5173.7465    10890.368 
     710    344.33097    8.7641005    88.348555   -146.25782    3833.7013    10890.368 
     720    335.04445    10.859552    92.629303   -140.19889    6703.1826    10890.368 
     730    334.77894    9.6169137    81.297841   -139.25293   -2738.9539    10890.368 
     740    326.14115    8.2100532    90.823565    -138.8222    868.72561    10890.368 
     750    312.64423    5.6740447    97.311587   -139.06537   -5412.5208    10890.368 
     760    313.67032    7.0809906    99.836678   -140.49908    4640.5459    10890.368 
     770    324.64375    10.379938    89.395798    -142.9213   -2151.8083    10890.368 
     780    283.69005    11.319988    94.596104    -145.9986   -1346.5193    10890.368 
     790     334.5256    7.6447495    76.313891    -153.2535    1029.4583    10890.368 
800        0.9849269454456101025 10.141178297940324882 1 68 -287.1972342156913669
     800     287.6192    6.9858307    92.287262   -156.88183    2171.8036    10890.368 
     810    309.31043    5.4009558    93.890454   -160.90776    1340.0255    10890.368 
     820    272.74471    12.762697    90.239474   -165.52415   -4547.3764    10890.368 
     830    295.48339    9.9054272    75.930824   -165.45249   -3870.7249    10890.368 
     840    305.49635     10.33149    79.010975   -169.17083     5257.197    10890.368 
     850    312.62399    9.4989655    73.297933   -172.60578    6652.3118    10890.368 
     860    301.25096     9.455845    71.794967   -180.83372    1657.4328    10890.368 
     870    291.27277    8.6117689    73.412731   -183.39714   -6185.0647    10890.368 
     880     290.5206    5.1920037    72.548906   -185.38218   -2152.2026    10890.368 
     890    272.10222    6.9244553    83.445976   -186.79367    1522.4157    10890.368 
900        0.98173988579638027385 10.155294963245715678 1 70 -319.52296951213065768
     900    291.46267    6.2069928    73.082087   -187.46615    2019.4433    10890.368 
     910    280.35345     7.123486    68.240001   -187.27521    18.319351    10890.368 
     920    302.43532    7.6330288    65.831369     -186.141    775.06887    10890.368 
     930    279.28436    5.6916624    78.410322   -184.24176    1503.5362    10890.368 
     940    284.60018    8.4646906    78.930266   -181.73392   -795.63568    10890.368 
     950     295.7859    6.6423259    78.097479   -178.85569    466.09089    10890.368 
     960    308.14798     7.510058    79.092878   -175.59592   -1651.8239    10890.368 
     970    304.86238    7.2680007    70.626609   -171.91532   -541.33451    10890.368 
     980    290.54471    5.5300147    82.550315   -168.18492   -152.68068    10890.368 
     990    300.48049    6.8898752    86.555444   -164.25301    1289.9198    10890.368 
1000        0.97664160783455911119 10.184630518973502689 1 70 -297.24193455303401379
    1000    301.68277    6.8103612     84.30299   -160.55456   -2153.5635    10890.368 
    1010    348.42631    5.3674898    62.790788   -156.64772   -3405.2299    10890.368 
    1020     298.4308    4.3002224    94.527327   -153.08741    1192.1034    10890.368 
    1030    322.65195    4.3837107    88.118308   -150.02753    2133.7989    10890.368 
    1040    316.13519    7.2515141    81.525702   -147.64455    816.69207    10890.368 
    1050     323.3491    7.8946954    78.307984   -145.64975   -5086.5205    10890.368 
    1060    322.51345    6.8344992    85.436443   -143.71981   -2350.1345    10890.368 
    1070    331.12784    5.1203821    86.997347   -142.09489     340.8181    10890.368 
    1080     334.2635    8.5483025    81.119233   -141.60086    3958.3788    10890.368 
    1090    320.00367    8.1705991    86.902597   -142.02965      1277.67    10890.368 
1100        0.98012179804364019109 10.152018619130164012 1 65 -300.67765291606986011
    1100    348.22058    6.3211525      65.8536   -142.90478   -1456.7606    10890.368 
    1110    311.69554    5.3474985    92.309564   -144.55536   -1466.8881    10890.368 
    1120    323.04836    6.8637337    87.224084   -147.36228    1.1274107    10890.368 
    1130    320.58609    6.7086207    80.284624    -150.9364    1883.1686    10890.368 
    1140    295.25649    6.5611378    89.835687   -154.32665    708.65561    10890.368 
    1150    295.85192    6.2525666    78.569722   -158.20426   -3293.0704    10890.368 
    1160     307.3984    5.7479689     87.08027   -162.28307    1443.8468    10890.368 
    1170    328.49278    7.4714961    71.761333   -166.63321    2327.4114    10890.368 
    1180    277.79385    9.8816997    83.717062   -170.52555   -322.06371    10890.368 
    1190    288.42003    9.4730571    76.432319   -173.83003   -3465.0885    10890.368 
1200        0.98491157494176362341 10.134329780149947453 1 65 -298.15628682706466179
    1200    267.52874    8.6993304    83.366385   -176.94353    487.87486    10890.368 
    1210    275.18916    7.9306598    86.438774   -179.11887    1874.7549    10890.368 
    1220    284.74634    8.3321807    78.286526   -180.81981    2459.7206    10890.368 
    1230    289.77107    5.6570113    73.880538   -181.96566    1376.4608    10890.368 
    1240    279.40435    4.0643165    77.923519   -182.72496    -1142.221    10890.368 
    1250    267.65129    3.5846019    77.298885   -178.03077  -0.82629958    10890.368 
    1260    271.20233    4.8127497    80.947825    -178.0392   -2057.6056    10890.368 
    1270    287.06195    6.6764573    75.234165   -182.50573    1056.2263    10890.368 
    1280    294.88021    8.6055253    80.028925   -181.05384   -258.22881    10890.368 
    1290    277.99662     8.955583    76.144703   -179.12243   -3971.9794    10890.368 
1300        0.98178479916144245632 10.161244662664691063 1 65 -303.4754967968928554
    1300    280.04977    8.2958963    79.679242   -176.58967   -1018.1693    10890.368 
    1310    289.68486    8.2246092      88.0854   -173.79293    3303.2991    10890.368 
    1320    279.63235    10.113803    80.680217   -171.27574    2163.0649    10890.368 
    1330     302.8774    10.053669     75.28464   -168.26186    157.29835    10890.368 
    1340    303.39042    9.7020485    82.392421   -164.91647   -3231.7823    10890.368 
    1350    326.25606    8.8604784    82.341158   -161.94475    2368.8126    10890.368 
    1360    302.94284    10.027258    87.522792   -159.85169    110.75461    10890.368 
    1370    301.33037    10.610231    79.097554   -158.29252    -4570.176    10890.368 
    1380     297.7896    8.1732315    85.563988   -156.50278    24.766446    10890.368 
    1390    281.14769    7.3755144    93.519818   -154.85219     546.6048    10890.368 
1400        0.98205577506028141066 10.148814264879247204 1 68 -287.01785562049855116
    1400    295.29337    8.4215237    84.527682   -153.22541    3091.7172    10890.368 
    1410    298.64809    8.0515625    86.269964   -151.72743   -535.84658    10890.368 
    1420    297.72401    6.1365495     89.96082   -149.88963   -127.92226    10890.368 
    1430    335.78084    5.9038567    80.451019   -147.99528    409.02623    10890.368 
    1440    329.29484    5.5309351    78.834365   -146.99421   -3578.5806    10890.368 
    1450    334.20592    7.1668861    77.438313   -146.69553    978.45063    10890.368 
    1460    331.11114    8.6797824    84.726509   -146.76544    2600.2612    10890.368 
    1470    332.10697    9.8997457    85.220003   -142.68548    -12.00319    10890.368 
    1480    331.06079    7.7595556    75.634748   -145.00914    625.06314    10890.368 
    1490    296.29672    6.0695648    89.271731   -147.63102     -1444.65    10890.368 
1500        0.98653676872697382283 10.135560643671718495 1 65 -302.16078463273220223
    1500    325.56822    6.9372786    78.694611   -154.65132    -965.3319    10890.368 
    1510    287.14294    7.1145346    88.133965   -157.74929    1816.5977    10890.368 
    1520    315.37488    4.3976415     78.30886   -161.23212    3368.1026    10890.368 
    1530    263.10904    5.3168671    91.329824   -164.52513    -516.5116    10890.368 
    1540    287.46308    6.3646801    74.920517   -167.32587   -5910.1464    10890.368 
    1550    269.57836    7.1014792    87.018619   -169.71422   -1014.1861    10890.368 
    1560    309.22606    6.4300231    74.589543    -171.6355      558.203    10890.368 
    1570    270.56331    9.1309783    81.552049   -173.25621    3016.2667    10890.368 
    1580    295.98875    10.400167    70.375199   -174.29812   -748.42018    10890.368 
    1590    301.23481    11.792117    73.567066   -175.09809    627.10545    10890.368 
1600        0.98661704666161720301 10.124494577792134464 1 64 -305.38936058007158181
    1600    279.87563    9.1191467    84.423129   -178.58243    601.67743    10890.368 
    1610    297.15539    6.1988134    71.498952   -176.00839    622.24314    10890.368 
    1620    289.65449    6.2754038    74.061948   -175.80973    1904.6623    10890.368 
    1630    291.21576    7.6694384    78.121802   -175.09107   -1277.6591    10890.368 
    1640     289.4578    10.555105    77.233098   -174.04201     642.0228    10890.368 
    1650    275.07221    11.452464    83.533721    -172.4878   -2229.1251    10890.368 
    1660    265.73806    11.593717     79.51998   -170.40119    1838.4057    10890.368 
    1670    297.46154    9.4214954    82.454043   -167.60255      386.016    10890.368 
    1680    274.57777    8.2508809     81.85978   -164.71102    821.44349    10890.368 
    1690    307.69901    5.8376095    71.528415   -161.33753    299.44488    10890.368 
1700        0.98246127821755957488 10.144799740886675465 1 66 -299.96503855088769797
    1700    313.88452    4.1419044     77.62731   -157.74926    1169.0763    10890.368 
    1710    331.83263    3.5497989    72.168839   -157.33074   -3775.4563    10890.368 
    1720    323.46542    3.5344132    73.961912   -151.12599     -6500.07    10890.368 
    1730    301.98387    5.6868071    91.202925   -148.36883   -717.91964    10890.368 
    1740    319.50074     6.036163    91.724308   -149.74337    5713.7348    10890.368 
    1750    310.97906    4.7209093    93.239027   -149.00461    4415.3943    10890.368 
    1760    306.27483    4.9005127    83.600447   -149.13753   -909.89566    10890.368 
    1770     317.8291    5.9148062     81.70102   -149.83413    -1223.929    10890.368 
    1780    297.95019    5.6465549      84.7275   -151.04042   -2189.3777    10890.368 
    1790    303.64645    6.3905354     87.57061   -152.45008    409.90578    10890.368 
1800        0.97910083613010490122 10.169516219887137609 1 67 -290.46868103743474876
    1800    300.30371    5.7500366    86.863018   -154.40614    -3203.364    10890.368 
    1810    320.87024    7.0864099    79.976919   -153.16402    1730.6649    10890.368 
    1820    316.13158    5.4145663    76.531139   -156.12907    2254.7162    10890.368 
    1830      302.324    4.4978971    83.581277   -159.30894   -620.48818    10890.368 
    1840    299.48332    4.9248102    83.047564   -158.95623     1646.463    10890.368 
    1850    292.40009    6.3595791    80.779495   -167.51234     -4182.44    10890.368 
    1860     289.9564    8.3632588    71.709818   -170.35085   -1549.0788    10890.368 
    1870    281.86205    11.339232    76.616168   -172.75951   -2020.9501    10890.368 
    1880    266.69879    12.358581    91.269682   -174.65261    4904.7667    10890.368 
    1890    273.72696    11.166761     78.51466   -176.00911     3308.671    10890.368 
1900        0.98702018088153276043 10.121152434992534808 1 65 -313.55838903370658954
    1900    301.06973    9.6498676    69.928056   -177.14877    627.19338    10890.368 
    1910    298.31662    9.1469353    79.227575   -178.33723   -520.41235    10890.368 
    1920    311.25615    7.3500044    68.108948   -179.43403   -1951.9706    10890.368 
    1930    280.19091    7.1290716    83.165493   -175.14592   -4861.5015    10890.368 
    1940    284.89325    7.9740777    72.085052   -179.68461   -1407.0833    10890.368 
    1950       287.06     7.301554    70.533009   -179.47815    84.617155    10890.368 
    1960    297.75575    6.7521196    69.195079   -178.73113    5463.5673    10890.368 
    1970    287.02602    7.1442237    71.875718   -177.16266    2438.4941    10890.368 
    1980    270.79282    8.5505461    78.676082   -174.68398    1499.6276    10890.368 
    1990    275.15521    8.9492945    81.052795   -171.48417   -2712.1885    10890.368 
2000        0.98842937610712588992 10.126007192876944174 1 68 -296.76484435673341977
    2000    284.98946    12.206003    73.177251   -167.64093   -4560.6954    10890.368 
    2010    300.12642    10.486208    75.733568   -163.57732    1390.9284    10890.368 
    2020    331.91746    8.5734053    71.751124   -159.29318    1999.9076    10890.368 
    2030    340.67387    6.3361805    68.789387   -155.87361    1509.0109    10890.368 
    2040    312.58053     5.642937    71.219893    -153.5635   -1069.1092    10890.368 
    2050    324.16679    6.7151976    76.389694   -152.01144   -2868.3157    10890.368 
    2060    317.14877     6.236857    82.051416   -151.03734    2382.6038    10890.368 
    2070    333.44074    8.3778758    80.028961   -150.58692     188.9872    10890.368 
    2080    298.17224    10.752895     83.63646   -150.66258    297.13228    10890.368 
    2090     287.0157    8.8930259    89.693996   -151.08996   -2891.1282    10890.368 
2100        0.98917296353657124808 10.093704737245818848 1 70 -282.36873127402799355
    2100    287.90081    8.5325217    89.683483   -151.92573    186.95341    10890.368 
    2110     275.6252    5.7412566    98.085441   -153.21247    2677.8446    10890.368 
    2120    334.85646    6.4139744     70.97063      -155.57    2564.9862    10890.368 
    2130    323.06802    7.2567772    72.688499   -158.46953    607.45859    10890.368 
    2140     320.4089    7.5243628    62.516081     -161.869   -2559.0933    10890.368 
    2150    269.28901    8.3538899    78.136001   -165.43719    32.963018    10890.368 
    2160    285.52087    6.9615607     81.08952   -170.73425    4932.9885    10890.368 
    2170    272.71951    7.6826477    77.819418   -177.70798   -1998.1878    10890.368 
    2180    278.82821    6.9211661    72.908033   -182.61989   -2910.4748    10890.368 
    2190     279.1695    7.7424168    75.319467   -187.52566      -2264.1    10890.368 
2200        0.98737925482794886012 10.098777791000792092 1 66 -314.99163309395299848
    2200    287.08798    9.9153504    69.270173   -184.91691    4402.4699    10890.368 
    2210    293.98342    8.8671513    61.548946   -187.40918     2482.277    10890.368 
    2220    259.96847    9.5018961    71.890628   -185.70082   -3685.6132    10890.368 
    2230    243.77942    8.3594135    78.242156    -185.5641   -565.28408    10890.368 
    2240    261.70214    9.1316618    72.035704   -189.36731   -703.04901    10890.368 
    2250     270.2728    10.076813    67.675023   -187.55854     1404.092    10890.368 
    2260    277.98226    9.0679227    71.638318   -185.57285   -719.64776    10890.368 
    2270     277.5063    10.427748    69.752191   -183.50677   -2057.2687    10890.368 
    2280    293.55308    8.7427493    65.859502   -181.37431    3524.8699    10890.368 
    2290    292.17553    7.1093741    65.035433   -179.23893   -135.89872    10890.368 
2300        0.98264554353043598312 10.134320448284306337 1 69 -308.44318934590421577
    2300     290.6076    6.1612155    73.508232   -176.77379    2612.1215    10890.368 
    2310    290.77669    7.0371582    79.617984   -174.29898    -3279.736    10890.368 
    2320    297.20046    6.6177638    67.822914   -171.79975   -2785.6101    10890.368 
    2330    288.41578    7.1498805    76.778184   -169.59009    561.20161    10890.368 
    2340    303.48443      5.91666     67.17534   -167.05618    1898.7903    10890.368 
    2350    296.68377    5.9798935    77.469329   -164.58659    1645.9454    10890.368 
    2360    307.30702    4.9016902    70.439351   -162.29757   -3059.0089    10890.368 
    2370    298.61173    3.5785794    73.853136    -159.9543   -1468.9459    10890.368 
    2380    297.03935    4.6700805    80.081435   -157.55489    1374.0633    10890.368 
    2390    283.80142    7.3818227    82.780724   -155.08844    1563.8038    10890.368 
2400        0.9787193528398357989 10.145006278959275647 1 67 -285.98407492411809017
    2400    294.25446    9.2265369    82.971257   -152.66234   -910.43738    10890.368 
    2410     293.2126    10.412772    82.982293   -150.44896    604.57985    10890.368 
    2420    311.75883    10.301863    80.879491   -148.70408   -1658.2689    10890.368 
    2430     332.7085    11.481674    74.592648   -147.23133     2397.332    10890.368 
    2440    328.36224    9.8998617    76.891953     -146.504   -2238.0574    10890.368 
    2450     319.1808    8.7027218    77.687219   -146.75914    1022.6119    10890.368 
    2460    297.24177    6.7622919    74.115869   -147.66959   -4305.7847    10890.368 
    2470    352.95593    6.3470485    67.639266   -149.08457   -1230.3112    10890.368 
    2480     315.3022     6.533679    84.700146   -151.91777    3405.7964    10890.368 
    2490    306.90559    5.4061708    76.798196   -156.48297   -240.84538    10890.368 
2500        0.9812365793173440931 10.142667847581575913 1 69 -291.30119265839118725
    2500    283.30859    5.0199961    78.518106   -162.93885    741.14562    10890.368 
    2510      287.254      5.31544    66.882378   -169.49982   -381.98596    10890.368 
    2520    289.20159    6.3479063    70.120514   -174.51009    2023.1778    10890.368 
    2530    283.19671    6.8290202    70.244252   -177.50708    491.71512    10890.368 
    2540    300.06154    9.1774589    60.721918   -179.24111   -4260.8181    10890.368 
    2550    281.89635    9.4682533    70.316582   -180.23047    719.12644    10890.368 
    2560    301.00255    8.0855248     62.79452   -180.55185   -600.60081    10890.368 
    2570    273.38505    9.1184819    74.305804   -179.48333    1713.9171    10890.368 
    2580    279.45858    7.6577867      77.7314   -178.59982     3592.538    10890.368 
    2590    272.47428    7.8402167    75.860679   -177.43234   -1113.4213    10890.368 
2600        0.97761723414005019528 10.164127317412349427 1 68 -305.79990864968840469
    2600    286.67829    8.6317091    72.811154   -175.91081   -458.52724    10890.368 
    2610     303.3393    7.8867423    64.435518   -173.97749   -1989.9932    10890.368 
    2620    290.13729    7.3633729    73.420046   -167.15146    2374.1961    10890.368 
    2630     316.5339     7.651009    68.533242   -164.41624    9.2924289    10890.368 
    2640    282.75424    8.0688595    82.012008    -161.8171   -3783.4918    10890.368 
    2650    294.60732    11.619552    68.141667   -164.46676    786.06183    10890.368 
    2660    287.11823      6.98956    80.809427   -162.15441   -31.165492    10890.368 
    2670    319.72569    7.0182379    67.655628    -159.5007     34.19566    10890.368 
    2680    305.53915    7.5862035    79.639339   -156.72441   -1768.5456    10890.368 
    2690    306.94823    8.5077075    77.014946   -154.23728   -370.68446    10890.368 
2700        0.97163441410730488901 10.171688035023679575 1 69 -291.79400952851267448
    2700    308.22071    8.3339526    79.554573   -152.14441    3085.3235    10890.368 
    2710    330.75471    8.8909309    71.418239   -150.37321    4247.8754    10890.368 
    2720    341.76616    7.1685719    67.840325   -149.06802   -1351.2586    10890.368 
    2730    308.39821    4.2143521    82.244281   -148.65137   -4548.3072    10890.368 
    2740    324.21159    4.0690484    70.772564   -148.85529   -5630.2944    10890.368 
    2750    290.72771    4.8515076     87.69945   -149.70928     2706.109    10890.368 
    2760    305.61443    5.1434489    77.060149    -151.4401    3740.5245    10890.368 
    2770    289.40988    5.9254586    85.029821   -156.98565    3152.9349    10890.368 
    2780    285.89287    8.4231886    79.418012   -158.83009   -938.80597    10890.368 
    2790    285.36306    7.7730699     68.89183   -162.94801   -831.76776    10890.368 
2800        0.97145643231740397283 10.182770090531576557 1 66 -294.11140099601101383
    2800    282.11409    4.7680297    71.418101   -166.29027    917.26581    10890.368 
    2810    280.53104    6.2811414    73.358043   -168.61388   -2788.1555    10890.368 
    2820    288.17597    5.4083757    69.735018   -170.35352   -5185.5262    10890.368 
    2830    267.17381    7.6670508    79.244919   -171.92473    161.23039    10890.368 
    2840    289.01822    7.2359254    66.792265   -172.94943    362.19691    10890.368 
    2850    290.88261    7.9876454     68.35473   -173.33644    5737.4459    10890.368 
    2860    324.57053    8.6312463     60.37144   -173.25378   -2857.3309    10890.368 
    2870    293.25463    7.5399265    69.657295   -172.90946    1415.0443    10890.368 
    2880    310.88381    5.6356892    73.548681    -172.4048    -2401.635    10890.368 
    2890    312.32771    8.7130635    63.991838   -171.93935    1150.1668    10890.368 
2900        0.98210595469489903042 10.143139651062496043 1 70 -309.32053750385580315
    2900    304.39765    7.0251465    68.977869    -171.4031    634.53093    10890.368 
    2910    291.46634    5.7555813    69.815478   -170.29531   -472.85934    10890.368 
    2920    276.41971    6.1796866    81.005561   -168.26457   -802.38804    10890.368 
    2930    307.72854    8.2341876     69.99302   -165.48058    192.79514    10890.368 
    2940    286.14209    9.1202034    83.679144    -162.3022    628.20116    10890.368 
    2950    308.81038    11.629446    72.637609   -158.84676    1826.3004    10890.368 
    2960    289.50286    11.557903    83.245557   -155.28051    853.71701    10890.368 
    2970    275.70543     9.259091    87.944351   -152.06791    5253.7215    10890.368 
    2980     301.0737    8.4996509    80.597478   -148.89847   -1608.2569    10890.368 
    2990    296.74641     7.396675    81.346288   -146.18926   -1774.3929    10890.368 
3000        0.9842785732981885749 10.135584451237226844 1 70 -284.39589640928795689
    3000    322.24102    6.8107138    75.592719   -138.39393   -5554.1717    10890.368 
    3010    306.89982    10.888383     80.62028    -136.1634   -2264.9354    10890.368 
    3020    304.30089    15.008591    86.717175   -134.28218   -196.98063    10890.368 
    3030    309.37702    15.882798    84.638692   -136.75626    2838.5278    10890.368 
    3040    336.34786    11.973118    79.256396   -136.31146    2824.1984    10890.368 
    3050    350.15879    9.8539368    72.693689   -136.83844     1265.893    10890.368 
    3060    320.00848    7.1123207    89.367352   -138.79195   -4121.6923    10890.368 
    3070    340.20375    7.2982249    71.588086   -142.76183    2570.9676    10890.368 
    3080    304.31005    7.3271936    81.687658   -149.47175   -2214.5515    10890.368 
    3090    323.40003    7.6887846    68.059388   -157.35675    6299.8366    10890.368 
3100        0.98297624376105985355 10.136638805676762232 1 69 -295.27565554796103697
    3100    290.38363      8.63133    68.797755   -163.70773   -386.28928    10890.368 
    3110    294.88459    10.820811     70.72019   -167.33976    901.63794    10890.368 
    3120    279.77242    12.171666    72.040375   -165.56324    195.55039    10890.368 
    3130    276.64566    11.141775    79.908474   -166.33685     2193.252    10890.368 
    3140    285.27541    10.887713    74.777862   -166.71812   -2583.8918    10890.368 
    3150    302.41348    9.2060062    68.288501   -166.98676   -911.38093    10890.368 
    3160     305.2552    4.8878277    70.843398   -167.00653   -1443.7684    10890.368 
    3170    302.02744    3.9278394    72.422728   -171.51822   -108.43656    10890.368 
    3180    311.10927    4.6357606    67.562048   -171.44751   -5529.2139    10890.368 
    3190    290.61437     3.913826    71.581653   -171.36316    4319.3373    10890.368 
3200        0.97621513387416858354 10.155857546118772561 1 70 -305.17742445547435182
    3200    295.89672    2.6112133    73.909974   -171.11161    117.62278    10890.368 
    3210    288.94348     5.296084    69.502933   -170.36691    1651.1832    10890.368 
    3220     283.2965    7.2265436    74.248643   -169.08465    821.22206    10890.368 
    3230    303.81647    6.7824152    69.246396   -166.90406   -383.41841    10890.368 
    3240    314.51224    4.9300617    66.035807   -165.57201   -2602.9122    10890.368 
    3250    325.11602    4.7953945    66.373175   -162.27264   -4263.9593    10890.368 
    3260    320.63095    7.5829629    69.980632   -158.83565    3235.8429    10890.368 
    3270     328.4016    7.2654797    69.813627   -155.24639    4938.9467    10890.368 
    3280    353.59891    4.5836622    71.864325   -151.80951   -974.25726    10890.368 
    3290    331.42137     4.562662    82.654467   -149.85992   -757.57623    10890.368 
3300        0.97254823087396191639 10.175568498643354332 1 69 -297.63873971363966575
    3300    330.92978    5.6419598    70.943464   -147.70004   -1640.5989    10890.368 
    3310    309.21324    9.5473031    82.299394   -148.21006   -1044.0495    10890.368 
    3320    308.07611    11.250596    69.414146   -148.60658    407.70516    10890.368 
    3330    317.03868    8.0002971    70.705295   -148.75188   -4875.1904    10890.368 
    3340    288.49924    7.2165247    79.666983   -148.98136    5085.1594    10890.368 
    3350    289.26447       11.884    77.235293   -149.51273   -1701.1461    10890.368 
    3360    303.03807    13.697054     74.94001   -150.20153    5681.7445    10890.368 
    3370     317.0842    12.760195     73.79131   -151.30754   -958.51662    10890.368 
    3380    293.55824    13.253833    71.856499   -152.95739   -1185.7645    10890.368 
    3390    283.93242    11.507375    84.128519   -155.21929   -865.96857    10890.368 
3400        0.97141612511325570178 10.153081955846289475 1 69 -291.59039899603936874
    3400    295.00681    7.9442602    74.915008   -157.92779   -702.47873    10890.368 
    3410    296.11646    5.8539206    73.527243   -161.05637    936.39702    10890.368 
    3420    316.00729    4.3635704    63.582774   -164.16468   -377.33979    10890.368 
    3430    278.35726    5.4148407    75.723793   -167.26923   -2013.5517    10890.368 
    3440    255.29054    5.0769965    79.876948   -169.81585    2391.7711    10890.368 
    3450    262.64815    8.5965522    86.831958   -171.82975    -4272.046    10890.368 
    3460    289.53208    8.9774989    70.295232   -176.53268   -1620.5604    10890.368 
    3470    289.31452    9.4690559    69.333468   -178.53478   -2083.2344    10890.368 
    3480    273.28065    8.9034925    71.904892   -179.86752    5160.7298    10890.368 
    3490    278.11352    7.8495992    68.890757   -180.30183    1887.5232    10890.368 
3500        0.97674938093651086923 10.129615015622817964 1 71 -302.00790967001512399
    3500    269.53694    6.2256802    71.338057   -179.88527    -1906.379    10890.368 
    3510    262.52286    5.3266277    75.815363   -178.50971   -534.86854    10890.368 
    3520     267.0281    6.3126728    72.851265   -175.99804    2386.2915    10890.368 
    3530    274.60466    6.9868827    75.317209   -172.11693   -942.81764    10890.368 
    3540     286.0644    6.9571466    73.091699   -167.26085    4333.5807    10890.368 
    3550    311.21795    4.2681766    76.412474   -161.93626   -1831.6628    10890.368 
    3560    289.65997    7.7771252    82.579236   -155.20669    2583.9749    10890.368 
    3570    300.98255    9.1648108    73.201166   -155.53981    -4691.591    10890.368 
    3580    305.25119    8.5948002    79.529995   -153.71701    1468.3369    10890.368 
    3590    334.43626    6.2298898    74.548299   -152.72535   -716.80059    10890.368 
3600        0.98279837741290654307 10.123985016886141608 1 68 -289.56876322577943483
    3600    301.98315    8.2344156    78.173049   -152.74529    -2482.437    10890.368 
    3610    296.26322    9.9274487    84.870351   -153.25125     1255.327    10890.368 
    3620    289.76324    9.1452044    81.448004   -153.81842    1179.0777    10890.368 
    3630    304.64744    6.2435368    75.189478   -154.41861   -768.32304    10890.368 
    3640    321.30406    4.2316068    79.013876   -151.38819    893.89841    10890.368 
    3650     320.2261    5.8298228    72.969389   -152.73055   -886.51828    10890.368 
    3660    304.64209    6.9340166    81.216279   -154.68561    1234.1824    10890.368 
    3670    286.20993    9.3082593    75.892451   -156.69627   -1079.4511    10890.368 
    3680    300.10462    9.5763138    71.408355    -158.2349    2376.5398    10890.368 
    3690     308.5675    10.054311    75.137169   -156.03482    475.47117    10890.368 
3700        0.98852301598736058708 10.087407485518786743 1 69 -293.41489892026510233
    3700    299.74421    7.9956344    73.388915   -157.60585   -3076.1134    10890.368 
    3710    288.93518    7.1928453    75.811302   -164.40723    -1583.185    10890.368 
    3720    284.65972    7.4544021    77.668755   -166.16105    783.49719    10890.368 
    3730    299.29336    7.9020862    69.836403   -168.20831   -505.09902    10890.368 
    3740    303.30477    12.248881    66.028313   -170.89683    1050.0905    10890.368 
    3750     298.5431    11.429378    62.455061   -174.71127    1674.5077    10890.368 
    3760    277.40188    8.8155937    74.698286    -179.3783    3622.1068    10890.368 
    3770    274.67732    7.3807773    74.674504   -184.30487   -2493.6351    10890.368 
    3780    269.14947    7.3242059    68.621699   -189.08969    393.41574    10890.368 
    3790     254.6326    6.0869686     66.12752   -192.55528    -1741.101    10890.368 
3800        0.99224832392338047082 10.084744686866956798 1 68 -313.5521222399496537
    3800    263.05418    6.6897587    62.221896   -194.36671   -1855.0248    10890.368 
    3810     253.6091    7.7543362    66.892752   -194.71275   -2038.6922    10890.368 
    3820    270.46391    8.5923012    65.364691   -193.77774    2647.1892    10890.368 
    3830    257.90076    9.7539939     67.59002   -191.79283      3039.08    10890.368 
    3840    291.81081    8.7863261    63.488707   -188.78161    1951.5898    10890.368 
    3850    297.96945    6.3127135    61.673637   -184.83451   -3147.6255    10890.368 
    3860     306.3847     4.977051    62.682681   -180.88261   -274.61547    10890.368 
    3870    293.75875     7.188028    63.713146   -177.24715   -2028.2122    10890.368 
    3880    297.93337    6.4297063    67.630583   -174.36345    1365.1115    10890.368 
    3890    307.08099    8.8362093     59.59498   -171.95995   -768.56986    10890.368 
3900        0.99228764742978237123 10.082641921590870027 1 70 -310.22783368203005239
    3900    308.96329    10.098002    63.288568   -170.24178    2989.0791    10890.368 
    3910    294.61544    10.699467    70.631316   -168.72443    2124.9764    10890.368 
    3920    281.36096    11.171693    65.953818   -167.23419   -356.78767    10890.368 
    3930    284.30316    8.5731866    78.353884   -165.67121    -2904.199    10890.368 
    3940    300.42537    9.8453262    65.878011   -166.64193   -431.06993    10890.368 
    3950    281.83676     9.879404    77.824549   -164.97646    472.45675    10890.368 
    3960    291.80976    9.8581935      73.3771   -157.90685    2703.0394    10890.368 
    3970    293.30682    11.843338    69.987497   -155.51074   -2149.4693    10890.368 
    3980    290.25553    11.220868    73.975449   -152.85634    959.96895    10890.368 
    3990     301.6345    14.860604    74.097556   -153.24404   -1750.0215    10890.368 
4000        0.98640131141464792996 10.11029047201164488 1 66 -294.04925900446573905
    4000    315.80403    14.557087    71.580976   -150.96378    1284.9803    10890.368 
    4010    311.72549    10.800029    79.790927   -149.36787    2040.9964    10890.368 
    4020    335.45831    10.016489    63.182301   -148.39631    200.37196    10890.368 
    4030    279.98679    9.0572857    79.577559   -147.73385   -1284.1595    10890.368 
    4040    314.58283    6.7925936    76.582488   -151.60244    1315.2054    10890.368 
    4050    338.86104    8.4291499    73.985795   -148.83171    -715.1762    10890.368 
    4060    340.31732    8.8979475    74.611031   -150.19448   -107.36403    10890.368 
    4070    318.39776    10.144987     68.21661   -152.71228   -1202.2617    10890.368 
    4080    300.61796    8.4997654    78.858409   -156.25164    2542.3017    10890.368 
    4090    297.40801    6.4044307    77.812269   -160.91234    1108.1048    10890.368 
4100        0.97790665742448901199 10.181535689337225747 1 66 -299.0899077205475578
    4100    291.04855     4.174949    74.291913   -167.22072   -1391.1352    10890.368 
    4110    270.40976    4.1557553    79.276721    -170.9033    340.68622    10890.368 
    4120    274.85693    5.9073486    62.517405   -175.69855   -3529.3259    10890.368 
    4130    257.48644    5.1871819    78.164806   -178.16373   -909.02554    10890.368 
    4140    280.01625    4.2557864     67.47821   -178.95547    179.94046    10890.368 
    4150    267.86027    5.6417417    69.699682   -178.84779    -74.56295    10890.368 
    4160    258.84452    6.0060559    70.778938   -177.95802    1561.3376    10890.368 
    4170    261.62138    7.2187625    64.862307   -176.27111   -2297.5797    10890.368 
    4180    276.80695    6.8045742    67.390136   -173.84903     1251.873    10890.368 
    4190    287.10701    7.4562578    65.570161   -170.98937   -335.86064    10890.368 
4200        0.98161163086685110368 10.166080858310339252 1 63 -298.08565972085335716
    4200    287.32562    5.4714739    76.971391   -167.90327    -1809.296    10890.368 
    4210    317.16719     4.490847    66.762618   -164.94651   -376.38172    10890.368 
    4220    287.57554     4.349134    82.479605   -162.56754   -5007.2811    10890.368 
    4230    303.58787    4.5138327    72.331101   -160.44501    3473.7609    10890.368 
    4240    293.48938    5.8852142    70.927908   -158.54696    2181.6567    10890.368 
    4250    299.16161    10.444752    71.663012   -156.67708    3196.3916    10890.368 
    4260    298.87293    11.785527     76.24296   -154.83755   -1015.7046    10890.368 
    4270    314.12422    9.5617871     72.77103   -152.82912   -2058.4668    10890.368 
    4280    288.47857    8.9118486    76.432881   -151.03267   -364.29577    10890.368 
    4290    295.55954    11.531813    77.484992   -148.98751   -2353.6417    10890.368 
4300        0.9845819062143703615 10.152951293404102628 1 65 -288.1878096769255535
    4300    312.75925    9.3700646    75.948793   -146.48187    -4971.949    10890.368 
    4310    303.69707    9.1566431    83.802556   -144.20844    1160.1173    10890.368 
    4320    308.31307    10.196077    88.521073   -142.54398    4392.7799    10890.368 
    4330     348.4279     10.62497    71.397115   -142.13699    4938.0503    10890.368 
    4340    327.32686    10.195795    75.011923   -137.84148   -2506.6228    10890.368 
    4350    348.52473    8.5261887    66.993215   -139.86802   -2405.8714    10890.368 
    4360    301.35071    8.0613676    81.167719   -143.95589    160.09042    10890.368 
    4370    302.05513    9.5457256    76.039272   -150.52862   -242.12926    10890.368 
    4380    290.49185    9.8172655      79.8262   -158.09297   -536.03378    10890.368 
    4390    304.24453    8.6210044    66.940924   -164.80417   -1046.3176    10890.368 
4400        0.98805676968874656119 10.10993609945053251 1 64 -303.52719764803373437
    4400    297.06171    7.7785905    63.319885   -168.93355    3885.8866    10890.368 
    4410    280.01127    6.0075457    69.697193   -176.53358    3214.2694    10890.368 
    4420      254.318    5.6986565    80.975296   -177.75506    107.42726    10890.368 
    4430    260.18597    6.1753514     72.28283   -177.97645     -2653.85    10890.368 
    4440    262.31458    6.2876393    77.160125   -172.22635   -698.65229    10890.368 
    4450    300.10854    8.0977057    65.382036   -170.96374    418.48885    10890.368 
    4460    265.84115    9.0081713     78.10041   -169.33573   -166.59822    10890.368 
    4470    264.78637    8.5213224    72.291141   -167.28664   -2694.4619    10890.368 
    4480    281.09322    7.6331819    74.832143   -168.16656     596.8561    10890.368 
    4490    291.68747    7.9710161    73.768847   -165.00265    33.946301    10890.368 
4500        0.98121654458003926269 10.129035291846623323 1 67 -299.56377247974074862
    4500     304.1618    7.7162863    64.708787   -161.75319      3022.43    10890.368 
    4510    291.78178    8.0800714    67.797846   -154.88595   -349.36274    10890.368 
    4520    320.43982    6.9944711    58.718602   -151.26272    1653.5225    10890.368 
    4530     317.6342     9.010318    71.117258   -147.75686    1689.9836    10890.368 
    4540    297.58638     9.643184    77.146077   -144.77943    2479.1382    10890.368 
    4550     291.9959    6.4859403    70.714852    -142.3403   -2903.5006    10890.368 
    4560    305.47727     5.673081     68.64847   -140.22316   -2550.9066    10890.368 
    4570    313.86777    3.0225698    63.513517   -138.23094   -161.91043    10890.368 
    4580    332.06136    3.7309178    62.858558   -136.19576      887.778    10890.368 
    4590    349.83519    5.8735959    69.287062   -138.78112     616.1829    10890.368 
4600        0.97579812078053596025 10.140851166129460026 1 67 -294.19136944866613703
    4600    344.33088    6.5833826    60.713816   -138.18086    1297.2473    10890.368 
    4610    309.35683    7.2189786      75.9943   -138.46421    2215.8579    10890.368 
    4620    320.47472    8.0480362    69.554736   -139.01946    2339.6328    10890.368 
    4630    325.33518    11.268969    73.283411   -140.26561    -902.1354    10890.368 
    4640    348.07758    8.5233956    72.084915   -142.73559   -619.82143    10890.368 
    4650    350.30551    7.8139228     59.74813   -146.31891   -3785.1397    10890.368 
    4660     326.1259    8.6467324    60.654641   -145.69809   -1991.2701    10890.368 
    4670    281.13692    7.7158446    77.372411   -148.39475    521.78385    10890.368 
    4680    284.16271    8.0637698    75.314505   -149.99557    3467.5392    10890.368 
    4690    292.69048    7.9237013    74.757355   -151.08477     2441.117    10890.368 
4700        0.96745088059943995518 10.189538618320845842 0.99735449735449732689 68 -296.91221598480933608
    4700    319.59838    9.4595715    64.088819   -152.10758   -71.133247    10890.368 
    4710    310.94681    6.7029783     65.35685   -156.43676    -1983.837    10890.368 
    4720    315.06105    6.1742916    56.645136   -161.30967   -2250.0432    10890.368 
    4730    281.22514     6.388383    76.498522   -161.34503    -2490.194    10890.368 
    4740    314.02227     4.090654       66.448   -158.52989     3180.089    10890.368 
    4750    323.51892    3.1896557    66.113482    -158.7824    785.25043    10890.368 
    4760    317.29072    5.5889041    59.735828   -159.22949   -207.15035    10890.368 
    4770    308.56868    5.1424758    61.882074   -159.39696   -1095.6656    10890.368 
    4780    296.25437    3.5847109    65.553876   -159.26056   -2906.6523    10890.368 
    4790    288.11793    3.3925171    70.742588   -158.95434   -3761.6944    10890.368 
4800        0.96557361510125849779 10.222382178178900602 1 67 -291.03213260975059029
    4800    292.77439     5.337001    70.184737   -158.38099   -774.76683    10890.368 
    4810    300.63691    6.1162382    67.628309   -152.37844    4221.2619    10890.368 
    4820     298.0425     5.713516    70.829464   -151.18606    6226.0032    10890.368 
    4830    308.69223    7.5269055    64.332752   -149.50999    1436.8557    10890.368 
    4840     305.8006    6.5982968    72.012135   -152.51548    355.01844    10890.368 
    4850    286.59406    5.7319344    77.396822   -149.69914   -3269.7565    10890.368 
    4860    281.22463    3.8504086    77.622765    -145.8087   -4268.7939    10890.368 
    4870    312.89848    3.4103904    74.256847   -139.89022   -2116.6211    10890.368 
    4880    321.08484    3.6484409    77.597438   -128.71093    -2177.604    10890.368 
    4890    355.09368    4.5365768    69.214508   -123.24706    1204.8032    10890.368 
4900        0.96363749282999067169 10.220631345501624665 1 66 -263.47374766275464708
    4900    317.16051    4.7393872    83.157523   -119.77367    1744.1135    10890.368 
    4910    317.00096    6.3115423    72.374412   -117.56945    2907.0835    10890.368 
    4920    293.86888     6.369224     87.06952    -115.9043     1042.048    10890.368 
    4930    324.18985    6.0809238     86.35901   -118.98385   -2479.5324    10890.368 
    4940    313.66574    5.4295453    91.994151   -115.18843    430.03549    10890.368 
    4950    321.11825    5.2872426    79.854843   -120.85767   -2292.5906    10890.368 
    4960    335.51341    4.1860427    73.396197     -123.812   -1695.7009    10890.368 
    4970    335.79603    6.5326576    67.173614   -126.96697   -2678.1283    10890.368 
    4980    332.15883    8.6401766    77.312388   -130.11056     1631.002    10890.368 
    4990    294.48018    8.5868179    90.388818   -129.67804    2283.6909    10890.368 
5000        0.96985273941985872259 10.205753162535001977 1 68 -276.73635394679922683
    5000    318.63707    9.2878424    75.855069   -132.36728   -3095.8481    10890.368 
    5010    292.94376    6.7777359      88.6486   -135.18259   -2294.8481    10890.368 
    5020    343.60902    5.0539666    67.939158   -137.78285    -418.5473    10890.368 
    5030     327.2049    5.1568856    70.286709   -140.88939    3432.3059    10890.368 
    5040    321.05897    5.7010914    72.840344   -143.80139    2213.4007    10890.368 
    5050    316.21128    8.5737504    67.552009   -147.19785   -1598.7372    10890.368 
    5060    278.91069    8.9387233    81.777138   -150.55313    1801.9139    10890.368 
    5070    305.63892    10.986248    67.582459   -153.63274   -2084.9373    10890.368 
    5080    288.77621    9.8795972     70.16742   -156.30868    1980.6796    10890.368 
    5090    313.53139    8.0470727    64.854534   -158.41066   -1139.2483    10890.368 
5100        0.97973367702009306335 10.154580096987894322 1 65 -292.06737447382721484
    5100    291.65028    9.9729577     64.79198   -159.92555   -3865.5783    10890.368 
    5110    299.21451    9.8480112    67.079187   -164.62622    646.61586    10890.368 
    5120    275.28747    11.060479    76.291301   -165.41453    1051.1404    10890.368 
    5130    264.75034    9.7758264    79.566923   -165.94166    4512.6771    10890.368 
    5140    279.55794    9.0011274    69.974983   -169.80438   -294.19346    10890.368 
    5150    276.40763    6.2900097    73.901958     -169.694   -28.799039    10890.368 
    5160    285.76527    7.4126591    65.153499   -169.21925   -1927.4201    10890.368 
    5170     284.4552    6.6600726    65.719685   -167.99932   -5170.6929    10890.368 
    5180    276.55813    7.1441059    70.991649   -165.93425   -129.10708    10890.368 
    5190    297.65657    7.5886583    70.052503   -158.63715    3637.4407    10890.368 
5200        0.9851914943181709905 10.109955886979649975 1 68 -304.46979390777255503
    5200    321.51659     9.442937    71.206809   -158.79605    6771.4496    10890.368 
    5210    328.34884    12.611062    64.706301   -150.15736    578.60129    10890.368 
    5220    318.53032    12.349455    65.024481   -146.08975   -461.06457    10890.368 
    5230    314.29799    10.030482     74.83593   -142.28781   -315.94367    10890.368 
    5240    315.34412    9.4266955    73.086665   -138.80067   -2900.9673    10890.368 
    5250    308.12996    10.161275    78.005219   -136.11077   -1861.1588    10890.368 
    5260    331.45049    9.5044411    71.759581   -134.25266   -644.44847    10890.368 
    5270    338.35856    7.4369305    72.757972   -133.62537    6001.3716    10890.368 
    5280    331.69376     7.555993    72.073977   -134.44055   -792.59393    10890.368 
    5290    317.60521    10.212244    71.204097   -136.44417   -3447.8613    10890.368 
5300        0.9829055253079750365 10.132778557096898453 1 66 -291.93574912840955449
    5300    336.25128    8.5532334    60.438299   -139.58597   -1921.1409    10890.368 
    5310    306.16858    8.3727246    75.271385   -144.38086     2847.967    10890.368 
    5320    298.20125     8.974906    73.624248   -150.51887   -59.696678    10890.368 
    5330    264.29021     7.694859    72.271696   -156.96025    1217.5729    10890.368 
    5340    287.78223    6.8332713    70.606251   -162.11847    -2201.692    10890.368 
    5350    283.79724    8.2803302    65.886578   -165.54195    30.221184    10890.368 
    5360    261.51697      8.99062    75.717484   -167.50481    432.23263    10890.368 
    5370    259.30784     7.479062    75.321072   -170.83879    1431.2008    10890.368 
    5380    274.07849    5.7459819    76.790289   -170.75993   -1615.2597    10890.368 
    5390    297.12572    4.0803105    62.151931   -167.12501    33.088525    10890.368 
5400        0.98288597341293004739 10.117088585602775908 1 70 -281.44565567903958936
    5400    259.00339    5.1510156    68.743854   -164.09559   -190.40294    10890.368 
    5410    304.55087    6.6993509    59.077158   -163.22053    1657.0527    10890.368 
    5420    308.88496    8.3119191    66.429405   -161.95901   -2692.6891    10890.368 
    5430    297.72906    7.7257929    64.988105   -160.77781   -61.653852    10890.368 
    5440    288.52925    7.5283789    71.786381   -164.84476   -140.17445    10890.368 
    5450    297.80032    9.2029584    63.323385   -163.42842    2814.3206    10890.368 
    5460      302.674    8.4198281    68.629766   -161.85139   -820.79215    10890.368 
    5470    307.24661    5.5999349    64.986714   -160.11364   -2354.3529    10890.368 
    5480    287.19846    4.1450436    75.332635   -158.46577    2099.2637    10890.368 
    5490    271.66896    5.7017315    73.663048   -156.52476    972.97699    10890.368 
5500        0.97792046273180510685 10.135194767384348324 1 68 -276.77686173329874464
    5500     271.3804    7.7157496    75.192898   -153.81898    -592.2329    10890.368 
    5510    288.00344    8.9118854    72.488206   -150.23534   -4564.9784    10890.368 
    5520      306.289    6.8592033     74.18022   -140.91083   -1902.8037    10890.368 
    5530    320.18985    8.2061317    65.920364   -136.59128    5154.5934    10890.368 
    5540    322.97133    8.6846673    69.679273   -132.35167    4235.2103    10890.368 
    5550    298.53055    8.1344196    82.206372   -128.63521    55.454526    10890.368 
    5560     313.0435    8.4790059    77.950573   -125.81844   -1965.9919    10890.368 
    5570    297.20449    7.3868856    87.292025   -124.19223   -664.83982    10890.368 
    5580    332.70608    5.6731723    78.180797    -128.5269   -641.38659    10890.368 
    5590    316.17539    7.1750504    78.680357   -130.87623    25.113575    10890.368 
5600        0.97737293285796544851 10.122552853919508209 0.99735449735449732689 70 -284.65615797742526638
    5600    335.60611    8.9132109    67.326829   -132.59869   -920.96958    10890.368 
    5610    312.23082    8.1517819    78.299478   -133.59578    125.42603    10890.368 
    5620    316.18917    9.6904387    77.154608   -136.46939   -681.26989    10890.368 
    5630    309.68319    10.849861    70.708633    -139.5713    2528.8073    10890.368 
    5640    306.31781    7.9640509    71.582246   -141.87917   -1356.3157    10890.368 
    5650    301.88891    5.6217409    73.337602   -143.63124     1086.326    10890.368 
    5660    290.63054    5.7898859    73.398798   -144.80362    1550.1449    10890.368 
    5670    307.14675    5.5265701    70.371847   -145.67859    4002.3325    10890.368 
    5680    290.61688    6.3449134    76.240427   -146.52358   -835.52769    10890.368 
    5690    290.54764    7.6203788    68.955163   -147.34048   -4355.2352    10890.368 
5700        0.97571337140825542544 10.130924757643166245 1 69 -279.69986906159681439
    5700    290.20974    10.249713    74.578187   -148.21073   -2013.9355    10890.368 
    5710    304.81269    10.669524    61.568533   -149.05189   -572.29135    10890.368 
    5720    295.70555    9.3670861    65.657539   -149.85194    1280.3913    10890.368 
    5730    303.20997    8.1615358    67.670305   -150.29701    2094.2746    10890.368 
    5740    306.77217    6.1608609    67.435462   -150.57263    1170.0473    10890.368 
    5750    316.18718    6.0534611    60.491522   -145.97029   -1390.0126    10890.368 
    5760    305.30867    7.4697213    68.873475   -151.24863   -1389.8092    10890.368 
    5770     328.4356    5.7423052    64.841414   -152.35611     2210.683    10890.368 
    5780    312.61146    7.3403236    60.068725   -154.26282   -285.08555    10890.368 
    5790    293.96183    7.1792825     64.31264   -156.73455    -3826.368    10890.368 
5800        0.97875335496010307246 10.143421795764407278 1 73 -288.55465046228857773
    5800    284.67028    8.1290705    65.837524   -159.57535   -1548.5247    10890.368 
    5810    262.33272    7.9150032     78.21607   -158.35545    -1133.446    10890.368 
    5820    263.65831    9.1570397    68.965688   -166.18939    4399.6385    10890.368 
    5830    260.12729    10.657881    74.636529   -169.26421   -252.18148    10890.368 
    5840    287.73307    10.485951    62.504226   -171.84895   -374.30139    10890.368 
    5850    287.62346    9.3226757    60.725073   -174.03829   -2021.3261    10890.368 
    5860     292.8779    6.6100188    58.348595   -175.83019   -4126.2473    10890.368 
    5870    282.35045     4.692269    66.384002   -177.37589    2190.1805    10890.368 
    5880    291.60916    3.9031093    56.541533   -178.58402   -1186.4688    10890.368 
    5890     262.5807    5.2265536     67.26639   -179.35183    330.42328    10890.368 
5900        0.98446464577015035946 10.093679845986935462 1 68 -313.33267733103059527
    5900    296.06158    7.2962667    53.040163   -179.19217    2013.8329    10890.368 
    5910    277.79795    8.9578366    63.404754   -177.95934    3076.7364    10890.368 
    5920    304.03156    9.0286254    56.616202   -175.40394    2143.7424    10890.368 
    5930    272.72434    8.6105436    68.528964   -171.17552   -182.47617    10890.368 
    5940    303.30085    8.2009906    64.032337   -165.44138     145.7251    10890.368 
    5950    290.86045    6.4544003    71.502686   -159.66801    3750.7456    10890.368 
    5960    304.24283    5.0549021    61.036482   -154.90509   -1146.0306    10890.368 
    5970    319.93595    3.3811864    54.799576   -146.63512   -4095.5943    10890.368 
    5980    313.01505    4.3577843     63.05448   -148.20435   -3903.4334    10890.368 
    5990    310.86371    3.9242269    61.240587   -141.45349   -773.88584    10890.368 
6000        0.98811244562935718339 10.077867547631413458 1 68 -271.65592750977219794
    6000    291.56773    5.0983429    70.973993   -139.55151    2440.6522    10890.368 
    6010    326.32042    6.4924393    65.470578    -140.3475    988.27566    10890.368 
    6020    318.92989    7.2474536    72.521104   -139.31544     896.7608    10890.368 
    6030    338.68122    7.9734028     62.08943   -139.24083    263.86945    10890.368 
    6040    311.86183    8.8827512    69.472449   -137.22846    1144.2128    10890.368 
    6050    328.25179    7.6546847    60.906827   -137.95109    1927.1806    10890.368 
    6060    308.50498    9.3716063    63.867933   -139.17673   -2395.1104    10890.368 
    6070    321.92908    7.1423129    66.642494   -143.68429    1409.3489    10890.368 
    6080    315.87583    5.2456121    64.157506    -143.4258   -586.18092    10890.368 
    6090    327.07371    5.4192231    59.821655   -146.94635    3106.8985    10890.368 
6100        0.98967956872637685706 10.094215389201647071 1 67 -289.11331366982187774
    6100    294.47695    7.5416563    68.513581   -155.69078   -2060.7423    10890.368 
    6110    302.95933    8.5655305    60.156124   -160.32607   -4122.3122    10890.368 
    6120    281.71577    8.1101876    68.483126   -165.17246    163.83754    10890.368 
    6130    289.99567    8.5925831    59.608205   -169.29881    1360.9722    10890.368 
    6140    277.54292    7.3042025     62.10117    -172.0765    1336.6272    10890.368 
    6150    295.02739    8.6084703    57.104106   -173.85827   -435.92191    10890.368 
    6160    281.61289    9.0229214    66.729202   -169.34551    381.45005    10890.368 
    6170    291.33648    8.7255518    68.826963   -169.53431    174.43117    10890.368 
    6180    291.18562     12.62294     64.14127   -169.70764   -370.14252    10890.368 
    6190    285.67817    11.867331    61.416655    -169.8811   -733.24299    10890.368 
6200        0.98559340867584921408 10.100616865518128762 1 65 -299.97423375262815171
    6200    287.34594    9.4233764    63.657903   -169.78264    292.23569    10890.368 
    6210    300.38901    8.3772039    56.503894   -169.38058   -1304.8818    10890.368 
    6220    283.67779    10.600419    62.184776   -174.01804     1846.853    10890.368 
    6230    281.05301    10.650548    63.443375   -173.16143   -37.223471    10890.368 
    6240    264.15799    8.7940518    60.599399   -171.77955    801.17506    10890.368 
    6250    280.53433    5.7355133    61.806182   -169.68087   -3555.1382    10890.368 
    6260     277.5858    6.6906398    56.329766    -166.8414   -836.55987    10890.368 
    6270    275.76355    5.9964195    61.051227   -163.31757    148.79359    10890.368 
    6280    299.82575    6.3366178    58.345502   -159.30179    3644.3527    10890.368 
    6290    290.00281    7.6491447    63.610088   -155.62956    4045.1023    10890.368 
6300        0.9844969623656497637 10.112369549242863798 1 67 -292.75725471874488903
    6300    308.99928    8.7341654    59.907112    -152.7549   -450.10223    10890.368 
    6310    288.97133    6.5270377    72.154579   -150.81085   -976.73877    10890.368 
    6320    329.10703    5.8679116    61.204015   -149.62714   -1901.7236    10890.368 
    6330    303.15949    7.5736007    67.560169   -149.36308    -2875.222    10890.368 
    6340    316.52695    9.3468372    65.114896   -149.45394    101.40674    10890.368 
    6350    323.16349    10.565813    62.991658   -149.78038   -670.57439    10890.368 
    6360    316.54235    11.042758    64.270351   -150.37797    4674.7766    10890.368 
    6370    307.84023     10.09064    64.476548   -151.26601    1185.2715    10890.368 
    6380    272.73363     10.04448    71.591054   -152.24102   -2081.4154    10890.368 
    6390    295.38661    9.7536964    66.856977   -153.10048   -4421.7961    10890.368 
6400        0.98076844254953254865 10.138578147222599313 1 66 -292.71988138213441744
    6400    305.66921    9.7426538    66.885944   -154.22632    487.97506    10890.368 
    6410    318.26373    7.2201202    63.045518   -155.86137    698.99998    10890.368 
    6420    293.28735    5.9505472    62.136603   -157.83611    2196.6727    10890.368 
    6430    290.10624    7.0196778    61.593499   -159.71572   -4135.3955    10890.368 
    6440    297.66873    7.8934852    63.415267   -161.95574    2193.2098    10890.368 
    6450    301.35778    8.9963728    59.599143   -164.83835    1354.0751    10890.368 
    6460    284.76772    9.2624247    56.941098   -168.26449    2524.6902    10890.368 
    6470    277.22123    8.4835794    50.892919   -171.16318   -218.87659    10890.368 
    6480    271.48614    7.1428699    53.177201   -173.32493   -1116.1393    10890.368 
    6490    268.59702    4.6972252    58.818425   -174.79953     -740.218    10890.368 
6500        0.97006648971392206438 10.186574606554328781 1 66 -294.17422918081615535
    6500    261.68464    4.0651437    63.734284   -175.60933    -641.6995    10890.368 
    6510    286.45549    4.0013033    59.802676   -175.99423    1815.3721    10890.368 
    6520    288.36511    3.9885823    60.240057   -176.01025    1438.4897    10890.368 
    6530    283.08081    5.4221301    54.401872   -175.30418   -1179.0735    10890.368 
    6540    278.60592    7.8185149    59.611636   -173.41288    -3426.927    10890.368 
    6550    292.00063    6.6901461    66.572588   -169.83621   -1050.5928    10890.368 
    6560    299.97833     6.058312    64.395265   -165.28852   -3069.8473    10890.368 
    6570    289.77414    6.5557866    68.987286   -160.77483    873.11966    10890.368 
    6580    295.49254    6.2801726    65.150926   -156.56228    2513.6756    10890.368 
    6590    315.84254    6.4326497    60.885552   -152.77569    2433.1299    10890.368 
6600        0.97000309292181086107 10.193461360885596179 1 67 -290.15989662280435368
    6600    309.66078      7.48282    59.994081   -149.85782   -1655.1433    10890.368 
    6610    310.28105     9.126347     68.29138   -147.62167   -1433.3674    10890.368 
    6620    311.44703    9.5617622    71.470394   -145.85512    1960.5486    10890.368 
    6630    328.77782    7.7480505    65.884329   -144.87952    47.715958    10890.368 
    6640    300.64364    6.2146173    66.850722   -144.64869   -1046.4879    10890.368 
    6650    301.23612     4.584862    68.675284   -144.66509   -2800.0976    10890.368 
    6660    292.23389    5.8330996    64.444148   -144.66235    3389.8648    10890.368 
    6670    307.43681    6.9614485    67.527515   -144.66571    556.89689    10890.368 
    6680    329.12472    9.1426219    58.252424   -144.94344   -478.90423    10890.368 
    6690    314.39273    9.6572177    66.803289   -146.07405   -669.84196    10890.368 
6700        0.97120977251879658798 10.184958462747474073 1 65 -290.42695896365370345
    6700    313.85428    7.9615664    67.566626   -148.22488   -1977.9597    10890.368 
    6710    306.55425    6.5931182    63.711113   -151.79848     -350.284    10890.368 
    6720    296.89981    5.5614757    64.856619   -156.89487   -254.91444    10890.368 
    6730    283.78213    5.6800539    64.273322   -162.84053   -368.76376    10890.368 
    6740    274.06231    6.9948062    57.259668   -167.90743    72.283735    10890.368 
    6750    281.84939    8.7773333    61.412965   -174.43311    1049.4589    10890.368 
    6760    279.96207    8.0138526    61.367183   -174.36466   -192.61201    10890.368 
    6770    275.51157    6.0152134    55.150583   -175.95294    440.34611    10890.368 
    6780    272.08593    5.6632781    54.905346   -176.36848    444.32372    10890.368 
    6790     281.9234    6.9882409    58.020851    -175.8728    1529.8813    10890.368 
6800        0.9718960066974129397 10.167663537162447085 1 69 -302.68084182020072603
    6800    282.02015    7.9043438    60.635938   -174.90227    2586.7601    10890.368 
    6810    270.45737    6.9994298    65.888973   -173.48323    132.25282    10890.368 
    6820    280.96341    6.5873182    59.189616   -171.60095   -3903.9521    10890.368 
    6830    280.55901    7.3130809    56.145818   -169.21241   -2154.6446    10890.368 
    6840    307.27186     5.823043    56.096543   -166.21891    164.05416    10890.368 
    6850    306.68733    5.5723454    56.016877   -163.15529    804.26104    10890.368 
    6860    296.23271    6.0889814    63.250638    -160.8009    1419.3382    10890.368 
    6870    266.21457    8.0630328    75.530328   -159.19375    1651.5971    10890.368 
    6880    287.06957    9.8362135    63.777837    -157.9623   -334.24449    10890.368 
    6890    271.21174    9.8354085    68.362393   -156.87437   -2580.4782    10890.368 
6900        0.97585521083120740915 10.16037755430231293 1 66 -287.50497728767209082
    6900    291.39592     8.443903    62.880814    -155.4784   -2768.0693    10890.368 
    6910    295.50325    6.9322947    64.546968   -153.82365   -1452.8095    10890.368 
    6920    319.39058    7.2228593    64.718959    -152.4596   -1243.5249    10890.368 
    6930    299.48916     6.370065     75.08922   -152.02452    1185.5503    10890.368 
    6940    280.68201    6.0601565    69.051724   -152.31303    1995.8313    10890.368 
    6950    267.40584    8.4326289    64.198777   -152.43393    1673.5148    10890.368 
    6960    296.52267    9.5920618    62.515093   -151.98345    3686.4256    10890.368 
    6970    355.16601    11.097136    52.642531   -151.41016    3666.6583    10890.368 
    6980    324.80087    7.7965089    60.784339   -151.79378    75.678122    10890.368 
    6990    301.38142    7.2349313    57.155162   -152.58722   -3129.7971    10890.368 
7000        0.9755123999323802586 10.157603811030567087 1 66 -273.75955209430037485
    7000    266.19297     5.922228    74.330691   -153.15201   -3509.3549    10890.368 
    7010    305.47562    5.8408838    61.442922    -153.3517   -1494.3005    10890.368 
    7020    297.35817    4.3829635    65.078579   -153.65416   -1389.9139    10890.368 
    7030    296.17503    4.1173781    62.163851    -153.9098     2749.465    10890.368 
    7040    287.19249    5.3465588    56.781024   -153.62642    958.95401    10890.368 
    7050    273.60538    5.8368621    72.327451   -147.41534    1801.6405    10890.368 
    7060    319.37188    6.2961294    57.097201   -145.44603    327.07668    10890.368 
    7070    301.46424    7.1102649    67.774005    -143.4571    2743.9435    10890.368 
    7080    319.12658    6.8719175    62.588401   -144.56568    2.9486192    10890.368 
    7090    322.36658    9.1269021     66.89533   -141.17603    -3488.345    10890.368 
7100        0.97750305093311851135 10.15531142644919349 1 67 -291.550384192401566
    7100    343.46366    9.0773067    59.147846   -135.93279   -3814.5756    10890.368 
    7110    338.46901    7.3978332    69.854573   -126.34499   -267.21829    10890.368 
    7120    322.32036     4.715045    69.730165   -120.29505    1061.0338    10890.368 
    7130    338.80458    4.4725111    64.843127   -115.06445    3097.7672    10890.368 
    7140    328.49049    5.6368742    72.126452   -110.97841    3139.0357    10890.368 
    7150    341.99248    5.8101218    65.649273     -108.803   -515.34969    10890.368 
    7160    308.98636    4.2979899    68.416173   -107.92617   -1692.9642    10890.368 
    7170    317.71203     3.463099    76.667665   -107.90843   -537.60732    10890.368 
    7180    337.97688    3.5507066    71.833504   -108.80537    1057.8725    10890.368 
    7190    353.84266    5.8913063    60.624899   -114.88775   -897.41677    10890.368 
7200        0.97563184988670725861 10.160681375757009803 1 66 -266.0552306765948174
    7200     324.9793    7.4945117    67.559217   -118.81259   -1007.0053    10890.368 
    7210    324.59849    6.6101764    62.023382   -122.88824    1281.7923    10890.368 
    7220    310.17672    5.8567581    67.948672   -131.84463   -203.85914    10890.368 
    7230    308.62759    7.8676353    69.311443   -136.36724   -1240.2652    10890.368 
    7240    302.80493    12.870231    67.068749    -140.4987   -2507.2733    10890.368 
    7250    298.99902    12.180938    59.159742   -143.17534    834.34576    10890.368 
    7260    304.59222    8.4348377    71.399894   -145.04369    1003.8819    10890.368 
    7270    325.86509    7.5661465    67.342736   -146.88146    2050.9472    10890.368 
    7280    295.65553    8.5952552    63.741785   -148.72028    729.31826    10890.368 
    7290    296.85919    8.5566646    59.305402   -146.02322   -1897.9993    10890.368 
7300        0.97556676959310451025 10.184259598431962601 1 67 -287.74641365903698897
    7300    310.88016    6.4581358    62.809374   -146.89186   -1139.9762    10890.368 
    7310    333.71024    6.7079046    59.495777   -151.96851    617.82748    10890.368 
    7320    318.70705    6.4682872     60.97189   -150.71105    1995.3448    10890.368 
    7330     307.6499     8.065331    58.074266   -152.72474    1197.6888    10890.368 
    7340    309.07037    8.6061449    57.870605   -154.42382   -1412.0886    10890.368 
    7350    299.94291    6.3810857    60.918802   -156.04919     1317.353    10890.368 
    7360    282.74032    8.0969509    61.918395   -157.68575    362.67807    10890.368 
    7370    287.02667    6.7436992    63.213622   -159.22135   -3436.7706    10890.368 
    7380    273.37891     7.597383    60.452432   -160.37464   -3278.8846    10890.368 
    7390    313.82096    8.2380749    54.676911   -161.05523    -1581.189    10890.368 
7400        0.98064358602017265287 10.15759507459540778 1 68 -298.94579445940280493
    7400    302.70377    8.0318617    59.774332   -161.79582    2190.2877    10890.368 
    7410    303.68878    8.4356851    57.841551   -158.22679   -412.88029    10890.368 
    7420    288.53677    6.1220298    66.540158   -159.11147    2407.9828    10890.368 
    7430    292.39031    5.1104124    59.805976   -165.21451   -727.77037    10890.368 
    7440     280.3549    7.4066641    59.278592   -166.39798    529.24554    10890.368 
    7450    276.89956    8.0298407    64.921297   -167.62204    2057.3824    10890.368 
    7460    294.89327    9.7028859     53.99899   -168.70925    709.06843    10890.368 
    7470    290.82154    9.8980615    57.966657    -169.6351   -2650.5519    10890.368 
    7480     309.1785    8.5734827    51.867202    -170.3636   -1328.5162    10890.368 
    7490    306.31921    6.9809302    63.852759   -171.10268    2997.3861    10890.368 
7500        0.98572621738117760515 10.134372457920655108 1 69 -309.68991190962117344
    7500    303.69028    7.7330063    60.541369   -172.09297    3176.0818    10890.368 
    7510    294.33038     10.02411    58.973296   -173.22675   -2517.8424    10890.368 
    7520    284.35254     10.61399    60.247428   -174.20622   -354.67072    10890.368 
    7530    288.09006     9.312455    58.984651   -174.91173    -863.3641    10890.368 
    7540    264.60907    7.1113931    61.581338   -175.08892    3086.1587    10890.368 
    7550    280.97162    7.8496663    52.121968   -174.22721   -888.88697    10890.368 
    7560    276.55507     9.183301    61.948126   -172.11602   -1011.0298    10890.368 
    7570    302.63131    8.8229697    52.914068   -168.79854   -105.79562    10890.368 
    7580    288.47343    9.3050033    59.639625   -164.71928    414.25049    10890.368 
    7590    291.31073    8.3036867    63.289983   -160.30764    568.29697    10890.368 
7600        0.98299559666551417081 10.147433240082969874 1 69 -296.61253957444296248
    7600    310.91126     7.944205    64.002689   -155.74389   -722.18684    10890.368 
    7610    344.84435    8.7818244    54.808461   -152.07085    864.75578    10890.368 
    7620    327.09231    7.3342834    63.788181   -150.08599    2723.8549    10890.368 
    7630    315.11674    7.1666516     62.00273   -149.22563    456.38029    10890.368 
    7640    282.42982    5.7909933    70.021359   -148.81747    1416.3312    10890.368 
    7650    299.80094    5.6971507    59.500222   -148.34555    604.04865    10890.368 
    7660    297.93132    5.7613268    66.674616   -147.78249   -640.46222    10890.368 
    7670    304.75829    5.9886543    70.822102   -147.20184    734.75656    10890.368 
    7680    295.04319    7.8660783    62.671846   -146.61793   -4814.5803    10890.368 
    7690    275.37341    6.7370106    70.379359   -145.98324   -1482.6037    10890.368 
7700        0.97734880499347387417 10.179583268632113047 1 73 -277.29557434098393287
    7700    292.38034    7.6493405    66.601614   -144.82297   -3744.7886    10890.368 
    7710     292.0801    9.4913544    72.944831   -143.35172    2021.2608    10890.368 
    7720    321.97116    11.571964    67.356078   -141.45606    1132.7478    10890.368 
    7730    339.92055    13.686645    61.307313   -139.68941    501.65023    10890.368 
    7740    334.75849     16.57411    68.536715   -138.61657    700.50616    10890.368 
    7750    332.80872    17.192034    63.929571   -138.26046   -1940.2298    10890.368 
    7760    329.71356     12.98675    64.957041    -138.8186    1087.7322    10890.368 
    7770    326.22821    9.0531728     70.11017   -140.67506     607.6074    10890.368 
    7780    318.89862    9.0375509    70.570891   -144.36611    563.71793    10890.368 
    7790    296.26315    7.7765223    65.579536   -149.19945   -1873.2089    10890.368 
7800        0.97565473898370025374 10.17650305537813793 1 71 -280.58717597066606686
    7800    290.30325    7.1695699    62.012761   -149.05567   -3523.1767    10890.368 
    7810    292.02408     5.983156    67.007594   -153.00309    2183.8043    10890.368 
    7820     304.8493    5.0101484     56.04671   -156.45993    4040.3928    10890.368 
    7830    310.98353    5.4802117    54.873367   -159.35032     1013.396    10890.368 
    7840    297.01457    5.9016064    56.506426   -161.70763    -3057.001    10890.368 
    7850    268.39774    7.7056066    60.007127   -168.17831   -2391.4527    10890.368 
    7860    269.83268    7.5249725    63.884394   -168.59006   -4043.1633    10890.368 
    7870    266.88225    9.0914707    65.322275   -168.15808   -1383.8173    10890.368 
    7880    304.73386    9.9999268    55.043556   -167.07163   -1034.5118    10890.368 
    7890    287.87216     12.43089    63.494224   -165.63197    2757.8455    10890.368 
7900        0.9805348126681666665 10.145005952632526913 1 71 -312.78944733953716195
    7900    329.52028    10.685917    46.828868   -163.48937    3074.7005    10890.368 
    7910    307.33424    8.5045493    62.014768   -155.70504     1925.851    10890.368 
    7920    322.21819    7.1331762    57.563349   -153.11511    1793.1152    10890.368 
    7930    309.56895    8.3503344    63.824022    -150.5684    2510.9819    10890.368 
    7940     311.6124    6.8422701    62.120086   -148.16319   -1110.8992    10890.368 
    7950    306.67638    6.0559927    61.777945   -145.85703   -1281.1178    10890.368 
    7960    305.80664    7.8588018    60.081315   -143.09802   -2147.2822    10890.368 
    7970    334.48486    7.8852257    56.187952   -139.40026   -1253.5698    10890.368 
    7980    334.45243     9.945902    67.328738   -135.28171   -1629.3045    10890.368 
    7990    332.74118    11.683369    64.493117   -131.44424    4133.1723    10890.368 
8000        0.98328526763479562334 10.124121003770655491 1 71 -262.23429552144460786
    8000    290.34581    12.126284    74.495226   -130.68351    1380.7627    10890.368 
    8010    308.92402    9.1088826    71.408688   -127.08669    475.23001    10890.368 
    8020    326.38863    6.9453674    71.696695   -127.57409   -3757.5657    10890.368 
    8030     367.9906    5.9061988    66.138338   -124.19041     1448.196    10890.368 
    8040    360.45317    6.0569515     68.91066    -122.2245    -3300.832    10890.368 
    8050    320.91337    6.6041337    72.279219    -121.9232   -1288.8788    10890.368 
    8060    301.20023    5.8767459    80.304114   -122.49901    2375.0027    10890.368 
    8070    326.18815    4.5504856    69.142714   -123.73397    5063.8934    10890.368 
    8080    343.15464    4.4927512    66.246992   -122.30201   -2170.5627    10890.368 
    8090    325.69026    4.8240907    62.135853    -125.3383   -3222.5755    10890.368 
8100        0.98385024280682864539 10.126480507517209517 1 71 -272.65599446750042034
    8100    309.64308    6.8086009     70.34949   -132.36194    -1713.983    10890.368 
    8110     299.7308    9.1551612    68.384912   -139.23941    4866.7988    10890.368 
    8120    283.65046    9.5521513    65.891766   -144.21871    34.619489    10890.368 
    8130    299.72666    9.4094332      69.7333   -147.82623    159.62284    10890.368 
    8140    296.73617     10.33609    65.518451   -150.79361   -2819.1555    10890.368 
    8150    312.99222    9.7084128    53.714681   -153.20238    921.71997    10890.368 
    8160    286.62236    9.3855588    63.856566   -155.43358   -971.56148    10890.368 
    8170    294.96255    9.0456567    59.686549   -157.12431    1054.8897    10890.368 
    8180    305.04285    8.5365121    58.347511   -158.58419   -2126.8798    10890.368 
    8190    308.18358    7.4075589    52.970529   -167.58373     1118.475    10890.368 
8200        0.98838849544842666273 10.073468794347290256 1 68 -307.60481626875775873
    8200    305.84796    9.8389985    58.910566   -169.03027    2895.4392    10890.368 
    8210    302.11845    10.932453    57.029913    -167.8447    2414.6636    10890.368 
    8220    299.49551      10.1926    58.824148   -169.23955    -4451.402    10890.368 
    8230      286.982    6.1368492    59.723194   -170.39013    411.55834    10890.368 
    8240    305.45908    4.7366333     56.40045   -166.24073    497.97663    10890.368 
    8250    283.03299    5.9469364    54.710561   -167.14385     1802.584    10890.368 
    8260    298.94943    7.9705913    49.370748   -167.39671   -1947.1214    10890.368 
    8270    288.51817    10.501297    52.321943   -166.77729    43.625491    10890.368 
    8280    294.50479    10.985358    59.653007   -169.56781    5342.9761    10890.368 
    8290    271.22882    12.356003    59.339266   -167.17141    1707.2431    10890.368 
8300        0.98810315876498544529 10.100745119180649212 1 66 -286.6390728845831859
    8300    281.89203    8.7480964    60.834963   -158.91855   -3670.9245    10890.368 
    8310    278.08507     6.015416    63.525663   -153.86027   -2237.5246    10890.368 
    8320    312.27086     5.763764    61.247388   -152.60122   -6107.3454    10890.368 
    8330    318.06069    6.8160522    62.703176   -147.27388    423.26148    10890.368 
    8340    334.79966     5.848718    59.129823   -143.69822     1257.625    10890.368 
    8350    324.95878    6.9484092    61.820652    -141.7751    4343.0268    10890.368 
    8360    320.12172    8.1513462    58.342754   -141.22565    2650.5528    10890.368 
    8370    289.80683    10.701894    65.005592   -136.65521    1454.0242    10890.368 
    8380    331.64732    7.6683716    69.093523   -141.36774    2657.2808    10890.368 
    8390    330.69373    9.8633845    61.578275   -142.10554   -2909.5734    10890.368 
8400        0.9841746286782291353 10.123970998130127796 1 67 -290.47677745705556163
    8400     324.6842    8.4655678     58.02858   -143.36784   -4058.4191    10890.368 
    8410    297.82737    6.6605419    65.646446   -144.90192   -3013.1488    10890.368 
    8420    289.53379    8.0927638    68.814688   -146.28862    1116.4201    10890.368 
    8430     301.5526    10.181002    62.745328   -147.86922    3111.6573    10890.368 
    8440    287.49478    10.457729     66.31678   -151.33668    968.14518    10890.368 
    8450    310.95516    9.0495296    61.177221   -153.34754     3598.137    10890.368 
    8460    304.35723    5.8456217    65.506211   -155.92741   -11.036204    10890.368 
    8470    301.22015    5.5840794    62.257025   -159.30698   -4630.8087    10890.368 
    8480    276.19153    2.6804173    66.777362   -163.11485   -5247.1273    10890.368 
    8490    294.27571    2.8897057    53.174569   -165.17762    -1699.034    10890.368 
8500        0.98491310885536742514 10.124125329493542935 1 72 -289.78682662672071046
    8500      276.024    4.8015666    63.187382   -164.72501    634.19716    10890.368 
    8510    282.86879    8.5118295    57.747856   -168.44714    3651.4916    10890.368 
    8520    274.94879    10.248559     56.95451     -171.997    4165.9344    10890.368 
    8530    282.45461    12.021796    51.941675   -179.37677    4181.6858    10890.368 
    8540    266.18014    12.625832    50.916239   -181.49398   -585.13382    10890.368 
    8550    287.55406     10.26224    48.725885   -182.55963   -3546.2724    10890.368 
    8560     250.6729    6.6291492    61.185103    -178.4434   -695.93702    10890.368 
    8570    245.47922    5.0868137    56.979702   -177.51385    -782.1737    10890.368 
    8580    246.48086     5.579705    54.238252   -182.21934   -3149.7142    10890.368 
    8590    272.70149    7.2416139    52.193681   -170.50794   -806.40053    10890.368 
8600        0.98296117307518005024 10.132203484457219744 1 69 -295.01456568465920327
    8600    292.33789    7.7352027    53.958247    -162.5612    93.964477    10890.368 
    8610    311.47063    6.5841034    54.873058   -155.41895    3822.2331    10890.368 
    8620    306.67494    6.9184749    61.338797   -151.35922    3650.3267    10890.368 
    8630    315.26883     5.366619     66.22597    -148.8596     3259.402    10890.368 
    8640    293.91735    3.6888401    69.828901   -147.37343   -4929.9366    10890.368 
    8650    299.47246    3.1588279    58.399254   -142.21617   -6604.8619    10890.368 
    8660    295.94547    3.5795295    65.072598    -141.3733   -1585.8372    10890.368 
    8670    318.65175    4.9704802    59.817434   -140.25299    1296.0182    10890.368 
    8680    297.79328    5.2884588    59.194188   -144.28153    2667.6839    10890.368 
    8690    303.11722    5.4748541    67.466579   -143.22164    2581.3057    10890.368 
8700        0.9811153205496133678 10.143717052164474168 1 68 -274.92793403188994716
    8700    293.28281    5.4742007    76.021636   -142.04644      1585.66    10890.368 
    8710    299.08204    4.3026977    73.283003    -140.2122    5516.7044    10890.368 
    8720    326.23317    4.8332696    60.204128   -139.59283    252.02276    10890.368 
    8730    305.40408    3.9469357    67.758207   -139.89195   -2746.0243    10890.368 
    8740    325.25414    3.7068718    59.973478   -140.89446    -3264.899    10890.368 
    8750    324.93241    5.9354731      62.3206   -142.67234    1354.5333    10890.368 
    8760    311.76843    6.6153933    61.749254   -140.62597   -1376.3691    10890.368 
    8770    301.37203    7.5275336    67.622943   -143.43718   -1190.3311    10890.368 
    8780    292.89077    6.2953676    63.007731   -146.79554    -5413.403    10890.368 
    8790    285.62368    8.0867155    63.135905   -150.31829    2472.1846    10890.368 
8800        0.97540755557537617282 10.182061230682428743 1 70 -282.75410031870927696
    8800    274.23014    6.2113807    69.053458   -158.50505    2140.4594    10890.368 
    8810    288.79268    5.9889911    61.571004   -160.77582    3651.5049    10890.368 
    8820    268.68693    6.5937925    64.593051   -162.32228   -3428.6108    10890.368 
    8830    278.83585    9.5039292    55.419079    -165.5568   -1072.6817    10890.368 
    8840    262.29496    9.9636158    68.544247    -165.1868   -117.47868    10890.368 
    8850    283.64167    11.125005    54.056726   -163.73357    2282.8833    10890.368 
    8860    290.28298    8.8832302    62.640086   -160.98217   -1744.9759    10890.368 
    8870    312.72245    9.4393697    60.580926   -157.61697   -4410.5602    10890.368 
    8880    318.21657    7.6528313    59.675675   -154.39787     1673.419    10890.368 
    8890    322.45482    8.0341548    59.196781   -151.74938    4855.3337    10890.368 
8900        0.97748139246732879126 10.173422281562398695 1 67 -295.90025757453452115
    8900    323.67268    9.6965231    58.667596   -149.24963   -432.08077    10890.368 
    8910    311.97383    9.2063233    64.355344   -147.12979   -3846.8743    10890.368 
    8920    287.32706    9.5962441    71.198329   -145.17859   -645.10403    10890.368 
    8930    294.72802    9.8418484    68.586917   -143.14853    2557.1896    10890.368 
    8940    316.34839    8.8828467     59.12919   -140.17863    70.214698    10890.368 
    8950    339.43004    7.2924669    64.955805   -136.39435   -1697.9197    10890.368 
    8960    346.91809    5.4688884    64.342469   -132.40923    2407.2268    10890.368 
    8970    309.54749    5.9554071    64.239218   -128.94973    1320.5918    10890.368 
    8980     329.9371    5.6042329    70.943098   -124.97869    4818.1961    10890.368 
    8990    343.03002    4.9046261     63.21454    -120.3298   -1668.3494    10890.368 
9000        0.97399154758779016294 10.175338839305918981 1 68 -270.85211918031245659
    9000    341.17741    3.7380734     74.44798   -116.27039   -3975.5401    10890.368 
    9010    347.00637    5.4872949    68.568994   -113.32733   -1754.9826    10890.368 
    9020    315.42111    7.3313285    84.187958   -112.34235   -125.79059    10890.368 
    9030    348.11303    9.2137978    70.188821   -112.46248   -809.52176    10890.368 
    9040    356.83787    7.5638515    65.793702   -114.26724   -2371.2924    10890.368 
    9050    324.91099    8.0383703    78.674476    -118.2807     797.3563    10890.368 
    9060     329.6003    6.6414781    72.720576   -124.73476    4625.2312    10890.368 
    9070    313.41275    6.2234302    73.099791    -132.4017    4122.7412    10890.368 
    9080    320.22339    5.2212399    60.145328    -139.1091   -330.05456    10890.368 
    9090    307.66034    5.0136277    66.623495   -143.50572   -2594.8072    10890.368 
9100        0.97312604604613106574 10.160362557748747747 0.99470899470899465378 69 -290.39055975935997367
    9100    317.80271    4.6824042    57.997784   -146.39952    1089.8888    10890.368 
    9110      287.358    7.4515591    68.323597   -148.55371   -3697.2584    10890.368 
    9120    304.61378    7.6754965      62.5104   -150.17689   -2139.1444    10890.368 
    9130     299.0957    8.1381965    69.683757   -151.79873   -997.81157    10890.368 
    9140    327.65849    7.0945478    58.406896   -153.79745    3735.4429    10890.368 
    9150    313.57087    7.6231884    59.364244   -156.42013    1250.0035    10890.368 
    9160    294.26605     8.557038    58.659435   -159.36721    3519.3286    10890.368 
    9170    281.14438    7.6442891    64.093435   -156.98192   -204.93599    10890.368 
    9180     298.1037    6.1480722     56.49626   -161.70033   -1450.5314    10890.368 
    9190    279.36205    5.8963494    63.313166   -163.93303   -2917.9923    10890.368 
9200        0.9729006260430599351 10.174254178841200869 0.99735449735449732689 67 -286.92642631725567526
    9200    267.64114    8.6245896      59.2272   -165.66274   -1564.5986    10890.368 
    9210    269.00467     7.695489    55.532631   -166.35039   -2391.1239    10890.368 
    9220     287.9263    6.2207663    57.026648   -166.14172    1362.3048    10890.368 
    9230    305.02366    4.9350781    57.922649   -165.55635   -2013.0592    10890.368 
    9240    292.25315    7.0532848    57.799158    -159.8171    3136.1875    10890.368 
    9250     291.3158    9.8515786    58.146758    -158.6631    2959.5025    10890.368 
    9260    281.14036    8.4968329    63.546828   -156.57503    1928.0025    10890.368 
    9270    305.02756    8.1186614    55.161895     -153.357   -1805.1909    10890.368 
    9280     288.7709    4.8670903    70.382338   -154.57626   -1211.7609    10890.368 
    9290    313.82267    4.5633404    57.796681   -150.27007   -2975.6991    10890.368 
9300        0.97474626942740660862 10.1849501684855408 1 69 -289.77060633237834963
    9300    317.82345    5.0563791    56.118463   -145.77016   -2945.8942    10890.368 
    9310    336.57891    6.2265087    57.288056   -141.35484     2794.697    10890.368 
    9320    319.04113     6.794613    62.233648   -137.77487    2264.3304    10890.368 
    9330    326.14188    6.0739552    60.976771   -135.33242    1942.8521    10890.368 
    9340    304.27766    7.7575306    72.760783   -133.91054    156.25682    10890.368 
    9350    349.95638    8.6315461    52.572108   -133.02462   -155.25391    10890.368 
    9360    333.11224    9.5313269    57.550509   -132.80592   -1084.2707    10890.368 
    9370      339.104     9.219345    59.466503   -133.37003   -2011.2976    10890.368 
    9380    332.78112    6.7498408    65.857235   -134.77879   -2000.2836    10890.368 
    9390    336.76295      8.01347    60.714073   -137.11314   -2496.8582    10890.368 
9400        0.97327674503725980504 10.170670071587426975 1 68 -287.37446107802492179
    9400    325.78923    11.262089    63.016521   -139.76486     3194.073    10890.368 
    9410    337.24278    10.712885    57.785946   -142.29722    3398.0411    10890.368 
    9420    321.81586    6.7552781    62.212293   -139.96448    975.23889    10890.368 
    9430     291.6146    8.5774277    69.658835    -142.1741   -191.22464    10890.368 
    9440    290.14953    11.692014    59.039705   -143.77778   -3254.3647    10890.368 
    9450    303.11577    12.109609    58.977186   -144.77497   -665.77365    10890.368 
    9460    314.90653    11.164677    54.000141   -148.92501   -3415.6391    10890.368 
    9470    314.01492    10.103854    60.584619   -145.72121    2902.2237    10890.368 
    9480    294.83788    9.0782069    63.856226   -146.36519    1451.7232    10890.368 
    9490    274.24208    6.6121549    67.792301   -146.90713    3842.3191    10890.368 
9500        0.96988010684017256224 10.151341547786973507 1 69 -282.48694594433044358
    9500    289.81193    5.8017669    66.147034   -151.17805    643.96439    10890.368 
    9510     297.4433    5.0200918    62.646517   -150.98701   -2442.6577    10890.368 
    9520    334.59293    4.2523512    55.755918   -150.79112   -4468.5826    10890.368 
    9530    307.75453     4.328862     61.00578   -151.11096   -1113.2741    10890.368 
    9540     297.9569     5.417003    60.377534    -151.8143    1370.8249    10890.368 
    9550    305.13459     7.992785    52.824958   -155.20403    1320.9167    10890.368 
    9560    274.97617    7.3280479    68.465989    -155.8495   -696.05628    10890.368 
    9570    298.06378    6.2583753    59.449617   -156.12091    4735.2994    10890.368 
    9580    281.24328    3.6362492    64.102345   -156.50715    2280.0243    10890.368 
    9590    286.09973    3.8679959     59.33004   -156.73784   -1411.8015    10890.368 
9600        0.96885811163103696675 10.176148058692833231 0.99735449735449732689 65 -288.58826441766188964
    9600    285.93331    7.0316145    57.296333   -159.03671    -2859.993    10890.368 
    9610    312.47431    10.308704    60.351435   -157.81203   -3959.0124    10890.368 
    9620    305.70982    8.9627594    57.807784   -156.30158   -284.76957    10890.368 
    9630    278.08337     7.111542    66.187718   -155.03714   -51.170081    10890.368 
    9640    321.78326     7.562818    61.894376   -153.28412    1204.1241    10890.368 
    9650    310.94619    8.0662901    64.698739    -149.7187    1796.4101    10890.368 
    9660    316.53702    6.9300943    58.271733   -148.68651    2127.0698    10890.368 
    9670    309.46558    6.4844749    64.279388   -142.67352    618.22676    10890.368 
    9680    296.24349    7.5837453      67.6384   -141.83916    155.81422    10890.368 
    9690    304.43167     7.851299    65.251074   -138.02627   -3131.4952    10890.368 
9700        0.97823208606258826858 10.136305320396234109 1 67 -276.32767124939232417
    9700    306.29858    5.4393852    64.469574   -137.54895   -713.32324    10890.368 
    9710    320.78461    4.2253561    57.283842   -140.94242    1798.5804    10890.368 
    9720    313.93077    6.5048275    63.027078   -138.08734   -795.08536    10890.368 
    9730    296.55788     9.541597    59.270019   -138.64276    139.57938    10890.368 
    9740    285.89739    8.5396736    65.784262   -138.86319    770.75454    10890.368 
    9750    291.95883    6.5427357     61.70346   -139.30019    7605.2027    10890.368 
    9760    315.48568    4.6854564    56.864996    -144.4728    43.115351    10890.368 
    9770    316.74736     4.014192    55.725265   -145.53197   -2823.7994    10890.368 
    9780    297.43226    3.8577739    69.755904   -147.21772   -5330.2664    10890.368 
    9790      313.874    3.0661734    59.845633   -149.85598   -2359.6564    10890.368 
9800        0.98636991936457896202 10.131057601768469922 1 68 -282.19370750641741097
    9800    283.94371    4.6606601    70.937368    -153.5436   -2875.3932    10890.368 
    9810    311.51201    6.2121282    55.632403    -157.7914   -2428.6918    10890.368 
    9820    286.85852    9.7275091    64.160391   -162.51588      2118.18    10890.368 
    9830    293.69791    11.464508    53.577307   -166.40131    3269.7891    10890.368 
    9840    251.58928    9.7762493    70.602539   -169.06595       2930.7    10890.368 
    9850     273.0574    10.065943    54.531093   -170.57353    3457.0199    10890.368 
    9860    284.42314    7.9097576    61.721028   -171.41173   -1698.3724    10890.368 
    9870    304.46126    4.8511024    51.565872   -171.77549   -958.53968    10890.368 
    9880    303.86414    5.7590415    55.642724   -171.90385    1742.0893    10890.368 
    9890    297.08669    6.1852331    58.219429   -172.05141    3003.5344    10890.368 
9900        0.98990724779506156228 10.110593003909100318 1 64 -299.72100043555536786
    9900    281.92831    8.7282538     59.00884   -171.98404   -2441.7535    10890.368 
    9910     254.8178    9.0308647    59.852897   -171.08487   -6001.2991    10890.368 
    9920    274.61033    8.8857073    55.782047   -168.77007    962.49572    10890.368 
    9930    300.31213    7.9504057    61.990856    -164.9504    2694.8137    10890.368 
    9940    319.65999    7.9952776    53.176906   -160.04539   -395.93863    11806.518 
    9950     293.5593    9.2848435    60.004963   -154.98533   -3569.8658    11806.518 
    9960    285.94124      9.22759    60.971376   -145.39504  -0.52490239    11806.518 
    9970    285.01727    8.1691281    65.386724   -140.43644    1192.7492    11806.518 
    9980    311.88092    7.6153067     60.52431   -136.33753    1566.1259    11806.518 
    9990    292.29994    8.6793553    64.949526   -134.07526   -1302.5744    11806.518 
10000        0.99033614166909633703 10.100525447307811433 1 68 -274.85499195866367472
   10000    302.28476    7.0882739    67.523355   -137.89487    4176.7678    11806.518 
   10010    323.52328     6.119729    66.925636   -137.15124    1297.3568    11806.518 
   10020    313.22841     7.853592    70.140462    -137.4004   -837.16544    11806.518 
   10030     310.6915    9.5989909    64.680465   -138.63936   -3832.2315    11806.518 
   10040    296.96426    10.292625    61.297725   -142.69657   -659.12224    11806.518 
   10050    297.76928     7.119531    66.787294   -143.76634    1798.4937    11806.518 
   10060    321.78617    6.0723909    56.879504   -144.81318    1538.9471    11806.518 
   10070    312.08717     5.354339    65.741019   -146.31073   -724.82689    11806.518 
   10080    313.20606     4.152201    63.427324   -148.58896    1409.2063    11806.518 
   10090    301.28304    5.0882743    63.673504   -151.40908   -2730.5298    11806.518 
10100        0.98929221843354631094 10.088295059496168449 1 62 -291.96654439406950132
   10100    302.98896    8.0743932    61.869802   -154.68736     1849.027    11806.518 
   10110    308.41552    7.8703097    60.940237   -158.06123   -479.75351    11806.518 
   10120    301.77445    5.5546435    59.589806   -159.06031    2186.9611    11806.518 
   10130    285.23439    7.4615689    61.627522   -162.01169    1690.3949    11806.518 
   10140    294.17237    8.1416483    54.277042    -164.4341   -350.51019    11806.518 
   10150    273.19718    8.1484561    60.075301   -166.26593    164.69658    11806.518 
   10160    286.14712    10.752983    55.569031   -167.43128   -3081.4123    11806.518 
   10170    286.35705    12.039317    59.692129   -167.99633    767.94795    11806.518 
   10180    298.29686    14.835508     55.48364   -168.11426    2598.4724    11806.518 
   10190    285.33753    15.142673    52.359643   -167.84653   -1610.1291    11806.518 
10200        0.98278473356796658411 10.127089450157864547 1 66 -293.20968937391342024
   10200    278.82082     12.33454    60.236658   -166.88068    -472.2526    11806.518 
   10210    272.34819    10.402904    64.130182   -165.10101   -2783.5693    11806.518 
   10220    291.51844    6.8163604     56.64468   -162.38599   -1130.2455    11806.518 
   10230    274.08047    6.8545215    66.371053   -158.52127    -3470.462    11806.518 
   10240    294.70863    8.6597487    59.815872   -152.88364    262.40567    11806.518 
   10250    300.69424    7.5403204    72.715346   -146.03006    4980.3176    11806.518 
   10260    343.82713    9.8449097    62.390511   -139.59613    413.25411    11806.518 
   10270    314.98691    11.845539     65.79795   -130.83243   -2137.9104    11806.518 
   10280    313.38837    9.7910268    64.053276   -132.83185    454.04224    11806.518 
   10290    308.11244     6.551526    65.608408   -128.58929    129.80478    11806.518 
10300        0.98122244302160877005 10.115990805444610601 1 64 -267.88145255200981865
   10300    307.73414    6.7766719    67.020286   -128.45231    2175.1578    11806.518 
   10310    299.59114    6.8121128    64.555941    -128.6797   -2129.0218    11806.518 
   10320    293.18588     6.490988    68.750201   -128.94534   -1422.8703    11806.518 
   10330    310.81335    6.9194253    69.402914   -129.22615   -638.94125    11806.518 
   10340    350.33196    5.9034353    55.488536   -130.02401    22.016964    11806.518 
   10350    327.67527     7.566117    61.802343   -131.99846    1235.6862    11806.518 
   10360    320.59495     7.649523    56.572403   -140.04527   -856.61358    11806.518 
   10370    296.30563    8.0264947    68.613682   -143.57972   -106.00995    11806.518 
   10380    281.09177    6.7998312    69.013785   -147.28346    1595.1955    11806.518 
   10390    305.96488    7.0126039    58.311354   -145.72304   -579.62116    11806.518 
10400        0.97868871849107641481 10.137438907245604369 1 68 -286.77753067943035603
   10400     293.1121    6.2218849    59.593283   -153.97338    981.59069    11806.518 
   10410     319.2833    4.7708466    53.516302     -156.521    156.24707    11806.518 
   10420    287.17347    5.4764476    66.023878    -153.7392    2399.9343    11806.518 
   10430    291.52152    6.8442967    64.615661   -156.05103   -1767.1108    11806.518 
   10440    274.80993    8.7753649    60.279774   -163.21596   -3883.8026    11806.518 
   10450    284.70771    10.165904    49.032162   -164.71068   -2843.5035    11806.518 
   10460    293.99673    11.115881    49.376242   -165.24264    954.95568    11806.518 
   10470    286.28363    11.781275    58.336364   -164.98817    2170.7828    11806.518 
   10480    293.24035    10.302645    57.243525   -167.02022    1867.2624    11806.518 
   10490    307.52878    6.4507266    53.645629   -166.31279     1610.468    11806.518 
10500        0.98452757701040349847 10.116419600541258106 1 70 -290.97659325804795571
   10500     276.5807     6.232453    58.747372   -165.66254    1945.1843    11806.518 
   10510    306.53823     6.329498     52.22348   -164.15861    -1515.763    11806.518 
   10520    315.85756    5.7166963    54.853161   -161.92718   -3091.4426    11806.518 
   10530    311.45874    7.9916735     57.95564   -160.01252   -229.55879    11806.518 
   10540    282.66658    5.6200864    68.145518   -154.14408   -2063.6045    11806.518 
   10550     289.9885     4.785233    55.157718   -152.10761   -1245.0095    11806.518 
   10560    311.48542    5.5298696    58.303372   -148.58005   -1213.5216    11806.518 
   10570    326.99223    7.9088651    65.155656   -142.87003    2730.9366    11806.518 
   10580    343.75787    8.0747544    63.433033   -135.70001    3302.8501    11806.518 
   10590    363.83141    11.504129     58.86392    -132.5812    613.73963    11806.518 
10600        0.98807238863317026212 10.101614887984879942 1 69 -283.97681261329120161
   10600    348.03776    12.592444    64.454475   -126.28677   -662.49808    11806.518 
   10610    332.57935    10.872184    64.596062   -126.39995    1599.1654    11806.518 
   10620    297.45724    10.809513    69.413064   -125.12781   -671.15404    11806.518 
   10630    313.51154    11.245069    67.217606   -124.24095     775.4963    11806.518 
   10640    340.16643    7.5438625     68.32517    -124.0117    246.06941    11806.518 
   10650    365.65314    7.1390665    58.490647   -123.33841   -1018.2595    11806.518 
   10660    311.04184     8.042157     77.25935   -127.39839   -1272.9998    11806.518 
   10670    328.38169    12.139686    55.153471    -133.0735    468.70843    11806.518 
   10680     286.5824    11.170559    71.865362   -138.35675    2786.7362    11806.518 
   10690    289.12815     7.451213    62.418817   -146.01991   -522.17342    11806.518 
10700        0.98044053253688212557 10.143171802591213648 1 68 -270.87320425785367206
   10700    280.56247    7.3299867    65.301266   -143.75508   -2273.8688    11806.518 
   10710    295.09472    7.8071898    66.706582   -144.33426    197.60057    11806.518 
   10720    330.84818    9.6100773    60.030768   -141.92031   -2969.9407    11806.518 
   10730    325.09564    10.197795     64.05829   -147.33476    820.57065    11806.518 
   10740    326.38634    9.5345905    63.205991   -149.70697    758.78453    11806.518 
   10750    294.63656    10.818633    62.396074   -152.66048    1731.9871    11806.518 
   10760    279.21503    9.5512132    67.447665    -155.6553    1111.4118    11806.518 
   10770    289.04025    7.4647857    56.616239   -154.25812    1850.0868    11806.518 
   10780    287.20671    4.9826732    63.001123   -156.75566    3529.8355    11806.518 
   10790    313.68598    2.8526733    51.084977   -158.98526    89.060611    11806.518 
10800        0.97291295493756702051 10.158079103849221525 0.99735449735449732689 70 -287.67696258937564835
   10800     270.0943    3.4698317    64.812874   -165.30179   -1850.4751    11806.518 
   10810    261.33061    4.7941524    66.323653   -166.59961    833.21594    11806.518 
   10820    252.77984    4.8916888    61.207093   -164.35319   -2512.2178    11806.518 
   10830    283.34664    4.7739117    52.619881   -163.81465   -1619.7355    11806.518 
   10840    280.78812    5.8849791    54.371565   -162.35546   -2587.1942    11806.518 
   10850    311.99598    5.5132967    54.113311   -159.93578   -177.39462    11806.518 
   10860    292.21796    7.2033975     64.88804   -157.01518    773.74807    11806.518 
   10870    309.54273    7.4846652    58.620743   -153.90508    198.24516    11806.518 
   10880     291.3091    6.2438026    66.289584   -150.90548    2343.5721    11806.518 
   10890    307.64595    5.3834726    53.569174   -147.99704    1779.4325    11806.518 
10900        0.96625835890759070868 10.180582358657627395 1 66 -276.88764073596678372
   10900    290.62407    4.2092366    70.004883   -145.21078    2869.8186    11806.518 
   10910    326.14049    3.9331879    61.004605   -142.43005    3315.8644    11806.518 
   10920    330.50649    5.4245737    61.541569   -140.27276   -3215.8166    11806.518 
   10930     309.7128    5.5138047    62.448236   -139.22849   -5770.5424    11806.518 
   10940    295.49501    5.5142771    70.375909    -138.8241   -5155.0494    12056.179 
   10950    292.50019    8.3314862    66.740464   -138.59247    984.48198    12056.179 
   10960    290.78947    9.5751191    60.423583    -138.2522    781.26028    12056.179 
   10970    319.15656     7.105312    54.646032   -137.15666    3642.4754    12056.179 
   10980    314.51771    6.4508607    61.274798    -135.3001     -1035.97    12056.179 
   10990    323.88628    7.5758987    59.449733   -135.32056     2740.485    12056.179 
11000        0.95664739501046369696 10.231261562694065503 0.99735449735449732689 70 -284.47551379150092998
   11000     335.4621    4.5914098    61.024396    -132.4833    -867.1721    12056.179 
   11010    314.45684    5.5503578    65.633411   -130.12287   -298.89595    12056.179 
   11020    319.97086    6.9807546    58.640917   -129.44145   -1.8220286    12056.179 
   11030    322.29026    7.1614866    68.085919    -124.7422     656.1011    12056.179 
   11040     364.5967    4.9921682    63.907188   -121.74438    2997.9593    12056.179 
   11050    348.69498    5.3434366    71.868972   -120.56574   -1445.2239    12056.179 
   11060    356.14011    7.6690142    61.314259   -121.68921    -2317.508    12056.179 
   11070    328.63861    9.9373344    71.004822   -124.99581   -1942.9881    12056.179 
   11080    322.42042    8.0077397    63.688262   -129.59395     593.1338    12056.179 
   11090    283.89589    7.9835225    70.600672   -134.54417    937.14959    12056.179 
11100        0.96044220394681567576 10.221330490578553807 0.99735449735449732689 69 -279.0638262986335576
   11100    309.76705    7.4278182      59.4082    -138.7136   -1480.4513    12056.179 
   11110    309.67558    7.7634118    66.621007   -139.61918   -2636.7304    12056.179 
   11120      319.504    6.9724058    59.418811   -143.19033   -586.00691    12056.179 
   11130    299.54985      7.12741    64.575464   -146.34239    1023.3591    12056.179 
   11140       311.71    7.5568729    51.025078   -149.23676    3429.0296    12056.179 
   11150    308.62135     5.409271    54.684022   -151.71543     -340.332    12056.179 
   11160    286.20147    3.9744627    56.639687   -153.56253   -3166.6914    12056.179 
   11170    286.77187    4.3335343     53.01199   -154.64947   -2718.6201    12056.179 
   11180    286.08759    5.5726496    63.060514   -155.14701    723.39747    12056.179 
   11190    311.33856    7.5254343    57.193213   -155.48047    2704.5889    12056.179 
11200        0.97022078627119767713 10.169518335554929678 1 70 -293.00296201456842482
   11200    302.13691    8.0405629    56.346406   -156.10983   -584.73625    12056.179 
   11210    299.87536    9.6936633    53.386474   -156.56691    454.67454    12056.179 
   11220    322.95112    9.1742432    46.646465   -156.77956    2069.1484    12056.179 
   11230    301.29776    7.6724345    61.668516   -157.28397    1389.4955    12056.179 
   11240    306.32981    8.1552866    52.340387   -158.18204   -1201.4882    12056.179 
   11250    269.18346    11.027888    62.565673   -159.24245   -2700.0996    12056.179 
   11260    287.87046    10.854007    56.150906   -159.75363   -148.41174    12056.179 
   11270    295.18163    9.2035196    60.367486   -159.78221    2484.2278    12056.179 
   11280    308.53347    8.0958337    58.211174   -159.77101    2399.3643    12056.179 
   11290    295.19267    9.8265839     57.68496   -160.15115   -716.83805    12056.179 
11300        0.98100202636811073553 10.137546574502845687 1 72 -282.20321220964217446
   11300    268.48369    10.155179     64.69627   -160.55778   -2196.1177    12056.179 
   11310    293.60314    6.5509252    59.646667   -160.29014    377.49469    12056.179 
   11320    308.66442    6.8689212    55.154024   -159.87412    2366.4576    12056.179 
   11330    292.43149    7.6544308    62.804655   -159.77469   -1711.9412    12056.179 
   11340     301.4915    8.2432717    53.071168   -159.51884    -2155.735    12056.179 
   11350    288.59005     8.796269    62.375222   -159.00365   -31.970696    12056.179 
   11360    288.95962    9.4982545    63.458079   -158.36399    1491.3701    12056.179 
   11370    286.51213    9.2858909     59.55672    -157.6993    952.26195    12056.179 
   11380    309.53451    6.9840378    55.032556   -156.84665    -700.9636    12056.179 
   11390    302.29052    5.6370037     59.93867   -155.97535    1735.9513    12056.179 
11400        0.98402704246252137299 10.119863451443219304 1 70 -292.49155768634875585
   11400    303.44811    5.3226708     59.28062   -155.00434    1375.2473    12056.179 
   11410    300.40324    4.6956227    62.737576   -153.99739   -1017.3003    12056.179 
   11420    311.30491    6.4075507    55.683878    -153.3023   -1985.3782    12056.179 
   11430    313.97373    7.6237386    57.920573   -152.88557   -2136.7534    12056.179 
   11440    323.41102    8.0614629     55.41818   -152.87567    -1325.939    12056.179 
   11450    293.00421    9.3041403    58.440139   -153.28875    2141.2231    12056.179 
   11460    291.69402    9.1811653    58.330272   -153.67052    2102.2864    12056.179 
   11470    286.34449    8.9171034    57.070389   -148.79393    1793.5347    12056.179 
   11480     305.3879    8.0753568    51.398519   -148.56978   -359.74354    12056.179 
   11490    288.54735    8.4172175    54.627224   -147.91339   -487.75266    12056.179 
11500        0.97596563325763219243 10.156056056859943837 1 70 -275.49758232622872356
   11500    276.57329    10.217201    53.972174   -150.18689    2525.9223    12056.179 
   11510    287.40839    7.5886896    62.587605    -148.0539    1830.5745    12056.179 
   11520    322.98374    7.8202346    48.309195   -145.08552   -2235.6372    12056.179 
   11530    323.58814     8.253368    61.374637   -145.96789   -3770.8886    12056.179 
   11540    328.16183    8.4899936    65.468747   -138.46754   -4960.6095    12056.179 
   11550    306.58209    8.5428631    66.629811   -135.95756    2587.8056    12056.179 
   11560    327.15296    8.8930968    56.736162   -134.05377    242.05032    12056.179 
   11570    313.39486    10.376243    60.027962   -132.66656    1528.6067    12056.179 
   11580    325.09947    7.2110301    54.989101   -131.52185    1531.1219    12056.179 
   11590    325.62324    6.0919103    60.173365   -130.62055    4134.8293    12056.179 
11600        0.97227844217488634815 10.200283308765696333 1 71 -282.15806341012847724
   11600    335.03504    8.0985353    63.266013   -130.35934   -17.802645    12056.179 
   11610    341.28278    8.8509831    57.482027   -131.59412   -3739.0676    12056.179 
   11620    311.36608      6.67616    64.372171   -135.01154    -6651.925    12056.179 
   11630    282.60032    9.0601516    66.644257   -139.54092     110.6668    12056.179 
   11640    307.87718    7.6637529     59.26741   -144.75189    931.07699    12056.179 
   11650    298.92751     6.649314    66.023263   -150.56625    3447.9677    12056.179 
   11660    294.75625    5.8224675    59.808339   -155.65079   -744.02838    12056.179 
   11670    288.31842    5.7711112    53.380531    -159.4661    1420.7746    12056.179 
   11680     279.1368    4.7070472    58.102603   -161.72225    3550.3756    12056.179 
   11690    286.31701    5.0723697    58.811299    -162.9288    1896.1541    12056.179 
11700        0.97423379707004942318 10.184437818187271674 1 71 -288.6662683255100319
   11700     276.2617    4.8054859     62.11905   -163.49675   -1368.9192    12056.179 
   11710    285.90997    5.3132554    53.960455   -163.49692   -2114.9711    12056.179 
   11720    288.06617    6.8732805    56.883579   -166.99467   -2746.5056    12056.179 
   11730    288.29585    11.127783    59.029229   -161.78164    66.701721    12056.179 
   11740    281.54028    12.787353    59.951428   -160.31756    -2623.281    12056.179 
   11750    281.96639    11.691904    57.329959   -158.40375    1506.8211    12056.179 
   11760    306.73997    7.1474226    51.899148   -160.23411    269.65702    12056.179 
   11770    313.09127     5.686369    58.100803   -157.64463     284.6529    12056.179 
   11780    322.48069    6.0968382    59.015365   -147.38348   -335.85915    12056.179 
   11790    298.16203    6.1803138    64.734817   -145.40382   -634.69524    12056.179 
11800        0.97431312890704047103 10.170591339522088603 1 69 -279.55888465999260006
   11800     298.5517     5.985094    70.218237   -144.29015   -595.06378    12056.179 
   11810    306.73954    7.4756553    59.274361   -143.83855   -1926.0144    12056.179 
   11820    305.89358    7.3991501    57.896776   -143.86886   -6.7461081    12056.179 
   11830    292.30168    5.9288503    58.484474   -144.13526    2106.3863    12056.179 
   11840     289.1455    5.9980074    58.060973   -144.28785   -37.134726    12056.179 
   11850    297.93315    6.4062964    57.524883   -144.20686    250.08233    12056.179 
   11860    275.30971    8.5167616    62.680579   -144.06464    1003.4769    12056.179 
   11870    280.14668    8.5053672    52.022021   -143.18236    2182.7295    12056.179 
   11880     285.8727    5.6817337    59.051962   -145.98775    1139.9436    12056.179 
   11890    312.08189    4.3656605    52.515371   -141.92575   -1319.1346    12056.179 
11900        0.97642826131299764736 10.140340257725334538 0.99735449735449732689 66 -279.80677108843144651
   11900    315.80229     5.064025    55.467787   -136.72208   -874.51775    12056.179 
   11910    309.46746    5.7822045    56.968357   -131.79011   -3060.2212    12056.179 
   11920    313.00467    6.1479937    63.207875   -127.35349   -1795.4271    12056.179 
   11930    338.93673    8.7968456    61.256839   -123.91516    3079.5616    12056.179 
   11940    369.89885    10.975542    49.971097   -122.03812    2817.1388    12056.179 
   11950    367.55519    8.6071913    51.013676   -121.93664    537.23778    12056.179 
   11960    326.79979    3.9178385    63.900623   -123.25126    792.34475    12056.179 
   11970    295.32985    3.7859706    70.497729   -125.30355    491.62279    12056.179 
   11980    311.43035     3.071671    65.220199   -127.78694    995.36233    12056.179 
   11990    327.97655    3.0236799    58.789004   -130.62444   -2618.8422    12056.179 
12000        0.98219034064111432336 10.130979994280876255 1 67 -297.34244385766021423
   12000    360.04132    3.4562671    50.310865   -134.21379   -23.594377    12056.179 
   12010    327.52959    6.7255924    63.373181   -139.11665    1068.6187    12056.179 
   12020    317.28482    11.164986     61.19651   -144.56665    1237.9781    12056.179 
   12030    292.76382    13.114424    68.039101   -144.55975    216.01436    12056.179 
   12040    311.75969    11.801139    59.026451   -148.47124   -101.29237    12056.179 
   12050    304.40481    10.035318    58.319625   -151.62619   -2647.4327    12056.179 
   12060    278.55702    10.157698    54.920177   -153.80012   -304.50694    12056.179 
   12070    288.18065    8.6129707    58.519284   -158.56362   -363.73011    12056.179 
   12080    283.21969    6.6907233     60.29403   -159.23157    96.413605    12056.179 
   12090    286.95196    6.0329297    55.737619   -159.38942   -3057.9758    12056.179 
12100        0.98288550781225714204 10.129465530062200074 0.99470899470899465378 69 -292.32384537709276628
   12100    294.13197     6.801559    51.843292   -159.05761    516.30209    12056.179 
   12110    284.88362    6.4596103    63.032514   -158.44331     735.4158    12056.179 
   12120    290.77516    6.5130109    59.541396   -153.92621    2701.0241    12056.179 
   12130    307.72587    6.3162201    52.869639   -152.68456   -1384.9029    12056.179 
   12140    303.19334    7.3250865    53.746289   -151.26177    250.47268    12056.179 
   12150    302.97364    7.3993987     60.99109   -149.37828   -7.2384368    12056.179 
   12160    290.82719    6.2283778    59.620085   -147.09217    1470.8052    12056.179 
   12170    302.70384    4.6306503     64.38882   -148.96988   -21.311462    12056.179 
   12180     309.2423    3.1112856    59.643753   -145.93841   -988.48692    12056.179 
   12190     305.9592    6.0778162    62.216888   -142.70248   -3515.4914    12056.179 
12200        0.98883048241999338401 10.114275212675726934 1 70 -289.7513649677617309
   12200    333.08006    7.7237542    56.178099   -138.83841    405.44937    12056.179 
   12210     316.0671    9.8659681    68.977662   -130.89749    985.93292    12056.179 
   12220     296.1921    12.443246    69.441894   -127.89141    3643.8759    12056.179 
   12230    321.40977    12.615776    62.770674   -129.18504   -2597.5089    12056.179 
   12240    308.13662    8.5836128    75.020728   -126.19012    1227.1796    12056.179 
   12250    334.97582    8.5032693    72.043527   -124.03133   -947.20928    12056.179 
   12260    325.09728    8.2045464    69.170256    -118.5698    -3482.858    12056.179 
   12270    325.29029     7.659134    71.413858   -119.37169    -1718.906    12056.179 
   12280     315.3199    8.3453657    63.249465   -122.38802     179.0302    12056.179 
   12290    302.53942    9.6603378    68.694905   -132.90049    4422.0008    12056.179 
12300        0.98965201831131277554 10.086314000764817322 1 65 -281.34851552241690342
   12300    310.41653    9.8425044    67.771196   -140.70402    4840.2292    12056.179 
   12310    270.31713    10.496339    59.623601   -147.87367   -3481.9352    12056.179 
   12320    280.40842    8.1141109    66.522848   -152.58065   -82.182096    12056.179 
   12330     288.9142    6.5849469    56.461977   -155.41311   -3158.2437    12056.179 
   12340    313.73161    6.0520175    56.292253    -160.3133   -678.95405    12056.179 
   12350    287.77255    7.3433214    66.564482   -164.80141    439.74114    12056.179 
   12360    294.58224    7.7782258    53.009736   -166.43967    907.06224    12056.179 
   12370    276.26457    7.3051231    59.417187   -163.47656    4510.7379    12056.179 
   12380    293.31481    7.8717949    51.838431   -164.17176    725.38676    12056.179 
   12390    294.87543    8.8709618    53.711946   -164.54259   -53.796131    12056.179 
12400        0.9886025450334572362 10.11229384711808521 1 69 -302.41901917205825612
   12400    303.93202    8.6156362    53.608824   -164.71255   -1616.5145    12056.179 
   12410     276.6002     8.295113    55.842333   -164.63624   -641.50511    12056.179 
   12420    280.78801    6.2599658    61.284105   -157.65388    2999.4882    12056.179 
   12430    273.81095    6.2534391     54.79332    -161.6815   -1545.0596    12056.179 
   12440    279.44696    8.0022212    48.723207    -159.3199   -2784.2941    12056.179 
   12450     289.5164    8.7492739    52.820288   -155.59067     4362.962    12056.179 
   12460    307.52119    6.2359181    53.203106   -150.64542    1097.2888    12056.179 
   12470    312.30243    6.3841866    57.087422   -145.57099    1825.3107    12056.179 
   12480    299.13269    7.5794125    58.718447   -141.37252   -6822.4442    12056.179 
   12490    336.21727    8.6754848    51.131695   -138.07832   -410.69418    12056.179 
12500        0.98105247453975163996 10.142931073030609923 1 68 -293.8882177117224046
   12500    342.36721    9.6430022    54.647967   -138.76741   -93.169614    12056.179 
   12510    331.97611    10.955411    53.540456   -138.23584   -2590.9815    12056.179 
   12520    326.83016    9.6569795    58.567096   -130.63419    1008.9211    12056.179 
   12530    324.60568    7.9443789    62.283887   -131.22524    328.11234    12056.179 
   12540    329.23326    6.2314985    60.928214   -132.50818    2983.3978    12056.179 
   12550    306.42055    6.4544733    56.830077   -134.35151   -134.89159    12056.179 
   12560    309.10877    5.6670952    58.414445   -136.03504   -981.02165    12056.179 
   12570    303.06849    6.1203787    65.964011   -137.89805    2772.9411    12056.179 
   12580    299.48988    6.7685119    63.809959   -140.13287   -1748.6717    12056.179 
   12590    302.07776    10.916978    64.232948   -142.78144    1448.9503    12056.179 
12600        0.97201678615173958686 10.157064483098761087 1 72 -285.81598206947433027
   12600    309.01818    12.266107    59.324041   -145.80506   -2873.2197    12056.179 
   12610    284.40585     11.48237    60.050768   -148.98917   -2073.5891    12056.179 
   12620    279.95528     11.46618    58.439115     -151.587   -163.57799    12056.179 
   12630    270.87459    11.358693     60.43584   -153.31375   -324.56404    12056.179 
   12640    299.55955    9.3439136    54.690556   -154.23352     1316.911    12056.179 
   12650    286.08668    6.5538561    54.702698   -154.90455    2242.0087    12056.179 
   12660    279.26505    4.0862818    58.230768   -155.15541    2231.0301    12056.179 
   12670    268.70796    3.9732237    58.217233   -154.79423    1274.2148    12056.179 
   12680    277.54206    3.3402043    52.372069    -153.7268   -2443.2881    12056.179 
   12690    293.91043    4.0571149    59.469599   -152.09695    988.61187    12056.179 
12700        0.97361744083530232796 10.172407869772442268 1 68 -295.42855094656027859
   12700      316.618    3.8467312    53.738982   -151.97428   -2531.2998    12056.179 
   12710    321.14649    7.3247286     53.31638   -149.85271    1175.7212    12056.179 
   12720    315.23772    11.774945    52.961455   -149.61453    -1276.336    12056.179 
   12730    301.01763    11.562913     57.78908   -149.56958    1402.4811    12056.179 
   12740    316.83993    8.4131342    53.373811   -149.58377   -29.336407    12056.179 
   12750    322.64099    7.3140919    52.091464   -149.69909    1628.6242    12056.179 
   12760    299.33606    5.6053255    57.009866   -149.86961   -3539.8786    12056.179 
   12770    307.36855    5.9452605    48.803697   -149.74166    325.59458    12056.179 
   12780    285.57922    5.0145267    57.632911    -154.5439   -1555.1685    12056.179 
   12790    303.93326    4.8355974    49.603443   -153.92881    1891.9483    12056.179 
12800        0.97357293174712800088 10.164902308948352783 1 67 -293.06198732729467338
   12800    303.25837    5.4194888    53.758492   -155.66074    2059.9122    12056.179 
   12810    320.60368    6.5380218    52.036244   -154.32037    2865.9293    12056.179 
   12820    304.54186    6.3930721    60.670059   -152.86664    -391.3675    12056.179 
   12830    301.73566     8.947497    58.774821   -151.31779   -3716.3628    12056.179 
   12840    296.43963    10.429489    67.979682   -149.59985   -2393.2069    12056.179 
   12850    311.14822    11.930875    59.872104   -147.60863    698.42029    12056.179 
   12860    306.09202    10.974122    63.156767   -145.39803   -219.17094    12056.179 
   12870    322.22527    7.5034786     62.32037   -139.70458    788.81423    12056.179 
   12880    309.57649    6.4146809    75.650865    -136.7443    2859.5731    12056.179 
   12890    335.80261    6.0742453     64.69728   -134.38229    3158.5174    12056.179 
12900        0.97545926182256925685 10.173308271215168119 1 71 -279.94990900686354962
   12900    323.50736    7.2167384    63.959942   -133.37418   -2218.1826    12056.179 
   12910    315.02733    9.0239008    57.228512   -128.51725   -6296.3342    12056.179 
   12920    325.67529    10.511166    61.848862   -129.01625   -1979.4045    12056.179 
   12930    318.70325    10.142936    60.330631   -135.47514    2418.2862    12056.179 
   12940      299.227    7.7965257    70.566557   -138.56554    2951.8542    12056.179 
   12950    281.23305     7.494517    59.708706   -142.00975    1135.6402    12056.179 
   12960    281.36625     6.249242    52.188362   -145.00836   -2573.7181    12056.179 
   12970    313.20927    5.1760904    54.958865   -147.54376     1192.691    12056.179 
   12980    312.93505    4.2264606    56.960983   -150.56239    209.97467    12056.179 
   12990    287.88924    5.8348502    61.355813   -153.81052   -2184.8784    12056.179 
13000        0.98191044856069675806 10.121695320285727604 1 71 -281.5398010327544398
   13000    275.80295    7.9116198    65.267323   -156.57814   -366.45614    12056.179 
   13010    290.89741    8.9720108    55.679136   -154.19867   -367.84382    12056.179 
   13020    287.03754    9.3797876    57.471919   -156.49131    3094.1716    12056.179 
   13030     282.8801     7.995713    56.601848   -158.14037    545.33515    12056.179 
   13040    267.42525    8.0962377    60.944411   -159.03291   -1521.6933    12056.179 
   13050    284.03582    8.9162419    57.423669   -159.27705    249.85598    12056.179 
   13060    293.05618    10.408064    54.549939   -159.05972    2046.5899    12056.179 
   13070    299.52734    11.393607    52.889642   -158.50211    3028.5959    12056.179 
   13080    301.94668    12.566149    52.443655   -157.57283   -1738.4993    12056.179 
   13090     325.1911    8.7037869    51.872672   -156.36401   -2732.4781    12056.179 
13100        0.98309719267119155539 10.142539391623376588 1 68 -293.17083660207623552
   13100    304.17936    6.5699318    58.345343    -155.3523    418.86128    12056.179 
   13110    306.31512    5.8764132     55.09733    -154.2751    42.645223    12056.179 
   13120    283.18118    8.5271169    62.499878    -152.7728    1627.4758    12056.179 
   13130     299.8957    9.0542802    49.331324   -150.35583   -1989.3583    12056.179 
   13140    292.79065    4.9909162    60.114975   -146.99223    1127.8522    12056.179 
   13150    285.45532    6.2731965     58.92657   -146.07377    181.99693    12056.179 
   13160    293.48568    5.1933363     52.71649   -141.42676   -1391.5176    12056.179 
   13170    329.11962    5.0559911    57.133744   -136.58857    1446.5742    12056.179 
   13180    333.70856    3.9304008    59.351208   -129.72599   -406.49255    12056.179 
   13190    329.81397    5.4772211    55.244067   -127.54853   -2603.1375    12056.179 
13200        0.97459673047570483106 10.167598310012170515 1 68 -274.15035066659345375
   13200    325.63703    6.9194925    60.814378   -126.60971   -1526.7525    12056.179 
   13210    335.31533    7.8761384    61.991894   -126.60434    1162.4353    12056.179 
   13220    310.23758    9.0786162     66.16986   -127.75181    3638.5892    12056.179 
   13230    298.81948     10.71221    66.321399   -130.01614     2390.283    12056.179 
   13240    299.72215    9.7676899    61.467588   -132.69603    794.44332    12056.179 
   13250     317.2609    6.6099606    52.897062   -136.20556   -3935.2753    12056.179 
   13260    315.24136    6.6680254    57.144453   -143.79902   -3229.4602    12056.179 
   13270    316.09357    10.993682    54.358435   -147.96194    1171.8602    12056.179 
   13280    296.29582    11.152921     50.17506   -151.69855    284.01447    12056.179 
   13290    288.23678    8.9189973    61.915623   -154.66664    2226.0226    12056.179 
13300        0.97178328622186038732 10.172286883447204886 1 67 -280.65649792248541416
   13300     273.6408    8.5518304    55.987005   -156.67447     1060.337    12056.179 
   13310    302.38523    7.2991845      51.4817   -153.90404   -494.68895    12056.179 
   13320    300.58062    6.4454183    56.046123   -154.57697    169.21814    12056.179 
   13330     292.0959     5.981023    51.523232   -154.91717   -2788.6147    12056.179 
   13340    269.07893    5.3361953    60.047633   -154.95459   -960.74017    12056.179 
   13350    269.36406    6.1141744       58.624    -154.5412    346.03916    12056.179 
   13360    281.14839     6.746213    53.982197   -153.55698    155.46516    12056.179 
   13370    296.03742    8.1021684    49.526872   -151.95806    1013.6975    12056.179 
   13380    306.06799    7.5599582     50.77722   -149.70517   -1723.5675    12056.179 
   13390    289.38518    7.0621505    60.820136   -152.58178    2330.7778    12056.179 
13400        0.97052202842654200499 10.197449228168867563 1 66 -274.23114649713966173
   13400    272.53218    6.9793332    67.322452   -150.75141   -1662.2198    12056.179 
   13410    305.89344    5.8670131    56.000907   -149.15749   -1204.7888    12056.179 
   13420    308.56765    3.7912442    53.444809   -147.77381    -3653.974    12056.179 
   13430    328.73411     4.603447    52.751859   -146.80046   -196.22886    12056.179 
   13440    320.82526    6.0949586     57.99694   -146.60054    4705.7963    12056.179 
   13450    290.12545    10.716496    60.266007   -141.85704     3931.931    12056.179 
   13460    302.09896     11.78027    55.656526   -142.23304      1136.41    12056.179 
   13470    283.10523    14.337514    61.549741   -145.45504    45.724181    12056.179 
   13480    335.83368    12.730584    45.459997   -145.31626   -3456.2698    12056.179 
   13490     313.7661    14.699167    53.499729   -145.45876   -331.73272    12056.179 
13500        0.97284508619501819382 10.195287414958002614 1 70 -293.96273532552828556
   13500    326.41118    11.691947    48.521475   -146.07134   -1761.4151    12056.179 
   13510     287.0302    8.9388659    64.589737   -143.72686   -72.186626    12056.179 
   13520    303.94118    9.5772062    52.903065   -149.70341   -1034.1148    12056.179 
   13530    306.26378    9.5023786    55.200876   -150.56758    1318.7199    12056.179 
   13540     297.4605    6.3238416    56.441435   -151.35068    2126.9946    12056.179 
   13550    313.31316    6.3525725    44.798969   -151.72172   -966.15828    12056.179 
   13560     296.7944    5.8763927    61.744153   -151.76069   -2250.3494    12056.179 
   13570    315.74932    8.1239122    54.889877   -151.80914   -2505.5642    12056.179 
   13580    300.76505    8.1721105    59.957253   -152.43408   -825.32755    12056.179 
   13590    291.30665    10.043347    60.572095   -153.43208    695.39584    12056.179 
13600        0.98728040861396537675 10.119788691145274129 1 71 -291.79200496703788303
   13600    303.41009    10.078648    51.442537   -154.32201    162.97699    12056.179 
   13610    304.73676    8.7039423    59.102584   -155.27366    898.34905    12056.179 
   13620    334.24279    7.2627504    51.061575   -156.61164    3443.0035    12056.179 
   13630    291.30971    9.2709144    62.622925   -159.31312   -0.3339696    12056.179 
   13640    307.53546    10.628732    49.916249   -163.86247   -337.39693    12056.179 
   13650    260.89237    11.346916    67.912525   -170.39374   -1633.8681    12056.179 
   13660    282.02598    10.012135    52.897578   -177.09814    2446.1522    12056.179 
   13670    272.68261     10.38458    50.413448   -182.36473    2851.2294    12056.179 
   13680     264.0061    8.1331947    47.299826   -185.35184     355.8318    12056.179 
   13690    263.43583    7.2538342    49.346168   -189.11401   -2728.6954    12056.179 
13700        0.98754927298703809591 10.122331497489234664 1 68 -309.35977822525933334
   13700    265.91608    6.8892559    51.732088   -188.87769   -1164.3002    12056.179 
   13710    276.92205    10.945288    47.371471   -187.89563    654.19774    12056.179 
   13720    266.46557    10.436166    52.484699   -186.28045     3310.972    12056.179 
   13730    275.40726    8.2406138    49.221414   -183.83223    215.14467    12056.179 
   13740    296.06547     5.132702    49.073418   -175.81488    681.45546    12056.179 
   13750    284.15004    4.7709269    58.012564   -172.07721   -2585.3925    12056.179 
   13760    296.92162    5.1746637    49.044058   -168.55302    -1635.154    12056.179 
   13770    271.78217    8.9328246     57.32365   -165.29447   -1042.9466    12056.179 
   13780    299.33785    9.3633106     54.21242   -162.30966    1003.2523    12056.179 
   13790    311.97521    8.9141487    57.055253   -159.62237    3262.9782    12056.179 
13800        0.98580323057372720719 10.125499735929071932 1 67 -292.27045743353272655
   13800    292.02136    10.727792    59.578349    -159.9605    1947.8723    12056.179 
   13810    282.26911    12.787557    52.507516   -158.14717   -1295.3888    12056.179 
   13820    281.36132     10.76181    59.343696   -156.09837    1461.0068    12056.179 
   13830    316.99577     7.473571    52.152523   -153.75604    1589.6818    12056.179 
   13840    296.96443    8.4524937    61.514524   -151.75661    1806.5247    12056.179 
   13850    324.75769    7.9747402    50.603131   -149.91119    1.1569145    12056.179 
   13860    308.44298    7.0251139     63.64548   -148.63124   -2290.1347    12056.179 
   13870    319.68802    6.0613736    58.131953   -147.74329   -2883.4529    12056.179 
   13880    303.01973     5.917126    59.684038   -147.53824   -2694.3657    12056.179 
   13890    296.60538     6.001955    56.698389   -142.44603     238.4158    12056.179 
13900        0.97755544815429207262 10.174513024292570762 1 65 -273.09330970456551313
   13900    288.81811    6.7163639    58.218628    -142.2347    579.67507    12056.179 
   13910    276.09042    6.5166547    57.318552   -146.14987    2381.6505    12056.179 
   13920    288.14208    7.2707735    62.105696    -143.9708    1179.3163    12056.179 
   13930    327.99329    8.8212826    58.896354   -136.00573   -275.93702    12056.179 
   13940    306.70616     11.33929    67.661565   -132.92124   -2832.5151    12056.179 
   13950    354.76787    10.566721    47.554235    -130.1814   -1164.1277    12056.179 
   13960     331.3013    9.0967606    67.691288   -127.75725     2129.082    12056.179 
   13970    336.43776    9.5296864    58.692341   -126.24145    1141.6863    12056.179 
   13980     331.2172    7.9870188    60.676052   -125.38414   -1695.0569    12056.179 
   13990    345.06065    8.7349871    62.802702   -125.90432   -355.58644    12056.179 
14000        0.96764300872350450522 10.225083423532758786 1 66 -272.65364793828621259
   14000    318.19527    6.4324161    65.878691   -128.48474   -1373.0485    12056.179 
   14010    315.69971    4.8439466    66.539647   -133.24728    1442.8092    12056.179 
   14020    286.97126    5.6035601    66.054639   -138.83515    -362.8801    12056.179 
   14030    286.21636    6.7665152    52.497376   -143.94189    563.06013    12056.179 
   14040    283.35623    5.5624191    58.960778   -147.82143    1950.5556    12056.179 
   14050    297.95409    4.1807893    55.970674   -150.69804   -146.92487    12056.179 
   14060    297.30487    4.5461003    61.970276   -153.41497   -4580.8392    12056.179 
   14070    261.78805    4.1867445    60.405046   -155.58105    -4766.461    12056.179 
   14080    300.74717     4.326763    53.547586   -157.13624    832.25454    12056.179 
   14090     286.1788    6.2043272    51.919474   -162.99114     5294.716    12056.179 
14100        0.97139592639308813826 10.199042171077648433 1 69 -289.97752408552412362
   14100    279.08355    5.8950247    55.476383   -163.52947    2391.4594    12056.179 
   14110    268.03572     5.099367    58.043043    -163.1678    370.26121    12056.179 
   14120    284.49146    3.9708908    56.797944   -161.98172   -3052.1078    12056.179 
   14130    300.13834     4.461074    52.222357   -160.12951   -1316.0967    12056.179 
   14140    303.01028    5.5365679    53.202071   -157.62573   -2968.2935    12056.179 
   14150    300.33071    5.6256571    54.691642   -154.44392   -356.73268    12056.179 
   14160    290.41194    6.2281449    66.084495   -150.75057    56.432125    12056.179 
   14170    293.65966    8.0061778    61.255343   -146.66806   -1207.9218    12056.179 
   14180    323.79344    8.7443015     53.52863   -142.73547    431.76054    12056.179 
   14190    329.15557    6.9654349    48.370458   -139.32504    139.03863    12056.179 
14200        0.96958368760698554478 10.188353372341540037 0.99735449735449732689 66 -268.28133259147631406
   14200    290.18298    6.2543937    59.585248   -136.80432   -347.52777    12056.179 
   14210    320.99579    5.4261195    54.399224   -134.34772    4205.9181    12056.179 
   14220     309.7353    4.2107097    62.743479   -131.97581    4268.5506    12056.179 
   14230    336.31648    4.9792816    62.926524   -130.51741    1316.6756    12056.179 
   14240    303.09633    5.5509994    65.793693   -129.99792   -4179.2899    12056.179 
   14250    333.45201    4.6989289    54.937128   -130.08083   -697.43659    12056.179 
   14260    314.26747    3.9705371    70.649153   -130.80802   -24.148182    12056.179 
   14270    346.77909    4.8432569    58.481591   -131.75485    -1513.191    12056.179 
   14280     345.0102    5.3163287       58.416   -129.31465   -2447.1014    12056.179 
   14290    337.19477    3.5714146    55.998331   -132.13997   -235.28608    12056.179 
14300        0.97306578502926532881 10.180775023257563561 1 67 -288.16127338421483728
   14300    336.89027    3.4483906    55.127739   -135.52198    455.62648    12056.179 
   14310    307.49568     5.643118    56.732154   -138.56491    3564.8638    12056.179 
   14320    324.19147    6.6424138    56.393051   -141.06556   -111.42546    12056.179 
   14330    314.28184    8.2932441    49.278796   -147.72536   -982.38522    12056.179 
   14340    300.63682    9.4978206    57.763986   -149.41462   -1779.8331    12056.179 
   14350    308.01034    9.0477406    55.713505    -150.6339   -1240.8905    12056.179 
   14360     301.1254    9.6534902    52.939968   -151.78064   -1530.8482    12056.179 
   14370    295.44712    8.3154577    61.300368   -153.14117   -1280.6767    12056.179 
   14380    320.56551    6.8249712    53.018616   -154.87872    429.07973    12056.179 
   14390     303.0828    5.1660818    52.587652   -157.19654    3494.0994    12056.179 
14400        0.97245020372067447756 10.155806913437571026 0.99735449735449732689 67 -290.51048594078815768
   14400    289.32482     4.076427    52.844647   -159.42229    1938.6808    12056.179 
   14410    279.83001    6.1780437    56.693283   -160.95647    1279.8141    12056.179 
   14420    289.62415    5.4546185    50.517365   -161.87184   -492.59878    12056.179 
   14430     269.7585    6.0100641    58.582885   -162.16044   -510.85378    12056.179 
   14440     276.5278    5.3779103    54.729701   -157.39743    352.66492    12056.179 
   14450    262.81777    4.6726124    66.586518   -155.71493   -653.44238    12056.179 
   14460    297.35943     4.766693    54.405534   -152.49922    390.87666    12056.179 
   14470    307.51811    3.3136744    53.129326   -147.86849    690.42401    12056.179 
   14480    323.83713    4.3752348    52.959028   -142.26576    1731.3616    12056.179 
   14490    301.52392    6.6524162      61.2959   -136.45388    1152.5067    12056.179 
14500        0.97056080185060877863 10.181849334318101796 1 65 -277.47851232994571546
   14500    322.69828    7.8624882    52.723987   -131.26936   -1593.9606    12056.179 
   14510    330.24641     12.53397    59.425119   -127.34927   -1594.0569    12056.179 
   14520    344.08865    14.176539    60.876328   -130.25116   -442.31282    12056.179 
   14530    348.51298    8.1453702    56.944363   -130.41051     1705.233    12056.179 
   14540     309.7528    6.0887158    65.264177   -131.76857    629.19569    12056.179 
   14550    315.40857    7.4837767    54.814593   -133.21901   -1781.5325    12056.179 
   14560     308.5196    5.0184621    62.655929   -137.59782    112.63858    12056.179 
   14570    336.21022    3.3859943    55.910869   -135.05832   -365.36396    12056.179 
   14580    296.89045     5.070847    60.266157   -133.70497    537.41412    12056.179 
   14590    316.46663    9.5266851    51.685451   -135.47116   -862.66383    12056.179 
14600        0.97104475158917458177 10.173333905530695276 1 66 -275.42348447757831309
   14600    305.68169     12.77514    59.863135   -136.92427   -823.49806    12056.179 
   14610    315.76519    11.204102    56.724497   -138.39152    2108.0485    12056.179 
   14620    309.87723    9.1202845    59.117606    -140.2426    75.759949    12056.179 
   14630    279.59534    7.8469008     64.55133    -142.0433   -1031.4361    12056.179 
   14640    305.76059    6.0002645    56.243132   -143.64166   -729.89128    12056.179 
   14650     306.1366    7.5530855    57.029203   -145.58462    -1109.598    12056.179 
   14660    299.75897    5.6549412    53.882855   -147.52605    1843.1951    12056.179 
   14670    275.23524    4.0555672    54.195989   -149.11222   -1507.0242    12056.179 
   14680    293.31237    3.6583466     57.23911   -149.91035    530.02534    12056.179 
   14690    291.18087    3.2795246    59.364104   -150.36877    -2341.381    12056.179 
14700        0.97156286954630477481 10.171470549100648739 1 69 -286.01558546288998741
   14700    298.89441    2.9151045    55.754883   -150.59157    1081.7858    12056.179 
   14710    301.60087    3.2711766    56.568719   -155.47379    2200.7086    12056.179 
   14720    294.18762    2.7993686    53.551215   -153.34172    863.20817    12056.179 
   14730    310.02434    4.1030981    49.861973   -152.47424    2058.3684    12056.179 
   14740    302.69155    4.8182218    55.809837   -150.90151   -147.82115    12056.179 
   14750    330.88786    5.8505242    53.897169   -148.65604   -2655.8859    12056.179 
   14760    314.68106    6.5306797    65.991701   -146.67154   -2911.1907    12056.179 
   14770    319.13103    5.8087976    57.011209   -145.19202   -625.45837    12056.179 
   14780    309.39591    5.2049872    57.830312   -144.02078    1104.8583    12056.179 
   14790    294.88634       6.6862    57.910253   -147.78197    -1149.256    12056.179 
14800        0.97420105927288980219 10.189592315951125912 1 71 -280.30754920065868419
   14800    306.24276    5.9037253    61.114248   -141.55412    272.66544    12056.179 
   14810     301.8299     5.195721    68.251809   -137.52199    2902.2249    12056.179 
   14820    337.17782    4.8498858    58.406639   -137.11196    1826.0141    12056.179 
   14830    303.48222    9.1808131    66.648557   -137.94456   -224.51083    12056.179 
   14840    338.80983    11.946943    55.340539   -145.03798   -2898.0096    12056.179 
   14850    304.79662    11.704016    67.821345   -142.99488    1568.1965    12056.179 
   14860      326.464    10.645496    57.177877   -146.99214    1949.2467    12056.179 
   14870    278.37838    10.095716    62.687473   -155.49293    111.41899    12056.179 
   14880    268.19841    6.8623182    62.806592   -159.31356    -4435.277    12056.179 
   14890    290.62472    7.4999593    57.675156   -162.30181   -2213.6364    12056.179 
14900        0.98322127388038382811 10.172759249120804981 1 69 -299.042213728063075
   14900    304.49024    5.6121991    62.900538   -161.08282    1377.6133    12056.179 
   14910    299.68202    6.0986798    50.838689   -163.53647    1709.2515    12056.179 
   14920    276.22081    5.9232498    60.073262   -165.36088    329.71452    12056.179 
   14930    288.70294     7.213249    50.360176   -166.49018   -459.35823    12056.179 
   14940    261.84308    7.4679661    59.468795   -166.75093    45.633084    12056.179 
   14950    292.77672    10.865685    53.917722   -168.83426    348.59466    12056.179 
   14960    286.48435     11.15602    56.312766   -167.92819   -706.92417    12056.179 
   14970    292.86576    12.957133    56.266144   -166.73931    166.71829    12056.179 
   14980    290.45723    13.200852    59.930536   -165.28501    3018.3835    12056.179 
   14990    283.33774    15.581782    63.555583   -163.25843   -446.74158    12056.179 
15000        0.98972888778924617004 10.119335107268522478 1 69 -296.34973683866815009
   15000     300.0927    17.007862    53.565153    -160.3828    2037.6235    12056.179 
   15010    295.02625    14.394194    59.490768   -153.79257   -2566.9085    12056.179 
   15020    299.86576    8.9574929    60.891253   -148.97264    -202.9522    12056.179 
   15030    309.11522    7.5519773    63.175472   -143.50457   -1024.3228    12056.179 
   15040    311.09331     7.964232    61.184875   -143.11839    466.39274    12056.179 
   15050    337.63851    8.9614801    56.508178   -138.69942      171.802    12056.179 
   15060    300.36165    6.8260685    74.908317   -135.76778   -2014.9161    12056.179 
   15070     312.4497    6.1754715    59.092388    -133.9621   -2395.1788    12056.179 
   15080    286.63957    5.9733258    70.310081    -132.9025   -1717.6896    12056.179 
   15090    311.17582    8.0935795    61.923785   -132.36446    315.08405    12056.179 
15100        0.99092503068836745861 10.066937252392985869 1 70 -282.25740361400073652
   15100    330.13511    8.5961329    60.180255   -132.67875    4697.1695    12056.179 
   15110    331.99287    11.083265    59.380459   -133.77985    1569.8827    12056.179 
   15120    295.62597    7.4978712    65.979494   -135.32458    2482.7399    12056.179 
   15130    318.06534    7.8471823    59.962413    -136.6219   -1846.5328    12056.179 
   15140    334.28884    5.2180527    58.492546   -137.97816   -1516.3134    12056.179 
   15150     346.7288    4.4237021    59.376425   -140.19241   -494.96413    12056.179 
   15160    324.37543    5.0755431    63.136113   -143.27768    3186.2526    12056.179 
   15170     334.8399    6.8516682    49.139367   -146.78623     814.7123    12056.179 
   15180    302.45208    8.7419303    61.003555    -150.2527   -71.085415    12056.179 
   15190    321.63156    11.182456    52.204323   -153.37794   -1872.7265    12056.179 
15200        0.98759370038456861796 10.070689568113618151 1 69 -294.29674270359294042
   15200    304.50521    12.052505    56.170882   -156.33057    1701.5619    12056.179 
   15210    299.81452    13.059839    50.577662   -158.58727    2237.4138    12056.179 
   15220    262.71676    13.421757    58.838172   -159.87359    3840.1788    12056.179 
   15230    288.17091    12.560616    56.350922   -159.91196   -1276.3775    12056.179 
   15240    289.38983    11.361158    53.042594   -159.15884   -1820.2204    12056.179 
   15250     301.5382    9.2080087    53.265692   -158.01439   -1643.7516    12056.179 
   15260    315.38684    7.9590195    56.332912   -151.24542   -1239.6755    12056.179 
   15270    305.33101    6.8441212    56.612279   -150.18555    1769.1181    12056.179 
   15280    304.54475     6.524088    62.963106   -149.52049    3025.5649    12056.179 
   15290    314.02022    6.5049474    58.729269   -149.43869    1696.6859    12056.179 
15300        0.98010540354843089794 10.112670492228433616 0.99735449735449732689 68 -284.76592026532068758
   15300    296.98101     6.158214    62.407355   -150.20883   -1070.4146    12056.179 
   15310    290.67474    4.0117149    55.239066   -151.32561   -2192.5824    12056.179 
   15320    286.45236    4.7406462    59.890326   -152.57965   -1136.4161    12056.179 
   15330    272.74789    3.9316986    60.544684   -156.63556    45.535891    12056.179 
   15340     262.5567    4.8341913    58.992661   -158.11607   -778.14234    12056.179 
   15350    272.26498    6.5769607    48.411318   -159.23529   -2711.5168    12056.179 
   15360    274.59624    7.5355895    62.219953   -162.50284   -1070.3673    12056.179 
   15370    283.39294    10.743246    54.047867   -159.65038    607.91233    12056.179 
   15380    283.58743    9.4043426    58.098856   -158.79451    1008.6787    12056.179 
   15390    307.32828    6.6124952     47.46365   -156.87646   -13.142576    12056.179 
15400        0.97400862911951036072 10.162174160577276183 0.99735449735449732689 67 -288.53155997867878568
   15400    296.22277    4.9532048    53.892364   -154.31802    1349.9651    12056.179 
   15410    303.03638    5.1273573    63.009778   -155.95001    1087.3997    12056.179 
   15420    301.94144    4.7555105    53.330225   -152.77105   -2774.8042    12056.179 
   15430    296.46521     4.988147    61.240872   -144.90278   -2208.1988    12056.179 
   15440    303.03172    4.8985112    59.126365   -138.62791   -2839.8497    12056.179 
   15450    330.70662    6.6731983    55.802929   -135.89453    942.91047    12056.179 
   15460    331.29188    9.9002673    59.994457   -133.99776    1713.9325    12056.179 
   15470    337.59084    11.416073     49.14857   -132.83065   -551.15879    12056.179 
   15480    320.08599    8.9531618    62.158803   -136.08486    1925.0161    12056.179 
   15490    329.46186    7.8642034    60.566837    -136.6192   -1193.2494    12056.179 
15500        0.97432421439552707731 10.15806022599964642 0.99735449735449732689 65 -277.8547128981088008
   15500    308.38714    6.4423805    61.312589    -138.1297   -359.23966    12056.179 
   15510    289.58795    7.5300904     60.06532   -136.81458    1657.0663    12056.179 
   15520    283.36486    7.0836087    62.413967   -143.96416   -676.96751    12056.179 
   15530    287.67673    7.3638253    55.049436   -145.96527    1118.6191    12056.179 
   15540    290.31643    7.6794762    49.500146   -150.17748   -120.59998    12056.179 
   15550    294.41343    8.6621102    56.781381   -151.57286    3389.3712    12056.179 
   15560    293.22081    8.6469707    56.358023   -154.64115   -2429.8909    12056.179 
   15570    289.29294    7.8168021    54.730247    -155.3958   -2540.8912    12056.179 
   15580    272.48547    7.0082913    56.433273   -155.90008   -598.16689    12056.179 
   15590    291.51516    7.0718122    55.056912   -155.78188    1241.1974    12056.179 
15600        0.98629422775154829139 10.104751449328457369 1 66 -294.41559996176221148
   15600    313.37944    5.6456011    52.069867   -152.42866   -308.23129    12056.179 
   15610    330.55435    5.3194715    54.702204   -151.78573    1488.1058    12056.179 
   15620    350.67992    4.3568151    48.931554    -151.8995   -1039.9752    12056.179 
   15630    323.27876    7.1038345    63.609714   -153.63495    3287.3194    12056.179 
   15640    333.26355     10.05224    51.482966   -156.92916   -1586.6472    12056.179 
   15650    279.61933    11.123364      60.0573   -156.98648    526.29186    12056.179 
   15660    297.82744    9.5537801    49.912436   -166.05113   -3907.3917    12056.179 
   15670     269.1082    7.9361428    61.705374   -169.05637    1034.3356    12056.179 
   15680    316.36053     7.070938    56.316433   -171.77296     2405.267    12056.179 
   15690    283.23636    9.6189081    57.661817   -174.33379    2500.8787    12056.179 
15700        0.99018260332419349989 10.096827064527154505 1 66 -307.5823283580991756
   15700    289.75929    8.6451891    47.746207   -176.29728   -4548.4329    12056.179 
   15710    292.14148    6.1382897    54.544893   -177.53949    170.84114    12056.179 
   15720      275.358    7.3701664    58.610956    -178.2581   -374.09312    12056.179 
   15730    281.50374    9.8670333    57.269741   -178.75103    4069.2991    12056.179 
   15740    275.19091    9.1468216    60.603822   -178.90312   -1153.8238    12056.179 
   15750    291.56089    6.5362218     53.50487   -178.61673    1691.6688    12056.179 
   15760    280.48939    5.8830254    53.560417   -170.21356   -3666.5783    12056.179 
   15770    275.41037    6.1260922    57.098281    -168.5067   -1421.0016    12056.179 
   15780     282.7812    7.8978149     55.00777   -165.58142    624.06829    12056.179 
   15790    270.89758     6.322329    62.624349   -161.16203   -27.470009    12056.179 
15800        0.98739365170965931462 10.1166291994253843 1 67 -289.99842008300419138
   15800    290.98569    6.7179566    55.506704   -158.15771   -2042.2998    12056.179 
   15810     287.5431    5.7819239    58.667141   -156.16598    562.49064    12056.179 
   15820    302.14245    5.9135584    60.209353   -143.92109   -1269.4237    12056.179 
   15830    303.92337    5.5802617    56.291794    -140.0211    228.11443    12056.179 
   15840    297.81127    6.8868606    66.842659   -137.39724    113.32573    12056.179 
   15850    301.30089    10.069057    68.369086   -135.47015    4795.8754    12056.179 
   15860     313.9055    8.2240933    63.861048   -134.03663    1709.5904    12056.179 
   15870    306.15425     7.738055    62.682562   -133.13489   -1145.9224    12056.179 
   15880    293.67834    7.9768795    60.827727   -132.65582   -1943.5786    12056.179 
   15890    297.73654    6.3907199    69.358415   -136.75014    1587.5611    12056.179 
15900        0.98276359548111791309 10.098749565226800229 1 69 -276.64961316378827405
   15900    308.64926    9.8075103      66.3184   -136.80584    2247.1489    12056.179 
   15910    311.03739     9.360453    64.668201    -137.3512    990.76021    12056.179 
   15920    299.54508    7.6626041    69.091725   -138.27435   -875.61954    12056.179 
   15930     314.2038    8.5760775    61.633129   -139.62341   -2565.5466    12056.179 
   15940    291.67101    7.9109934    64.798708   -141.48645   -1731.3541    12056.179 
   15950    309.24134    7.4033219    64.188988    -143.9106    3153.4408    12056.179 
   15960    302.89562    7.3667847    60.893728   -147.25868     2801.633    12056.179 
   15970    286.59011    9.7669289    56.745396   -150.79566   -2598.3217    12056.179 
   15980     282.0844    9.4407878     60.40826   -153.91322    649.84883    12056.179 
   15990    299.64503    5.3283078    61.058965   -156.56166     659.6614    12056.179 
16000        0.97656905553624917538 10.143109179557733057 1 67 -301.76935558345326172
   16000    314.10169    5.7433599    52.145863   -159.45518   -2842.8017    12056.179 
   16010    296.79342    9.0527495    55.511967     -162.597    -2733.328    12056.179 
   16020    270.59733    11.199589    57.006955   -165.60094   -445.46309    12056.179 
   16030    287.24205    9.5827394    56.945425   -167.77028    4655.6586    12056.179 
   16040    301.22642    8.5877114    53.685252   -169.72522    1997.7071    12056.179 
   16050    280.61908     10.46559    53.355553   -171.47343   -439.98941    12056.179 
   16060    254.96549    12.123324    59.240245   -172.50822   -1395.8061    12056.179 
   16070    286.28109    9.5482235    54.083531   -172.67808    869.53607    12056.179 
   16080    268.49119     5.035616    60.684669   -172.04505   -546.22096    12056.179 
   16090    278.61407    5.8863744     51.78767   -170.06696     311.4969    12056.179 
16100        0.96086378449351672604 10.202427607520169417 0.99735449735449732689 64 -296.39462461139186189
   16100    288.65903    6.5163823    57.078848   -165.60809   -3376.8613    12056.179 
   16110    319.88552    7.0319441    53.668943   -158.45483    -763.2617    12056.179 
   16120    292.92832    8.7517534      63.7222   -151.04672    194.98794    12056.179 
   16130    279.02225    9.3498513    63.980658   -145.53027    409.75465    12056.179 
   16140    314.38667     11.94881    57.984504    -141.0391    902.06364    12056.179 
   16150    319.71774    9.0493806     59.10424   -137.74291    1173.9074    12056.179 
   16160    325.13437    5.7128663    58.976856   -135.47348    1532.1806    12056.179 
   16170    308.54182     5.174608     59.92452   -133.97621   -3996.0021    12056.179 
   16180    306.52534    5.4603287    60.441572   -132.98472   -3507.1574    12056.179 
   16190    314.53404    6.7308426    61.783732   -128.34392   -406.98649    12056.179 
16200        0.95530690055354783308 10.222574106655663684 1 65 -264.01357799134552806
   16200    298.94346    5.3967843     67.37694   -128.56734    3955.6004    12056.179 
   16210    319.37009    7.6223698    58.209901   -129.23556    3545.2434    12056.179 
   16220    319.92862    9.4995748    53.701936   -130.32065   -1005.8499    12056.179 
   16230    310.07311    7.3115492    58.740666   -131.72172   -1740.4245    12056.179 
   16240    305.57494    5.0039101    59.587068   -133.21903    2998.3252    12056.179 
   16250    309.20867    3.1071962     63.85412   -134.85946    1771.3494    12056.179 
   16260    287.66274    3.2924107    62.068005   -136.91663    1839.9088    12056.179 
   16270    279.19698    1.8573136     61.42732   -138.70471   -3364.6294    12056.179 
   16280    303.16906    2.1481904    58.374998   -139.98583    443.36638    12056.179 
   16290    297.38598     3.109672    57.812552   -145.38399   -1952.9068    12056.179 
16300        0.9474932802044367941 10.257345353924623765 1 66 -285.65229013848653494
   16300    306.74816    4.0684439    55.828901   -146.66987   -2295.6553    12056.179 
   16310    298.53662    4.4687797    63.626015   -148.12615   -1872.7312    12056.179 
   16320     329.6062    3.6659051    48.918324   -150.04741    2825.4383    12056.179 
   16330     293.1902      2.75714    63.944489   -148.45705    3528.8498    12056.179 
   16340    302.55344    3.5469617    52.009406   -151.24549    1422.9016    12056.179 
   16350    312.14503    2.1646685    52.136901   -154.29129   -2145.6049    12056.179 
   16360    294.43891    2.6118429    56.828048   -157.88885    325.06289    12056.179 
   16370    282.59551    4.0524845    54.629996   -166.70486    -2326.847    12056.179 
   16380    275.92938    6.3286836    56.286709   -169.80292   -1184.3066    12056.179 
   16390     290.1369    6.5400229    53.296297    -172.3889   -652.48954    12056.179 
16400        0.94744410625026109773 10.257001656589631367 1 63 -294.68694246758104782
   16400    265.58419    6.6639075    55.390336   -174.35523    1834.5022    12056.179 
   16410    260.67625    5.1203254     56.59397   -175.30079    3412.0999    12056.179 
   16420     261.8132    4.4534435    52.738085   -175.07666    1216.7388    12056.179 
   16430    261.67851    3.8723427    59.197577   -173.69229   -1621.9872    12056.179 
   16440    279.34802    5.3589181    52.452166   -171.07918    -3604.881    12056.179 
   16450    275.05634    4.9109703    53.430052   -167.07009   -3061.8981    12056.179 
   16460    277.94225    4.1299712    63.078751   -161.71707    18.219002    12056.179 
   16470    306.22288    3.9017687    57.730414   -155.52896    838.01313    12056.179 
   16480    288.99899    4.6231563    65.804389   -150.25182    311.79128    12056.179 
   16490    277.71165    6.5697588    62.724673   -146.69672     986.4231    12056.179 
16500        0.95428191539600848436 10.254960519102034766 0.99735449735449732689 62 -282.16944456815133435
   16500    298.61032    4.4656328    69.343629   -146.87415    1811.4825    12056.179 
   16510     287.5577    5.4701991    71.336135    -145.7203    1439.3668    12056.179 
   16520    277.22083    6.9538437    66.678327   -145.11795   -4653.1295    12056.179 
   16530    290.68285    9.4547794     70.84121   -144.45928   -1128.5616    12056.179 
   16540    312.10531    8.7477887     68.11173    -144.1118   -254.12375    12056.179 
   16550     311.0937     8.315817    63.990934   -144.43832     1242.707    12056.179 
   16560    281.52863    9.7078594    74.967592   -145.28778   -9.4756373    12056.179 
   16570    290.44581    9.1871484    64.697066   -145.97556    1077.5876    12056.179 
   16580    289.89127    9.7090345    65.067886   -146.36438         2880    12056.179 
   16590    290.03106    7.7165952    64.754706   -146.72037    416.27558    12056.179 
16600        0.95771204533613352172 10.241208006980533796 0.99735449735449732689 60 -282.44826186089454723
   16600    298.58488    8.3416701     64.24898   -147.16449   -3300.1194    12056.179 
   16610    309.56921    5.9953609    65.397818    -148.0406    -3737.556    12056.179 
   16620    298.19854     5.953582    65.889078   -147.07738    -423.0838    12056.179 
   16630    298.25786    5.7824405    60.699358   -149.03848    552.17812    12056.179 
   16640    313.16675    6.3719238    59.369073    -151.4658    2943.8902    12056.179 
   16650    317.14007    5.8736089    58.639866   -154.66501    1530.2741    12056.179 
   16660    287.04705    5.2201856    57.841284   -158.60338    -2398.427    12056.179 
   16670    270.47999    5.1745902    59.923679   -162.26389   -3078.8566    12056.179 
   16680    270.22637    5.4283588    63.300105   -165.11203   -957.75367    12056.179 
   16690    259.88618    5.2631292    63.422784   -167.31713    1411.8203    12056.179 
16700        0.96930200629711382732 10.179339852005824696 1 63 -291.73203875109101091
   16700    271.32059    3.4094422    57.336406   -168.80126    118.99682    12056.179 
   16710    259.03795    4.9677667    57.836535   -169.35572    3034.8373    12056.179 
   16720    262.55183     6.016521    60.638733   -168.78016    1988.4215    12056.179 
   16730    277.73856    6.7485601    55.441352    -166.8048    519.61157    12056.179 
   16740    272.57044    5.3861107    59.044695   -163.08288   -3253.2994    12056.179 
   16750    296.92819    5.6837842     61.09435   -157.51359   -1551.5382    12056.179 
   16760     315.6922    8.7016191    57.557724   -151.11275   -522.01751    12056.179 
   16770    310.18984     7.699555     64.49059   -145.80584     1749.809    12056.179 
   16780    318.17704    8.0728664    63.246131   -142.26833    67.178995    12056.179 
   16790    333.22722    6.0725525    58.737066   -135.30543   -576.94802    12056.179 
16800        0.97076686067686179804 10.165571420083903575 1 62 -280.02347237656294965
   16800    320.03009    8.7411539    66.200659   -135.02324    4047.7858    12056.179 
   16810    314.83987      11.5024    60.312818   -140.75304   -779.19455    12056.179 
   16820    310.32949     11.49142     61.10507   -136.52214   -1383.2702    12056.179 
   16830    303.51028    10.848884    63.654558   -137.71183    833.37551    12056.179 
   16840    301.08172    12.039166    61.807424   -139.04034    386.29068    12056.179 
   16850    294.58513    9.5904908    59.135443   -140.30722   -703.91515    12056.179 
   16860    291.00362    7.7623263    59.989714   -146.46711   -2306.7681    12056.179 
   16870    300.11968    6.0047465    58.476562   -147.22562   -7.1035019    12056.179 
   16880    301.15758    8.4608217    54.722451   -147.83641   -686.62062    12056.179 
   16890    276.30235    11.537899    57.095765   -148.15166   -346.60662    12056.179 
16900        0.978151812150832356 10.132036136291501904 1 61 -285.17327970890471533
   16900    303.08236    10.655683    62.212641   -147.85177    3653.3446    12056.179 
   16910    305.02133    10.567787    56.556955   -147.45572    1816.4439    12056.179 
   16920    305.27879    10.120921    61.945676   -147.39402    1750.6853    12056.179 
   16930     299.8356    8.6957212    65.594098   -147.48418    -40.56018    12056.179 
   16940    313.89898    5.8842094    62.609403   -148.13775   -3790.5532    12056.179 
   16950    307.55163    6.6948067    66.746682   -149.89248   -1388.0959    12056.179 
   16960    305.69725     5.859663    57.800073   -152.97913   -1662.4206    12056.179 
   16970    289.56039    6.5896981    53.325748   -156.69642    173.72082    12056.179 
   16980    283.71028    7.8277078    52.447713   -160.53929    1545.1715    12056.179 
   16990     277.0275    7.0255937    58.261927   -163.97812     899.9223    12056.179 
17000        0.980151553491686367 10.115222633059770985 1 64 -292.52220926198697271
   17000    277.71248    5.9577677    56.878936   -166.69537    2313.7343    12056.179 
   17010    287.27099     7.157464     53.97818   -168.42072    98.183501    12056.179 
   17020    305.41759    8.9556065    49.933704   -169.42133    885.13811    12056.179 
   17030    299.58835     8.960626    55.742649   -170.14657   -2198.1536    12056.179 
   17040    290.63835    8.9023197    52.711222   -170.69038   -2729.7955    12056.179 
   17050    295.07344    7.0147871    52.342569   -171.03366   -1497.1388    12056.179 
   17060    299.26548    7.8443233     60.17035   -171.32332    4676.0346    12056.179 
   17070    292.41006     7.480968    55.318932    -171.7184     2276.266    12056.179 
   17080    282.45949    9.9080777    57.254304   -172.05336    2821.4517    12056.179 
   17090    279.51119    10.702484    57.042558   -171.77035    -1718.566    12056.179 
17100        0.9796356638271513928 10.142075837964847906 1 66 -296.50996429655708653
   17100    278.59933    11.212795    54.820459   -170.28131      54.8294    12056.179 
   17110    272.44278    9.9485388    59.314644   -167.29039   -1848.1502    12056.179 
   17120    262.96148    6.6917065    62.683387    -162.7867    -2222.621    12056.179 
   17130    292.20454    4.9932784    63.659221   -156.92339    152.47093    12056.179 
   17140    309.37653    4.1573446    68.515884   -151.23649   -1946.3364    12056.179 
   17150    315.31782    4.7090572    61.961306   -146.36731     764.2085    12056.179 
   17160    288.80057    6.9989459    71.478241   -139.71638   -475.49291    12056.179 
   17170    311.15836    8.9085311    59.872957   -138.05123   -1696.8829    12056.179 
   17180    302.90447     8.485411    61.053045   -136.71981   -540.18891    12056.179 
   17190     298.2702    8.1216191    62.231725   -135.68053    -435.7034    12056.179 
17200        0.97718486434694729059 10.144448010660779502 1 67 -262.73698288764853714
   17200    282.34401    6.7120882     74.16818   -134.81167    5868.0965    12056.179 
   17210    323.86254    5.5112862    61.034726   -134.01897      1203.19    12056.179 
   17220    338.65913    6.2645435    55.468711   -138.74172   -1570.0769    12056.179 
   17230    317.86731    5.1960107     58.77319   -139.57938   -3247.8361    12056.179 
   17240    307.58942    5.9591358    58.042326   -140.90294   -716.20032    12056.179 
   17250    299.94711    7.8835948    64.364698   -142.49992    1866.9705    12056.179 
   17260    306.35853    9.2006052    50.668353   -144.35291   -376.33258    12056.179 
   17270    281.17404    6.4029339    63.535174   -146.35502   -943.26641    12056.179 
   17280     286.9131    4.2270847    61.617527   -150.85024    666.97097    12056.179 
   17290    305.66705    4.2768487    58.892063   -152.83161    2263.7419    12056.179 
17300        0.98210063824551618872 10.12291321559567514 1 70 -298.47637375519406078
   17300    315.26986    8.3752866    53.235585   -155.63292     1369.155    12056.179 
   17310    269.75156    11.736325    49.110224   -156.38242   -4993.3515    12056.179 
   17320    286.05258    8.6019322    57.462466   -159.50196    -2665.597    12056.179 
   17330    289.92122    6.7769822    54.553957   -162.79622   -150.17582    12056.179 
   17340    305.67111    6.4276566    50.415954   -166.62429    71.704072    12056.179 
   17350    269.13489    7.3674533    60.146823   -170.41456    2147.6597    12056.179 
   17360    287.73437    5.3149818    51.495695   -173.29063    4199.2154    12056.179 
   17370    283.92006      6.38989    56.823692    -175.2768    2492.5661    12056.179 
   17380    281.09771    8.4544343    53.926213   -172.28759   -516.22556    12056.179 
   17390    262.74121    9.6901282    58.938163   -173.02827   -4001.5924    12056.179 
17400        0.98441154176365319728 10.120297300492225645 1 67 -297.70587483452817423
   17400    275.31118    10.881681     57.36211   -172.96702   -1577.7858    12056.179 
   17410    281.70644    8.9776747    52.391262   -175.59165    653.28757    12056.179 
   17420    259.31434    8.5029088    55.612299   -173.62836     2616.466    12056.179 
   17430    263.42497    9.6246323    58.311597    -169.7972    1102.8882    12056.179 
   17440    296.67224    9.3076598    51.412659   -163.78692   -583.22359    12056.179 
   17450     316.2031    7.6673611    58.709509   -156.87623    1134.2712    12056.179 
   17460     303.3026    7.6731635     56.52174   -151.92067   -196.83412    12056.179 
   17470    298.05822     11.58315    57.032372   -148.62039    -1064.928    12056.179 
   17480    308.15476    10.873822    64.190877   -146.46858   -678.51513    12056.179 
   17490    302.03234    7.6291016    63.071723   -141.53753   -3270.3158    12056.179 
17500        0.98824658869836556896 10.107080545677877836 1 70 -283.52192854198904115
   17500    314.86022    7.7463824    59.373196   -140.86408   -809.37514    12056.179 
   17510     304.0889    8.0209163    64.769748   -140.85174   -1460.6506    12056.179 
   17520    336.94204    7.0135726     54.50118   -141.43085    142.68567    12056.179 
   17530    305.79952    8.3266523    65.489072    -142.7238    3911.5298    12056.179 
   17540      296.622    9.4779753    55.499747   -144.16856    392.57373    12056.179 
   17550    281.78578    9.3301754    64.512551   -145.47627     1029.959    12056.179 
   17560    310.84692    5.7497136    58.583121   -146.92837   -1196.1477    12056.179 
   17570    299.18439    7.8527694    53.535909   -148.72191    1614.6193    12056.179 
   17580    285.09207     8.594855    57.332148   -150.17249    1314.6517    12056.179 
   17590    284.20231    8.0004011    55.550124   -150.96841     -512.772    12056.179 
17600        0.98651938360728930189 10.111831712483828838 1 68 -282.11997417204355543
   17600    289.15802    8.1123016    59.826248   -151.10735    145.05139    12056.179 
   17610    309.05596    8.7340379    49.054323   -150.90258   -2903.2783    12056.179 
   17620    298.97096    10.384819     59.53084   -150.46329   -3288.1621    12056.179 
   17630     319.4898    9.1915401     51.37672   -149.54476    563.58781    12056.179 
   17640    301.97477    9.2416869     60.30796   -153.77972    2447.0949    12056.179 
   17650    285.16744     12.63716    63.901524   -152.38999     3586.667    12056.179 
   17660    305.35221    13.148945    56.894659   -150.33026   -908.66469    12056.179 
   17670    312.43801    12.879157    57.572412   -147.56645   -930.23398    12056.179 
   17680    323.42075    12.030115    57.173339   -144.36802   -3126.2048    12056.179 
   17690    321.28185    9.0523401    60.628904   -141.20098   -1601.7068    12056.179 
17700        0.98786249473629916817 10.112251857711582304 1 67 -287.04649911789499583
   17700    327.66251    6.2272439    68.015439   -138.58814    3632.7238    12056.179 
   17710    326.93255    6.4310152    67.801818   -136.97342    1973.4491    12056.179 
   17720     324.7721     7.883754    60.050485   -136.37219    1683.0986    12056.179 
   17730    323.45477    6.7528764    62.051712   -136.85412     613.6664    12056.179 
   17740    315.43543    7.4217677    66.156476   -133.30658   -41.222558    12056.179 
   17750    309.28783    6.8761999    69.728201   -135.95167    646.48756    12056.179 
   17760    302.15324    6.0610148    64.357085   -144.39903   -2269.4054    12056.179 
   17770    282.77836    4.7649438    64.377156   -148.89244   -1073.3306    12056.179 
   17780    273.88053    4.9247188    58.440809   -152.90918   -700.17159    12056.179 
   17790    266.75872      4.92183    53.717169   -155.65579     -1655.19    12056.179 
17800        0.98241474211789481252 10.127685959649253888 1 65 -292.28951618351175057
   17800    297.91467    4.2295582    53.130822   -157.30941    269.56379    12056.179 
   17810    282.87515    5.4663696    58.104157   -158.30557   -628.75091    12056.179 
   17820    291.77186    6.6832002    54.450349   -154.08297    664.92929    12056.179 
   17830    277.05734    6.6267595    63.849775   -153.97621    1781.3503    12056.179 
   17840    302.51639    5.8022838    56.529606    -153.4242    729.96109    12056.179 
   17850    292.32923    4.2211109     61.32672   -152.46779   -87.285067    12056.179 
   17860    290.15591    4.1296552    56.632725   -151.26225   -3708.5598    12056.179 
   17870     295.9826    3.7367512    62.163474   -149.20011   -272.85973    12056.179 
   17880    311.22449    4.8163729    62.355729   -145.61434    1877.9942    12056.179 
   17890    315.95134    5.6336879    56.053677   -140.24664    741.48653    12056.179 
17900        0.9770753575147147485 10.143744248164493271 1 66 -271.24757612152978936
   17900    303.47326    5.4282299    70.654028   -133.74896    312.42969    12056.179 
   17910    329.55984    5.3975207    57.045713   -132.47007   -2095.6848    12056.179 
   17920    319.24302    8.1112751    62.960768   -127.47104    1443.9797    12056.179 
   17930       327.62    10.293044    63.441018   -124.20146    664.54394    12056.179 
   17940    304.50368    10.698339     64.88828   -122.15239   -582.18628    12056.179 
   17950    334.69388    8.6191465    61.887256   -120.74625    -240.5812    12056.179 
   17960    320.17637    8.4693518    70.166554   -120.19634   -1610.5336    12056.179 
   17970    323.91028    6.5296147    71.771991   -120.62382    2517.2004    12056.179 
   17980    317.78237    5.4236661    72.053129   -122.22027    1951.7072    12056.179 
   17990    330.46436    5.0443821    73.690113   -124.89277   -1454.0419    12056.179 
18000        0.97973782244480844827 10.151457020140144394 1 65 -284.11804469401602091
   18000    342.35537    6.2500214    63.855368    -129.0026    930.70441    12056.179 
   18010    328.47547    7.3374371    68.003789   -133.90978   -1909.3001    12056.179 
   18020     332.7404    8.1109387    61.587804   -133.83255    3443.6276    12056.179 
   18030    308.79347    7.9316125    61.605588   -137.92558    1225.1367    12056.179 
   18040     289.9683    5.6593519    61.984318   -140.94072   -740.62678    12056.179 
   18050    267.22532    6.3821142    76.822289   -142.73946   -482.95433    12056.179 
   18060    309.33012    6.1421421    53.847303   -143.92636   -2583.5025    12056.179 
   18070    302.55088    6.1355279    67.252971   -145.08553    587.88201    12056.179 
   18080    312.61752    8.7187846    55.136532   -146.28008   -1566.3662    12056.179 
   18090    305.95784     11.31556    61.596842   -147.60435   -671.54107    12056.179 
18100        0.9723208770451455818 10.186103825194837924 1 65 -293.51644273471288216
   18100    318.75302    12.681935    59.792174   -149.09483    3330.9741    12056.179 
   18110    297.38044    11.943453     61.60206   -150.87901    1593.3499    12056.179 
   18120     310.8106    11.262316    60.275157   -152.85534   -1136.8642    12056.179 
   18130    307.87912    9.5911261    59.150111    -155.1411   -6050.9158    12056.179 
   18140    311.72303    11.689064    49.692025   -157.66154   -1837.1994    12056.179 
   18150    294.29596    8.6383721     66.18707   -160.33363   -1898.9328    12056.179 
   18160    295.64063    10.368023    55.652977   -163.00425    5139.3659    12056.179 
   18170    276.49702    10.394136    60.216983   -170.52499    1790.3899    12056.179 
   18180    277.67679     9.474975    54.721621   -172.02017    538.33433    12056.179 
   18190    280.70871    7.2553137    58.080008   -172.71254    556.42758    12056.179 
18200        0.96813352213987136086 10.196227973252044663 1 67 -300.00833117049160137
   18200    280.90294    4.8765414    58.868561   -172.73595    3158.6724    12056.179 
   18210    268.09861    4.0975183    59.983673   -171.96342   -705.48325    12056.179 
   18220    274.45075    4.3329347    56.994936   -169.96776    -3725.702    12056.179 
   18230    279.40624    2.0506618    64.751939   -166.28756   -3213.8278    12056.179 
   18240    301.71898    4.4070313    59.070484   -160.28751    957.11723    12056.179 
   18250    298.08196    5.8325301    67.660329   -148.48936    732.09566    12056.179 
   18260    311.62786    8.7053652    61.848374   -142.62916     -378.489    12056.179 
   18270    300.18231    12.582586    71.670378   -138.51525    2668.2247    12056.179 
   18280    319.03488    15.810584    53.556556   -135.75814    1433.0874    12056.179 
   18290    292.17384    15.345143    62.962333   -133.86985    1654.6757    12056.179 
18300        0.97367281405597905231 10.186401066881643374 1 71 -281.01878476306012544
   18300    317.21979    11.664212    62.234687   -137.29185   -1376.9935    12056.179 
   18310    311.06525    8.1618334    67.006425   -135.91423    -1146.293    12056.179 
   18320    324.91488    7.4724418    58.554577   -135.17828   -599.61936    12056.179 
   18330    293.99062    5.8692088    66.037191   -135.09337   -902.13854    12056.179 
   18340     308.5671    6.2249473     64.92755   -135.40295    1973.7171    12056.179 
   18350    318.22954     6.049988    66.058487    -136.0548   -1185.1221    12056.179 
   18360    309.64411     5.965765    61.081073    -137.4143   -3455.0515    12056.179 
   18370    299.19183    5.3476085    63.480634   -139.15297   -466.65826    12056.179 
   18380    301.22502    4.2436171    65.707167   -141.36999    2479.5829    12056.179 
   18390    299.71165    3.7650381    55.144838   -143.49443    1861.7641    12056.179 
18400        0.97440799986090431695 10.162792288718526024 1 69 -273.15437152274307664
   18400    281.71457    4.5417584     63.69286   -145.51425   -2748.3153    12056.179 
   18410    301.89497    3.8559292    62.443059   -147.30026    363.16172    12056.179 
   18420     298.8877    7.3172408    67.824096   -149.65033    5577.3899    12056.179 
   18430    304.16367    7.9519002    61.512738   -152.62236    1009.8196    12056.179 
   18440    302.16951    6.5613888    65.826625   -156.64164   -1913.0249    12056.179 
   18450    288.52794    4.4499737    64.854832   -161.73173    492.81888    12056.179 
   18460     263.1923    4.0967186    63.106879   -166.98758   -42.724825    12056.179 
   18470    291.37055    2.5234005     52.91973   -171.36757   -668.84141    12056.179 
   18480    286.70485    4.5117505    53.478364   -174.87693   -3791.9615    12056.179 
   18490    279.22181    7.6166866    56.117349    -177.3413     934.0633    12056.179 
18500        0.96842191884942130375 10.194263705631795958 0.99735449735449732689 70 -300.46771033337199697
   18500    269.15987    8.8425944    54.079431   -178.51591    208.70887    12056.179 
   18510    270.46363    6.6308958    57.883802   -178.45969    3000.8447    12056.179 
   18520    278.03752    5.4580517    53.722508   -177.51273    2582.4564    12056.179 
   18530    270.03695    5.5776261    52.855132   -175.96817    283.21613    12056.179 
   18540    271.64409    5.5013841    56.427736   -173.89193   -1591.2962    12056.179 
   18550    274.27464    7.0835336     57.41606   -171.42145   -3110.1261    12056.179 
   18560    282.32916    6.7987347     62.22152   -163.68019   -726.46302    12056.179 
   18570    303.37468    7.4733111    57.760942   -161.28707    1132.0691    12056.179 
   18580    300.41593    6.6570958    58.884887   -159.30321   -2135.4913    12056.179 
   18590    286.15474    6.8569997    62.982207   -162.27388    1914.3136    12056.179 
18600        0.96670721340982590508 10.1902980365894269 0.99735449735449732689 67 -287.2032428154803938
   18600    279.09341    7.5250413    65.303473   -160.75073   -756.49431    12056.179 
   18610    292.95218     8.743958    54.600422   -159.09745    1677.1497    12056.179 
   18620    272.53719    7.9662703    60.898376   -157.23938   -116.71928    12056.179 
   18630    314.72803    8.6906389    57.747093   -154.80926   -1504.3442    12056.179 
   18640    312.00341    7.6792115     68.01774   -152.57073   -2188.7871    12056.179 
   18650    315.04042    5.5105956    60.901726   -150.97894   -2552.7279    12056.179 
   18660    307.49761    5.0590204    62.938549   -149.86508    780.80322    12056.179 
   18670    297.71696    3.7021927    62.921633   -149.03402    2152.2635    12056.179 
   18680    305.74438    3.6434746    61.229757   -148.18236     2024.892    12056.179 
   18690    319.17966    3.5125695    61.323256    -147.2357    319.87583    12056.179 
18700        0.96508580205874927582 10.184597418028802807 1 69 -294.81208083134640674
   18700    327.13719    4.0473804     57.70309   -146.59174   -732.00554    12056.179 
   18710    322.21687    4.1036739    55.425533   -142.04668   -416.35223    12056.179 
   18720    279.11285    5.4980002    72.485151   -142.16369    897.48379    12056.179 
   18730    301.94822    6.7185063      64.4145   -147.15363    1735.3539    12056.179 
   18740    316.67274     4.331767    68.690426   -150.43522    512.51027    12056.179 
   18750    342.07567    3.6676452    58.073037   -151.48321   -1104.1583    12056.179 
   18760    303.18762    3.7802211    61.578353   -154.03783    -1812.051    12056.179 
   18770    284.07452    2.3242968    71.032766   -157.44946    1379.0972    12056.179 
   18780    296.10643    3.3607298    57.689533   -156.69805   -353.78909    12056.179 
   18790    287.98144    4.9258781    55.720671   -160.47585   -1333.1999    12056.179 
18800        0.96179834807020581078 10.216927413864318908 1 70 -298.53821518231063692
   18800    288.59921    7.2104202    58.548246   -167.77878   -1616.0641    12056.179 
   18810    289.21219    8.3851767    55.418298   -170.14927   -1358.0696    12056.179 
   18820     293.2968    8.9842148     58.82523   -172.12951    1706.8535    12056.179 
   18830    293.69992     7.774668     53.78107   -173.69738   -143.40194    12056.179 
   18840    286.09114    6.8337756      56.6769   -175.05913     168.8405    12056.179 
   18850    289.16336    7.0539278     61.75906   -176.08334    1162.1533    12056.179 
   18860    273.50429    6.5180899    55.766871   -176.70456   -814.07361    12056.179 
   18870    255.45902     7.319213    60.278835   -172.24642   -3118.9784    12056.179 
   18880    276.26441    6.9985021    51.268431   -170.21654   -1607.0576    12056.179 
   18890    294.51472    6.8494683    57.917625   -166.93119     606.5086    12056.179 
18900        0.96776640389657586638 10.165858723378393691 1 73 -309.69581362536854385
   18900    324.73732     6.252517    49.571766   -162.56281     6376.521    12056.179 
   18910    316.60281    6.3427953    57.633857   -154.81543    2840.9837    12056.179 
   18920    321.43387    7.2013767    58.827275   -150.61249    1085.1214    12056.179 
   18930    317.84178    7.3373429    64.883753    -147.3549   -3206.4953    12056.179 
   18940    312.78323    6.8598089    63.146925   -145.17279   -812.66878    12056.179 
   18950    293.00174    6.5726959    71.777452   -143.76337   -1351.8651    12056.179 
   18960    304.18097    7.8602515    64.830395   -142.50387   -980.29565    12056.179 
   18970    310.13492    7.7214633    66.819558   -141.44141   -1673.8884    12056.179 
   18980    308.73485    6.5847174    65.664245   -146.24127    2514.8486    12056.179 
   18990    300.93886    6.8810765    65.302401   -146.35987    1006.4242    12056.179 
19000        0.9735297969664986617 10.173808800060990976 1 66 -279.65550111519439724
   19000    293.36223    5.5159809    69.949658   -146.73803    1919.6096    12056.179 
   19010    307.98171    6.4142072    65.429892   -147.27997   -2414.0361    12056.179 
   19020    305.35988    5.4468721    60.315305   -142.86564    557.25092    12056.179 
   19030    300.92492    7.1152966    65.195255   -143.35945   -589.18723    12056.179 
   19040    308.39806    8.1436519    58.438648   -143.69558   -2171.3811    12056.179 
   19050    332.92275    7.1563446    58.053114   -149.26988   -2748.5541    12056.179 
   19060    313.40973    7.2673294    60.446647   -150.19687   -1330.8075    12056.179 
   19070    320.22537     8.024099    58.336904    -151.2414    1635.4733    12056.179 
   19080     294.9548    7.6140655    65.068438   -152.24738    820.37112    12056.179 
   19090    316.75752    5.4221584    60.971241   -153.03623    198.09841    12056.179 
19100        0.98323371182847707495 10.135601144002871266 1 67 -293.95801445873252078
   19100    309.10315    5.3612896    56.068315   -153.90859    1573.4482    12056.179 
   19110    302.80726    6.1469431    63.078745   -154.77108    488.49268    12056.179 
   19120    315.31977    7.7237363    56.825833   -155.63585    3461.5399    12056.179 
   19130    266.24596    9.0986335     64.05445   -151.31287   -2780.9938    12056.179 
   19140    271.17935    8.8589743    51.695014   -159.08498   -235.19708    12056.179 
   19150     274.3818    7.3485531    62.178093   -157.70037   -483.95947    12056.179 
   19160    317.47304    8.4989937    60.243267   -155.39836    448.56156    12056.179 
   19170    303.95884    8.1762215    64.617379   -153.21031    585.71572    12056.179 
   19180    314.84254    6.1923863    58.272416   -151.62976    1333.2801    12056.179 
   19190    317.98105    5.8504111    52.236084   -150.24151    1509.3817    12056.179 
19200        0.98526213488864933243 10.151893068423971656 1 66 -287.3811779913501141
   19200    305.96741    5.2283419    68.469734   -148.75251   -235.67762    12056.179 
   19210    319.17747    5.5772707    62.531826   -147.35641   -1789.0054    12056.179 
   19220    312.39607     6.337281    66.005801   -144.32694   -3247.8565    12056.179 
   19230    324.94165    6.6871961    57.020322   -144.28126   -309.24971    12056.179 
   19240    323.70565    6.6380618    57.284729   -144.66006    2845.9177    12056.179 
   19250    339.44428    6.8512905    64.086207   -145.96613    2255.1228    12056.179 
   19260    308.46609    6.7708347     61.32097   -149.68761   -2407.0373    12056.179 
   19270    294.25424    8.0714243    63.589569   -155.34154   -1512.1991    12056.179 
   19280    305.20932    9.6630628    57.031622   -161.73435    846.76272    12056.179 
   19290    292.17784    9.6326166    57.232516    -167.6098    978.45433    12258.351 
19300        0.987172941824349226 10.138524640506433983 1 64 -312.51998941190868209
   19300    310.09339    11.855091    50.157384    -172.0219   -1811.8737    12258.351 
   19310    282.08407    11.775653    56.467369   -175.00598   -1738.2136    12258.351 
   19320    291.43769    9.6745663    56.525823   -176.86813    861.07542    12258.351 
   19330    271.33728    8.4501152     59.63238   -178.26197    1556.8713    12258.351 
   19340    299.62036    6.0701394     49.05504   -179.03472   -600.72264    12258.351 
   19350    282.51532    6.1250846    58.290845   -179.10092    1694.4029    12258.351 
   19360    294.09148    6.6288867    46.049226     -178.173   -2183.6924    12258.351 
   19370    281.31985    5.9215421    53.498364   -176.11006   -799.21471    12258.351 
   19380    269.91256    5.8698479    64.133034   -167.73813    3906.9557    12258.351 
   19390    276.60366    7.3957659    65.734614   -169.17961    325.55044    12258.351 
19400        0.98857243890116031082 10.112726837978573968 1 66 -293.85721559656110458
   19400    283.97196    8.3233072    61.835622   -165.19431   -1936.4298    12258.351 
   19410    289.81459    7.9959432    60.841431   -161.07915   -504.48308    12258.351 
   19420    299.65539    6.6302098    65.823118   -157.72667    1379.5014    12258.351 
   19430    304.47788    7.3064825    65.072569   -155.25718   -350.09161    12258.351 
   19440    292.18389    8.9499797    65.526297   -153.54333   -2506.4962    12258.351 
   19450    302.42437    7.7767758    67.121662   -152.46054   -2440.3315    12258.351 
   19460    297.52088    6.8449882     69.40475   -151.98171    425.13151    12258.351 
   19470     284.5513    7.1626298     67.52225   -151.51717    2257.1832    12258.351 
   19480    299.67839    6.9425395    65.950415   -150.81285   -6.2423646    12258.351 
   19490     313.0673    6.7434242     55.98522   -150.20692     864.3067    12258.351 
19500        0.98830494118229095246 10.08198821119034605 1 65 -288.04047270690330151
   19500     305.3108    5.7845258     63.97377    -149.7093    844.33476    12258.351 
   19510    303.33592    7.0740261    58.336039   -149.14606    606.59126    12258.351 
   19520    296.20988    4.8685413    72.595923   -148.42544   -471.92611    12258.351 
   19530    302.33181    5.1735901    71.451088    -147.9666   -2725.3845    12258.351 
   19540    332.83276    5.5160812     61.94971   -148.48415   -4334.8205    12258.351 
   19550    309.25477    6.5500771     61.02608   -144.89035    911.04119    12258.351 
   19560     291.9787    8.5098954    65.925284   -152.18099    4261.4522    12258.351 
   19570    281.78124    10.844974    63.663922   -154.91204    4104.5119    12258.351 
   19580    291.02592    11.103793    61.436623   -158.58293    2168.9186    12258.351 
   19590    275.47774    9.1220179     62.53896   -163.00797    -86.35243    12258.351 
19600        0.98703463277943426224 10.029618448359682858 1 68 -293.1131138579392541
   19600    276.48541    8.9484733    57.958294   -167.84224   -1083.8763    12258.351 
   19610    249.69885    8.7872801    66.614128   -171.98439   -2131.8557    12258.351 
   19620    275.39398    9.5222082    55.909691   -174.86803    578.51396    12258.351 
   19630    258.53335    9.2318964    57.482975   -176.55449    593.09538    12258.351 
   19640    281.55621    8.5252516    54.672527    -177.0632    1700.9923    12258.351 
   19650    271.86469     11.28223    56.716378   -171.59006    1111.5361    12258.351 
   19660      288.367    10.079413    54.094369   -170.30493    209.82669    12258.351 
   19670     308.9575    7.6637465    57.876705   -173.21352   -189.59259    12258.351 
   19680    304.11583    6.6133116    59.438906   -170.52012   -3790.7701    12258.351 
   19690    293.51633    11.191137    55.109026   -167.34559   -732.46489    12258.351 
19700        0.98653195949785665864 10.049148826578376159 1 66 -285.54515661157881823
   19700    269.79508    9.4923946    69.417999   -163.30556   -914.64914    12258.351 
   19710    280.78376    10.856682    56.073438   -157.95664    700.46825    12258.351 
   19720    288.83623    12.942336    67.285579   -151.54073   -406.45645    12258.351 
   19730    305.38072    15.446755    59.430497    -145.9338     992.5029    12258.351 
   19740    292.08435    12.544284    71.658434   -142.25909    2149.6135    12258.351 
   19750    312.63778    10.680409    68.704703     -140.069    3280.8256    12258.351 
   19760    348.67843    9.8035207    67.551576   -139.27809    1436.4929    12258.351 
   19770    329.13089    10.601472    69.024775   -140.13139   -3933.6982    12258.351 
   19780    346.05838    9.7081817    59.901689   -142.26652   -943.53986    12258.351 
   19790    294.85665    7.8305394    77.036084   -145.18013    918.49824    12258.351 
19800        0.98790070063517809729 10.064993788258478347 1 71 -286.60601300168548278
   19800    305.85964    10.409217    62.721204   -148.02617   -2173.3861    12258.351 
   19810    289.27386    7.9655139      71.4276   -151.19039   -994.52256    12258.351 
   19820    306.60428    10.071951    62.061583   -154.26479    -1354.308    12258.351 
   19830    306.09694    12.487952    58.501646   -157.30966    1860.9321    12258.351 
   19840    306.57949     14.08661    59.793549   -159.98898    3189.1563    12258.351 
   19850    299.45221    12.859852    58.294134   -162.35966    2329.9035    12258.351 
   19860    278.82016    10.903447    72.647071   -164.59092    2566.8256    12258.351 
   19870    304.87454    9.6231916    54.768665    -166.6871   -3332.6112    12258.351 
   19880    263.68281    6.9084698    67.990742   -168.54784   -3547.1644    12258.351 
   19890    281.12079    6.1053189     56.39087   -169.54831    424.20284    12258.351 
19900        0.98580593907926372665 10.086777482577863552 1 69 -285.05860588702671521
   19900    254.49922    6.3688143    71.053806   -169.74931   -464.87338    12258.351 
   19910    285.22293    6.5516372    61.466763   -169.17704    3444.1005    12258.351 
   19920    277.37976    7.1661054    63.582758   -167.94815   -353.90866    12258.351 
   19930    285.16962    7.6162325     61.12302   -166.12064    1378.6328    12258.351 
   19940      298.247     8.502001    60.675854   -163.46893   -242.10104    12258.351 
   19950    291.07221     10.10118    66.608998   -159.72787   -3229.2849    12258.351 
   19960    276.14906    9.8481778    65.335522   -155.09349   -1443.8234    12258.351 
   19970    272.72955    8.6270888    68.244964   -149.13107   -2371.1207    12258.351 
   19980    290.06989    7.9440847    66.885577   -138.29061    50.041549    12258.351 
   19990    316.85572    8.8264818    68.499699   -138.14848    3829.3315    12258.351 
20000        0.98171517416968911984 10.125365675869129944 1 69 -292.76945521680556794
   20000     347.0051    7.1627957    59.320135    -135.5473    1835.4126    12258.351 
   20010    316.62771    7.7452008    78.045636   -134.73278    2181.7836    12258.351 
   20020    323.34732      7.48252      64.1346   -134.98196   -1795.0411    12258.351 
   20030    294.66635    9.3751663    70.432901    -136.0207   -1590.8657    12258.351 
   20040    304.44543    9.4702822    67.748096   -137.19991   -3332.7421    12258.351 
   20050    281.49266    10.152809    71.184886   -133.77133   -2760.5532    12258.351 
   20060    309.57528    8.4259164    67.934003    -134.4256    1089.8469    12258.351 
   20070    317.04861    7.8627303    68.154236   -135.49602    85.885319    12258.351 
   20080    324.33856    5.8227305    63.819079   -137.52167     921.0083    12258.351 
   20090    315.42726    7.4932901    62.119273   -140.53125    366.00592    12258.351 
20100        0.97450297545734354543 10.150188462341992235 0.99735449735449732689 69 -281.88540849481671557
   20100    293.18215     6.754495    64.886718   -149.04952    -957.2582    12258.351 
   20110     273.2215    9.1346029    66.898287   -152.03463    795.47947    12258.351 
   20120     308.4852    6.0336686    61.172228   -154.76093   -2724.6528    12258.351 
   20130    275.65978    7.3603345    68.865702    -157.3159    1925.0792    12258.351 
   20140    308.94316    6.6434466    53.177924   -159.42329   -379.22721    12258.351 
   20150    266.18869    11.289885    62.572215   -160.84322    757.72828    12258.351 
   20160    302.78858    9.5354439    60.513178   -161.50625    411.38564    12258.351 
   20170    283.28012     10.71683    64.104326   -161.95554   -501.29194    12258.351 
   20180    293.88891    8.6745201     60.92708   -162.33007   -581.40068    12258.351 
   20190    274.96311    9.9219457    62.971938   -162.22303    364.25214    12258.351 
20200        0.98039567288122386746 10.138238536457532035 1 70 -291.10377661232155333
   20200     286.4615    10.172518    64.575388   -161.31291     2323.668    12258.351 
   20210    287.43558    9.7994883    62.930898   -159.56694    202.66311    12258.351 
   20220    297.00758    8.8900909    58.740368   -156.31378   -1624.6098    12258.351 
   20230    317.49106    7.1603189    61.062309   -150.82137    541.15934    12258.351 
   20240    347.75968    6.4385892    60.540527   -143.34819    1197.9126    12258.351 
   20250    348.77579    5.8735608    64.384027   -137.17733   -631.45299    12258.351 
   20260     344.9154    4.5432835    64.897081   -128.20853   -2373.3542    12258.351 
   20270    328.23414    3.9636067    74.156174   -126.61348   -517.21301    12258.351 
   20280    349.89328    5.8209586    64.584627    -126.5409    2281.1047    12258.351 
   20290    330.13623    6.6008874    71.225082    -131.5359    1279.1589    12258.351 
20300        0.98280604457242493055 10.147318894379951715 1 66 -277.99616378288487795
   20300    318.05449    8.2020831    64.924749   -133.89104   -1852.1492    12258.351 
   20310     303.2782    8.7098904    66.083602   -139.94245   -2099.1161    12258.351 
   20320    314.78617    8.0144682      66.6863   -143.19029    599.67471    12258.351 
   20330    313.34104    7.6729447    66.822093   -147.05241    2731.8187    12258.351 
   20340    321.91824    9.2915439     56.77217   -147.78687   -533.77296    12258.351 
   20350    314.51866    8.1228536    52.020649   -151.58518    1047.4244    12258.351 
   20360    295.38988    6.8338517    61.730727   -158.50728    1969.8636    12258.351 
   20370    294.53793    6.9149247    65.224127   -156.31046    3060.9116    12258.351 
   20380    288.40271    8.7021933    63.647851   -157.59728   -4237.9267    12258.351 
   20390    315.16732     9.169582    51.520322   -160.92775   -7270.0201    12258.351 
20400        0.98033770054336200062 10.161776730073773578 1 70 -300.92458339895711106
   20400     307.8381    7.5190468    59.763759   -161.44833   -2607.7694    12258.351 
   20410    303.58242    7.9787197    59.691509   -161.91643    4219.5332    12258.351 
   20420    278.73015    7.2131637    66.122572    -162.4101    3639.5984    12258.351 
   20430    277.96485    9.3104301    63.298215   -162.67874    2731.5497    12258.351 
   20440    276.19697    9.9704958    64.461135    -160.1451     109.7878    12258.351 
   20450    292.03782    10.845174    48.745746   -159.54589    350.01018    12258.351 
   20460    308.25752    9.8829629     56.93756   -154.98161   -181.18262    12258.351 
   20470    304.13167    7.9630712    54.865651   -153.36866   -3286.4587    12258.351 
   20480    287.56042    7.3058707    59.357763   -155.94361   -1283.0913    12258.351 
   20490    294.60466    4.7747064    59.528248   -153.67427    823.39518    12258.351 
20500        0.97279099738857799373 10.16013541212658744 1 71 -278.49691291965280016
   20500    280.99362    3.4222602    62.564808   -151.18344    1946.9008    12258.351 
   20510    297.11438    3.6779641    59.802971   -148.08042    1429.2165    12258.351 
   20520    285.61042    4.0139986    63.869593   -147.12285   -1757.6932    12258.351 
   20530      328.431    3.4023247    57.596962   -142.46077    1029.5955    12258.351 
   20540    299.93199    3.4595017    75.100606   -138.26239    35.114675    12258.351 
   20550    328.48676    5.4688964    63.264811   -135.03949   -2196.5695    12258.351 
   20560    300.72996    5.8939367    72.144811   -133.11951   -84.754746    12258.351 
   20570    316.14607    7.3964476      67.6488   -129.98188    2489.9042    12258.351 
   20580    313.44404    8.2702919    71.389759   -132.56145    3456.2412    12258.351 
   20590    316.53845    9.7934439    67.510733    -128.5836    1515.2036    12258.351 
20600        0.96642145011879465599 10.204930666705960718 1 67 -263.90854727938670976
   20600    297.49225    10.044862    73.061138   -129.11983     -4338.91    12258.351 
   20610    325.02347    9.7522517    65.803393   -129.90517   -534.67326    12258.351 
   20620    331.56583    5.6486364    68.940933   -131.41726   -688.32546    12258.351 
   20630    316.73753    4.7497963    69.937911   -133.69068    1665.3732    12258.351 
   20640    306.67215    7.0076622    66.963109    -136.3631   -1963.6404    12258.351 
   20650     314.7777    7.5860917    70.165183   -139.50408   -72.166483    12258.351 
   20660    303.10991    8.8741536    72.565584   -143.36321     195.6314    12258.351 
   20670    307.89461    8.8582698    57.140874   -143.45075    73.645096    12258.351 
   20680    281.42079    9.1796316    59.778178   -146.48988   -2053.9546    12258.351 
   20690    285.67188    7.8738901    59.980616   -148.71158    199.15697    12258.351 
20700        0.95958241029481095019 10.208124849937593837 0.99735449735449732689 69 -274.55640638231704997
   20700    274.34846    5.1097687    63.180435   -150.25375    1197.6731    12258.351 
   20710    274.83508    6.5756923    64.682395   -150.98457     2701.523    12258.351 
   20720     287.8387    5.7799083    63.658039   -150.88602   -1327.2507    12258.351 
   20730    277.06379    5.5343508    72.518348   -155.66885    -1610.809    12258.351 
   20740     307.5156    6.8312597    66.057325   -154.91099   -801.67265    12258.351 
   20750    276.23935    8.0602868    65.806018   -154.41289    1482.3364    12258.351 
   20760    279.63293    7.3789857    64.253017     -153.543    974.80484    12258.351 
   20770    268.43772    6.0172453    67.660753   -151.84985    13.188179    12258.351 
   20780    286.27247    5.2681134    68.593782   -149.16936    -2599.557    12258.351 
   20790    310.70217     6.141033    66.273507   -145.61873    1064.1298    12258.351 
20800        0.95336686268595327576 10.238052625938509621 0.99735449735449732689 67 -290.7489387308336859
   20800    328.76924    6.9565796    61.054788   -141.78914    1900.3991    12258.351 
   20810    325.22811    9.3721725    63.182597   -137.50931     1108.359    12258.351 
   20820    304.32556    8.6855172      63.0549   -133.09429   -1475.4433    12258.351 
   20830    305.27476    7.3213236    66.228177   -128.51331   -1501.7566    12258.351 
   20840    322.01703    9.7918638    72.419323   -124.13427    727.27493    12258.351 
   20850    338.10736    7.5951522    69.712485   -120.87489   -177.29193    12258.351 
   20860    318.36209     7.420112    68.870201   -119.28852   -1821.4844    12258.351 
   20870    324.63525     10.31851    63.596126   -118.98631   -3787.9982    12258.351 
   20880    323.90405    11.144388     71.62116   -119.72064    403.52461    12258.351 
   20890    358.51118    8.1205135    66.194716   -121.85036    2538.2593    12258.351 
20900        0.9599914063036011358 10.203262507982682195 1 66 -274.14743856789317533
   20900    326.90222    7.5276493    72.099938   -126.03356     2191.465    12258.351 
   20910    312.69985    6.9795756    59.040375   -130.49309    571.01579    12258.351 
   20920      298.017    4.9853024    61.886061   -134.47329    32.971996    12258.351 
   20930    329.88487     3.451224    59.596569   -137.46434    3151.0354    12258.351 
   20940    320.04446     3.754412    63.727737   -139.97155   -2176.4663    12258.351 
   20950    299.04804    5.1495564    59.320681   -141.71862   -1869.6112    12258.351 
   20960    296.81275    5.5517918    65.265269   -137.67574   -2316.2271    12258.351 
   20970    295.32112    6.0969816    61.137778   -138.01216   -603.07647    12258.351 
   20980    313.83662    6.6065165    62.070184   -141.90209     1075.732    12258.351 
   20990    293.64496    6.6962089    63.678639   -142.28331    1738.6086    12258.351 
21000        0.95578121409946237286 10.244559222503491824 0.99735449735449732689 66 -275.21709025539445292
   21000     292.6997    5.8587963    64.033724   -142.59979   -1223.5098    12258.351 
   21010    299.11602    6.8569076    58.967585   -142.68665    1098.0457    12258.351 
   21020    320.33285    9.1693353    62.791238   -142.83003    1139.3605    12258.351 
   21030    315.90806    8.7367937    65.653876    -143.5825    3255.8959    12258.351 
   21040    299.94567    7.3133209     70.53823   -144.92364    -2184.187    12258.351 
   21050    306.53552    5.5264623    60.168579    -146.8684     -2899.77    12258.351 
   21060    296.78535    7.1443944     64.07228   -149.08524   -2275.5762    12258.351 
   21070    301.92564    8.1294983      52.6054   -151.34251    580.44994    12258.351 
   21080    302.03622    10.238455    52.511387   -149.88365    423.29031    12258.351 
   21090    288.41202    10.031798    60.319489   -151.44054    1172.7271    12258.351 
21100        0.95639292967975730875 10.244057771284488467 0.99735449735449732689 62 -287.29610614034157834
   21100     296.7909    8.9455449    53.748111   -152.82515   -293.49264    12258.351 
   21110    298.07193    7.0932864    52.180999   -158.21373     422.5931    12258.351 
   21120    324.48994    4.5485113     50.04272   -158.93564    968.84521    12258.351 
   21130    309.63917    2.8027037    59.264316   -159.70195    -2550.487    12258.351 
   21140     311.7103    1.8625568    50.853112   -160.79157   -1718.2056    12258.351 
   21150    280.58124    2.6539356    58.508226   -162.21838   -473.07379    12258.351 
   21160    280.27638    4.4772015    59.457006   -163.27166    2205.4344    12258.351 
   21170    293.59443    5.6888236    53.716857   -163.85173    2446.9731    12258.351 
   21180     301.5249    5.7251691    50.454429   -163.95241   -3101.7861    12258.351 
   21190    282.80419    5.3923563     55.91301   -163.32307    2348.4979    12258.351 
21200        0.96012159592522561269 10.238035675581846462 1 67 -285.90900904091682833
   21200    274.18541    5.5217537     55.85528   -161.68022   -1559.0608    12258.351 
   21210    263.96457    7.2508081    58.460844   -158.47861   -467.65936    12258.351 
   21220    281.18776    8.3801696    52.922295   -153.59561   -233.01748    12258.351 
   21230    295.27515    5.8046484    63.456913   -143.32554   -180.35028    12258.351 
   21240    326.80175    4.1081265    60.593264   -137.92642    2396.6539    12258.351 
   21250    336.83585    4.2096706     54.50147   -134.10574   -1337.6693    12258.351 
   21260    324.44053    7.5018561     63.00804   -131.76425   -1926.5324    12258.351 
   21270    330.63039    6.0271333    64.449208   -134.47184    -846.5044    12258.351 
   21280     327.1652    7.4883084    60.218848   -133.95191   -1433.6193    12258.351 
   21290    313.72237    10.817197    64.947937   -134.38204   -368.66219    12258.351 
21300        0.97012836131594382127 10.198112662518592941 1 66 -279.33257573266769214
   21300    318.54503    10.712663    58.123719    -135.0052     822.4289    12258.351 
   21310    324.41885    8.3237092    68.066322   -135.80601   -1661.1592    12258.351 
   21320    335.49964    5.7575818    58.283497   -133.24707    3708.9657    12258.351 
   21330    314.81003    5.3460855    60.191609   -136.30746    -1073.077    12258.351 
   21340    312.82098    4.8804913    66.186764   -139.75976    2015.3443    12258.351 
   21350    323.03721    4.5523032    60.733981   -143.85326   -1314.0884    12258.351 
   21360    303.78999    4.8532148    62.289913   -148.18162    1401.0501    12258.351 
   21370    312.07535    6.0135882    53.703913   -152.21393    -592.3412    12258.351 
   21380    282.82152    6.8502344    64.114071   -155.31825    1074.9414    12258.351 
   21390    288.29302    9.2061776    57.917972   -157.31399   -336.65293    12258.351 
21400        0.97969557524400230353 10.133367564853752896 1 66 -287.68745307053313809
   21400    285.29741    8.4012692    57.463667   -158.42401    658.45705    12258.351 
   21410    279.98338    8.1930847    60.842786   -163.64092   -4068.5557    12258.351 
   21420    276.81743    8.0212815     58.57915   -163.13522    2380.8877    12258.351 
   21430    278.33556    9.0369451     60.68523   -162.01002    963.51415    12258.351 
   21440    299.07396    9.9606029    62.434333   -160.53934    2080.5392    12258.351 
   21450    312.91662    9.2932498    57.273602   -158.94436    -108.0925    12258.351 
   21460    299.56002     11.33019    61.675057   -157.49278   -2439.9441    12258.351 
   21470    257.25422    11.901979    72.836564   -156.02358   -2609.3965    12258.351 
   21480    300.79901    10.971349    58.335114   -153.97547   -1260.2521    12258.351 
   21490    297.75956     11.58274    69.868539   -152.04259    3900.1134    12258.351 
21500        0.99034483362408065599 10.059763633319692033 1 63 -285.5093106848838147
   21500    292.85829    16.821467    66.849292   -152.82016    4536.7661    12258.351 
   21510    291.67545    10.586982    64.993414   -151.63946   -339.31407    12258.351 
   21520    283.01911    9.3678268     77.04779   -148.24195    672.28168    12258.351 
   21530    323.46588     9.804401    60.468093   -147.78471   -3530.7931    12258.351 
   21540    286.24059    11.193938    74.856777   -147.78935    697.22267    12258.351 
   21550    326.94272    9.6244196    58.766076     -148.203   -559.26615    12258.351 
   21560    307.24555    9.8727787    68.403098   -149.12199    3410.9944    12258.351 
   21570     310.5657    9.5740103    67.023978   -150.20752     -611.208    12258.351 
   21580    315.51998     9.849132    59.840574   -153.63795     923.2057    12258.351 
   21590    302.55363    7.0313663    64.234998   -152.08664   -2649.6259    12258.351 
21600        0.98916225466487417428 10.114230788971639186 1 67 -292.44083573040853707
   21600    308.66448    5.6179287    56.709705   -152.59017    2429.8714    12258.351 
   21610    297.05354    4.2334006      68.7405    -147.8657   -2561.7224    12258.351 
   21620    317.02429    4.1254626     59.75962    -148.5402    2108.5875    12258.351 
   21630    300.13074    5.7005852    65.696221   -149.51789   -1803.0951    12258.351 
   21640    299.81638    8.5954597    61.034166   -155.80677    302.33857    12258.351 
   21650    291.77016    9.3416814    64.363381   -156.71082    11.178061    12258.351 
   21660    301.16661    6.5235097    59.247292    -159.6779   -538.38312    12258.351 
   21670    296.68394    6.8762973    61.675723   -159.99566   -2610.3476    12258.351 
   21680    305.07301    5.5326383    65.008919   -157.44216    112.18822    12258.351 
   21690    290.18629    5.6074238    66.092553   -157.42372   -90.072755    12258.351 
21700        0.98782929556948095851 10.117058282886706166 1 64 -286.70278681275249255
   21700    285.43991     5.018991    64.143791   -157.37478    243.64932    12258.351 
   21710    311.71084    7.9939626    60.529252   -156.94073   -114.13112    12258.351 
   21720    306.95875    9.2557275    59.491061   -156.53816    1241.5679    12258.351 
   21730    285.86899    10.920526    64.519948   -157.35096    2399.6981    12258.351 
   21740    290.57484    10.058563    64.784143   -156.39446   -3303.9819    12258.351 
   21750    294.13024    7.4140997    62.007706   -154.52026   -2011.0487    12258.351 
   21760    323.44512    5.1398669     61.11259   -151.97017    -1284.752    12258.351 
   21770    289.49399    4.5135353    71.120788   -143.02158    3578.6923    12258.351 
   21780    306.38604    4.4355449    69.358583   -140.02029    383.01755    12258.351 
   21790    289.48668    4.9690936    67.032392   -136.90776   -836.02529    12258.351 
21800        0.98649492452108000773 10.112699507317158165 1 67 -266.75369488431272202
   21800    294.39559    7.8934831    66.210587   -133.36802    -1227.006    12258.351 
   21810    308.16867    9.7807697    72.490537   -129.62056    2456.3832    12258.351 
   21820    316.97629    14.152611    68.144995   -126.13833   -46.104848    12258.351 
   21830    339.44303    16.766118     65.69001   -123.87524    73.874564    12258.351 
   21840    317.21104    13.439397    70.706575   -123.03755   -1383.2581    12258.351 
   21850    296.60174    13.044202    69.374237   -126.03616    1771.1284    12258.351 
   21860    336.45079    11.318203      62.5576    -123.3395    183.26748    12258.351 
   21870    335.41653    7.9854387    67.458977   -124.88071    351.08072    12258.351 
   21880    316.65379    7.9407915    71.920171   -132.96102   -1540.9803    12258.351 
   21890    320.25119    9.9381045    62.241155   -137.76723    1125.3956    12258.351 
21900        0.98692250856090635303 10.087498755995072841 1 65 -273.88654815228676398
   21900     288.4138    9.2964609    72.688643   -143.21112    1741.5998    12258.351 
   21910     298.1756    8.1196061     64.37227   -148.16727    2471.4282    12258.351 
   21920    296.92405    6.6388065     60.12228   -152.27968    -4272.169    12258.351 
   21930    301.12689    6.5680537    56.870023   -155.02618   -158.31252    12258.351 
   21940    310.43061    7.5365864    55.591336   -156.89418    580.72988    12258.351 
   21950    318.92426    8.9118048    58.459138   -157.95383    3368.7411    12258.351 
   21960    308.13048    7.4298568    59.640756   -158.74483   -2511.3321    12258.351 
   21970     295.0814    6.1693884    58.564257   -159.45036   -1186.8529    12258.351 
   21980    281.90431    5.5648162    64.109472   -159.76108   -791.51875    12258.351 
   21990    301.32285    6.7702516    55.209324   -159.71905   -272.59041    12258.351 
22000        0.9856708651615069261 10.117800024923818469 1 69 -296.83391627057898177
   22000    298.00026    6.4672908    54.538245   -161.81503   -958.18284    12258.351 
   22010    313.07677    6.4557599    54.030853   -160.70055     811.4352    12258.351 
   22020    310.15962    5.6416002    56.402101   -159.32072   -1521.5923    12258.351 
   22030    284.84079    4.0379546     66.97638    -157.7603   -166.73668    12258.351 
   22040    287.08174    5.0214365    58.484936   -155.82158   -1927.8644    12258.351 
   22050    276.69446    6.3192018    75.609502   -153.49158    1202.2244    12258.351 
   22060    303.60482     5.898438    62.486198   -150.69299     610.8203    12258.351 
   22070    298.71254    10.671926     63.36641   -147.76366    501.48486    12258.351 
   22080    336.50407    11.510356    62.607347   -144.52686    2272.5597    12258.351 
   22090     312.5394    13.785107    75.399764   -141.81793    2930.4156    12258.351 
22100        0.98833046752363806764 10.072043709537846112 1 67 -285.26365900583630264
   22100    320.60667    15.454104    65.425607   -140.00219    997.94968    12258.351 
   22110    309.06489    12.102968    66.213523   -134.82074     61.42618    12258.351 
   22120    324.52006    9.7799638    62.643469   -130.81376   -1719.0562    12258.351 
   22130     341.9313    7.0380035     63.03699   -136.21507    1245.0988    12258.351 
   22140    334.54588    5.1761106    66.922927   -138.53878    2162.2183    12258.351 
   22150    328.32358    5.0675133    64.091775    -144.3861    739.15292    12258.351 
   22160    294.11758    5.3329115    64.073194   -151.48427   -1203.3435    12258.351 
   22170    284.81697    5.1815289     58.86974   -152.55795   -4200.5502    12258.351 
   22180    269.38866    7.1284274    66.769231   -156.83703    1122.0869    12258.351 
   22190    282.33682     8.050764    64.382212   -159.43426    572.19882    12258.351 
22200        0.98835539521205095781 10.094571683512798543 1 67 -289.27586638662177165
   22200    282.72293    9.2400325    52.926866   -161.17887   -1345.9783    12258.351 
   22210    273.44105    8.4631829    61.149813    -161.9631    -2995.624    12258.351 
   22220     287.0473    10.138733    56.023631   -167.23319   -2609.6969    12258.351 
   22230    298.19388    9.3995972    59.962313   -166.63252    4076.0303    12258.351 
   22240    302.86942    8.3178261    59.602054   -165.69809    1675.5904    12258.351 
   22250    277.55354    7.3414809    62.908213   -164.53169   -1446.0748    12258.351 
   22260     296.7097    5.8682244    59.300459   -162.72059   -1351.9119    12258.351 
   22270    285.47572    6.4026279    69.259591    -160.4498    616.37382    12258.351 
   22280    328.05618    9.4702933     53.23268   -157.93558     2657.764    12258.351 
   22290     295.1127    13.578038    67.281223   -155.68724   -199.11432    12258.351 
22300        0.98928580109280717103 10.084769829529637519 1 70 -302.07046198728568243
   22300    321.40936    12.722202    62.262602   -156.44531    -570.6625    12258.351 
   22310    318.59699    15.197622    61.823534   -154.52255    904.41067    12258.351 
   22320     313.1059     18.01239    63.541568   -152.86943    994.37204    12258.351 
   22330    320.21146    13.960738    63.271623   -146.80352   -1244.8498    12258.351 
   22340    298.51639    14.503305    64.361488   -145.73227   -2117.0338    12258.351 
   22350    319.16807     13.01763    63.693381   -148.92676    1673.2906    12258.351 
   22360    328.32134    15.955478    59.238694   -144.49845    2740.0887    12258.351 
   22370    311.66122    14.217944    65.680935   -144.66588    4113.8058    12258.351 
   22380     308.7453     9.604556    61.068354   -145.50478   -116.44085    12258.351 
   22390    280.14635    10.140873    66.593797   -146.59986    -1492.164    12258.351 
22400        0.98573825732048514503 10.12908782623204651 1 72 -298.20582724098358085
   22400    331.82577    8.3278033    55.325541   -147.86117   -3603.9701    12258.351 
   22410    317.45215    6.3915271    62.028826   -151.36969   -192.97522    12258.351 
   22420    303.20164    7.1094724    64.123565   -154.95099   -1715.2348    12258.351 
   22430    298.39596    8.1876441    59.184202    -159.0884    2587.9783    12258.351 
   22440     292.1068     10.62029    59.704511   -162.96926    1533.7935    12258.351 
   22450    284.81448    10.610492    59.661575   -166.19514    3463.3103    12258.351 
   22460    272.67407    9.1361817    66.889811   -168.52636    33.030363    12258.351 
   22470    294.00946    4.7244127    57.432143   -170.61349   -2315.7042    12258.351 
   22480    259.67697    6.0073885    65.515127   -172.22032   -1303.0719    12258.351 
   22490    277.78496    7.6487796    62.520045   -173.15476   -157.21995    12258.351 
22500        0.98238355479666372716 10.153850656303200495 1 67 -311.83118934693044366
   22500    304.53929    6.9389265    58.631769   -173.84957    1217.6201    12258.351 
   22510    299.45169    5.1712831     53.58004   -175.55445   -1031.6686    12258.351 
   22520    300.65816    8.8469194    57.449821   -176.33931   -2228.7688    12258.351 
   22530    275.34201    9.0691298    59.474804   -176.77833   -260.39244    12258.351 
   22540     270.3677    8.0674849    56.286419   -176.48977   -444.33215    12258.351 
   22550    248.80017    6.6242667    69.417093   -175.04321     1413.696    12258.351 
   22560    285.33156    6.8962596    63.034841   -166.74288   -470.02081    12258.351 
   22570    301.59397    8.5470313    61.579601   -162.15412   -321.73536    12258.351 
   22580    309.94715    11.221383    60.533931   -156.59933    933.12667    12258.351 
   22590    311.66851     11.68088    55.188575   -156.37592    2259.4356    12258.351 
22600        0.97442600551734281922 10.167224428067274999 1 66 -291.6931218036444875
   22600    309.69727    10.800722    62.405619   -151.37451    3028.8082    12258.351 
   22610    314.31666    6.5322032    64.079027   -142.44333    400.42857    12258.351 
   22620    321.42988    5.2283291    64.536193   -140.20223   -93.722269    12258.351 
   22630    303.39834    6.1643986      68.0158    -139.1046    -1071.797    12258.351 
   22640    297.53003    7.9822388    66.535784   -138.70945   -3537.5824    12258.351 
   22650    284.20822     6.171924    75.445096   -138.41468   -1920.9766    12258.351 
   22660    321.23931    7.9130837    59.161372   -138.41746    1495.8901    12258.351 
   22670    283.83385    8.5133195     68.43238    -138.7295    30.767645    12258.351 
   22680    285.60988    7.9717141     69.67214   -138.96123   -1059.9166    12258.351 
   22690     301.2486    8.3418463    58.465491   -139.10723   -2090.4796    12258.351 
22700        0.96037288664552655781 10.238894960466456752 0.99735449735449732689 65 -277.37496142724023684
   22700    304.84403    6.2204385    60.151958   -139.25527   -327.74305    12258.351 
   22710    304.74571    5.7507601    54.373096   -139.07278    972.63029    12258.351 
   22720     302.2999    5.5686757    61.077112    -142.8895   -772.99073    12258.351 
   22730    318.97096    6.6796835    61.834321   -142.19991    846.47982    12258.351 
   22740    321.35666     8.152743    61.531911   -142.18723    453.13231    12258.351 
   22750    327.63566     7.457094    51.860867   -143.04581    2968.3205    12258.351 
   22760    313.84481    6.0751831    58.725175   -144.75196    1625.3943    12258.351 
   22770    314.53046    4.5130447    63.043056   -147.73157   -2654.7899    12258.351 
   22780    308.70356    4.2774058    57.563834   -152.30324   -1649.2777    12258.351 
   22790    306.80207    3.7941129    58.169979   -158.08806   -1164.4678    12258.351 
22800        0.95282121341087588906 10.252072470408279514 0.99735449735449732689 63 -295.25691776623409623
   22800    290.27429    4.3186696    63.041514   -163.73854    1345.4196    12258.351 
   22810    276.05777    7.1348265    58.700565    -168.2337   -166.91213    12258.351 
   22820    265.01097    6.4774184     56.95785   -171.46127    1751.6324    12258.351 
   22830     273.5114    4.5457385    56.208087   -173.12735    671.49589    12258.351 
   22840    292.95141    4.0522864    49.645167   -173.79026   -85.642441    12258.351 
   22850      268.751    3.6915983    55.874593   -176.55993   -3671.4215    12258.351 
   22860    267.06205    4.8609244    61.766649   -175.10187   -2509.5202    12258.351 
   22870    288.35095    6.3266802    60.681447   -169.58045    -1894.672    12258.351 
   22880    294.05863    6.5932443     58.36096   -166.76392    917.93094    12258.351 
   22890    294.87249    7.2241247    61.841162   -163.68167    2688.3857    12258.351 
22900        0.96065814705120045058 10.207450653358291603 0.99470899470899465378 64 -309.08045210400428005
   22900    328.31579    10.243048    51.712855   -160.32611    5721.8552    12258.351 
   22910    302.69893    10.557996    62.420667   -157.39617   -8.8220139    12258.351 
   22920    303.14356    8.8627419    56.843318   -155.39831   -2522.7765    12258.351 
   22930      302.002    8.5145693    53.806252   -153.57107   -3623.0586    12258.351 
   22940    303.48987    7.3163323      61.1104   -152.74396    1013.3465    12258.351 
   22950    304.47445    7.6495296    59.508752   -150.98831    566.68834    12258.351 
   22960    307.85523    8.0948752    64.698522   -149.30602    994.12842    12258.351 
   22970    332.68799    7.3824324    53.672223   -148.05781   -1643.6363    12258.351 
   22980     305.9253    5.7558742    60.781666   -147.43035   -406.48241    12258.351 
   22990    313.52504    5.4707272    62.415685   -146.91796    1197.3414    12258.351 
23000        0.96617154005449090715 10.183295517375121619 1 63 -290.5715318607659583
   23000      328.828    4.0605992    60.230091   -141.58511   -862.35287    12258.351 
   23010    315.02017    5.4953706    63.778459   -142.28158   -3043.1885    12258.351 
   23020    300.87398    8.4207084    56.831262    -148.6189   -3141.4146    12258.351 
   23030    295.22602    8.5520223    62.431987    -151.2822    2731.3091    12258.351 
   23040    284.17286    7.7136175    62.639585   -155.61797    2143.1276    12258.351 
   23050    285.60805    7.6178191    61.453252   -156.91355     3626.174    12258.351 
   23060    277.77058     6.735085    61.470773   -168.86461    3544.5084    12258.351 
   23070    268.21227    4.8826125    65.328021   -174.08708    3176.8082    12258.351 
   23080    267.44828    5.1210306    58.095944   -177.88981    100.20359    12258.351 
   23090    252.56456    5.9206183    63.954568   -179.90908   -3595.1317    12258.351 
23100        0.9590291414775145018 10.210724243421687163 0.99735449735449732689 66 -307.87827249246367955
   23100    280.62232    6.5866784    47.012664   -180.73303   -3865.0004    12258.351 
   23110    272.28656    7.3302041      63.0584   -180.72678   -961.64194    12258.351 
   23120    289.40417    7.4553657    55.699538   -179.99806   -976.33995    12258.351 
   23130     274.1042    9.2317237    57.691132   -178.66112     1112.674    12258.351 
   23140    280.23105    7.9912766    63.203702   -176.45288    553.57582    12258.351 
   23150    261.74006    7.4834391    63.000545    -173.5765    880.47066    12258.351 
   23160    267.77029    7.8211855    61.970153   -165.13943   -572.12685    12258.351 
   23170    255.74102    6.0953963    65.375891   -161.19289    2311.4572    12258.351 
   23180    274.27326    6.5376018    64.449639   -156.66791   -2896.1044    12258.351 
   23190    302.09672    5.8248978    60.653524   -152.38709   -1776.9989    12258.351 
23200        0.95925667707783957017 10.210001268686566434 0.99735449735449732689 69 -296.43634854087616759
   23200    324.64557    3.6304839    66.894868   -149.34492   -1190.0715    12258.351 
   23210    332.70232    4.6629435     57.15877   -148.06008    792.80145    12258.351 
   23220    293.44289    6.0621439    60.760465   -151.18366    588.18157    12258.351 
   23230    300.67613     8.503824    55.859018   -147.20871    296.61313    12258.351 
   23240     304.5518    5.7723019    68.331327   -151.87148    2431.9373    12258.351 
   23250    314.62328    4.0044734    61.989203   -151.55653    748.37755    12258.351 
   23260     289.6304    3.3920352    67.171403   -151.91732   -2526.7198    12258.351 
   23270    310.26504    2.5708716    58.063469   -152.48741   -819.78587    12258.351 
   23280    300.20179    2.3453302    59.104229   -153.25248    2620.2336    12258.351 
   23290    284.57723    4.0401889    66.684437   -153.97603    3175.5567    12258.351 
23300        0.96460744003891141229 10.206496915852547147 1 72 -287.17009267087667013
   23300    292.48608    4.8463296    64.944038   -154.64958   -907.83592    12258.351 
   23310    297.78287    6.4019131    64.637287   -155.58886   -2680.4283    12258.351 
   23320    288.74499    7.0585827    70.771327   -156.75361   -1583.3118    12258.351 
   23330    289.53407    8.5543866    59.048396   -157.99616    435.71596    12258.351 
   23340    278.79932    8.4108308    62.991425   -159.19594     3491.335    12258.351 
   23350     280.9461     7.735405    57.964191   -160.01518    1577.9098    12258.351 
   23360     287.0949     7.102608     57.39635   -159.82306   -2722.1954    12258.351 
   23370      304.461    6.1054829    55.874208   -158.52906   -2597.4024    12258.351 
   23380    304.06695    6.4853993    64.049476   -156.73894    820.82987    12258.351 
   23390    321.30791    3.9906212    63.119746   -154.74259   -21.287786    12258.351 
23400        0.96968776410026924495 10.199936399821700306 1 73 -301.97019240221891323
   23400    328.83633    5.7449466    59.847254      -152.98    -1487.686    12258.351 
   23410    324.56324    6.0104687    63.860244   -146.65493   -937.51626    12258.351 
   23420     306.7131    6.4776218    68.310833   -146.48867    2691.1824    12258.351 
   23430    313.87905    6.5768387    67.519835   -147.18259   -362.21793    12258.351 
   23440    303.96125    7.0100689    60.675379   -148.87788   -648.86919    12258.351 
   23450    289.53587    8.0459956    56.549966   -150.96543    -2050.945    12258.351 
   23460    289.79785    8.3837468    58.333843   -153.06597    350.40609    12258.351 
   23470    279.07091    5.3705559     62.20545   -159.97673    2647.3844    12258.351 
   23480    279.08728    6.0676531    62.005298   -161.41209    93.787491    12258.351 
   23490    269.05617    5.0127934    63.089991   -162.34118   -447.69758    12258.351 
23500        0.97146232931415199552 10.202186314819535085 1 70 -302.26692971554206224
   23500    307.66642    5.8362842    55.655449   -162.86847   -955.57363    12258.351 
   23510    290.40895    7.1198759    60.810855   -163.58068   -1471.7269    12258.351 
   23520     302.5706    5.3082677    53.427419   -164.13782   -1095.2842    12258.351 
   23530    273.72534    6.5716905    63.570267   -164.30184   -1915.0559    12258.351 
   23540    289.60162     5.092292    61.113861   -163.93439   -9.7646902    12258.351 
   23550    282.24535    8.5641188    64.431878   -162.97908     2938.141    12258.351 
   23560    318.14343    10.354906    56.139559   -161.55142    1937.3097    12258.351 
   23570    319.64276    12.531364    60.208041    -154.4765    852.20703    12258.351 
   23580    327.89195    11.199536    57.729851   -152.56444   -478.16992    12258.351 
   23590    310.09119    11.573629    65.344059   -150.83727   -41.359555    12258.351 
23600        0.97776633120337042016 10.185503135319661894 1 72 -292.21015435496383361
   23600    315.00348    9.7706607    66.056881   -149.48739   -453.20951    12258.351 
   23610     311.3335    9.8134203    62.032472   -148.66491   -1350.9685    12258.351 
   23620    331.74448    8.1347622    51.068713   -147.92666   -1672.7229    12258.351 
   23630    307.46692    8.8822829    61.572853   -147.29038    816.56382    12258.351 
   23640    303.16201    7.7974292    59.878698   -146.67132    2043.0543    12258.351 
   23650    282.02436     5.857228    65.017227   -145.85603    508.80189    12258.351 
   23660    308.95712    4.6784507    59.220236   -144.62045   -1149.9213    12258.351 
   23670    302.07644    5.1186578    67.031381   -143.16355   -169.30873    12258.351 
   23680    336.43707    4.9697643    55.767358     -141.801    496.39799    12258.351 
   23690    311.41869    8.7411017    71.649827   -141.10419    1268.2025    12258.351 
23700        0.98611534517862942106 10.13252386710152031 1 69 -295.20673749318893897
   23700    329.23687    10.143982    61.050953   -146.03507    1268.2394    12258.351 
   23710    314.46201    10.795778    59.909143   -146.27584   -306.50538    12258.351 
   23720     314.9836    9.9423212    59.453134   -146.86654   -992.94634    12258.351 
   23730    322.49567    6.3010832    59.016373   -147.64151   -974.66632    12258.351 
   23740    303.57367    5.0892751    70.476397   -153.52123    789.90222    12258.351 
   23750    293.16901    6.3520664    69.731816   -152.46392     1767.282    12258.351 
   23760    324.36813    5.3862443     59.45669   -154.95116   -1475.0774    12258.351 
   23770    306.84087     5.877634    61.560664   -158.43926   -1221.7663    12258.351 
   23780    304.26356    4.8175492    68.078453   -162.72979    264.78841    12258.351 
   23790    291.37906       4.2001    63.246506   -167.66995   -736.26505    12258.351 
23800        0.98043382627385167183 10.123769850552241323 1 69 -307.77395209563303524
   23800    307.24403    4.4548113    60.678812   -168.56687    1391.4595    12258.351 
   23810    284.65641    5.5170343    53.643424   -172.77837    355.81316    12258.351 
   23820    268.21782     7.125381    58.356575   -175.07545   -732.28857    12258.351 
   23830    279.39038    10.388821    57.934905   -175.90695   -497.28626    12258.351 
   23840    277.05177    10.029393    56.699136   -180.65789   -335.01792    12258.351 
   23850    281.42104    8.4871835    54.969648   -179.79404    1265.7603    12258.351 
   23860     283.2364    8.7739388    53.164912   -178.14074    1524.3823    12258.351 
   23870     266.9606    7.2415918    64.987411   -173.13337   -614.50923    12258.351 
   23880    296.12236    6.7294883    53.240979   -170.15546   -1713.8206    12258.351 
   23890    273.76871    5.8632475    57.856914   -169.70757   -1653.9927    12258.351 
23900        0.98047922419395183713 10.098883025362196619 1 71 -289.01944275708598298
   23900    270.85968    8.3521289    60.156164   -166.29749   -1665.6385    12258.351 
   23910    260.12487    9.5573112    65.479726   -162.66946    1116.6957    12258.351 
   23920    280.95517    10.446578    63.801982   -158.99521   -512.79152    12258.351 
   23930    298.81142    8.1652753    69.091635   -156.07222    3218.0324    12258.351 
   23940    316.41218    7.9032969    64.228287   -154.12918    447.29495    12258.351 
   23950    332.27392    6.9248415    59.385777   -153.14999   -489.69481    12258.351 
   23960    315.70827    7.1378716    66.178173   -153.06327   -4925.5497    12258.351 
   23970    300.72066    7.1147929    65.393953   -153.54075    299.50424    12258.351 
   23980    307.87284    6.8030155     63.36031   -154.30135    2055.7304    12258.351 
   23990    292.90732    6.1840956     66.37835   -155.19224    2989.3972    12258.351 
24000        0.98682576265817734118 10.054845694108841769 1 67 -292.3962496053892437
   24000     300.1235    5.9374663    61.969653   -156.41536    619.42498    12258.351 
   24010    293.23949     5.490664    61.300259   -157.60287   -1064.7132    12258.351 
   24020    302.53997    6.7516702    59.670193   -158.47915    2338.9826    12258.351 
   24030    295.50947     7.002148    69.921694   -159.44159    2027.9931    12258.351 
   24040    280.67048    8.9335811    59.000673   -158.41748   -2289.3368    12258.351 
   24050    279.25945     7.981572    65.319549   -159.29627   -3381.9545    12258.351 
   24060    273.88194    7.7124933    57.345403   -159.71795   -719.96994    12258.351 
   24070    278.88432    7.5769677    58.553914   -159.58876    589.17379    12258.351 
   24080    310.09699    7.1372078    56.635777   -158.62318    976.84597    12258.351 
   24090    295.13686    5.8457956    64.955443   -159.15821   -26.491975    12258.351 
24100        0.98729240917535410205 10.067799907041417029 1 66 -308.72359013281885609
   24100    335.55566    7.2860775    58.357908   -156.68898   -575.93771    12258.351 
   24110    313.25833    5.3875514     68.62828   -151.36674    719.73972    12258.351 
   24120      303.625    6.1999158    63.291934   -149.67934    -8.457475    12258.351 
   24130    294.94198    7.4399849    64.623418     -147.849   -633.16193    12258.351 
   24140    300.17149    7.8075312    68.678651    -146.0225    110.08815    12258.351 
   24150    331.59231    9.0169147    65.033764   -144.31285     2647.266    12258.351 
   24160    312.02904     8.690855    63.358277   -143.03153   -795.42057    12258.351 
   24170    312.79527    9.3701297    70.938057   -137.92375   -173.01022    12258.351 
   24180      310.159    8.8816889    69.704335   -137.75111   -3356.8944    12258.351 
   24190    340.30921    6.6943115    66.262829   -143.80659    3052.3261    12258.351 
24200        0.99002361471075650545 10.06113455695411929 1 67 -297.32843140948722294
   24200    333.27455    9.7264527    58.185566   -146.32736    2309.2923    12258.351 
   24210    301.15174    11.132658    66.906459   -149.86118    712.04768    12258.351 
   24220    305.79703     9.406572    64.106727   -153.86455    288.46105    12258.351 
   24230    285.82573    9.1131086    65.655364   -158.02033   -2281.0081    12258.351 
   24240    308.22301    8.0817268    55.603723   -162.06999    222.89905    12258.351 
   24250    270.95094    11.414012    61.738153   -165.84764   -917.78095    12258.351 
   24260    273.20078    9.6471979    66.912313   -168.45619    2259.4695    12258.351 
   24270    275.07335    8.2768093    68.406994   -170.16175    1179.7265    12258.351 
   24280    294.86687     8.495446    54.154554   -171.26341   -281.01331    12258.351 
   24290    301.90922    6.2848194    60.285342   -172.15097   -481.91718    12258.351 
24300        0.99058058596204712209 10.060640158221209717 1 69 -303.28299147271087577
   24300    287.85787    6.9283563    60.458496   -172.85945   -1166.7729    12258.351 
   24310    300.05223    6.7988014    56.613735   -173.32488   -654.92588    12258.351 
   24320    298.83477    7.6578223    52.673143   -173.59967   -1562.1964    12258.351 
   24330    295.17974    7.2662913    50.461473   -173.54233   -988.03699    12258.351 
   24340    272.25258    7.3957741    57.494157   -173.03253    3004.4918    12258.351 
   24350    255.60319    6.7219682    60.873916   -166.57405    1784.1513    12258.351 
   24360    284.95398    6.5105941     60.15355   -163.16412    1523.2154    12258.351 
   24370    288.91492    6.5047857    63.544109   -157.71052   -2184.7144    12258.351 
   24380    315.91901    5.1345009    60.005754    -150.9449   -1937.3097    12258.351 
   24390    300.77819    5.9469491    68.460987   -145.34435     1552.629    12258.351 
24400        0.98793946053948644703 10.101330160725993323 1 67 -282.43415222504154372
   24400    310.77353    5.4024218    61.522853   -141.62791    -914.3776    12258.351 
   24410    333.39667    5.4794205    58.694557   -139.50413     3851.957    12258.351 
   24420    305.00181     7.446352    64.030657   -138.73216   -957.53447    12258.351 
   24430    333.89967    7.8691493    58.630748    -141.9035    1915.1973    12258.351 
   24440    314.20226    8.9767072    72.561497   -142.49465   -433.16118    12258.351 
   24450    336.83792     9.294696    57.299699   -143.84339   -805.26853    12258.351 
   24460    300.88018    7.0469249    68.686461   -145.87607    -809.2274    12258.351 
   24470    308.70241    4.7542987    60.796713   -148.12606    -1777.337    12258.351 
   24480    304.57773    6.7142472    57.123918   -150.31425   -878.37192    12258.351 
   24490    312.78629     7.494633    57.612623   -155.73875    1550.4372    12258.351 
24500        0.9811360152144407154 10.16333114415665051 1 64 -301.58740092665209431
   24500    317.87773    9.5004471    53.711383   -157.56236   -13.651379    12258.351 
   24510    310.22072    10.037797    56.752325   -155.84473   -1214.9777    12258.351 
   24520    289.34626    9.9829703    62.492761   -154.33101   -412.84126    12258.351 
   24530    299.98723    7.5927114    57.262229   -161.58489   -426.50193    12258.351 
   24540    283.52685    7.1543176    60.167059   -163.38849   -798.33442    12258.351 
   24550    297.91696    6.7982059    59.833836   -164.90535   -1376.2886    12258.351 
   24560    273.51202    7.8042122    65.156561   -166.27412   -151.79133    12258.351 
   24570    302.11777    7.1582962    49.936161   -167.32206    1340.7664    12258.351 
   24580    272.77928    7.3917331     64.75795   -168.00718    2274.2774    12258.351 
   24590    272.97389      8.60101    65.908138   -168.20974    2262.3507    12258.351 
24600        0.98186001002415290717 10.149784893171636568 1 64 -288.79303692829881811
   24600    266.72176    8.5522928    65.203013   -167.94591    -2038.083    12258.351 
   24610    279.24882    5.7909012    63.593864   -167.10736   -2704.7848    12258.351 
   24620    323.67708    6.1487863    57.325846    -165.3495   -1888.7124    12258.351 
   24630    316.25531    6.4248462    55.574596    -162.9009    937.44712    12258.351 
   24640    296.50253    6.8633372    55.065535   -159.97699    3202.4584    12258.351 
   24650    278.98213    5.9605903     69.69802   -156.30679    3398.8525    12258.351 
   24660    288.94194    4.9215679    66.364055   -152.00978    2028.5654    12258.351 
   24670    319.73497    8.1628963    55.655331   -147.44549   -3080.3539    12258.351 
   24680    317.28892    8.2385648    66.929498   -143.45725   -3169.8437    12258.351 
   24690    331.44981    8.3980192    53.980046   -140.46621   -4013.2282    12258.351 
24700        0.98022285367919370636 10.150882121707766714 1 66 -279.76887132080543097
   24700    312.20181    10.503595    67.772165    -138.3155    89.941903    12258.351 
   24710     329.0543     8.519921    66.101488   -137.08286    171.65163    12258.351 
   24720    301.14978    7.8334755     67.61643   -136.75012    1553.9477    12258.351 
   24730    312.31139    6.6999888    65.224651   -136.78039    1499.9558    12258.351 
   24740    311.53349    7.2164062    65.837962     -139.597    3213.6716    12258.351 
   24750    312.66668    6.7476878    66.741082   -140.39455   -293.83157    12258.351 
   24760    329.76978     8.504848    63.949865   -142.20521    2721.0634    12258.351 
   24770    338.14052     8.514918    62.307921   -145.31464    -2320.699    12258.351 
   24780    321.84652    8.2532147    61.467053   -147.44591   -2712.5869    12258.351 
   24790    294.03427      8.61763    70.211896    -152.7915   -3365.4154    12258.351 
24800        0.97667867041346312362 10.169735205246418275 1 64 -285.45899448489080896
   24800    281.66805    8.1619153    65.717757   -157.83995   -1487.0537    12258.351 
   24810    292.56634     7.051146    64.199773   -161.75322     1807.673    12258.351 
   24820    294.39925    5.5834904    60.121152   -164.88058    658.92518    12258.351 
   24830     293.1612    6.7075075    54.000264   -166.94006    1572.9929    12258.351 
   24840    276.47521    8.8251336    56.719611   -167.95087    1240.4818    12258.351 
   24850    283.91933    7.6314509    61.135902   -167.98518    2971.8848    12258.351 
   24860    290.26178    6.5495416    61.214166   -167.61254    315.12359    12258.351 
   24870    273.35891    8.0342703    65.046173   -167.10795   -249.59229    12258.351 
   24880    270.90937    10.453683    62.737541   -166.00338    128.72368    12258.351 
   24890    291.65625    8.0039624    60.067334   -164.20649   -1385.8278    12258.351 
24900        0.96448520342143395645 10.225765838297443011 1 65 -304.96557072360252505
   24900    315.05667    8.4300431    58.357051   -162.21871   -4272.2987    12258.351 
   24910    304.58739    9.7492631    60.244276   -160.62874    -3464.673    12258.351 
   24920    296.49499    10.211139    57.244574   -159.13053   -2422.9907    12258.351 
   24930    288.59085    9.2912071    64.053113   -157.33022    3388.8278    12258.351 
   24940    299.28978    7.4696507    65.544584   -155.25633    2081.1563    12258.351 
   24950    290.09747    7.4648695    66.847878    -153.1495    384.21581    12258.351 
   24960    313.18036     5.567625    58.323297   -150.89973   -575.52869    12258.351 
   24970    301.27198    4.9044193    64.654664   -143.75441   -663.39486    12258.351 
   24980    318.86402    5.3767047    64.688866   -141.90429    1322.5912    12258.351 
   24990     316.6739    4.9406936    57.162302   -140.54124   -1726.9033    12258.351 
25000        0.96404176557489329458 10.207679302943796884 1 68 -275.86515293679974548
   25000    301.45348    4.0899208    64.954542   -139.28167   -3045.2509    12258.351 
   25010    312.93872    4.1791744    63.323448   -137.60225    2759.8738    12258.351 
   25020    315.88678    4.9439595    65.837842   -135.51546    1514.1599    12258.351 
   25030    316.09732    4.3876138    69.266894   -132.98632     1881.712    12258.351 
   25040    338.03266    5.6447409     61.53525   -130.17838   -2980.2129    12258.351 
   25050    338.94035    8.2790382    69.045003   -127.44152    2794.5009    12258.351 
   25060    362.52553    8.2292134    66.407193   -125.77801    1985.9031    12258.351 
   25070    320.29373    5.5582696    66.188891   -125.68596    -2253.426    12258.351 
   25080    304.31046    4.8550336    78.939078   -126.92344   -4489.1125    12258.351 
   25090     322.7903    3.8404927    68.454377   -129.31123   -281.80408    12258.351 
25100        0.96416207411348953116 10.212857237159088442 1 70 -281.5655675079991056
   25100    327.76604    3.4776607    55.495319   -133.06031   -313.91028    12258.351 
   25110    312.11776    4.5890124    60.898709   -142.49659    2582.2767    12258.351 
   25120    302.33173    5.8062932    65.099056   -146.50832   -1893.8913    12258.351 
   25130    292.84904    7.1749744    62.622142   -150.28405     3153.535    12258.351 
   25140    268.38274    8.2472448     62.13342   -153.31406   -2635.3954    12258.351 
   25150    293.51751    7.2142927    59.754052   -155.41858    1614.2431    12258.351 
   25160    276.08983    6.7155875    60.185265   -158.80899   -2129.2587    12258.351 
   25170    303.88276    4.6875839    56.239185   -159.75957     3088.496    12258.351 
   25180    287.72532    4.7028951    63.745296   -157.73763     1219.488    12258.351 
   25190    280.11306    5.6702891    61.019758   -158.30989    -857.0311    12258.351 
25200        0.96749957924147045318 10.20162501157572521 1 72 -280.0619200438912344
   25200     268.4839    6.4822562     64.37085   -158.41639   -1850.9751    12258.351 
   25210    284.18134    5.4221431    63.492534   -157.73728   -539.00615    12258.351 
   25220    290.37844    5.2856218    63.864221   -156.44666    1929.2725    12258.351 
   25230    270.85396    9.9628066    63.528274   -154.43601     1696.931    12258.351 
   25240    308.79539    10.328626    62.008402   -151.03553   -3503.2002    12258.351 
   25250    320.64604    7.6319889    69.905715   -146.84809    579.63206    12258.351 
   25260    321.83647    8.3706976    62.568401   -143.19292   -2937.0395    12258.351 
   25270    343.35682    8.7480594    61.149685   -140.07603    3114.7664    12258.351 
   25280    324.68234    8.9867278    66.361419   -137.77968   -3081.4371    12258.351 
   25290    332.52568    8.9671141    58.560335   -136.16396   -359.40222    12258.351 
25300        0.97141081420969777049 10.186181021456309992 1 70 -272.03930410228474557
   25300    311.28261    9.4923077    70.661656   -131.00241   -462.96304    12258.351 
   25310    308.12193    12.027478     70.21266   -131.15358    2530.9444    12258.351 
   25320    312.74105    10.559335    66.237496   -132.13578     512.1492    12258.351 
   25330    318.96497    8.4185972    62.992894   -134.18714    175.67821    12258.351 
   25340    331.41804     6.000475    66.475567   -143.10573    357.32731    12258.351 
   25350    307.26464    6.7126426     67.45339   -149.44974    2695.1348    12258.351 
   25360    276.78451    9.1081676    65.718188   -155.95442   -1215.4512    12258.351 
   25370    273.67129    7.1320578    61.543571   -160.77124   -578.88313    12258.351 
   25380    277.42313    6.8894041    49.819779   -163.74844   -1775.2416    12258.351 
   25390    269.72988    8.6690946    62.194041   -165.11455    1853.3179    12258.351 
25400        0.9701962789828190159 10.170603698583571273 0.99735449735449732689 69 -289.28260945759910783
   25400    273.05551     10.72695    58.680733   -165.56576    2662.2079    12258.351 
   25410    266.76619    9.2080346    61.727284    -160.0303    -566.4662    12258.351 
   25420    288.37862    6.6991282    54.241257   -159.13255    510.96511    12258.351 
   25430    307.27777    5.0573084    54.629244   -160.19872   -1981.5201    12258.351 
   25440    308.30392    3.3722022    58.095844   -162.54157    526.19079    12258.351 
   25450    325.77175    5.0379723    59.933535    -160.4478   -1741.7013    12258.351 
   25460    305.41603    7.1471126    66.261625   -158.75738   -1474.6233    12258.351 
   25470     327.1397    7.6471501    56.046577    -157.3732    587.42177    12258.351 
   25480    288.00902    10.938806    69.036946   -156.36952    2312.2967    12258.351 
   25490    298.30818       9.1931    67.287809   -155.58763    3580.9379    12258.351 
25500        0.97034067932820899927 10.192972508278801413 1 71 -281.36001370772430619
   25500    279.15932    9.9446666    75.059834   -154.87763   -2458.7007    12258.351 
   25510    324.45544    9.3392998    52.565098   -152.14763   -1376.0003    12258.351 
   25520    309.03359    5.5041644    65.922291   -151.27363    491.88362    12258.351 
   25530    305.93345    5.4771005    61.202091   -150.48746   -2419.0647    12258.351 
   25540    306.78591    5.8996038    65.042224   -147.48745    1093.4607    12258.351 
   25550    317.74462    7.3200003    57.665721     -151.626   -710.50512    12258.351 
   25560    320.55878     7.032704    63.112912   -147.98858    4057.0456    12258.351 
   25570    339.44883    7.3134662     61.64775   -147.46203    1663.2345    12258.351 
   25580    317.09942    6.5055005    62.835382   -148.32008   -620.65285    12258.351 
   25590    297.08389    6.2584295    63.515289   -149.85332   -1634.8555    12258.351 
25600        0.96676669332859199724 10.194992232457313008 1 67 -290.91402400977648313
   25600    308.15635    6.2588811    57.821204   -151.29358   -1768.9951    12258.351 
   25610    293.41819     5.904732    62.766999   -152.64305   -2087.3041    12258.351 
   25620    311.19099    5.2522808    62.084759   -154.46703    351.88996    12258.351 
   25630    299.74103    5.7362202    67.078209   -156.91853   -1923.1532    12258.351 
   25640    311.81495    6.3016686    49.747008   -159.62286    3419.3502    12258.351 
   25650     291.3658    5.5467476    58.925322   -162.04842    -420.8589    12258.351 
   25660    295.02258    5.1604089    56.780548   -163.80237    2523.4899    12258.351 
   25670    287.85099    4.5290601    51.201574   -164.93145    -2279.944    12258.351 
   25680    282.57958    7.4588196    56.281043   -165.25767   -1165.7281    12258.351 
   25690    291.81282    5.3950293    58.069586   -167.30473    2050.7227    12258.351 
25700        0.96974099874072083871 10.18505968823341945 1 72 -293.10850554130047385
   25700    291.38398    2.9838561    63.548562   -161.08734   -199.97777    12258.351 
   25710    300.50813    5.5870601    58.082433   -159.80135   -1358.9075    12258.351 
   25720    293.47436    5.1077356    57.719705   -158.10597   -2187.6191    12258.351 
   25730    319.52649    4.8853299    52.732194   -155.30726   -1417.9503    12258.351 
   25740     334.2302     3.843125    53.718482   -151.85782    2246.6436    12258.351 
   25750     328.9023    5.6782207    49.794534   -153.11154   -60.547279    12258.351 
   25760     313.6986    7.2702405     60.79329   -149.43323   -298.11474    12258.351 
   25770    319.98503    8.5748569    67.179321   -145.56701    2007.2715    12258.351 
   25780    329.03638    9.7401486    56.155632   -139.59488    612.48949    12258.351 
   25790    345.55638    9.2354715    55.647269    -139.2992    -174.1232    12258.351 
25800        0.98185380924711029849 10.151286379297463469 1 69 -282.9940893734636802
   25800    322.34741     8.192551    64.469856   -136.94392   -1422.9744    12258.351 
   25810     325.3575    8.5587516    64.412625   -135.45372   -2817.8726    12258.351 
   25820    337.28733    8.6881142    64.066231   -135.14017    2827.4232    12258.351 
   25830    343.15554    8.0135381    63.404876   -136.45591    92.700056    12258.351 
   25840    353.03995    6.6397031    55.094181   -139.55746    186.72155    12258.351 
   25850    315.74359     6.556602    64.266968   -144.88283    975.39543    12258.351 
   25860    310.14653    6.1068071    58.006941   -143.40961    1518.1409    12258.351 
   25870    302.51198    6.2711991    57.725756   -153.16526   -85.159474    12258.351 
   25880    302.34156      7.36228    68.321729   -161.48301   -1187.8425    12258.351 
   25890    293.70268    11.000574    56.070393   -164.81155   -399.09314    12258.351 
25900        0.98384643731317866777 10.132829349012997255 1 69 -297.61964051639131412
   25900    289.28885    10.403815    58.465244   -166.54774    142.82609    12258.351 
   25910    294.19313    7.8380829    61.173916   -167.28794    2101.0476    12258.351 
   25920    295.98086    6.6210571     58.58633   -167.79018    1470.0616    12258.351 
   25930    281.43834    6.7873222    55.902188    -167.9593    143.02875    12258.351 
   25940    292.31358    6.5599778    54.886775   -164.34727    555.83832    12258.351 
   25950    308.37401    6.6554571     53.38228   -163.46677   -12.911717    12258.351 
   25960    314.00021    8.6692909    56.421112   -162.40182     69.27222    12258.351 
   25970     298.6805    11.452605    62.264728   -158.50986   -2348.3971    12258.351 
   25980    276.10987     9.260165    63.817488   -163.65438   -2011.9636    12258.351 
   25990    290.76195    5.7022981     64.56739   -163.50657   -440.63862    12258.351 
26000        0.98509534523304720377 10.130028557025053004 1 72 -287.80181363265478467
   26000    275.18692    7.6471257     62.75919   -163.11927    1310.0436    12258.351 
   26010    282.71587    4.9787331    57.837088   -164.75402    694.75804    12258.351 
   26020    290.17504    4.7308441    62.289866   -160.06736     2628.135    12258.351 
   26030    272.76317    4.0644999    66.215545   -157.16502   -202.13844    12258.351 
   26040    280.35495    6.7981014    65.420254   -151.84661   -715.67174    12258.351 
   26050    305.45568    9.4957519    60.041175   -146.97593   -3517.6293    12258.351 
   26060    319.01327    11.731396    61.502199   -138.88508   -216.00289    12258.351 
   26070     338.5855    9.7773232    56.204827   -135.35367   -355.35917    12258.351 
   26080    315.70341    9.4187639    59.340441   -137.82291   -2792.6412    12258.351 
   26090    329.15001    7.8633951    62.338325   -131.17439    649.38415    12258.351 
26100        0.98481194119987103264 10.106929484192212598 0.99470899470899465378 71 -267.30485980784510502
   26100     302.1031     7.754797    75.265673   -130.42704    1369.5333    12258.351 
   26110    324.66309    7.6901322    63.854379   -130.52785     2066.589    12258.351 
   26120    298.55138    7.4995863    72.312469   -131.54616    1784.9504    12258.351 
   26130    305.99886    6.4009785    68.632947   -133.20685    698.77699    12258.351 
   26140    315.86896    6.9318094    62.627315   -135.37495    330.67663    12258.351 
   26150    301.78896    7.1319124    62.144739   -137.59637   -1168.4905    12258.351 
   26160    302.78767    5.8500003    58.763436   -139.33507   -272.33491    12258.351 
   26170    299.99974    5.7178365    66.007414   -140.53469    393.46178    12258.351 
   26180    342.39144    6.6837426    51.651519   -141.82768   -472.98265    12258.351 
   26190    309.49979    9.0405468    59.907989   -148.20715   -731.37957    12258.351 
26200        0.9866097259015923493 10.09788477366883086 1 70 -291.46806970847433149
   26200    311.93441    6.9331886    52.685239   -150.13585    2318.0752    12258.351 
   26210    282.16185    4.8890253    59.274037   -151.53133    1991.0061    12258.351 
   26220    293.97752    3.0936408     56.56153   -152.21885   -969.58599    12258.351 
   26230    294.88776    4.0154869    55.427173   -152.34783   -1218.5057    12258.351 
   26240    323.65202    4.9145151    48.331664   -147.74304    348.46998    12258.351 
   26250    290.09553    6.6402795    66.596391   -147.27694   -65.018707    12258.351 
   26260    303.43741    12.389865    53.799827   -154.09768   -1094.8536    12258.351 
   26270    279.67481    14.960054    64.426835   -153.72833    -1809.791    12258.351 
   26280    312.99615    11.630957    57.739312   -153.36326    1914.1996    12258.351 
   26290    323.20931    8.1081764     56.00501   -153.29165    1828.1318    12258.351 
26300        0.98484422932838600051 10.136818527641858978 1 68 -301.07335369457700835
   26300    325.15387    4.9529232    52.902517   -153.75162    1143.3772    12258.351 
   26310    318.52015    4.9399331    54.222552   -154.36996   -960.43867    12258.351 
   26320    301.97822    4.2826971    59.051883   -152.32378   -2855.8028    12258.351 
   26330     288.5241    5.3376223    65.469965   -153.16323    451.91593    12258.351 
   26340    290.05057    7.9855908    62.707206   -154.01228   -1707.7602    12258.351 
   26350    276.97488    10.541909    70.893615     -150.829   -792.65185    12258.351 
   26360    276.55707    8.8090498    61.953387   -152.04302   -1799.4814    12258.351 
   26370    269.96567    8.7629905    64.522843    -152.7493    1295.8919    12258.351 
   26380    297.25771     7.579751    56.142017   -157.54386    4343.4578    12258.351 
   26390    317.36143    6.3425268    57.575067   -156.77033    666.45235    12258.351 
26400        0.98294383385535977204 10.13102099495177022 0.99735449735449732689 72 -286.73278127050042485
   26400    288.68222    5.8077431    58.665024   -155.93574    982.90122    12258.351 
   26410      289.427    6.2482914    59.057758   -154.12557   -1182.5966    12258.351 
   26420    312.78587    5.5156136    58.216376   -150.81802    429.60784    12258.351 
   26430    316.95557    5.4774334    70.087471   -146.99095     10.30971    12258.351 
   26440    319.95622    7.2742009    57.197058   -143.24371    811.75406    12258.351 
   26450    307.05984    8.6387535    72.285968   -140.17074   -961.77832    12258.351 
   26460    335.73639    10.270394    59.406454   -137.62952   -9.0731371    12258.351 
   26470    324.06353    10.201941    63.810441    -130.8127   -2694.7743    12258.351 
   26480    292.21338    12.820166    63.573854   -129.86053   -428.77435    12258.351 
   26490    336.77644    9.1857457    63.849339   -128.96464   -2695.7219    12258.351 
26500        0.98236958855593015105 10.132705900938182353 1 70 -267.05246587189697038
   26500    304.95684    6.1877769    71.319471   -128.88167    1601.1986    12258.351 
   26510    333.81624    5.0109339    60.138932   -129.52327    -1434.543    12258.351 
   26520    317.31603    7.8568453    66.754557   -136.63518    974.76159    12258.351 
   26530    317.10195    11.014459    59.157555   -139.83346   -644.48567    12258.351 
   26540    299.84307    10.251575     65.80249   -144.15972    2257.3124    12258.351 
   26550    286.86525    7.8018737    61.525635   -148.83745    2332.1136    12258.351 
   26560     295.2036    6.1220333    57.283852   -153.13926    2302.3957    12258.351 
   26570    291.47358    5.3974187    59.388711    -157.0835   -1408.5549    12258.351 
   26580    290.15602    5.6030744     50.92075   -160.04103   -896.41956    12258.351 
   26590    285.99487    5.8854918    54.019267   -161.88621   -769.45008    12258.351 
26600        0.98269546897116122341 10.144063497255732642 1 72 -300.46964432350739571
   26600    303.67397    6.4346268    50.512055   -162.88009   -666.18905    12258.351 
   26610    298.79551    8.0144483    53.708397   -158.36764   -2212.0205    12258.351 
   26620    317.63664    8.4980306    56.968239   -158.95787   -358.79362    12258.351 
   26630    299.41119    8.8998186    59.381104   -159.76517    1735.5015    12258.351 
   26640    299.99071     7.128113    53.574257   -160.69944    2978.9092    12258.351 
   26650    291.86878    6.8683142    52.228622   -161.48154   -392.86076    12258.351 
   26660    298.99678    6.6717493    54.707453   -161.62428   -509.78319    12258.351 
   26670    294.52537    6.6575115    58.624079   -164.31343    100.57356    12258.351 
   26680    276.84996    7.4908322    64.809475   -163.46631   -1634.6286    12258.351 
   26690    296.21533    9.3443116    48.890722   -162.03872   -3122.4495    12258.351 
26700        0.98663717566163433581 10.113457217689271417 1 71 -299.96561384405737272
   26700    308.42154    10.431938     55.74917   -160.22502   -2663.0347    12258.351 
   26710    311.34657    10.418946    60.648129   -158.28119    2380.5048    12258.351 
   26720    318.38929    8.5021513    52.336613   -153.32286    3498.7238    12258.351 
   26730    302.82143    6.6895796    63.647223   -156.74756    5818.6511    12258.351 
   26740    315.33359    6.1201027    62.734724   -155.18952     -528.039    12258.351 
   26750    302.02087    5.7539264     65.59858   -154.22132    -2189.141    12258.351 
   26760    287.13936    4.5874537    69.154638   -153.72205    -4282.358    12258.351 
   26770     288.5289    4.3101492    62.696531   -153.35425    -651.1472    12258.351 
   26780    293.21376    3.5607767    62.493023   -152.43778   -3100.3061    12258.351 
   26790    305.73718    5.6429581    57.783875     -150.521    816.29162    12258.351 
26800        0.97636406930191177445 10.120354961711797159 1 67 -279.98982769572000961
   26800    291.55808    8.7042563    67.903248   -147.88978    3799.1592    12258.351 
   26810    310.79866    8.3090988    61.609671   -144.78301    3465.0765    12258.351 
   26820    299.38659    5.2943472    69.669759   -141.99671   -2037.7898    12258.351 
   26830    304.81909    3.7076328    63.929471   -134.63927   -748.23708    12258.351 
   26840    318.27873    3.1283393    64.871937   -132.70348    1919.6703    12258.351 
   26850    318.61429    5.8612006     60.34959   -136.16884     2099.486    12258.351 
   26860    315.66454    4.1523909    60.317705   -136.03303    -753.7078    12258.351 
   26870    285.40865    5.6634845    65.352567    -136.2638    476.02092    12258.351 
   26880    288.10546    9.1316505    65.445546   -136.05201   -261.99738    12258.351 
   26890    291.50052    12.357194    66.371148   -135.20337    1679.9178    12258.351 
26900        0.97619885412488160981 10.135680628916691859 1 71 -278.47026217037455353
   26900    318.39836    9.2886026    63.432247   -134.20934   -1342.0673    12258.351 
   26910    323.46299    9.5970965    58.586675   -133.06297   -2654.9649    12258.351 
   26920    335.21919    7.2018291    61.911251   -132.23098   -2763.5108    12258.351 
   26930    324.43581     6.258007    59.001906   -132.23102    112.29394    12258.351 
   26940    300.09755    6.0971042    62.557746   -133.02681    2638.9835    12258.351 
   26950    310.78405     7.383808    61.884718   -134.05273    1075.5261    12258.351 
   26960    322.60608    8.6928588    63.729966   -135.56133    2531.9829    12258.351 
   26970    338.55763    7.9459724     51.46035   -138.09729     1181.274    12258.351 
   26980    300.34076    7.3923569    65.725389   -137.04248   -1044.6747    12258.351 
   26990    301.20866     6.584797    61.278694   -143.90996   -2524.7792    12258.351 
27000        0.97020485267114464634 10.16324007019237996 1 70 -286.57814370749952104
   27000    306.54224    7.3519629      64.5704   -147.68903   -3586.0383    12258.351 
   27010     278.0208    4.4131826    70.218046   -154.69309   -162.42262    12258.351 
   27020     282.6037    4.5692011    53.042583   -155.08056    1460.2658    12258.351 
   27030    264.47419    3.8236623    63.787587    -157.4705    326.65834    12258.351 
   27040      290.469    4.6142965    54.800388   -162.04583    2680.1484    12258.351 
   27050    287.58187    3.6196473    57.132997   -162.62277    1137.0864    12258.351 
   27060    299.64755    4.1923447     58.36545   -159.25162    735.59808    12258.351 
   27070    288.63134    5.6039253    59.078033   -158.95215   -2704.0445    12258.351 
   27080    287.45479    5.5768969    61.704308   -158.52921   -1450.8801    12258.351 
   27090    274.57721    4.4137261    61.592735   -157.71828   -87.321048    12258.351 
27100        0.97094910367677078611 10.168146063104451571 1 71 -290.25121770165446833
   27100    295.76023    6.3856906    57.571956   -156.24725    1057.6921    12258.351 
   27110    313.42694    7.2307829     61.09597   -158.19445    1069.0206    12258.351 
   27120    287.48463    10.138869    59.982916   -152.89425    628.99255    12258.351 
   27130    290.45069    10.800354    58.435439    -148.7834   -2601.0663    12258.351 
   27140    281.14752    7.6043203    76.491858   -142.43162    364.86122    12258.351 
   27150     325.5169    7.5961232    70.844769   -134.63131   -373.59051    12258.351 
   27160    335.62662    9.3339214    68.489014   -128.56079    529.98451    12258.351 
   27170    368.22523    14.120521    59.289352   -125.69768    83.572325    12258.351 
   27180    329.18912    14.878125    64.754138   -125.35041   -1422.1255    12258.351 
   27190    347.17848    11.151705    59.923459    -126.5932     2372.826    12258.351 
27200        0.97193431283479581051 10.188711208417640108 1 71 -274.29153351645391012
   27200    321.08084    9.9965739    62.055332   -128.81522   -264.61486    12258.351 
   27210    333.36244    5.8755669    61.669637   -131.52004   -195.81868    12258.351 
   27220    339.23616    4.3748414    65.809626    -135.1605   -2216.9909    12258.351 
   27230    334.63578    4.2493385    56.038133   -134.23721   -1300.1913    12258.351 
   27240    323.16344    3.3630627    58.031945   -138.26181    1148.9442    12258.351 
   27250    305.42959    3.4174895    54.045065    -144.9506   -841.67957    12258.351 
   27260    303.56472    5.7580125    59.870025   -147.01945    1066.3105    12258.351 
   27270    300.47277    8.4912558    60.065957   -148.61806    133.14688    12258.351 
   27280    278.21197    9.1006551    67.621104   -149.91079   -955.26304    12258.351 
   27290    291.51796    8.1552096    61.024831    -150.9156   -62.223375    12258.351 
27300        0.9645542859440376926 10.210570544678931881 1 69 -278.89479436513158817
   27300    280.32548    6.6355873     62.80741   -151.88405   -1817.7904    12258.351 
   27310    289.63411    5.1642765    66.508496   -152.72591     981.5907    12258.351 
   27320    312.54777     4.844083    53.184963   -153.40444    -6.108666    12258.351 
   27330    289.72124    5.4161122    57.426566   -153.89113    329.84523    12258.351 
   27340    269.01549    7.8915514    67.265821   -153.78207    1643.2084    12258.351 
   27350    248.32456    10.110307    70.837709   -153.01724    647.78658    12258.351 
   27360    270.97634    11.453865    69.119001   -148.12947    1476.3984    12258.351 
   27370    288.31922    9.1484029    58.881818   -145.82006    -867.1211    12258.351 
   27380    298.34149    8.9202002    54.542821   -142.53979   -1073.7446    12258.351 
   27390    281.40381      9.64535    67.313278   -141.50827   -505.71507    12258.351 
27400        0.95373518456632033757 10.229142847857627174 0.99735449735449732689 70 -277.04958685260953644
   27400    312.12588    9.9267135    56.233313   -135.63062   -2020.8648    12258.351 
   27410    325.38879    7.2724454    67.806527   -126.06262   0.55221976    12258.351 
   27420    356.79442    6.3312805     61.56752   -121.79164    269.34123    12258.351 
   27430    313.71313    6.7503862    68.574576   -124.02666   -1023.8362    12258.351 
   27440    293.39902    6.0397432    73.179444   -123.24051     2940.021    12258.351 
   27450     304.7426    6.2156757    67.809853   -122.78745    195.57258    12258.351 
   27460     342.7907    6.6464536    59.036988   -122.98267    2522.7327    12258.351 
   27470    343.42892    8.1415106    62.491372   -124.14945    683.83183    12258.351 
   27480    304.93097    8.2868187    62.979698   -125.99733   -1570.3681    12258.351 
   27490    317.29037    8.3615674    63.102874   -127.63472   -1937.4979    12258.351 
27500        0.95449595430820388664 10.207246359531378488 1 68 -286.77284105994112906
   27500    346.90026    8.1105475     51.47342   -129.59819   -1975.3427    12258.351 
   27510    330.34567    6.5180821    61.058801   -135.03524   -72.048843    12258.351 
   27520    313.91016    5.0506104    59.840117    -134.0957    1141.9251    12258.351 
   27530    320.47581    8.4261345    60.629038   -137.30859   -698.28209    12258.351 
   27540    343.89294    6.7225406    56.558652    -140.3666    117.46143    12258.351 
   27550    327.50041    4.3232389    59.041239   -143.76671    856.51582    12258.351 
   27560    290.32139    5.9531043    59.209359   -151.26924   -1828.8992    12258.351 
   27570    317.23012    9.4086741    51.031893   -152.74143   -1988.0138    12258.351 
   27580    336.13505    8.6251967    52.442533   -153.86351    -2.771064    12258.351 
   27590    318.39884    6.0825854    55.999891   -150.24261    73.136939    12258.351 
27600        0.96590958205278065751 10.177362308733654217 1 65 -287.38887603771746626
   27600    290.38376    5.7472431    58.611739   -155.82089    2406.5112    12258.351 
   27610    287.59899    5.7233517    63.354863   -156.50452   -1911.0588    12258.351 
   27620    295.81101    5.3837679    62.368723   -154.36228   -746.46011    12258.351 
   27630    308.66408    5.1487697    58.472676   -154.54092   -68.958464    12258.351 
   27640    296.55201    6.9605299    66.738081   -150.32983    1077.2089    12258.351 
   27650    297.06216    9.4721551    57.680436   -155.91247    823.50006    12258.351 
   27660    282.81906    8.9235032    61.579556   -156.21936    525.94123    12258.351 
   27670    291.55624    6.9563405    56.730542    -156.2085     1851.568    12258.351 
   27680    283.92472    5.7612121     64.56837   -155.86389    980.76305    12258.351 
   27690    287.24929    5.1627063    58.313413   -155.05897    218.09622    12258.351 
27700        0.97791645982437602758 10.160884033651871761 1 69 -286.89613993550790383
   27700    294.18085    5.6489203    60.264933   -153.60776   -1803.2291    12258.351 
   27710     304.5828    6.4338163    66.031855   -151.36857    1770.3692    12258.351 
   27720    313.53908      7.81934    60.714433   -148.55043    1054.6246    12258.351 
   27730    300.69395    8.4697706    62.382388   -148.32915    1256.0124    12258.351 
   27740    280.33117     10.25322    68.741281   -145.00171   -2080.4743    12258.351 
   27750    308.76863      8.73064    66.193702   -140.88623   -1970.8849    12258.351 
   27760     329.3195    6.3824951    66.188433   -133.87689    242.53402    12258.351 
   27770    313.31568    7.4231914    69.765755    -130.7126    1890.4266    12258.351 
   27780    312.41692    10.474407    67.313021   -128.31665   -2053.9165    12258.351 
   27790    310.17263    9.7775091    74.640658   -126.95794   -4097.5225    12258.351 
27800        0.98593933709251224684 10.139157642130633974 1 69 -280.6774254892250724
   27800    339.68987    10.998779    64.847331   -126.76968    60.089896    12258.351 
   27810    316.88972    9.9272284    69.500903   -122.57764    1706.0428    12258.351 
   27820     317.5954    11.822939    63.962071   -124.68905     148.5554    12258.351 
   27830    309.74924    10.591153    72.437178   -127.94544    -656.3206    12258.351 
   27840    345.65621    9.3949357    59.583896   -136.02031   -181.99817    12258.351 
   27850    333.50631    7.2837198    63.679491     -142.951    3355.6153    12258.351 
   27860     335.4974    6.6360338    55.950038   -147.34469    350.20958    12258.351 
   27870    307.47034    6.8553713    61.056327   -157.57223   -2077.5565    12258.351 
   27880    341.53818    7.1360224    47.496322   -161.19638   -23.657034    12258.351 
   27890    311.60809    7.1633206    51.001775   -164.08936    1089.1072    12258.351 
27900        0.98272475193304020813 10.122913294817882601 1 70 -299.93595757408962754
   27900    295.89093    6.9015527    47.806501   -165.87277    3663.8518    12258.351 
   27910    272.97718    7.6446706    51.268903   -166.54942    376.22739    12258.351 
   27920    252.94609    7.9178201    54.769936   -166.12108   -2272.5923    12258.351 
   27930    276.49256    6.6377161    50.449704   -164.49382    93.134983    12258.351 
   27940    280.76261     4.712335    58.765979   -161.84577    4111.2921    12258.351 
   27950    297.73097    5.2332237    53.443357   -158.45871   -272.33334    12258.351 
   27960    289.75407    5.3226585    60.721708   -154.65507   -3082.2035    12258.351 
   27970    304.89995    4.3944995    54.466095   -151.34871    -2241.963    12258.351 
   27980    287.07264    4.6858997    60.941829   -148.51745    1182.2032    12258.351 
   27990    296.03433    5.5088606    63.014486   -145.87804    133.33593    12258.351 
28000        0.97930017728382579012 10.132332564550310394 1 71 -275.01424536306274149
   28000    302.75033    6.3723581    59.570765   -137.84318   -540.46496    12258.351 
   28010    319.68244    5.6754193    56.909662   -135.32071   -292.33597    12258.351 
   28020    297.72227    4.5620753      63.7242   -133.51863    2066.4398    12258.351 
   28030    290.42752    5.5744437    65.428167   -131.96778    1155.3525    12258.351 
   28040    296.37192    8.3185055    68.018384   -130.51628    -1025.355    12258.351 
   28050    292.60863    7.1059579        70.46    -129.5322   -2033.7467    12258.351 
   28060    314.98519    7.8293447    63.770947   -133.93821    146.15374    12258.351 
   28070    312.94379    8.4244949     59.82827   -127.90049    2211.4139    12258.351 
   28080    315.23926    6.1424411    58.537077   -127.34998   -47.473283    12258.351 
   28090    310.76006    5.4464418    65.787304   -127.15089   -4640.4202    12258.351 
28100        0.98223408954836144424 10.149868518582019661 1 74 -281.88382583372401768
   28100     340.7062     4.780806    57.096975    -127.5156   -2601.6267    12258.351 
   28110    357.80344    4.6917776    55.869401    -129.5725    3348.7268    12258.351 
   28120    334.00759     4.226281    58.577267   -139.82178    2280.4205    12258.351 
   28130    326.38519    6.3562696    54.630062    -146.6802    1103.2897    12258.351 
   28140    290.19873    7.1363276    62.033521   -148.21854   -1172.6407    12258.351 
   28150    293.81249    8.2521833     56.45821   -158.91293    911.40112    12258.351 
   28160    279.46595    10.231987    58.684581   -162.16177    1533.5299    12258.351 
   28170    293.45523    11.003093    57.470636   -164.00833   -923.16947    12258.351 
   28180    304.39294    10.029349    55.177952   -167.75009   -2735.9341    12258.351 
   28190    289.32142    8.3365649    55.494012   -168.73262   -2385.1536    12258.351 
28200        0.97924362521232799494 10.165898667405445011 1 71 -302.410740064012316
   28200    293.47441     7.964207    55.840505   -169.44243    1931.8336    12258.351 
   28210    284.86969    8.1270748    56.307714   -169.95233    1378.4176    12258.351 
   28220    301.73755    8.3213134    49.763624   -169.88853   -1235.2483    12258.351 
   28230    323.93948     7.352508    47.783398   -169.38884   -477.16197    12258.351 
   28240    303.65611    6.8097211    49.716832   -168.86557    1837.0036    12258.351 
   28250    292.12051    6.3363534    62.796098   -168.08121   -99.146532    12258.351 
   28260    293.22768    9.7096462    52.856037   -166.94114   -2035.2304    12258.351 
   28270     297.2311    12.135645    54.039398   -165.40259   -920.51624    12258.351 
   28280    305.01787    13.693495    49.584797   -163.38393    1625.4883    12258.351 
   28290    294.85303    10.948676    57.400502   -160.37547      1039.63    12258.351 
28300        0.98563671249531770169 10.124864790049890928 1 67 -291.16670988597053338
   28300    303.43005    9.0572224    55.126341   -153.68768   -1148.9175    12258.351 
   28310    290.33516    7.0908726    58.142897   -148.70078   -1795.3347    12258.351 
   28320    306.98551    4.8155558    55.969761    -143.6162    304.11251    12258.351 
   28330    308.57365    4.1114951    56.317258   -138.82367    1656.6858    12258.351 
   28340    337.10473    3.5163752    59.039133   -134.90001    794.93454    12258.351 
   28350    354.25384    6.4108349    54.417851   -132.46495    849.86349    12258.351 
   28360    348.08514    8.8141053    51.815108   -129.33787   -2270.0781    12258.351 
   28370    316.68748    10.983819    65.629719   -129.92211      1708.44    12258.351 
   28380     331.6995    9.4349821    61.730873   -128.22044   -310.69993    12258.351 
   28390    330.26591    7.3005679     57.42602   -134.79914    -672.2213    12258.351 
28400        0.98789318135606674076 10.099293965110293314 1 70 -288.36382717908355744
   28400    334.62829    6.9666877    61.318532    -136.7494    -282.4036    12258.351 
   28410      319.289    9.8473436     61.62932   -139.50825    1396.2699    12258.351 
   28420    293.12122    10.809055    60.804948   -142.62348   -1128.3514    12258.351 
   28430    283.12465    10.797341    62.440799    -145.1662    -1423.928    12258.351 
   28440    305.50098    9.5533728    57.640421   -147.40877    54.248888    12258.351 
   28450    283.74506    8.5231898    66.526766   -149.30008    3058.8514    12258.351 
   28460     311.5443    6.5131026    54.040619   -145.69658   -1031.6035    12258.351 
   28470     273.3676     8.193581    69.794883   -151.97279    -2230.002    12258.351 
   28480    299.64231    8.5318737    62.158251   -153.46158   -46.920029    12258.351 
   28490    298.73428    10.495307    60.324503   -155.04718    2845.5848    12258.351 
28500        0.98791004327321785272 10.084093719593456129 1 69 -299.76152000191439129
   28500    315.51822    8.2066006    57.696391   -156.80554    2386.2276    12258.351 
   28510    300.46392    8.1746777    61.216254   -158.77715     1355.346    12258.351 
   28520    287.52963    7.2549554    59.522479   -160.66324   -264.73945    12258.351 
   28530    259.61526    5.9324036    62.607201     -162.227   -169.63759    12258.351 
   28540    268.47597    4.6345119    62.745688   -163.02149     -1273.39    12258.351 
   28550    283.27387    4.0603784    59.371135   -163.07245   -1119.2632    12258.351 
   28560     313.8163    5.8464372    55.459706   -162.83918    450.74596    12258.351 
   28570      286.573    6.5392648    61.446709   -162.67642    1960.3583    12258.351 
   28580    287.17393    7.5357838     54.22371   -162.20482    1638.5539    12258.351 
   28590    284.56646    7.7150895    56.528165   -161.03849   -961.32104    12258.351 
28600        0.98199849258128202312 10.108676575204578185 1 67 -295.7741819818680824
   28600    301.86523    5.5420763    55.034672   -159.00414   -2463.7452    12258.351 
   28610    307.22402    4.9456646    54.204442   -151.26386   -1034.6092    12258.351 
   28620    293.47923    5.2434208    58.741307   -150.63297    1016.3541    12258.351 
   28630    297.74416    7.2555676    64.272136   -141.17659   -732.86194    12258.351 
   28640    313.94896    8.1219026    66.100174   -131.33908     2366.985    12258.351 
   28650    316.62674    9.9082694    69.000784   -125.76978   -65.266607    12258.351 
   28660    310.44169    12.009685    62.053086   -123.17928    370.56557    12258.351 
   28670    314.10125    10.049593     61.68385   -121.68016    -4030.389    12258.351 
   28680     315.2819    8.0754808    67.016862   -120.91849   -867.96395    12258.351 
   28690    337.98452    6.9326031     65.62966   -121.07643    1819.2633    12258.351 
28700        0.98236375105057660573 10.105445726972732245 1 68 -265.81551354457462821
   28700    316.38032    9.4324487    60.879888   -122.46893    2740.7075    12258.351 
   28710    341.75859    9.3133606    61.996051   -124.70428    300.23417    12258.351 
   28720    328.31174    9.5105333    60.781937   -128.16393    1956.6241    12258.351 
   28730    339.86543    4.7321089    58.970729   -132.62517   -1582.9528    12258.351 
   28740    322.51628    3.1704937     59.64606   -138.00012    479.83964    12258.351 
   28750    300.77472    3.1749015    60.782254   -142.91022   -4971.4526    12258.351 
   28760    302.27607    4.2480654    58.814986   -147.03836   -1230.6191    12258.351 
   28770     273.8857     4.664813    65.158828    -150.2045   -4536.5178    12258.351 
   28780    284.79187    6.8712106    57.303658   -152.27474   -427.79669    12258.351 
   28790    303.26671    6.3083411    60.618382   -153.78811    349.52943    12258.351 
28800        0.98387325474408771075 10.129372649648320959 1 69 -300.97712885045689291
   28800    321.14785    4.9992139    52.482127   -155.47045    889.35354    12258.351 
   28810    306.05188    6.5143525    54.484196   -157.52221     1750.305    12258.351 
   28820    290.82498    8.2351988    51.873431   -159.19197     1640.655    12258.351 
   28830    300.63894      9.81697     58.03658   -160.29545     1667.021    12258.351 
   28840    314.09522    10.366823    53.864675    -161.2591    2364.5354    12258.351 
   28850    309.24716    11.288815    57.155517    -162.6383   -408.73637    12258.351 
   28860    304.57654    12.393075    53.304785    -164.2837    3975.4005    12258.351 
   28870    299.58961    11.138979    54.778169     -166.037   -71.907916    12258.351 
   28880    287.00914    7.1242304    56.054618   -162.43254   -538.94488    12258.351 
   28890    289.89995    4.9602375    53.346182   -163.86239   -3182.4128    12258.351 
28900        0.98357357463137751186 10.135798257080756102 1 67 -294.66187293180018969
   28900    285.75649    4.9631152    51.637926   -165.19043   -1366.9577    12258.351 
   28910    268.94938    5.5043796    59.546989   -166.13388    1658.0053    12258.351 
   28920    266.71941    8.4821672    54.453146   -166.42433   -811.67146    12258.351 
   28930    267.08326    8.3227583    52.332662   -165.67016    772.58732    12258.351 
   28940    309.70929    5.2210395    48.171814    -167.8118   -2033.4026    12258.351 
   28950    303.58075    4.8858649    55.156909   -164.39855    -1207.726    12258.351 
   28960     296.7706    7.8276282    51.608963   -160.02075   -1777.2503    12258.351 
   28970    274.68486    9.9828153    60.960654   -150.62964   -60.642366    12258.351 
   28980    259.84366    9.1201652    69.750999   -145.39313     3127.007    12258.351 
   28990    289.19016    7.4712314    67.665643   -140.21994    3970.7893    12258.351 
29000        0.98260431507675649598 10.130210652755817335 1 70 -280.83812872875523681
   29000    310.05106    8.4169168    61.102249   -140.35922    2660.2304    12258.351 
   29010    311.43285    7.7161585     60.59111   -137.67552   -833.29578    12258.351 
   29020    337.49175    4.4660191    54.938713   -131.90545   -2305.7385    12258.351 
   29030    314.06993    6.5392428     68.18255   -131.51441   -2270.3101    12258.351 
   29040    325.29947    7.4109588    59.483001   -136.80552   -1852.7531    12258.351 
   29050    308.32614    7.0145008    64.495743   -137.62644   -3744.1367    12258.351 
   29060    323.38147    8.3011261     61.81031   -138.86516   -104.68255    12258.351 
   29070    294.97423    11.015663    61.813172   -135.38304    1611.1898    12258.351 
   29080    295.44159    13.877922    59.891877   -136.85039    1391.5782    12258.351 
   29090    323.18807    12.747409    56.128981   -143.02202    1078.5411    12258.351 
29100        0.98012771931621978094 10.147270630774501754 1 71 -293.65537173187010467
   29100    321.09198    9.1127781    56.330683   -148.17401   -298.55927    12258.351 
   29110     334.7567    7.0066397    54.696124   -151.55255   -1795.7109    12258.351 
   29120    290.86408    7.2218964    62.052804     -155.988   -2980.4544    12258.351 
   29130    272.84225    8.5681962    63.655088   -152.84849   -1342.3949    12258.351 
   29140     291.0812    10.303548     53.74024   -156.00447      2902.43    12258.351 
   29150     293.0319    10.739431    53.076918   -158.22857     4345.806    12258.351 
   29160    288.95532    10.145107    54.726307   -159.96291    2144.1288    12258.351 
   29170     278.6827    9.3827173    55.741393   -160.90171    2876.3926    12258.351 
   29180    283.89565    6.4113881    57.266931   -161.23762   -2551.8049    12258.351 
   29190     277.9708    6.3610921    59.909327   -166.53325   -2099.3081    12258.351 
29200        0.98112809349238183643 10.14533678475531886 1 72 -297.22550939202466225
   29200    289.34583    4.6180295    55.272326    -166.1278   -1641.8846    12258.351 
   29210    287.75942    6.5869678    61.309221   -165.52645    1612.4091    12258.351 
   29220    296.09425     6.995317    52.188563   -164.58708    733.03877    12258.351 
   29230    293.23441    7.6060359    52.740902    -163.3973    1992.3996    12258.351 
   29240    283.04645    8.2965749    54.132515   -161.93674   -398.73839    12258.351 
   29250    267.68145    8.5483095    66.375681   -160.15163    701.73979    12258.351 
   29260    288.94357    10.013932    56.428011   -158.39706   -5018.0193    12258.351 
   29270    289.89095    8.7446878    60.769477   -156.99336   -1063.4708    12258.351 
   29280    305.81972    8.1500807    59.911646   -155.98481   -1193.6215    12258.351 
   29290    287.85381    7.3563404    57.508566   -155.11054    19.174237    12258.351 
29300        0.97427498726909034232 10.15273349793870139 1 68 -282.36254924293314161
   29300     282.2568    7.8476738    69.873984   -154.47676    185.57754    12258.351 
   29310    275.33489    7.9578507    62.315384   -153.78995    745.09004    12258.351 
   29320    286.38646    8.3373604    55.917722   -152.84192    322.69068    12258.351 
   29330    276.04024    9.4166126    60.406824   -151.61474    4787.6081    12258.351 
   29340    306.76512    8.1115422    56.406972   -149.98798   -181.80254    12258.351 
   29350    319.79005    8.9628045    61.132055   -148.40454    2220.7544    12258.351 
   29360      314.018     12.15289    57.834558   -141.68254     -3728.96    12258.351 
   29370    278.16404    12.380036    62.486742   -140.81341   -2856.9224    12258.351 
   29380    287.60938     11.25307    67.623773   -139.72805    -942.0975    12258.351 
   29390    308.91145    8.8814265    56.342633    -143.8494    3592.3205    12258.351 
29400        0.97024382139129783376 10.18005248243889227 1 68 -282.03029269313014993
   29400    308.12989    4.9451705    60.077151   -142.42184    3251.8133    12258.351 
   29410    330.05872    3.6971697    52.244072   -140.71234    1813.4425    12258.351 
   29420    329.78227    3.1394743    63.681814   -139.45648   -3302.3037    12258.351 
   29430    337.61485    3.3928525    63.018872   -139.31786   -1250.6602    12258.351 
   29440    311.38973    4.3839567    63.817309   -140.36064   -1546.5862    12258.351 
   29450    322.95671    5.1128852    67.116356   -142.37529   -1686.9851    12258.351 
   29460    319.53268    5.8508937    68.920214   -145.99549   -226.56125    12258.351 
   29470     307.3896    8.5334744    59.131069   -151.66206    450.69462    12258.351 
   29480     277.4488    7.9287504    61.581379   -157.73784   -87.730325    12258.351 
   29490    264.31406    5.5384784    53.716658   -161.61486    1770.5569    12258.351 
29500        0.97012811898502093744 10.188764099891514547 0.99470899470899465378 70 -279.37144109784549073
   29500    255.06751    3.5417368    65.320965   -163.80465    1728.1154    12258.351 
   29510    277.13881    4.2640274    61.179814   -164.57619    101.98361    12258.351 
   29520    271.57664    5.4852949    60.790224   -164.65432   -1333.2609    12258.351 
   29530    274.35199    7.5099554    55.618521   -164.08457   -3504.9187    12258.351 
   29540    271.76536     10.76574    64.588369   -162.65284    -2748.967    12258.351 
   29550    287.78759    8.6032483    58.020041   -160.74216   -1561.5553    12258.351 
   29560     292.7031    5.7628759    56.617137   -158.51037    828.23411    12258.351 
   29570    300.87974    6.1060056    62.429092    -156.0841    4245.3934    12258.351 
   29580    310.54113    6.3335558    52.124639   -153.58297    312.47011    12258.351 
   29590    296.82036    6.4560847     69.22517   -151.28416    954.83701    12258.351 
29600        0.97108812281912337827 10.180138599587960968 0.99470899470899465378 65 -294.90087812870643802
   29600     320.6129     7.382991    56.366747   -149.63658   -437.13638    12258.351 
   29610    322.56625    9.2061065    54.736538   -148.53646   -120.79424    12258.351 
   29620    319.79392    9.1935301    59.897788   -148.02418    1278.6669    12258.351 
   29630    309.64575    8.7579111    55.713941   -147.81519    268.70817    12258.351 
   29640    302.80635    7.3708072    59.195852   -147.91147     182.5641    12258.351 
   29650    300.50496    5.5668201    58.319631   -148.08788   -1755.4414    12258.351 
   29660    304.92101       4.6071    55.966985   -148.04903   -426.24959    12258.351 
   29670    304.62868    4.4170043    63.125593   -147.88841    2029.4169    12258.351 
   29680    299.75202    5.1161852    60.776427   -147.80861   -966.35444    12258.351 
   29690    307.45467    4.5180772     59.09891    -148.0569   -1282.0753    12258.351 
29700        0.97427299693779756407 10.170965907776466253 0.99470899470899465378 69 -282.51559250671482459
   29700    296.16505    5.6532347    62.168031   -148.32821   -979.64703    12258.351 
   29710    289.11811    8.5271041    56.689004   -148.22452    1510.2335    12258.351 
   29720    299.35175    9.0990653    59.525966   -147.75795    2150.0063    12258.351 
   29730    304.19861    8.4695791    56.913645   -147.18394    94.846262    12258.351 
   29740    288.93018    5.7550306    62.729551   -146.55749     1891.129    12258.351 
   29750     296.0825    4.6437472    60.032885   -145.79968    -704.2478    12258.351 
   29760    311.78878    4.4348126    57.843334   -144.96067    -1746.018    12258.351 
   29770    296.71481    5.1773135    62.186117   -138.77492   -1236.0436    12258.351 
   29780     285.9032    6.0449609    58.708379    -142.8841   -2558.2963    12258.351 
   29790    298.83637    5.1070582    61.034501   -141.31596     1093.867    12258.351 
29800        0.97637203151960449965 10.163573322307600577 0.99735449735449732689 67 -286.40375222125584287
   29800    323.42781    3.9514548    60.805287   -139.86407    1159.0437    12258.351 
   29810    326.57907    3.7951431    61.900871   -138.94774   -2240.7946    12258.351 
   29820    315.91352    6.1506022     62.96308   -138.65869   -1375.7465    12258.351 
   29830    319.39884    5.5356158    58.916584   -138.95237   -2118.0642    12258.351 
   29840    320.14792    5.9979703    62.934297   -140.07577    3897.3035    12258.351 
   29850    302.96562    7.3440031    67.485636   -141.81918    1892.8501    12258.351 
   29860    309.74939    10.875636     58.14268   -144.50298    287.69351    12258.351 
   29870     289.9108    12.787859    58.398473   -148.46832    1077.5606    12258.351 
   29880    277.38342    12.832356    61.605475    -153.4893    1336.7417    12258.351 
   29890     267.2367    11.890869    61.255154   -158.97473    789.12481    12258.351 
29900        0.9755087150318711986 10.140748907312762128 1 71 -285.70989900926775817
   29900     269.1079    12.424115    59.739088   -163.78165   -1373.8158    12258.351 
   29910    299.19004     7.922526    57.620907   -167.89744     555.3591    12258.351 
   29920    299.08045     6.186858    62.208235   -171.23583    1606.0243    12258.351 
   29930    290.89209    5.7674038    55.015197   -173.78613   -1879.1227    12258.351 
   29940    251.70615    7.5327155    61.807148   -175.36268   -677.12438    12258.351 
   29950    262.47823    6.5058284    57.413242   -175.68809   -728.83534    12258.351 
   29960    277.57018    5.6607831    56.347458   -175.03319    936.84183    12258.351 
   29970    274.89227    6.9628119    55.342127   -173.72929    2128.9109    12258.351 
   29980    263.11373    6.8490055    63.758679   -171.75269   -1643.6168    12258.351 
   29990    299.05759    6.2877796    50.498057   -169.06028    539.87058    12258.351 
30000        0.97330196553188030872 10.14723981588946522 1 68 -294.24815615309876193
   30000    282.71612    4.9320162    59.896491   -166.15425   -1845.5715    12258.351 
   30010    293.09718    5.5246871    59.870103   -163.28729    580.02223    12258.351 
   30020    294.42603    6.7327111    58.591069   -160.65079     3252.714    12258.351 
   30030    301.87242    7.0884584    55.339513   -158.69494    1797.8537    12258.351 
   30040    277.71487    7.9881325     57.29512   -157.12228   -23.268476    12258.351 
   30050    302.67274    6.6960772    57.928561   -155.48816   -81.712281    12258.351 
   30060     292.9625    4.5490824    63.546611   -154.19982   -1043.5128    12258.351 
   30070    289.12621    3.2341415    59.620739    -153.1446   -2880.3758    12258.351 
   30080     260.4678    3.7595407    74.061407   -151.90486    -473.8326    12258.351 
   30090    299.02214    5.6152879    58.619545   -150.18888    1345.7086    12258.351 
30100        0.9668203505585292179 10.190724959450180975 1 65 -271.37597824052187434
   30100    271.38947    8.5690586    76.830309   -148.41399    130.29347    12258.351 
   30110    317.51224    7.2248968    63.324425   -146.93556      -1800.6    12258.351 
   30120    302.42089    8.8761386    66.624878   -146.04956   -725.46348    12258.351 
   30130    319.55022    6.8562116    65.349357    -145.7381    381.75673    12258.351 
   30140      312.099     6.557147    69.389377    -145.9323     955.4091    12258.351 
   30150    301.57413    4.3596835    67.956667   -146.90159   -875.84336    12258.351 
   30160    300.68164    4.4856512    60.031705   -148.67174   -383.99537    12258.351 
   30170     253.6608    9.7468739    67.618152   -150.30048   -808.26957    12258.351 
   30180    301.47651    11.230773     59.88016   -151.53369     371.3381    12258.351 
   30190    272.63341    9.5662904    70.886543   -153.01124    1626.5897    12258.351 
30200        0.9619769197721660392 10.23478665351949779 1 65 -288.26944868672535449
   30200    294.82162    7.9929748    56.931712   -154.69075     1132.642    12258.351 
   30210    291.46834    6.0880003    63.976897   -156.84308   -105.93877    12258.351 
   30220       308.98     4.587026    65.546831   -160.34207    2761.0158    12258.351 
   30230    290.82698    2.3290276    58.880816   -165.83227   -2490.5407    12258.351 
   30240     273.2677    1.9053713    60.273015    -166.0414   -1258.9484    12258.351 
   30250    272.63217     3.301034    54.829495   -173.64967   -4041.5164    12258.351 
   30260    263.25896     5.716955    55.969477   -176.31913   -442.20653    12258.351 
   30270    252.07353    5.4502663    63.384114   -177.61764    1387.4437    12258.351 
   30280    248.44104    6.3298358    54.189994   -177.55892   -72.727006    12258.351 
   30290    251.05851    6.8445284     59.91926   -175.97092    -1554.001    12258.351 
30300        0.96156575186884862827 10.231881049429128794 0.99735449735449732689 67 -299.15620729030723624
   30300    275.12493    5.8902402    54.821165   -174.50174   -393.75585    12258.351 
   30310    301.28767    5.9788857    57.034577   -170.58669    965.09029    12258.351 
   30320    303.44914    6.1051353    53.101619   -166.80701      2682.84    12258.351 
   30330    278.06132    6.8409541    55.699786   -163.54834   -2627.1906    12258.351 
   30340    297.40127    6.7045035    60.273445   -160.14325   -2549.7957    12258.351 
   30350    303.51104    6.3015592    63.054165   -157.47097   -944.44997    12258.351 
   30360    326.24801    7.6516102    59.525505   -155.73957    2237.6806    12258.351 
   30370      316.984    6.9287652    59.683872   -155.08205    2602.7383    12258.351 
   30380    305.25582    9.7507592    60.311739   -154.98058    -254.4052    12258.351 
   30390    282.58667    10.848367    64.397974   -155.01245   -715.25651    12258.351 
30400        0.97418569196719084768 10.178440048732555923 1 65 -300.87376358604933557
   30400    322.19208    7.5809462    52.915977   -154.89397    533.09743    12258.351 
   30410    309.79089     5.944972    59.997027   -155.21795   -1344.6779    12258.351 
   30420    315.81263    7.3155313    50.939603   -155.87202   -1673.7218    12258.351 
   30430    291.71419    7.4825271    57.542153   -159.17563   -4490.6215    12258.351 
   30440    301.64358    6.3957137    53.710104      -159.74    853.21324    12258.351 
   30450    294.80842    6.5193403    55.990978   -160.03021    3518.6289    12258.351 
   30460     286.0945    7.9493081    59.304263   -157.56248      3398.41    12258.351 
   30470    290.55702    7.7873897    58.507353   -157.15488   -28.840513    12258.351 
   30480    307.36986    8.9062018    47.626388   -156.05492    1720.3288    12258.351 
   30490    286.43941    8.7228346    61.430306    -153.8435   -188.18773    12258.351 
30500        0.9798902165203833281 10.132223840603774789 1 69 -283.2168005032768292
   30500    294.75334    7.4684414    58.347288   -149.66904    2011.4464    12258.351 
   30510    283.33997    6.4541404    73.613561   -143.74664   -4546.6083    12258.351 
   30520    329.75959    7.0260012     64.16081   -137.28928    134.64568    12258.351 
   30530    339.53937    6.7727111    64.193047   -132.37127   -1196.4944    12258.351 
   30540     345.3078    7.2306246    55.979877   -129.37903    1393.5197    12258.351 
   30550    325.17194    11.083111    62.871158   -127.88749   -454.08989    12258.351 
   30560    304.31056    12.500078    65.824063   -126.98986   -1163.7724    12258.351 
   30570    319.45698    10.249512    66.056108   -126.45026    199.97712    12258.351 
   30580    320.16204     7.701093    64.398408   -126.90507     1470.411    12258.351 
   30590    315.34931    8.6504792    71.321178    -128.2853   -1909.1942    12258.351 
30600        0.9886123455748698774 10.103818643030535895 1 70 -281.12518301301241763
   30600     331.8943    6.8202411    65.253615   -130.74948    965.68674    12258.351 
   30610    297.46668    6.2440054    71.484106   -134.09204   -322.03023    12258.351 
   30620    319.65565    7.4913914    63.756975   -141.00174    4841.6598    12258.351 
   30630    313.02529    13.346249    61.070868   -145.80535   -763.90275    12258.351 
   30640     301.8441    16.502223    66.237382   -150.59458   -1198.7905    12258.351 
   30650    273.22898    15.257191    65.894753   -154.33612   -2550.6945    12258.351 
   30660    271.57067    14.977063    62.159053   -156.46493    2348.4396    12258.351 
   30670    290.05515    11.365813    62.186126   -157.52114    1685.8176    12258.351 
   30680    291.50971    8.1420919    59.575835   -158.08939    32.146519    12258.351 
   30690    314.99514    5.7216421     56.95549   -158.44143   -1895.1659    12258.351 
30700        0.99087324477235660947 10.085360247399068001 1 66 -285.83460260652157103
   30700    291.04556    5.5218346    63.269057   -153.96677     2741.979    12258.351 
   30710    308.91245    5.4673416    64.934012   -154.45469     -1294.06    12258.351 
   30720    328.10667    5.7256554    53.727026   -155.47023   -1201.1835    12258.351 
   30730    310.76739    7.2273436     59.16785   -162.08242   -1070.5251    12258.351 
   30740       300.41     6.487599    58.355746   -160.98168    1977.6619    12258.351 
   30750    274.76431    7.6477259    57.597619   -162.61325    2554.5035    12258.351 
   30760    287.42941    7.6921791    57.114312   -163.68398    1799.7496    12258.351 
   30770    287.30404    8.3901092    57.969437    -164.1511   -2535.2092    12258.351 
   30780    292.46906    9.9785818    57.725197   -164.01937    -2504.684    12258.351 
   30790    287.99276    8.5340099    63.072527   -163.36266   -2863.1469    12258.351 
30800        0.98412537937089372697 10.122833210824259353 1 72 -290.05142141553562851
   30800    282.01779    9.4429223    65.966062   -162.27392    1.0717703    12258.351 
   30810    297.11329    11.631192    56.804571   -160.57818   -1605.3062    12258.351 
   30820    301.05486    12.049625    59.456655   -158.13412    1507.9459    12258.351 
   30830    318.74612    8.3941374    57.485423    -155.0286    2060.2142    12258.351 
   30840    328.39692    7.9531507    60.388835   -151.07511    1189.3806    12258.351 
   30850    322.76825    7.9888989    66.245807   -146.90196   -1234.6561    12258.351 
   30860    314.17029    7.4863271    65.988237   -143.17141    106.60068    12258.351 
   30870    297.97735    5.2546573    64.307308   -139.85017    1019.2688    12258.351 
   30880    323.65988    6.2375257    58.219959   -136.41218    710.94879    12258.351 
   30890    337.54911    6.4487797    57.134041   -133.18632   -3346.0925    12258.351 
30900        0.98268657187843966305 10.099412378601998697 1 72 -265.47859520218310081
   30900    297.33052    6.6075732    71.513243   -130.76315   -796.52233    12258.351 
   30910    318.55143    6.2204469     62.26778   -128.70043    279.85141    12258.351 
   30920    308.83865    4.9288932    61.535553   -126.92138    1781.7056    12258.351 
   30930     293.9862    6.3495802    58.646696   -125.13962    373.65111    12258.351 
   30940    305.82236     4.635753    63.105912   -122.75994    263.15208    12258.351 
   30950    311.02013    3.2017583    62.192915   -120.06064    -276.0658    12258.351 
   30960    339.35684    2.4243187    65.650462   -117.48308   -1418.3774    12258.351 
   30970    376.29276    2.4197218    55.680182   -115.37581     1550.487    12258.351 
   30980     338.7406    4.0288662    63.630574   -115.19174    2331.2351    12258.351 
   30990     308.4517    4.9644052     69.66997   -115.27019    543.80672    12258.351 
31000        0.97879172199446762281 10.126895260713160596 1 67 -258.09809119250473941
   31000     308.1778    6.5363413    67.491044   -118.46793   -487.42283    12258.351 
   31010    299.46013    8.0663098    62.970185   -127.56746   -601.20332    12258.351 
   31020    295.29468    11.897978    67.440402   -130.81162   -1781.1222    12258.351 
   31030    320.04568    8.8820732    56.200782    -137.0394   -1557.4655    12258.351 
   31040    282.76634     6.110353    66.647499   -142.56238    260.57519    12258.351 
   31050    284.97802    3.4171255    63.804702    -146.3302    415.20525    12258.351 
   31060    291.72991    3.6612823    62.970733   -149.03229   -47.858701    12258.351 
   31070    307.19084    4.3238401    53.538877   -151.29598   -1541.7215    12258.351 
   31080    289.17713    4.2842939    63.852619   -152.91799    1059.5118    12258.351 
   31090    314.15277    5.1648647    58.985834     -154.075    454.72665    12258.351 
31100        0.98256966588929683937 10.129301305042897496 1 71 -305.04624786937029057
   31100    329.63565    8.0424779    54.884368    -155.6939   -943.41554    12258.351 
   31110    301.84451     8.796225    61.742774   -158.32987     1633.982    12258.351 
   31120    281.86798     11.52741    53.758859   -160.79822   -3247.7195    12258.351 
   31130    285.75814    12.204237    52.833323   -165.56411    3001.9151    12258.351 
   31140    288.80232    11.429304    56.254032   -166.49767   -603.30311    12258.351 
   31150    295.66604     8.071149    56.836954   -166.87355    1783.9117    12258.351 
   31160    287.81536    8.1483971     57.91528   -167.11223    351.04771    12258.351 
   31170    297.01494    6.9568799    55.498024   -167.29084   -57.223413    12258.351 
   31180    276.92425    6.7527183    61.009389   -164.28332    232.24956    12258.351 
   31190    279.72417    8.0489908    54.771246   -165.91982    587.39031    12258.351 
31200        0.98772895098272428527 10.083010008009964054 1 69 -296.68561161722578845
   31200    291.60756     7.903202    55.741036   -164.56315    832.31947    12258.351 
   31210    309.63672    7.9234341    64.212817   -158.70263    1179.6464    12258.351 
   31220    311.99003    9.9351444    53.498289   -156.19467   -2570.0833    12258.351 
   31230    294.10534     7.683082    63.251378   -153.59493   -1618.0536    12258.351 
   31240    295.36697    9.9357347    56.785226   -150.57354    -2340.492    12258.351 
   31250    304.06765    8.2180892    60.433921   -146.78432    2203.5281    12258.351 
   31260    318.46498    7.6937465    64.616156   -142.40661    465.83305    12258.351 
   31270    306.55834    7.1331191    69.789941    -138.3936    3572.9572    12258.351 
   31280    325.57968    6.4319682    61.607363   -135.11239    827.23075    12258.351 
   31290    301.45913    4.8211279    62.991464   -132.66311   -1932.6523    12258.351 
31300        0.98703140680299683574 10.079587115007287323 1 69 -267.98706325875593848
   31300    294.97724    4.1524231    69.561337   -134.33785   -3754.1654    12258.351 
   31310    318.26704    5.0908849    66.147482   -128.11221   -407.62891    12258.351 
   31320    326.78403    6.7205955    65.798462   -131.28303    1332.2468    12258.351 
   31330    325.55159    8.7325735     65.12101   -125.59642    2201.6174    12258.351 
   31340    323.07647    6.7227869    61.172187   -130.76885   -846.86277    12258.351 
   31350    340.99018    6.4414161    62.457856   -126.87002    2314.0319    12258.351 
   31360    327.82989    8.0705426    61.110381   -129.91383    1862.7798    12258.351 
   31370    308.36949    8.4139672    57.695867    -139.0291    188.49275    12258.351 
   31380    299.91163    8.2351185    61.101936     -145.343    1065.0249    12258.351 
   31390    287.36567    7.9174966    55.506815    -151.6779   -1508.8781    12258.351 
31400        0.98097333323214519485 10.10770179148714476 1 65 -291.31440211535988283
   31400    302.50786     9.071219    53.216931   -154.25319   -828.55532    12258.351 
   31410    279.24656    10.212956    56.399568   -157.23289   -1022.3193    12258.351 
   31420    273.36708    7.6866669    59.802452   -153.64783    337.97549    12258.351 
   31430    272.50112    5.6454282    57.647477   -153.95129    179.71004    12258.351 
   31440    287.79851    4.7259169    51.619789   -158.98083    315.83613    12258.351 
   31450    287.79517    5.5235774    54.267781   -158.53417   -1594.8878    12258.351 
   31460    285.23217    5.9252515    52.724017   -157.60606    479.45891    12258.351 
   31470    285.73547    5.7642447     59.66126   -156.04574   -701.16516    12258.351 
   31480    269.49099    6.3062176      59.6961   -153.90528   -444.29552    12258.351 
   31490    291.59803     5.660375    55.274148   -151.29723    181.65779    12258.351 
31500        0.97763446518800378726 10.130065076198924601 1 67 -274.46950389439638229
   31500    278.28328    4.4242533    63.804733   -148.38404    2395.5679    12258.351 
   31510    304.58757    5.8022889    54.746954   -145.19603   -534.05418    12258.351 
   31520     296.3852    7.1248966    56.522802    -141.7556   -269.79099    12258.351 
   31530    330.21159    6.5940972    61.339201   -138.62604   -1566.3332    12258.351 
   31540    325.86841    4.9479166    62.792353   -136.42012    1395.0289    12258.351 
   31550    335.83743    5.7489528    53.868869   -135.44395   -2509.3487    12258.351 
   31560     306.4795    8.7528133    66.773667   -135.67762   -2106.7093    12258.351 
   31570    299.06104    9.7708778    68.912057   -136.59902    527.80198    12258.351 
   31580    312.94673    11.373215    62.293319   -138.48137    2842.7226    12258.351 
   31590    297.63968    9.5480284    64.287425    -140.7196     701.5894    12258.351 
31600        0.97969539081703493899 10.134961607086006907 1 68 -277.67338489618140329
   31600    298.61022    8.1156656    58.818377   -142.37813   -1051.4076    12258.351 
   31610    312.38807     8.105332    60.727062   -143.76112   -60.887625    12258.351 
   31620    295.81855    8.5009433    60.833753   -145.37972    982.25588    12258.351 
   31630    304.20327    8.7350957    53.921921   -146.92778   -1632.3387    12258.351 
   31640    314.80947    8.1314477    58.243701   -148.54275    194.88469    12258.351 
   31650    304.39418    7.7114085    62.426144    -150.5086   -586.12993    12258.351 
   31660    298.93554    8.2225354    61.354707   -152.24026    1788.6285    12258.351 
   31670    296.96296    7.1498507    54.437718   -153.52502   -1710.3697    12258.351 
   31680    312.49199    10.110905    48.554326   -154.46806   -381.32491    12258.351 
   31690    278.93629    11.552799    64.985405   -155.06248   -334.34407    12258.351 
31700        0.98050808187237903368 10.138187946418733887 1 70 -295.69533765571361528
   31700    309.50321    14.230533      53.5545   -155.46466    2913.3415    12258.351 
   31710    318.17298    12.462571    56.227515   -156.06944    1052.5899    12258.351 
   31720    306.06045     12.33095    64.216891   -156.89024    95.206633    12258.351 
   31730    322.40701    10.690425    51.119699   -157.86874   -3373.2859    12258.351 
   31740    313.93734    8.5975005    57.099683   -159.07027    269.77348    12258.351 
   31750    316.97569    7.2052119    51.484484   -160.43577    861.93603    12258.351 
   31760    289.45544    6.2002831    60.601701   -161.78255    823.59387    12258.351 
   31770    279.16611    6.5192672    48.882732   -162.88665   -2927.3144    12258.351 
   31780    260.87293    6.3316479    57.316159   -163.09709    2031.1994    12258.351 
   31790    300.90982    5.7090011    50.179278     -162.088    1671.6118    12258.351 
31800        0.97322578740442411416 10.177075924554340958 1 63 -298.42866520611448777
   31800    305.14797     6.934508    51.307704   -160.17127    908.36727    12258.351 
   31810     308.1475    4.4357121    55.143498   -157.58507    752.55089    12258.351 
   31820    308.64743     6.103123    53.534525   -154.78571    910.20492    12258.351 
   31830    313.24725     8.056958    53.817721   -151.59353    -1833.872    12258.351 
   31840    310.77406    7.8542731    58.859569   -148.27955    2182.6994    12258.351 
   31850     328.1003    8.8804942    54.127587    -144.9909   -3690.6292    12258.351 
   31860    308.95363     8.039003    64.681617    -141.9942    -67.21268    12258.351 
   31870    290.90125    9.9332419    64.147625    -139.0132   -2630.2471    12258.351 
   31880    295.44776    9.6657958    67.207647   -135.32538    5725.2974    12258.351 
   31890    329.96779    7.0823831    66.746447   -131.31968    129.53184    12258.351 
31900        0.96547096723070768842 10.20909945425585974 1 64 -270.93539321893371152
   31900    326.56502    5.4833201     68.68022   -122.97429    -1718.824    12258.351 
   31910    353.21154    4.3436657    60.864984   -126.35254   -4306.2281    12258.351 
   31920    351.56076    4.6222781     62.22671    -126.1075    292.00061    12258.351 
   31930    329.67221    8.0374673    65.017149   -127.88251    404.13958    12258.351 
   31940    320.43667    8.1038477    58.097499   -132.10519   -747.00808    12258.351 
   31950    314.77507    8.4415358    65.546103   -140.16659   -2648.3947    12258.351 
   31960    311.48662    8.9363054    57.745393   -150.37553    3455.6595    12258.351 
   31970    317.21488    8.7691848    51.005801   -158.27207    2794.5402    12258.351 
   31980     308.1985    5.9204225    51.944792   -162.90853    3100.2342    12258.351 
   31990    297.57976      7.29103    49.579849   -165.37337   -2235.9203    12258.351 
32000        0.96261912058831267114 10.212433887506879415 1 65 -302.17676320259982958
   32000    298.59703    6.8211147    54.297062   -166.88749   -3463.6194    12258.351 
   32010    319.53224    8.4455017    50.041343    -170.7649   -449.07571    12258.351 
   32020    290.35409    10.716255    47.184097   -171.75676   -305.77587    12258.351 
   32030    298.40236    9.3561775    50.379314   -172.04307   -60.463306    12258.351 
   32040    299.56245    8.2484621    54.488074   -171.77387    1096.5891    12258.351 
   32050    316.56272    6.4652294    48.134905   -171.24716     1879.796    12258.351 
   32060    284.49804    6.0619666    60.309711   -165.31175    2911.4919    12258.351 
   32070    274.43001    5.2571488    58.613005   -168.49734    -1576.866    12258.351 
   32080    259.61715    3.0801749    59.182336   -163.17954   -3048.4323    12258.351 
   32090    311.11085     2.946511    55.601301   -158.91026    981.78234    12258.351 
32100        0.95310063373199671588 10.239569060978265469 1 69 -288.02743628738681991
   32100    295.04279    5.9167149    62.552152   -154.34853    283.04146    12258.351 
   32110    299.52368    6.1129539    55.723365   -150.22497     4.673114    12258.351 
   32120    268.37459    4.6895414    69.223322   -146.76003   -4518.8416    12258.351 
   32130    316.80882    5.2439119    59.952756    -143.1684    1173.3209    12258.351 
   32140    312.99499    7.6227518     68.89552   -140.13015    2818.2801    12258.351 
   32150    327.98298    6.2899588    69.370078   -138.41544    1451.9547    12258.351 
   32160    329.17303    5.2954299    61.571792    -138.0186   -2288.3627    12258.351 
   32170    318.08952    4.6896498    54.540534   -138.30841    -2493.385    12258.351 
   32180    319.14681    5.3675433    65.881058    -138.9759    302.06896    12258.351 
   32190    307.77874    5.7372457    70.938081   -139.99989    1917.9688    12258.351 
32200        0.95170426389205331485 10.226636888834274686 1 64 -286.91345858381890821
   32200    319.81251    6.7920759    63.464704   -142.01181    264.29032    12258.351 
   32210    290.57073    4.6685644    73.457787   -144.87139    3728.6941    12258.351 
   32220    306.36999    5.7090071    55.347744    -148.1386   -1303.3763    12258.351 
   32230      273.992    7.6124158    63.067127    -151.2879   -1768.8811    12258.351 
   32240    272.91434    5.1813633    58.457155   -153.62528   -3797.2485    12258.351 
   32250    289.02589    3.3766968    66.454823    -155.4933   -37.686873    12258.351 
   32260    269.76521    4.8153338    67.651641   -157.17729   -331.97855    12258.351 
   32270      279.164    8.0021122    66.008576   -158.74714    3149.6953    12258.351 
   32280     290.6307    11.265393    61.497624   -160.01381    1660.8065    12258.351 
   32290     294.7216    11.871471     58.70246   -156.19588    541.41933    12258.351 
32300        0.96587000123621458147 10.196406454819182841 1 66 -296.76975380594399212
   32300    295.03272    9.7790528    57.354539    -163.0954   -3478.8051    12258.351 
   32310    283.00524     7.419747    61.258367   -165.12844   -2488.0866    12258.351 
   32320    289.15487    5.9108648    57.110283   -168.05819   -2248.5278    12258.351 
   32330    296.15417    4.7431934    58.308991   -171.85602    1381.0193    12258.351 
   32340    287.39317    5.1927603    52.900651   -176.06904    3548.4693    12258.351 
   32350    285.37988     4.926363    48.794648    -180.0466    1263.0303    12258.351 
   32360    254.48619    5.2913907    63.562787   -183.06221   -1582.9628    12258.351 
   32370    285.63344    7.1868588    48.462977   -185.11031    2331.8792    12258.351 
   32380    268.10425    8.2381509    58.800751   -186.42088    1612.9981    12258.351 
   32390    267.58659    7.1183845     52.95481   -186.98117     -1689.86    14889.651 
32400        0.96764741490629535559 10.209766230812597598 1 69 -308.29518715595804679
   32400    268.41768    6.3227879    53.726704   -186.67967   -3040.5673    14889.651 
   32410    275.75016     7.401694    56.354772   -185.50937   -573.30294    14889.651 
   32420    261.66217    7.1628053    63.057986   -183.50647     3305.672    14889.651 
   32430    257.23643    6.5471908    58.883039   -180.31796    1264.0763    14889.651 
   32440    278.94529    7.3010554    59.033534   -175.78306    1842.1441    14889.651 
   32450    299.89699    7.3517257    58.639209   -170.21643   -1499.8711    14889.651 
   32460     326.9048    3.7907645    51.925656   -165.39218    -2499.977    14889.651 
   32470    311.80615    3.6332373    65.076879   -162.31071    -2203.865    14889.651 
   32480     318.2944    6.1943307    55.853421   -155.37765    561.30422    14889.651 
   32490    297.28632    7.8787583    56.403669   -153.95688    13.103314    14889.651 
32500        0.96743646717091424936 10.201266743391551373 1 68 -294.22615754657351772
   32500    312.87637    6.7060957     56.75973   -152.46715    468.87495    14889.651 
   32510    311.03475    5.8651529    62.617562   -151.13449   -1454.7958    14889.651 
   32520     325.6192    5.2104286    57.208138   -150.30735    123.09299    14889.651 
   32530    305.24482    5.7559863    60.200766    -150.1222   -727.36913    14889.651 
   32540    276.34434    5.2065573    65.200429   -149.67008    1751.5881    14889.651 
   32550    290.72386    5.1946266    64.982251   -148.30108    3238.7741    14889.651 
   32560     307.3639    6.4642095    59.326877   -146.42094     947.2616    14889.651 
   32570    311.50999    6.3670086    61.572228   -149.26895   -994.58713    14889.651 
   32580    314.40224    5.7797992    61.192202   -147.91801   -449.30145    14889.651 
   32590     289.4966    7.9170336    66.050173   -146.97389    169.65871    14889.651 
32600        0.96791345388836613761 10.206853072648421232 1 73 -283.47572237133198314
   32600    303.56038    9.1259593     58.84832   -145.93764   -2148.3147    14889.651 
   32610    288.51136    9.4608047    67.762277   -140.22221   -1955.0369    14889.651 
   32620    325.92182    4.5831694    60.957867   -142.05756    70.179652    14889.651 
   32630    315.72728    4.1043865    64.533224    -140.6112    2615.9044    14889.651 
   32640     326.8558     4.548944    60.380793   -136.08972   -423.46027    14889.651 
   32650    320.90954    8.4657133    64.392447   -135.36539   -139.85951    14889.651 
   32660    311.78714    8.9306575    63.033876   -135.06749   -923.46388    14889.651 
   32670    308.26578    8.9055879    63.874285   -135.08752    252.98017    14889.651 
   32680    310.33114    9.7686603    68.543341   -135.27968    247.78801    14889.651 
   32690    332.81005    10.204357    61.863478   -136.19245   -3574.3742    14889.651 
32700        0.9787062181589013532 10.142985066265145733 1 72 -280.03863013212389887
   32700    312.91517    6.0748272    67.829356   -138.26205   -956.27531    14889.651 
   32710    322.88458    5.6952719    60.635129   -141.37315    1279.4657    14889.651 
   32720    308.77545    8.0626688    63.385366   -145.03095    6262.9158    14889.651 
   32730    304.11643    8.5305061    65.411815   -149.27394    1776.8839    14889.651 
   32740    289.24662    8.9216439    60.137824   -153.00866   -1906.6141    14889.651 
   32750    301.69814    7.1104039    64.558226   -156.44062   -1026.5266    14889.651 
   32760    296.52803    6.4747937    63.644617   -159.48436   -725.09718    14889.651 
   32770     309.9942    4.9934656    53.619342    -162.2887   -1967.8556    14889.651 
   32780    297.15763    5.5187791     53.96115   -168.10536   -1494.8277    14889.651 
   32790    292.42632    5.9226088    55.317435   -173.52871   -72.255755    14889.651 
32800        0.97974545063643303511 10.124621529470632098 1 69 -300.93768800608614811
   32800    286.63858     4.757917    59.372152   -171.06658    3638.8545    14889.651 
   32810     281.3304    8.6820708    54.707611   -171.75939    857.62769    14889.651 
   32820    274.12465    9.4640106     56.25927   -171.68815   -1438.4951    14889.651 
   32830    290.71911    7.4747314    53.699732   -170.59893     320.5687    14889.651 
   32840    295.20756    5.4516109    61.814556   -168.53316   -549.52704    14889.651 
   32850    302.83504    5.4337377    59.224044   -165.87576    931.77926    14889.651 
   32860     302.2199    6.6504176    54.310314   -159.24216   -3211.4647    14889.651 
   32870    319.78805    6.2816009    59.830478   -155.68517   -617.49718    14889.651 
   32880    322.71948    7.6710686    60.004834   -152.08569    307.42938    14889.651 
   32890    294.22469    9.9065037    66.894159   -153.57951    1772.6684    14889.651 
32900        0.98355238038802461631 10.128471876086308612 1 70 -280.79814714900703621
   32900    289.69536    7.6297963    76.692621   -149.54207     1336.114    14889.651 
   32910    328.73746    6.1882112    60.127143   -145.04309    2690.1042    14889.651 
   32920     327.5451    3.8167903    71.415931    -140.9357    1138.3125    14889.651 
   32930    323.00451    4.0874445    65.119442   -138.38929   -326.39896    14889.651 
   32940       288.62    5.8729358    67.980744   -136.95212   -3880.9933    14889.651 
   32950    331.81466    5.5148696    63.053181   -135.84328   -1387.1928    14889.651 
   32960    306.54986    7.0793317    79.516271   -135.35073   -2342.9397    14889.651 
   32970    319.66304    7.3051254    65.717568    -136.0359     169.2328    14889.651 
   32980     301.6094    7.1435088    68.723017   -137.80523    -1093.362    14889.651 
   32990    307.68893    7.0463431    65.326579   -140.65666    2755.8515    14889.651 
33000        0.98528350669821718189 10.086347203089054858 1 71 -274.30972920834756223
   33000    284.06839    5.1213801    69.812515   -145.60313    1772.9831    14889.651 
   33010    291.98685    6.0536015    61.574926   -153.81193    1657.4815    14889.651 
   33020    280.92848    5.7817377    62.317088   -162.65876   -982.01575    14889.651 
   33030     290.3236    7.6640378    53.717018   -168.53626   -42.785691    14889.651 
   33040    283.75059    7.4694082    55.291592   -171.74142   -1807.7498    14889.651 
   33050    280.73309    7.3208402    60.299764    -173.3359   -77.643301    14889.651 
   33060    267.20974     8.072434    56.506834   -173.73302   -1123.3607    14889.651 
   33070    315.92346    6.9920546    49.375212   -173.35194    2244.6287    14889.651 
   33080    311.43643    6.1709338    55.374749   -172.78525    3373.5168    14889.651 
   33090    316.49667    6.2659556    50.494822   -172.27945    1603.8439    14889.651 
33100        0.98920521304948016983 10.087145388816232128 1 71 -307.6988919291289335
   33100    300.26056    5.8924947    56.243228    -171.6559     -418.568    14889.651 
   33110    305.43277    5.9162625    52.961821   -170.69752   -2714.7762    14889.651 
   33120    305.70821    6.1146125    50.317484   -169.61178   -1377.0629    14889.651 
   33130    274.51165    9.0684602    63.884007   -168.01355    459.17995    14889.651 
   33140    288.82008    9.4120085    57.893183   -165.56224   -757.18955    14889.651 
   33150    282.14003    10.600549    61.314658   -162.10238    548.28808    14889.651 
   33160    303.81898    9.4558449    57.099289   -157.73046   -1461.2319    14889.651 
   33170    313.66832     8.088275    62.782359   -153.35818    410.06803    14889.651 
   33180    296.68115    8.2073344    67.449038   -152.55275    560.86962    14889.651 
   33190    304.61099    9.1878749    64.438671   -150.08722    3958.2596    14889.651 
33200        0.99038471935207972319 10.09767989114317821 1 74 -277.69977323795933444
   33200    286.07542    11.551148    65.877381   -148.08383    1223.7268    14889.651 
   33210    326.77931    14.794217    60.164417   -138.56114   -1296.8097    14889.651 
   33220    344.61384    16.179012    62.083674   -137.54167   -1608.4934    14889.651 
   33230    344.58221    17.042558    55.782597   -137.88626   -1773.4206    14889.651 
   33240    307.13755    11.449739    69.429336   -144.71787    2506.3227    14889.651 
   33250    295.97658     9.305213    60.175817   -146.80107   -825.47298    14889.651 
   33260    287.33597    8.5060945    63.505083    -148.7346   -1845.0208    14889.651 
   33270    315.12517    4.9372221    55.870632   -150.34109    57.500012    14889.651 
   33280    298.93639    3.6647059    60.217236   -151.95204   -513.66535    14889.651 
   33290    304.83999    5.2182665    63.953138   -153.56508     1416.589    14889.651 
33300        0.98872565700490133711 10.0821571096314333 1 70 -289.78155738633824967
   33300    296.37069    10.447693     60.32846     -155.501   -801.98902    14889.651 
   33310    284.29775    13.146611    60.208594   -157.62937    2127.2443    14889.651 
   33320    284.60282     14.50127    58.668607   -159.62874    3653.5888    14889.651 
   33330    282.74848    13.839796    65.101204   -156.73352    1683.0882    14889.651 
   33340    301.24152      10.6672     54.14688    -159.7272   -1477.5149    14889.651 
   33350    266.90121    8.4058643    59.967954   -163.94023   -4385.3452    14889.651 
   33360    302.61503    5.7893967    50.422983   -169.44357   -437.81474    14889.651 
   33370    261.03871    6.9720636    63.747946   -180.80847    2809.2816    14889.651 
   33380    263.55983    8.0543963    57.688994   -186.18056    559.27784    14889.651 
   33390    236.62554    10.517217    57.914562   -189.44842   -1294.7075    14889.651 
33400        0.99057493134877816487 10.080988246025050614 1 69 -314.73470328921939654
   33400    273.23973    9.0939665     53.90902   -190.93439    -2792.152    14889.651 
   33410    269.63961    7.3267111    56.602286   -185.96263    -348.0989    14889.651 
   33420    278.29702    8.3457042    50.915246   -185.42277   -760.62967    14889.651 
   33430    265.38748     9.241825    53.503941   -184.14247    1071.9803    14889.651 
   33440     259.8579    11.669744    58.499446   -187.46636   -1188.4123    14889.651 
   33450    263.54085    11.605241    51.729045   -184.63155    1602.3784    14889.651 
   33460    271.94969    9.9803511    51.259322    -181.2459    184.98011    14889.651 
   33470    286.74003    11.106019    51.433137   -177.28196    1296.6293    14889.651 
   33480    303.00431    8.8416134    53.540598   -173.40986   -1257.5251    14889.651 
   33490    281.91491    8.2229554    51.770971   -170.03179   -483.64589    14889.651 
33500        0.99303410481296383594 10.077294444596358147 1 71 -292.37147360059645962
   33500    275.92174    6.6172264    58.628098   -167.35599    2577.0838    14889.651 
   33510    285.29093    8.2314598    63.097959   -164.69143     1988.928    14889.651 
   33520    306.23298    8.9601475    51.218627   -162.24089   -266.81078    14889.651 
   33530    289.41311    7.6882903    60.209387   -160.22987   -4342.7018    14889.651 
   33540    285.27255    8.0930382    59.893413   -158.41055   -390.28572    14889.651 
   33550    288.70387    7.8158066     60.63659   -156.48712     1087.495    14889.651 
   33560     273.4587    6.1608354    60.604642   -154.39085    2728.9439    14889.651 
   33570    300.73467    6.8508417    67.356895   -152.10692   -133.73075    14889.651 
   33580    303.93816     9.369518    63.611471   -149.96107    499.63975    14889.651 
   33590    318.18651      13.6223    57.023935    -148.2263   -2174.5088    14889.651 
33600        0.99063597146095916379 10.106458411744089432 1 67 -293.61424315417377784
   33600    318.34043    18.032901    55.934529   -149.37956    153.77361    14889.651 
   33610    324.42104    13.692615    61.703964   -145.35509    174.51892    14889.651 
   33620    323.55927    8.4363561    68.901589   -139.94601    1043.1489    14889.651 
   33630    334.74336    7.4884581    53.637798   -140.78898    170.56264    14889.651 
   33640    320.10085    6.6994219    54.934808   -142.71289   -9.4035564    14889.651 
   33650    321.39187    6.8416701    56.537494   -145.47408    790.17473    14889.651 
   33660    291.79717    7.5037248    59.181289   -148.99532    -1840.345    14889.651 
   33670    285.55287    11.003865    51.296577   -152.67786     44.52479    14889.651 
   33680    283.12861    8.8107357    59.207888   -156.05377   -840.25971    14889.651 
   33690    281.06789    5.8445879    53.499742    -159.0255    1082.2648    14889.651 
33700        0.98614439337033077404 10.115898425933961491 1 65 -287.66277861927949289
   33700    278.58787    5.5668755    55.242395   -161.43932   -737.21941    14889.651 
   33710    281.47447    4.7593717    56.902623   -163.35187    1231.4802    14889.651 
   33720    303.28902    4.4515795    49.020975   -168.04689    916.60362    14889.651 
   33730    278.11335    5.0275854    55.838327   -170.12819    3312.4481    14889.651 
   33740    271.54663    4.6508598    59.347885   -177.51686   -1401.8141    14889.651 
   33750    272.76913    4.9897607    53.879814   -179.99324   -2208.5035    14889.651 
   33760    263.63193    5.2989274    54.322759   -182.69213   -4486.9387    14889.651 
   33770    269.67231    6.3984511    53.954143   -180.07511    19.362907    14889.651 
   33780    252.82848    6.1287603    61.548971   -182.39601   -713.56147    14889.651 
   33790     258.9553    4.6052517    57.515912   -184.25029    1058.4009    14889.651 
33800        0.98079530069057108133 10.136196131343009341 1 67 -307.02897732652536433
   33800    268.17146    4.1055283    58.836072   -185.52501   -303.48318    14889.651 
   33810    273.48606    5.1532759    49.198158   -190.80908    1365.5675    14889.651 
   33820     283.5541    4.6885931    51.168371   -190.30169    615.98144    14889.651 
   33830    276.89696    5.2419666     53.01406   -189.02183    3183.1435    14889.651 
   33840    271.70148    5.3978459    53.190974   -186.87695    1533.8358    14889.651 
   33850    296.12884    6.5640805    54.843688    -183.6478    1157.0304    14889.651 
   33860     283.9816    8.4673585    56.228134   -179.58709   -2781.6106    14889.651 
   33870    296.54945    8.4787866    54.172999   -174.95698   -1003.4993    14889.651 
   33880    275.50683    7.3206654      61.0495   -167.44241   -3067.5723    14889.651 
   33890    289.06312    6.3539459    51.687649   -163.04088   -2245.6331    14889.651 
33900        0.9719492912581108035 10.193711361431152085 1 69 -285.63520976909137516
   33900    278.97592    6.3552634    61.417909   -159.23593    -876.0907    14889.651 
   33910    302.01503    7.9905696    58.250304   -155.87768    2517.1705    14889.651 
   33920    311.73241    10.347388    56.187027   -152.91984    2895.1844    14889.651 
   33930    316.82486    10.254731    53.433006   -150.73677    -412.5594    14889.651 
   33940    310.80736     9.663183    57.801401   -149.27709   -177.35616    14889.651 
   33950    318.37571     10.75508     53.70048   -148.25456   -1802.5321    14889.651 
   33960    327.94907    11.082858    59.356936   -142.40264   -935.51754    14889.651 
   33970    329.43731    10.442027    56.125709   -142.34486   -2.5396933    14889.651 
   33980    321.95173    8.4587984    57.026606   -143.00686   -728.86047    14889.651 
   33990    307.44053    7.4865138    58.673022   -144.31184   -1387.0795    14889.651 
34000        0.9691747218636049821 10.188299228883174408 1 66 -275.55322234452825114
   34000    286.77177    5.3672704    59.894231   -145.62177   -710.84999    14889.651 
   34010    312.42237    4.3587325    57.690464    -146.8498    2845.7928    14889.651 
   34020    301.45021    3.7786598    62.439602    -148.2297    2552.9571    14889.651 
   34030    308.83262     4.450938    53.676117    -150.0537   -1309.6928    14889.651 
   34040    287.97462    7.4252782      58.4557   -155.79648   -2396.9205    14889.651 
   34050    282.59515     8.379066     61.81942   -158.15989   -315.98986    14889.651 
   34060    286.42957    5.0854488    59.586927    -163.6598    1586.0218    14889.651 
   34070    288.11073    4.0932006    55.234241   -166.06749    982.78405    14889.651 
   34080    294.28529    4.5410143    52.416571   -168.44629    1227.5294    14889.651 
   34090    279.30948    4.7515878    52.187129   -170.59317   -1515.0604    14889.651 
34100        0.96575104613288920152 10.205275283551047849 0.99735449735449732689 68 -302.10347156485948972
   34100    286.10103    4.5214797    53.077483   -172.47592   -1106.7467    14889.651 
   34110    271.08048    3.6246505    57.534778   -170.63217    1783.8326    14889.651 
   34120    275.26864    4.6755749    56.478148   -171.66618   -425.73177    14889.651 
   34130    275.05486    4.3275895    54.144178   -168.53454    153.78016    14889.651 
   34140    281.27236    6.1857887    53.641408    -173.0734   -1850.0922    14889.651 
   34150    284.93049    7.2714551    54.738219   -171.57878    2024.4955    14889.651 
   34160      279.886    6.3802033    61.995118   -169.06568    215.41071    14889.651 
   34170    295.45795    6.0417046    51.423838   -165.50765   -2766.7118    14889.651 
   34180     310.4352    5.1954786    58.055964   -161.07857   -1638.8899    14889.651 
   34190    330.24153    4.0641048      54.5563   -151.45514   -10.773023    14889.651 
34200        0.96589756141427618452 10.19591016791396143 1 65 -295.72752331817451932
   34200    327.56547    3.6401631    56.936752   -147.31314   -707.18165    14889.651 
   34210    325.01979    3.8551008    58.363984   -146.61432   -216.93096    14889.651 
   34220    292.77887    5.3329988    61.395119   -144.51282    1113.2523    14889.651 
   34230    303.94231    7.6155142    54.810757   -142.52678    1479.3256    14889.651 
   34240    322.19797    7.4535015    54.045556   -140.25983    1781.3186    14889.651 
   34250    321.28647    7.0463045    57.431855   -138.07771    1457.8188    14889.651 
   34260    343.75947     8.041157    59.708546   -140.41061    2618.4138    14889.651 
   34270    332.73309     9.030249    64.897746   -138.01561     303.3199    14889.651 
   34280    331.19552    11.226621    59.816089   -133.05804    813.11803    14889.651 
   34290    309.36999    12.361477    73.108546   -134.53559    490.33202    14889.651 
34300        0.96028123422441213908 10.203397346737485663 1 67 -283.79162146961647295
   34300    317.55154    9.6364581    61.759544   -139.91438   -654.67779    14889.651 
   34310    307.74354    9.0463452    60.669098   -139.70292   -4750.3719    14889.651 
   34320    296.70009    7.8099445    62.234271    -142.9788   -2114.1107    14889.651 
   34330    298.02738     7.593275    59.527621    -146.6029     1367.694    14889.651 
   34340    287.64806    6.3535775    62.304604   -155.55909    3666.1879    14889.651 
   34350     291.6911    7.0526176    58.812123   -159.43474   -332.81514    14889.651 
   34360    287.74376    6.6375259    53.459393   -163.34366   -690.06038    14889.651 
   34370    265.04484    6.8824052    54.706453   -166.40756   -1208.7751    14889.651 
   34380    286.99136    5.4843111     50.97979   -168.31984   -681.85896    14889.651 
   34390    266.94365    6.4654495    62.342689   -169.48957    1386.7226    14889.651 
34400        0.95863205191088096679 10.226078697663051997 1 71 -302.78238329441205678
   34400    293.40664    7.8859978    53.074502   -169.84479    1555.9153    14889.651 
   34410    303.61881    7.7016278    50.106688    -169.6342   -200.18604    14889.651 
   34420     280.0261    6.9028651    54.081729   -169.02791   -30.947259    14889.651 
   34430    290.82253    5.4401414    55.952717   -167.83359    983.98059    14889.651 
   34440    294.67602    4.3254462     65.44701   -166.26939    2166.3314    14889.651 
   34450    301.67075    4.2531213    50.673573   -164.34167   -2973.7882    14889.651 
   34460    285.38024    8.3098727    61.369404   -161.07365   -2985.4722    14889.651 
   34470    316.17207    9.6683055    53.025547   -153.01528    160.73159    14889.651 
   34480    305.90753    11.421698    66.073055   -141.81939    954.72424    14889.651 
   34490    340.96616    9.9456364    62.409951   -133.30356   -2008.7485    14889.651 
34500        0.95767427463169962909 10.245146244000586933 1 68 -278.4650442223832556
   34500    329.95005    6.8751517    65.177164   -128.97024   -3260.8641    14889.651 
   34510    372.60975    3.3148677    55.114162   -127.04674    788.50714    14889.651 
   34520    325.10337    2.7666893    71.571229   -127.29761    3650.7488    14889.651 
   34530    328.43776    3.2566491    57.078568    -128.4355    1665.3395    14889.651 
   34540    300.19177    4.4266885    61.746701    -129.8966    -125.0106    14889.651 
   34550    309.19788    4.2503507     62.55292   -131.29271   -2727.8375    14889.651 
   34560    311.63227    4.3551434    64.916992   -133.16788    1282.3984    14889.651 
   34570    301.29359    6.9704116    62.724011    -130.5385    2488.2488    14889.651 
   34580    286.58791    8.4803877    64.060147   -136.05576    2153.7502    14889.651 
   34590    282.13352    7.7637233    66.131821   -137.65291   -2645.4645    14889.651 
34600        0.96933402765398413159 10.204397234193555377 1 67 -281.05472469494253573
   34600    313.17339    7.6631189     59.11071   -139.16115   -2339.3568    14889.651 
   34610    320.22456    6.6074082    62.118512   -141.33617   -327.29387    14889.651 
   34620    315.94507      6.86717    58.511503   -144.30271    262.01962    14889.651 
   34630    299.82627    6.7644372    65.058088   -147.89834   -2723.7725    14889.651 
   34640    282.30334    6.7206755    61.499534   -151.63582   -1410.6024    14889.651 
   34650    309.31528    6.9248451     59.04694   -151.51638    338.02956    14889.651 
   34660    300.81153     7.885552    55.604046   -154.61746     3035.274    14889.651 
   34670    331.16894    9.4279597    50.801535   -157.53564    1194.4891    14889.651 
   34680    314.09928     9.007467    51.480415   -160.98001    1480.2733    14889.651 
   34690    284.72265    8.0092549    54.011078   -164.10524   -2471.1841    14889.651 
34700        0.97609868868006399723 10.17038127190532748 1 71 -290.40163301320410483
   34700    273.41696    8.4397532    53.452278   -166.52102    480.28429    14889.651 
   34710    265.19239     5.615816    60.542897   -167.84765    656.89959    14889.651 
   34720    313.51601    4.7459173    50.871266   -171.91749    1469.1726    14889.651 
   34730    287.40743    7.2765104    53.389691   -172.17407   -1756.7088    14889.651 
   34740    279.21834    6.9013693    50.094847   -171.86444    311.58779    14889.651 
   34750    258.88331    7.0986813    59.122696   -170.76464   -1147.2051    14889.651 
   34760    266.99139    6.9296369    54.219612   -173.02263   -1758.0685    14889.651 
   34770    276.52904    7.5779972    56.713627   -170.02988    163.35251    14889.651 
   34780    296.72136    7.2326836    54.280155    -163.6122    1428.3573    14889.651 
   34790    297.37897    7.7345902    57.200209   -159.60711    2640.9901    14889.651 
34800        0.98186687718666365576 10.124295083151803709 1 70 -294.68444310046754708
   34800    307.21744    6.7274291    57.985495   -155.48941    2457.4737    14889.651 
   34810    313.11705    7.4007947    59.974608    -151.6909    53.004089    14889.651 
   34820    311.81467    7.5148115    60.142861   -149.22558   -1076.9392    14889.651 
   34830    304.52809    6.4335888    59.516271   -148.12305   -2519.2726    14889.651 
   34840    288.72591     7.725798    64.704978   -147.72501    135.73908    14889.651 
   34850    293.51401    7.8700488    61.759853    -147.3374   -725.88602    14889.651 
   34860    300.79102    10.948454     58.61064   -147.04482   -2121.8551    14889.651 
   34870    302.95524    11.078667    60.895756   -146.89386   -407.88199    14889.651 
   34880    291.22857     9.685775    62.359576   -146.86938    1625.0616    14889.651 
   34890    290.95286    9.0698205     62.97591     -146.874    2198.8079    14889.651 
34900        0.98237889480232920558 10.116053207519122736 1 67 -277.60702988234635313
   34900     289.3434     10.01486    61.013759   -146.51042    326.43449    14889.651 
   34910    319.83537    7.2900285    56.224431   -145.75142   -292.29819    14889.651 
   34920     327.3566    5.2576119    64.231761   -145.37389     168.5623    14889.651 
   34930    328.50694    6.3188118    60.959476   -146.18002    249.62971    14889.651 
   34940    327.30193    6.6714015    59.628011   -148.10341   -96.593149    14889.651 
   34950    304.85658    6.9228763    58.457688   -150.49871   -879.10128    14889.651 
   34960    300.71367    6.6715675    59.152364   -153.26213   -1823.4998    14889.651 
   34970    274.18798    6.9196161    60.584355   -158.68554    17.107242    14889.651 
   34980    272.43297    7.9997903    57.883126   -161.69248    494.74673    14889.651 
   34990    271.29264    8.0033228    67.800681   -164.10416    3693.1907    14889.651 
35000        0.98610678816450192397 10.11114503254202468 1 67 -307.04072369863121139
   35000     310.8881    5.3859172    54.218162   -166.18257    2142.5516    14889.651 
   35010    292.16542    6.2731525    61.065681   -168.87253    1291.6487    14889.651 
   35020    287.87019    6.8779381    56.068848    -171.7632   -816.82917    14889.651 
   35030    267.13403    6.9912764    53.546887   -174.54801   -3217.4232    14889.651 
   35040    275.79482    4.9237602    54.316938   -176.79339   -1814.3779    14889.651 
   35050    308.01064    6.0335679     46.84168   -177.10518   -1947.8391    14889.651 
   35060    287.00882    7.4391747    51.647279   -179.79784    1750.0856    14889.651 
   35070    288.13381    9.1560151    47.736301   -182.63936    2546.1441    14889.651 
   35080    274.17333    10.706864    51.029599   -185.51862    1101.2986    14889.651 
   35090    268.14109    9.9958359    50.107507   -188.24111   -724.41793    14889.651 
35100        0.98528400857576525773 10.135455721397612194 1 66 -302.77814743474357329
   35100    247.98535    10.302594     52.28065   -190.42017   -1975.5314    14889.651 
   35110    255.33742    7.0584883    50.400278   -191.42749    -991.6519    14889.651 
   35120    266.13209    5.1909268     54.63706   -191.05363    -2042.938    14889.651 
   35130    273.55302    5.3155369    50.967855   -191.92816   -1951.0876    14889.651 
   35140    273.46736    5.5327922    54.411853   -188.82872   -42.323907    14889.651 
   35150    271.77267    7.8494779     52.44646   -184.22399    1056.0916    14889.651 
   35160    268.42441    9.0634914    55.316346   -178.53979    2094.7509    14889.651 
   35170    272.51561    8.7067194    54.768025   -172.63547    264.89604    14889.651 
   35180    268.79071     6.991603    56.121228   -167.66571    1262.9052    14889.651 
   35190    288.48877    4.6012309    52.155822     -163.712   -769.97097    14889.651 
35200        0.98321350503629345585 10.119759318652102209 1 65 -301.66261488809982438
   35200    311.99149    4.1944995    53.073372   -160.30453   -640.36315    14889.651 
   35210    298.68728    5.3630985    67.957944   -157.44955   -876.97709    14889.651 
   35220    303.52408    9.6534463    65.951552   -151.01069    2328.4594    14889.651 
   35230    294.43377    10.251988    63.766128   -149.49938   -879.88016    14889.651 
   35240    297.43239    11.743403    62.408114   -148.59163   -261.60235    14889.651 
   35250    296.77421    11.413878    56.396541   -147.67784   -1821.3162    14889.651 
   35260    307.32652    11.903856    58.971133   -150.93321    970.47413    14889.651 
   35270    308.87367    11.519053    64.402573   -150.00156    554.03727    14889.651 
   35280    302.68582    12.166167     59.66925   -149.51237    2072.8843    14889.651 
   35290    287.25145    10.427413    71.766294   -144.81005   -2012.4478    14889.651 
35300        0.98947730387415200326 10.084719559186506643 1 67 -285.57147454011516174
   35300    311.49322    8.9116453     62.90574   -144.43915    -919.1014    14889.651 
   35310    307.66129     8.213689    63.897804   -144.69751   -1029.5062    14889.651 
   35320    320.24791    8.6217908    57.378515   -145.74815     776.3839    14889.651 
   35330    299.86028    8.9137527    58.833416   -147.60385   -943.35168    14889.651 
   35340    312.87242     8.202807    54.380738   -149.52539    678.19301    14889.651 
   35350    286.21628      7.23699    66.298199   -154.82334    1016.9169    14889.651 
   35360    297.33842    7.2173732    57.654788   -157.59064     955.7749    14889.651 
   35370    302.80204    5.4954495    57.566681   -161.15305   -3743.7095    14889.651 
   35380    285.17611    7.1461138    58.017452    -165.0499   -1416.5396    14889.651 
   35390    285.10402     6.665071    55.094294   -172.45121   -1764.5393    14889.651 
35400        0.98935711939237513945 10.038701042292577981 1 63 -307.95052341953197583
   35400    292.87916    5.9852344    52.211843   -175.25192    2297.8304    14889.651 
   35410    285.68987    7.3554706    53.875601   -177.37224    1441.6459    14889.651 
   35420    272.87207    8.4605529    50.699917   -178.54341    2418.5488    14889.651 
   35430    252.49099    8.3502843    56.535785   -178.51237    2956.5319    14889.651 
   35440      258.988    7.2799276    56.711008   -174.65792    2744.3331    14889.651 
   35450    289.88292    5.1063193    62.940613     -171.946    2132.7914    14889.651 
   35460     298.5277    3.8719978    54.877336    -168.3268   -1356.6985    14889.651 
   35470    311.66792    2.9896872     53.24469   -164.28504   -3682.3505    14889.651 
   35480    301.20983    5.4272326    52.427935   -159.67705    -3150.481    14889.651 
   35490    306.70385    7.5565829    57.704927   -154.81447   -615.36037    14889.651 
35500        0.98880491460647024216 10.061080882455600616 1 65 -287.03209645547735818
   35500    301.94512    10.968797    66.889026   -150.22586    3069.2747    14889.651 
   35510    315.98181    14.994172    61.371978    -142.4085   -1405.5781    14889.651 
   35520    316.06576    13.091468    60.117068   -137.03301    746.70442    14889.651 
   35530    322.45537    10.222761     56.57222   -136.28019    -360.8829    14889.651 
   35540    317.32071    8.0922904    55.982984   -136.02041    1815.3603    14889.651 
   35550    321.97838    5.9362567    56.978427   -136.17625   -1222.7438    14889.651 
   35560    301.01191    4.1286233    67.831524     -136.519   -567.50928    14889.651 
   35570    310.59849    5.0635929    63.736107   -137.04533    849.44778    14889.651 
   35580     315.0599    8.8309675    58.440899   -137.84776   -1518.8957    14889.651 
   35590    327.95797    10.492512    64.538215   -139.38824    1764.3379    14889.651 
35600        0.98924068158615297008 10.073442383162813485 1 69 -284.74963497769772403
   35600    304.77701    12.013076    63.873763   -146.66031    2228.3244    14889.651 
   35610    288.98975    10.400395    63.848543   -149.04496    2656.8562    14889.651 
   35620    297.73373    10.236004    53.962306   -151.26389     76.27086    14889.651 
   35630    307.86567    7.0820626    56.702685   -153.33862   -2395.5333    14889.651 
   35640    296.46035    4.3598589    63.096651   -155.42631   -1009.5218    14889.651 
   35650    300.36778    4.3038107    57.562114   -157.70128   -3500.6577    14889.651 
   35660    288.74814    5.0288212    68.547049    -161.9872    560.08828    14889.651 
   35670    309.62388      4.24855    55.927046   -164.77158    743.25184    14889.651 
   35680    319.00119    7.1131573    43.706249   -167.80721    844.66236    14889.651 
   35690    288.37296    9.1710378     57.70766    -170.8241   -100.22767    14889.651 
35700        0.98655873133411009501 10.121320089438450296 1 70 -301.62531156222678419
   35700    282.52087    8.8893314     54.98744   -173.61987   -403.51431    14889.651 
   35710    268.76761    9.9725994    59.861648   -176.19645    2406.5192    14889.651 
   35720     291.7635    11.526731    50.615375    -176.7518    215.71301    14889.651 
   35730     284.2774    12.069016    51.416346   -178.12695    429.83435    14889.651 
   35740     296.4498    10.421396     50.36431   -178.89782    686.75435    14889.651 
   35750    283.38837    10.790031    49.664092   -179.23473    -1249.897    14889.651 
   35760     278.6408    10.742547    58.276667   -179.06851   -968.76065    14889.651 
   35770    265.50313    10.134997    52.388647   -172.85233   -593.09348    14889.651 
   35780    266.15384     7.600013    59.149799   -175.46726    192.56984    14889.651 
   35790    273.88972    7.2496578    59.509457   -170.01877   -2508.9789    14889.651 
35800        0.98360538066254943335 10.148044719638511069 1 71 -297.54366884867403087
   35800    296.56102    6.6741433    53.016712   -163.17687   -1497.0669    14889.651 
   35810    302.43582     5.301415    61.972115   -156.32887     2436.329    14889.651 
   35820    323.45185    4.7128995    55.288264   -151.39189    2028.4357    14889.651 
   35830    289.57338    4.3344104    72.147868       -150.6   -966.48366    14889.651 
   35840    311.07511    5.9959748    64.400221   -148.08061   -543.93246    14889.651 
   35850    305.15066    5.6151716    66.078541   -146.28437   -993.62308    14889.651 
   35860    302.64232    5.9161651    68.121668    -145.2378   -863.10289    14889.651 
   35870    316.31516    6.1148984    64.662676   -144.75023   -492.69593    14889.651 
   35880    320.90875    6.1687723    66.282235   -145.15322     1947.343    14889.651 
   35890    331.71122      7.03929     57.23363   -146.60484    1629.2498    14889.651 
35900        0.98238569862709312908 10.154485351899356971 1 68 -287.26213932453930511
   35900    305.19464    5.8159374     64.98218    -148.9836    1160.7491    14889.651 
   35910    298.19128    5.1776273     70.89537   -152.13526    1350.4667    14889.651 
   35920    317.75953    6.5859338    57.344063   -156.13024   -1847.1714    14889.651 
   35930    296.17261    5.1700337    52.665641   -160.28031    -1964.539    14889.651 
   35940    285.90082    5.3272841    60.251901    -163.6325    134.61086    14889.651 
   35950    271.79711    6.4031091    58.350534   -165.86351    610.73693    14889.651 
   35960    275.38351    8.2320413    59.146679   -167.04351   -2836.5456    14889.651 
   35970    282.98156     7.960086    54.454659    -167.5279     -578.599    14889.651 
   35980    277.37403    9.1379834    63.272891   -167.29173   -1231.1744    14889.651 
   35990    282.38152    9.4466135    55.337218   -166.36797    2563.3671    14889.651 
36000        0.9771234914548934114 10.169562956121307451 1 70 -293.41773329115210345
   36000    283.87591    6.9201372    57.276825   -164.79835    877.09233    14889.651 
   36010    312.06094    7.7342577     58.67237   -157.82281    1388.9148    14889.651 
   36020    305.79283    6.2915278    64.075715   -157.97694    257.01762    14889.651 
   36030    338.93332    6.1794063    48.138601   -156.33494   -2228.5066    14889.651 
   36040    296.31964    6.9747769    69.057301   -155.28856    -862.3699    14889.651 
   36050    308.25903    7.8698612    59.791211   -159.03034    459.39828    14889.651 
   36060    268.26762    12.845921    69.108211    -153.1624   -403.17487    14889.651 
   36070    274.59886    10.745955    67.666366   -151.16785    1683.5071    14889.651 
   36080    303.42452     11.29378     60.87707   -149.95549   -1757.5131    14889.651 
   36090    333.60458    8.0259946    58.080315   -144.90013    447.97268    14889.651 
36100        0.96869101953661063131 10.185466660680310369 1 65 -290.31186341368169224
   36100    332.71937    6.6934898    63.413498   -139.56233    869.24424    14889.651 
   36110    318.06301    7.3326086     72.50908   -135.73747    106.83846    14889.651 
   36120     306.5121    5.9734332    71.319846   -133.22532    1499.9079    14889.651 
   36130    321.21554    5.0938998    71.515681   -131.65478    194.05137    14889.651 
   36140    305.59729    5.3683084    71.928766   -130.69997   -427.02612    14889.651 
   36150    311.91712    8.1750045    66.424588   -130.13095   -1282.6615    14889.651 
   36160    310.91729    10.252683    67.540683   -129.83227   -1449.9608    14889.651 
   36170    297.45739    8.9271888    75.038965    -130.0956    969.28916    14889.651 
   36180    321.60723    9.3735962    64.691454   -131.31346     260.3552    14889.651 
   36190      307.771     8.243177    71.599576   -129.08213    1514.1144    14889.651 
36200        0.97194515983443885432 10.182204320100707307 1 70 -281.4937480981632234
   36200    333.64966     6.586005    64.100523   -130.32272   -1727.4791    14889.651 
   36210    320.63931     5.936931    60.278888   -136.49007   -246.53883    14889.651 
   36220     309.1657    7.2998746    59.794488   -143.14049    537.08379    14889.651 
   36230      299.333    6.1417568    59.628947    -148.3438    243.86671    14889.651 
   36240    294.87536    5.9944399    61.064946   -156.37393    681.57162    14889.651 
   36250    319.34188    4.0993273    55.116045   -159.20147    -684.0104    14889.651 
   36260    330.22271    4.7664559    48.173744   -157.39708    -295.4081    14889.651 
   36270    296.28874    5.4030805    52.241246   -159.27561    1067.3113    14889.651 
   36280    289.58248    5.5418838    54.793889    -160.5866     1056.939    14889.651 
   36290    291.18231     5.300096    56.835063    -164.4903    2384.2796    14889.651 
36300        0.96664092193583328605 10.184814777228890392 1 71 -306.03541047758540117
   36300    312.07471    6.8019748    49.126346   -164.63963   -288.20331    14889.651 
   36310    297.28321    8.3539123     52.55911   -161.21103   -1392.5481    14889.651 
   36320    283.29794    10.938138    55.362884   -160.63109   -886.09564    14889.651 
   36330    300.42764    7.4966479    52.664823   -159.49477    -1203.427    14889.651 
   36340    310.50682    8.5428501    56.028461   -162.99743    302.53861    14889.651 
   36350    303.08465    10.786068    59.165657   -161.36315   -138.20737    14889.651 
   36360    283.54588    9.1877384    62.085046   -162.14916    1553.8265    14889.651 
   36370    296.68928    8.3249594    57.095275   -159.90924    761.32418    14889.651 
   36380    279.44178    7.7678163    61.579567   -151.73074    -4376.464    14889.651 
   36390     301.9744    5.8169759    62.068294   -147.48797   -1540.0019    14889.651 
36400        0.95843796375262524379 10.226026762191782638 0.99735449735449732689 66 -277.86905223219639538
   36400    298.51631    5.8145863    68.361348   -142.61635   -2392.6983    14889.651 
   36410    296.31208    5.2848634     66.34486   -138.51139    2780.7038    14889.651 
   36420    323.20283    5.2491459    55.561285   -135.14235   -1281.9597    14889.651 
   36430    324.21969     4.625927    65.584063   -137.19907    1438.2516    14889.651 
   36440    309.69478    4.8126987    69.615094   -135.35142    1087.8836    14889.651 
   36450    298.07696    4.5904214    70.868227   -134.41771    476.17229    14889.651 
   36460    311.16649    4.6617841    68.826317   -129.39944    2424.9136    14889.651 
   36470    330.25926    5.6074555    54.114886   -129.54547   -177.33339    14889.651 
   36480    297.04607    6.3278142    69.761215   -129.89355    14.987714    14889.651 
   36490     318.8265    4.5374576    64.219927   -130.62775    612.98961    14889.651 
36500        0.96213337535911236387 10.202052860146167745 0.99735449735449732689 67 -262.73520080485280914
   36500    288.66603    5.0853067    66.440285   -131.94549   -844.00608    14889.651 
   36510    285.02553    5.0083011    64.539145     -130.228   -1552.9541    14889.651 
   36520    295.86254    6.2908871    60.311986   -135.23233   -1765.8611    14889.651 
   36530    328.14272    5.1639883    62.618255   -131.27384    1762.7126    14889.651 
   36540    306.68453    4.9779994    61.893064   -131.99697    1680.4816    14889.651 
   36550    302.13306    4.8486311    69.500652   -133.04407   -710.32948    14889.651 
   36560    315.61672    5.0205036    64.670339   -134.33964   -253.29204    14889.651 
   36570    318.09343    6.0899949    62.453489   -136.13642   -787.79549    14889.651 
   36580    328.21332    5.7950374    62.313321   -138.27762    1583.0303    14889.651 
   36590    299.63882    5.1002099    62.063073   -140.57593    1390.5258    14889.651 
36600        0.95356123692278771387 10.241384294353348849 0.99735449735449732689 66 -276.39697067956660703
   36600    294.64014     4.991236    70.190277   -142.90049   -946.39924    14889.651 
   36610    310.40404    5.5402487    58.603525   -145.04583   -2162.1383    14889.651 
   36620    297.16863    6.2525523    61.342161    -147.1128   -1412.7161    14889.651 
   36630    326.01281    4.0658907    55.082575   -148.92752   -603.16886    14889.651 
   36640     296.8991    4.7827287    56.971629   -150.79035    1.8038219    14889.651 
   36650    304.23218    5.4860055    54.492792   -157.64823    1.8919724    14889.651 
   36660    293.98589    7.6753754    55.978875    -158.9309    1936.9979    14889.651 
   36670    273.32468    7.3018714    59.179146   -159.48972    2415.9611    14889.651 
   36680    297.35435    6.7507112    51.652056   -159.34718    900.19096    14889.651 
   36690    300.22462    4.8403655    58.218502    -158.8743   -1516.1259    14889.651 
36700        0.94812059078800314804 10.264421625123263837 0.99735449735449732689 70 -295.66890935706851451
   36700    303.27314    4.8922046    53.545908   -158.26097   -2803.3634    14889.651 
   36710    288.31611    3.0447689    63.108715   -157.63674   -2664.9733    14889.651 
   36720    285.60152    4.8030255    64.958408   -157.02003    746.14958    14889.651 
   36730    308.83378    6.8773522    55.751995   -156.27371   -738.35855    14889.651 
   36740    299.75289    9.0664158    61.306904   -155.36722    701.41073    14889.651 
   36750    294.48934    8.0662933    67.953239   -154.31072    2215.8517    14889.651 
   36760    281.87406    9.0263403     66.80703   -152.87797    2463.9222    14889.651 
   36770    305.94739    10.878545     61.74755   -150.69386    129.90637    14889.651 
   36780    287.04154     12.35093    64.615126   -147.39087   -2289.1356    14889.651 
   36790    326.06432    7.0296954    61.277552   -142.30722   -3029.2652    14889.651 
36800        0.95830586355375468877 10.235951712488498444 1 67 -284.13340577260146347
   36800    325.93166    4.2435845    64.883503   -136.45927     1753.394    14889.651 
   36810    340.40645    5.0099891    60.592845   -130.78551   -390.89813    14889.651 
   36820    308.19712    5.4832161    70.140575   -126.26088   -1726.2298    14889.651 
   36830    357.82359    4.5790072    61.011549   -123.35981    13.846931    14889.651 
   36840    342.53752    5.5974285    68.203805   -122.43491    1154.2916    14889.651 
   36850    355.03793    6.8419322    56.950466   -123.36743    1780.9127    14889.651 
   36860    304.61213    6.2138484    76.315868   -125.99357    554.21892    14889.651 
   36870    312.34875    5.6735647    66.939219    -129.4139   -440.22884    14889.651 
   36880    291.24092    5.7206909    63.691751   -133.15454    1419.6595    14889.651 
   36890    314.82215    4.6021196    61.262011   -136.67259    -918.8405    14889.651 
36900        0.96685885140232052937 10.217369098441448472 1 69 -288.98878746719310584
   36900     327.7875    4.5177035     62.22294    -140.4738     700.9276    14889.651 
   36910    300.15543    6.9732853    68.546358   -144.31452   -610.48461    14889.651 
   36920    298.11943    9.0183472    59.307104   -147.65171   -401.95146    14889.651 
   36930    294.40587    9.2660108    67.865064   -150.43509   -1418.4101    14889.651 
   36940     282.3149    7.1787113    67.800548   -152.71303    1023.0302    14889.651 
   36950    272.94307    5.2952867    67.863671   -154.22734    892.04345    14889.651 
   36960    294.18459    4.2730489     56.95892   -155.04924   -1516.7841    14889.651 
   36970    298.25546    4.3280286    60.060608   -155.53533   -391.30502    14889.651 
   36980     284.0462    5.8456399    53.595422   -155.67646   -182.64234    14889.651 
   36990    283.07137    6.0869554    60.706026   -155.22526    -1080.299    14889.651 
37000        0.97045571338224478897 10.179101982244382896 1 66 -277.45582536244614857
   37000    272.43539    5.8840941    59.754798   -154.01995   -1791.3909    14889.651 
   37010    303.91246    7.9498948    55.804522   -152.09154   -1842.9616    14889.651 
   37020     315.5896    6.9717686     61.29425   -150.31648    2229.5102    14889.651 
   37030    345.05447    8.0325354    52.412924   -149.36432    1507.5327    14889.651 
   37040    324.44435    8.6227912    51.142506   -149.26928    503.65445    14889.651 
   37050    290.72106    8.7519338    69.787941   -149.64893    -1142.039    14889.651 
   37060     309.4872    12.827264    58.941332   -150.14801    196.15822    14889.651 
   37070    291.29084    11.457078    59.942772   -151.08964    227.17603    14889.651 
   37080    280.93964    7.3327932    63.319737    -152.5101    2155.4638    14889.651 
   37090    297.43515    7.3882904    54.861625   -154.15841    126.84939    14889.651 
37100        0.98057441453502913742 10.126623257806386391 1 66 -298.97970682702759859
   37100    314.70265    5.0406738    53.203102   -156.39325   -421.58472    14889.651 
   37110    307.47703    4.9031297    55.509636   -159.79091    458.50747    14889.651 
   37120    286.79363    5.4912345    55.655364   -164.08894    650.39037    14889.651 
   37130    278.55166    6.3146168    55.391499   -168.31012     107.4226    14889.651 
   37140     265.5555    8.8662671    51.976012   -171.67008   -3332.5732    14889.651 
   37150    258.79164    10.185665    52.742402   -173.67241    -1625.796    14889.651 
   37160    277.25629    10.443194    51.147093   -174.38784   -237.54152    14889.651 
   37170    290.91417    8.2184591    51.916031   -174.26248    1600.3836    14889.651 
   37180    295.39718     6.654081    51.937436   -168.48241    1604.4342    14889.651 
   37190    300.94132    5.8110979    46.742696   -167.55645    2370.2911    14889.651 
37200        0.98504125177462098506 10.093567754123478508 1 70 -306.59601405274344188
   37200    298.60486     4.552553     48.53618   -171.30319    1945.4824    14889.651 
   37210    283.29929    5.5486139    52.827605    -169.1296    1103.3482    14889.651 
   37220    278.80259    8.0578819    59.271688   -165.75752   -3517.2717    14889.651 
   37230    291.43633    8.7776893    54.023438   -161.44819   -1398.2661    14889.651 
   37240    299.22786    7.2566056    55.473854   -156.08317    369.02619    14889.651 
   37250    301.03972    9.1949562    53.343575   -151.06102    1809.7942    14889.651 
   37260    322.89727    10.041843     54.61571   -146.41598    1577.3571    14889.651 
   37270    324.22744    12.340669    53.472768   -143.50571    418.56282    14889.651 
   37280    286.39546    10.469373    63.026875   -141.96497    207.45509    14889.651 
   37290    289.37583    7.7305349    56.865771    -140.9837   -1125.9251    14889.651 
37300        0.98516203652976519489 10.107946660057800514 1 65 -272.67495189236905162
   37300      292.353    6.1168116    63.878121   -140.21474    -1550.864    14889.651 
   37310    313.33308    6.4486211    57.520006   -139.51991   -304.11711    14889.651 
   37320    331.31829    5.8746113    52.680635   -139.05191    482.58888    14889.651 
   37330    305.72969     7.223885     62.94663   -139.13867    304.42298    14889.651 
   37340    329.41734    9.7921476    52.483341   -139.84963   -520.64903    14889.651 
   37350    293.52257    11.487264    65.163602   -141.57584    1913.2231    14889.651 
   37360    300.66482    9.7716914    60.069058   -143.41611    170.05555    14889.651 
   37370    307.53953    9.7065143    52.060082   -145.18218   -179.54417    14889.651 
   37380    323.05951    8.3058042    54.962036    -147.0615   -2166.8766    14889.651 
   37390    312.54696    9.3350935    58.863373   -149.78764    241.77284    14889.651 
37400        0.99147155535794517789 10.09335983540605497 1 67 -284.82573580596806551
   37400    290.70357    7.2999135    58.011993   -153.11285    1178.5719    14889.651 
   37410    274.47937    7.6854673    61.770617    -156.2246    2950.8404    14889.651 
   37420     300.2875    11.060113    51.734526   -159.07365   -992.47744    14889.651 
   37430    287.93982    12.174721    58.969938   -161.96022    554.11473    14889.651 
   37440    311.03929    7.4028112    57.468394   -164.84034   -1719.3367    14889.651 
   37450     301.5211    5.7283743    53.007822   -168.13492    221.87023    14889.651 
   37460    291.21307    6.1967726    60.620123   -172.20807   -1150.9861    14889.651 
   37470    281.75057     8.667128    51.856526   -176.60187    1428.7082    14889.651 
   37480    276.52594    6.7219599    49.079447   -180.78633    -892.5393    14889.651 
   37490    259.43351    6.9630345    44.536324   -183.83741    3140.9172    14889.651 
37500        0.98816430226186202646 10.120583862276973264 1 68 -304.47137951752256413
   37500    262.77519     5.998063     50.65853   -185.41238    11.354548    14889.651 
   37510    280.09537     4.657346    46.253088   -185.73203    432.46797    14889.651 
   37520    255.96529     5.566839    59.950798   -185.24077   -3061.3855    14889.651 
   37530    240.68361    7.0422886    59.183654   -183.54695   -1593.2512    14889.651 
   37540    261.31079    7.7258556    49.621206   -179.08351   -1757.4001    14889.651 
   37550    276.98926    8.1602748    62.267462   -170.56355   -669.67119    14889.651 
   37560    294.16994    9.3500744    57.245398   -160.69059   -1099.7482    14889.651 
   37570    305.92355    10.543269    52.181361   -154.96608    968.24467    14889.651 
   37580    302.28071    7.9176654    61.930386   -152.51121    1217.4361    14889.651 
   37590    306.90954    7.3159723    59.296552   -151.04522    2855.0591    14889.651 
37600        0.98367086202508513537 10.112910260800028084 0.99735449735449732689 64 -289.90021367264614582
   37600    313.26829     6.422249    48.593163   -147.96363   -1215.0105    14889.651 
   37610     295.2483    6.4133597     55.91336   -146.99537   -51.615761    14889.651 
   37620    289.03713    6.0731606    56.850191    -148.4009    -2354.846    14889.651 
   37630    295.32312    5.6773787    55.505073   -143.73295    1727.1469    14889.651 
   37640    293.46465    5.8053791     58.79406   -142.33378   -26.511074    14889.651 
   37650    273.91561    8.7976251    58.941055   -140.63148    593.86911    14889.651 
   37660    266.97794     10.16444    61.982401   -138.17721   -658.11511    14889.651 
   37670    286.41502    10.282061    60.787687   -134.61685   -245.01121    14889.651 
   37680    295.16586     9.567679    62.405688   -130.54384    919.65732    14889.651 
   37690     320.2404    8.2191475    59.217579   -126.67659    -191.9571    14889.651 
37700        0.98455963840611204763 10.083910648043984182 1 68 -269.85262697447546998
   37700      328.561     7.503153    54.554949   -120.98718   -778.97565    14889.651 
   37710    316.75203    5.9080457    62.731775   -118.89648    517.10089    14889.651 
   37720    326.62291    7.0763244    62.513964    -117.6911    490.47282    14889.651 
   37730    324.72769    7.8898388    65.287073   -122.08893    2178.2761    14889.651 
   37740    322.54117    7.7319797    65.037459   -123.21005    -768.6474    14889.651 
   37750    325.21724    7.6474559    60.350979   -125.19516     3.801464    14889.651 
   37760     318.2261    6.9423435    58.256256   -127.83467      798.561    14889.651 
   37770    316.65043    5.9502345     64.77543   -131.34626   -762.40057    14889.651 
   37780    313.51064    5.0215769    58.828811   -138.61006   -2411.5884    14889.651 
   37790    309.67834    5.5277151    51.281542   -145.45291   -2232.2903    14889.651 
37800        0.98531939243950528162 10.065719975143998965 1 71 -285.07183911250848496
   37800     303.6952    7.1255331    57.137139   -147.47267    2534.7879    14889.651 
   37810    297.21521    11.289795    58.293231   -146.35962    3918.8882    14889.651 
   37820     303.0139    14.975061    51.101454   -148.52301    180.96411    14889.651 
   37830     293.9994    15.596362    58.456547   -150.45215   -1074.6424    14889.651 
   37840    308.93216     11.61867    53.356801   -153.69706   -778.47563    14889.651 
   37850    294.62155     7.985977    54.083044   -155.10044   -1533.5932    14889.651 
   37860    296.85782    5.8177532      52.0388   -156.11398    145.31346    14889.651 
   37870     258.8106    4.8848579    60.473996   -156.42331   -3078.3768    14889.651 
   37880    285.19399    5.5613618    65.137252   -155.78785   -759.77813    14889.651 
   37890    285.33262    7.6229617    58.943157   -154.46491   -1763.0526    14889.651 
37900        0.98691860950809706665 10.061967598074581076 1 68 -293.340805385010583
   37900    309.93606    6.9088652    58.069313     -152.914   -311.55292    14889.651 
   37910    285.97107    7.4471508    64.675662   -151.44739    3420.8084    14889.651 
   37920     305.2921     10.23356     59.31797   -149.82443    1366.4702    14889.651 
   37930    315.45573    10.610438    54.618675   -147.93329    2700.2182    14889.651 
   37940     317.0288    7.4603566    55.949486   -146.08434    1407.7047    14889.651 
   37950    300.41887    7.7559379    58.885514   -144.14745    87.352982    14889.651 
   37960    296.31667    7.8543591    61.249893   -141.50284   -2839.3669    14889.651 
   37970    305.94886    9.9257349    56.838198   -137.44719   -4550.1649    14889.651 
   37980    322.76321    9.4774135    64.066116   -131.43007   -325.55675    14889.651 
   37990    331.07738    10.823679    58.583449   -124.99325    2780.5154    14889.651 
38000        0.98926018569874041297 10.059504549725012623 0.99470899470899465378 71 -272.84688197821958511
   38000    338.42439    11.426707    63.888048    -119.5125    1125.6117    14889.651 
   38010    336.25912    13.842765    59.667641   -116.05251    3083.5531    14889.651 
   38020    342.87517    10.576075    68.010517   -114.49066    404.17674    14889.651 
   38030     341.7087      7.18374    64.198644   -114.67584    851.93613    14889.651 
   38040    321.65285    7.7028835    69.175368   -116.39142   -2072.1424    14889.651 
   38050    319.86912    7.5275774    64.667322   -119.34643   -1091.5032    14889.651 
   38060     303.2153    6.5125203    66.902715   -122.91118   -953.30526    14889.651 
   38070    316.41705    5.0276183    55.948116    -121.6181     779.5982    14889.651 
   38080    317.52541    7.2024049    59.476207   -125.16311    1468.6275    14889.651 
   38090    310.95328    7.8088032    57.555222   -128.55276    189.21811    14889.651 
38100        0.98373371580446200557 10.072556126158074719 0.99206349206349198067 71 -270.03871244654112616
   38100    305.80952    6.9574098    64.567153   -131.48158    89.446719    14889.651 
   38110    321.59767    4.5349264     60.91364   -134.18018   -1535.1276    14889.651 
   38120    319.17231    7.0590775    62.832297   -136.95458    371.76745    14889.651 
   38130    301.46985    5.8658098    57.771066   -143.66688   -2809.3855    14889.651 
   38140    296.05881    5.1843021    60.237446   -145.43816    87.244195    14889.651 
   38150    298.29308    5.2259106    52.282087   -146.83318   -1521.4268    14889.651 
   38160    297.35419    8.5045509    62.924308   -147.93591    2264.1214    14889.651 
   38170    329.45605    7.8744771    48.329047   -151.72319    2469.7261    14889.651 
   38180    303.03435    5.8581092    60.866466    -153.0223    2706.4934    14889.651 
   38190    286.19839    4.8785709    60.829044   -153.99873    1502.1643    14889.651 
38200        0.97480836563940342909 10.126086457959397436 0.98677248677248674547 70 -278.70071296288671192
   38200    274.93797    5.9146269    52.754869   -154.13096   -2395.4132    14889.651 
   38210    292.39839    7.2923545    54.248477    -153.4406   -4003.5401    14889.651 
   38220     306.4053    5.3516307    61.086338   -152.26324   -1273.2528    14889.651 
   38230    304.12372    4.9246808    63.835915   -151.13258    1430.6725    14889.651 
   38240       298.71    9.3164348    57.116591   -150.20413    3413.8227    14889.651 
   38250    292.88784    12.401759    63.331255   -149.34144    479.70132    14889.651 
   38260    318.98981    9.4412732     54.42622   -148.31714    1571.1486    14889.651 
   38270    319.51359     7.070937    58.411654   -142.98206    -1892.756    14889.651 
   38280    288.75035    6.4430949    65.466525   -142.29099   -2947.6975    14889.651 
   38290    283.36167    6.5498677    61.761362   -141.21339   -906.91246    14889.651 
38300        0.96924949465518506209 10.154465669607153799 0.99206349206349198067 70 -275.49563251108111217
   38300    295.80645    4.0574542    66.018847   -141.47072    1036.5732    14889.651 
   38310    313.28407    3.8056801    62.050609   -139.09578    2390.0704    14889.651 
   38320    303.87499    3.5499318    63.297804    -133.7909    2291.2614    14889.651 
   38330    300.97443    3.2827148    70.041403    -131.0817    566.25547    14889.651 
   38340    306.24369    4.3338291    68.654597   -127.98892    229.60679    14889.651 
   38350    316.68071    5.7314387    67.383532   -125.37784   -2825.7788    14889.651 
   38360    313.73435     5.430582    72.766435   -123.39379   -1620.3314    14889.651 
   38370    334.94146    7.1068282    63.804325   -122.59524   -1550.0892    14889.651 
   38380    307.16619    9.5284532    62.931231   -123.30895    1601.1015    14889.651 
   38390    299.02147    7.9517671    65.167989   -122.15094    2554.8797    14889.651 
38400        0.96143919283300383061 10.187165610841386609 1 69 -263.02098652231012466
   38400     307.5054    5.3821844       67.612   -123.69548    2104.5058    14889.651 
   38410     335.9134    6.1654419    62.138809   -126.02161    343.55167    14889.651 
   38420     321.3262     5.704221    63.126246   -129.92606   -1813.7804    14889.651 
   38430     318.1475    4.8433523    64.425727   -138.20875   -3651.3184    14889.651 
   38440     307.1257    4.7921007    54.508282   -143.67079   -2412.2307    14889.651 
   38450    307.96132    6.3225078    54.231581   -153.58726   -2906.5498    14889.651 
   38460    293.05127    7.8643811    65.311569   -152.61179    2802.8605    14889.651 
   38470    305.74463    9.1986973    53.552229   -156.79048    3240.2509    14889.651 
   38480    278.01076    9.5506381    59.014182    -158.7129      2708.81    14889.651 
   38490    284.79851    8.2816523    59.423419   -159.55399    544.35899    14889.651 
38500        0.95141291315541109963 10.24377744480400132 0.99735449735449732689 68 -289.17186926781585043
   38500    285.82845    5.8652566     56.60134   -159.66782   -1230.5829    14889.651 
   38510    301.25277    5.0732684    56.833354   -159.42221   -1536.4744    14889.651 
   38520     275.9254    4.8320959    62.120442   -162.05912   -3018.7861    14889.651 
   38530    280.93672    7.5209536    55.673732   -161.24865    -584.0431    14889.651 
   38540    287.97328    8.9151334    63.000331   -159.81376    536.33526    14889.651 
   38550    303.10424    7.6586067    57.677474   -157.90773   -2118.4929    14889.651 
   38560    308.91324    7.1958094    58.376727   -155.59617    1882.9358    14889.651 
   38570    287.43619    6.5356075    66.327008   -153.27248    315.87598    14889.651 
   38580    299.20895    6.7858823    53.563776   -150.33901    2359.3204    14889.651 
   38590    296.67984    6.1642842    60.669703   -147.01328   -802.45684    14889.651 
38600        0.94488932928640245734 10.24790540212863732 0.99470899470899465378 68 -286.20552453456525654
   38600    315.29067    6.2174699    62.501483   -143.35264    2668.7523    14889.651 
   38610    295.66743    5.5293277    70.405036    -140.4009   -626.64193    14889.651 
   38620    318.36287    5.2073603    60.000994   -134.05385    964.14001    14889.651 
   38630    318.74246    2.6620912    62.105591   -132.39569   -1960.3592    14889.651 
   38640    326.35809    2.9125922    58.942725   -127.61146    242.10289    14889.651 
   38650    303.52167    2.7026789    66.213402   -126.74398   -2480.5836    14889.651 
   38660    313.13303    3.3549658    54.980251    -130.4406    507.86052    14889.651 
   38670    304.84305     2.488395    68.853531   -129.18862   -201.33434    14889.651 
   38680     318.7199    3.8615316     60.66506   -127.47892    1430.3821    14889.651 
   38690    316.94812    5.0539475     65.83099   -125.35267   -2259.8393    14889.651 
38700        0.94140283883763031803 10.269495038989436608 0.99735449735449732689 67 -268.67335652627588161
   38700    322.26673     5.092049    62.078353   -122.65974    644.61628    14889.651 
   38710    301.41741    4.6490549    75.777736   -119.59485    73.384085    14889.651 
   38720    309.42983    6.2876617    68.496721   -116.25432    117.27478    14889.651 
   38730    288.02924    6.1398185     75.16677   -112.87699   -2748.2842    14889.651 
   38740    311.05014    5.2961274    75.250651    -109.9532    729.33015    14889.651 
   38750    315.60762    5.9154966    75.561618   -107.75557    831.98821    14889.651 
   38760    343.54671    8.5512568    71.905972   -107.04267    2619.1381    14889.651 
   38770    340.20329    9.7868636    67.075506   -108.26055   -1901.0775    14889.651 
   38780    324.99826    10.352003    71.235482   -111.61316   -1330.0956    14889.651 
   38790    320.44541    7.7946794    75.088872   -119.51831   -563.14292    14889.651 
38800        0.94559416931642059634 10.263326070027082082 0.99735449735449732689 63 -260.55363305446036293
   38800    297.88594    6.8736082    70.164676   -125.58654    1014.7913    14889.651 
   38810    299.35728    5.8305812    67.062662    -131.0605   -1140.8289    14889.651 
   38820    308.22353    5.8956908     64.22096   -135.63478    1199.8402    14889.651 
   38830    312.34335    4.8307156    60.194853    -134.9093   -797.86744    14889.651 
   38840    300.29406    6.6216593    59.799975   -135.35714   -268.35564    14889.651 
   38850      313.086    7.2974353    52.938016    -140.9782   -2376.5595    14889.651 
   38860    299.20772    8.8201374    63.856677   -143.69908    1266.8023    14889.651 
   38870    298.27439    8.4639457    56.877829   -150.81272    1356.3035    14889.651 
   38880     279.5009    7.8905695    60.581098   -147.51475    330.00055    14889.651 
   38890    303.06574    6.0195246    53.413691   -148.45258   -769.08627    14889.651 
38900        0.95082839331911717107 10.227652692978660198 0.99735449735449732689 68 -283.98686631617800913
   38900    297.81575    5.3170589    60.564466   -149.05158    1171.4225    14889.651 
   38910    318.42598    5.0751876    54.273733   -149.69015    455.48415    14889.651 
   38920     298.6904    5.4173769    57.595218   -150.57078    1909.0641    14889.651 
   38930    297.31649    4.6942406    57.370869   -151.48697    1406.3529    14889.651 
   38940    310.98089    6.5973558     58.06367   -152.28568    1653.8315    14889.651 
   38950     328.8888    4.9465459    56.226251   -155.88009   -1902.8986    14889.651 
   38960    311.38041    4.8853077    50.516876   -158.24877   -1492.1931    14889.651 
   38970    263.46412    5.6388123     69.42353   -161.15225   -1149.1042    14889.651 
   38980    307.08226    7.4149793    42.802518   -163.88341   -2148.1406    14889.651 
   38990    269.89808    8.4417628    56.441918   -166.48348   -1187.7875    14889.651 
39000        0.9581027224140393761 10.234794883920260489 0.99735449735449732689 71 -297.29862517779804421
   39000    284.50537    9.7468558    51.520548   -168.39404     1742.465    14889.651 
   39010    249.91748     11.21558     61.29009   -169.46751    247.78403    14889.651 
   39020    281.94386     8.336063    57.196128   -169.47296   -1276.0021    14889.651 
   39030     283.1689    6.7077284    54.789377   -168.58886   -3165.1714    14889.651 
   39040    294.88398    5.4464942    54.195545   -166.87076   -1210.7517    14889.651 
   39050    287.16079    6.0794331    55.620023   -163.97754    1569.8537    14889.651 
   39060    283.79485    6.6759008     58.61657   -159.83693    2737.0901    14889.651 
   39070    281.06186     7.735762    67.120951   -154.57233    4695.3966    14889.651 
   39080    287.97092    7.7305215    64.842421   -149.11343     1038.072    14889.651 
   39090    308.54765    5.8008332    58.516307   -144.16531   -252.77511    14889.651 
39100        0.96414222740733790395 10.204551984059664349 1 67 -295.19727990887849955
   39100     341.5873    3.9691255    55.799035   -140.42984   -1457.2644    14889.651 
   39110     311.0969    4.4029507     67.93984   -138.34136   -1498.4989    14889.651 
   39120    343.80191    3.7471898    54.318633   -137.48338   -2635.8795    14889.651 
   39130    308.73592    5.3745089    60.499844   -137.75643   -2757.3967    14889.651 
   39140    325.51797    8.2129206    58.763149   -138.63221    483.35856    14889.651 
   39150    300.66629     10.43122    65.757312   -139.83596    2790.3968    14889.651 
   39160    317.21055    9.3167829    57.915798    -141.3792    1526.3419    14889.651 
   39170    303.06747    9.0989318    63.861495   -143.46396   -615.61774    14889.651 
   39180    304.14704    9.7418245      56.8505   -145.85901    -900.4349    14889.651 
   39190    308.75941    7.4989351      62.7448   -148.55378    1999.4725    14889.651 
39200        0.96670376432764848484 10.204400791006861482 1 67 -287.25906387016141252
   39200    298.99716    6.0662568    65.650009    -151.7885    574.75512    14889.651 
   39210    304.82534    6.5913985    59.473567   -155.68973   -516.46615    14889.651 
   39220    308.21147    6.7986497     52.58077   -159.51451   -2053.8966    14889.651 
   39230    304.72878    5.9322726    57.161629   -162.90474    -790.4728    14889.651 
   39240    292.44021    5.0784629    55.908298   -165.48739    238.97612    14889.651 
   39250    284.56009    6.0456658    55.571441   -167.35008   -1679.2049    14889.651 
   39260    284.78864    6.3936223     56.00762   -168.24789    772.24193    14889.651 
   39270    291.64218    6.6543341    56.243284    -168.3185    1411.6794    14889.651 
   39280    288.35898    4.0211152    59.431764   -168.16222    803.05772    14889.651 
   39290    287.59205    5.0770781    55.143283   -170.59477    1582.1134    14889.651 
39300        0.96493882014478682407 10.203295477833627558 1 67 -302.09398867880634043
   39300    290.88096    6.5013407    52.224274   -170.30073     929.8849    14889.651 
   39310    285.68627    6.8324904    52.101044   -169.33455   -21.361769    14889.651 
   39320    267.66733    6.0574934    63.176921   -167.77091   -975.77896    14889.651 
   39330    272.82847    8.3485326    60.414481    -165.8942   -2067.8644    14889.651 
   39340    315.83191    7.6616685    49.604985   -158.72224   -2549.6152    14889.651 
   39350    317.78738     7.878242    50.835172   -156.72442   -933.17635    14889.651 
   39360    274.01372    6.9224065    59.880063    -160.0637    1005.0676    14889.651 
   39370    287.10427    8.1076123    55.435134   -157.69744    4170.2385    14889.651 
   39380    302.68282    7.7855327    55.189183   -154.83461    357.37233    14889.651 
   39390    331.44945    6.5960162    48.513632   -149.51047    159.81835    14889.651 
39400        0.97348984492272683244 10.18595021149089952 1 69 -294.08838167412420717
   39400     334.8633    8.1864726    54.087023   -142.36747   -95.755562    14889.651 
   39410    305.63274      8.07794    57.465552   -145.45352   -992.59657    14889.651 
   39420    293.75548    5.9046429    56.641908   -144.70386   -2388.8301    14889.651 
   39430    297.29974    5.1509956    58.556491   -143.64654   -612.83734    14889.651 
   39440    308.81982    7.0632094    58.787617   -138.25219   -548.95324    14889.651 
   39450     309.4844    8.0912555    61.903073    -141.9774    704.98522    14889.651 
   39460    312.00846    6.3165774     62.17895   -141.79403   -5.4776549    14889.651 
   39470    305.20663    3.0858094    68.762683   -142.11061    1669.2416    14889.651 
   39480    307.53534    2.9952348    65.993256    -142.9128   -652.61411    14889.651 
   39490    305.35856    3.4503657    62.059248   -144.15458   -344.69243    14889.651 
39500        0.98131588240753031549 10.152128101543377525 1 68 -283.39704648796123365
   39500    304.24245     4.975141    58.711996   -145.54993   -1765.3583    14889.651 
   39510    286.45944    4.8520753    63.393989   -146.93936    604.31834    14889.651 
   39520     265.5324    5.1686522    72.621759   -150.99697   -785.23787    14889.651 
   39530    298.67703    4.2394585    58.962273   -151.46419    1054.3632    14889.651 
   39540    303.36163    3.3941278    62.455921   -152.01292     673.1688    14889.651 
   39550     293.9735    5.7000841    63.367531   -152.58563    127.75741    14889.651 
   39560    287.90974    7.1890251    60.122042   -152.93044   -93.528356    14889.651 
   39570    305.42452    5.5308278    59.317199    -149.3964    1816.8297    14889.651 
   39580    299.15728    7.2280226    61.727056   -146.15167    699.64535    14889.651 
   39590    317.04692    9.0689529    48.291049   -146.37875   -1773.6641    14889.651 
39600        0.98526370806289564896 10.075254787898717979 1 69 -295.11853561152628345
   39600    327.12266    5.8710542     51.91608   -146.90478    422.04734    14889.651 
   39610    293.69012    3.3681061    59.051561   -151.42373    592.52945    14889.651 
   39620    293.66642    5.7267966     54.68072    -152.3407   -368.29198    14889.651 
   39630    282.12866    5.0045592    63.107785   -152.97895    -1243.902    14889.651 
   39640    302.65213    5.5441792    63.352088   -153.58592   -431.05422    14889.651 
   39650    302.26584    8.2009543    71.725541   -154.64513    2034.7615    14889.651 
   39660    286.25996     15.44182    52.522574   -152.98192   -1171.0277    14889.651 
   39670    253.73955     15.34133     64.21267   -154.34969    877.20278    14889.651 
   39680    290.85734    13.531539    52.677676   -159.45736   -148.31898    14889.651 
   39690    275.68635    10.565418      61.3299   -159.35208    362.01212    14889.651 
39700        0.9892118442087650676 10.029479536929777339 1 67 -282.6452460076405373
   39700    273.90534    10.425877    62.334018   -158.54336    901.66519    14889.651 
   39710    283.47213    9.8861403    55.635406   -156.88112   -1581.9494    14889.651 
   39720    302.38052    10.362903    56.751907   -154.18815   -1684.3152    14889.651 
   39730    345.96035    9.5499392    58.802804   -150.65503   -98.629071    14889.651 
   39740    320.77626    14.001177    66.080434   -147.75984    1420.7921    14889.651 
   39750    289.54785    13.149138    74.803846   -148.87754    1428.6015    14889.651 
   39760    315.67704    13.436789    58.478654   -147.85997    -1201.078    14889.651 
   39770    308.12155    9.9695782    60.514588     -147.584    -21.91552    14889.651 
   39780    309.53406    8.3304075    58.575548   -147.73894    596.64035    14889.651 
   39790    282.91051    7.4771281     60.72777   -148.12647   -110.64561    14889.651 
39800        0.98992439673928311894 10.008612178260591463 1 67 -270.49355630621323598
   39800    269.38227    7.6496139     65.97452   -148.44099     2163.933    14889.651 
   39810     260.3355    8.4743396    71.519056   -148.14633    1802.1627    14889.651 
   39820    304.14806    12.150807    51.466851   -146.94922   -83.813732    14889.651 
   39830    292.09405    11.881851    65.844329   -145.14025   -1358.6225    14889.651 
   39840     340.1623    10.453541    54.931677   -143.12882   -2537.9833    14889.651 
   39850    332.85533     5.240642    58.014357   -139.20905    -976.4046    14889.651 
   39860    321.86201    7.5789957    59.345012   -138.76663    567.07765    14889.651 
   39870    312.14745    8.2806229    67.070543   -139.01877    844.66737    14889.651 
   39880    295.89786    9.2251694    61.723023   -140.02855    1691.9669    14889.651 
   39890    304.27835    10.294732    53.898417   -141.12355     1205.606    14889.651 
39900        0.98347281397331431929 9.9773987614316439476 1 66 -287.79158910407733174
   39900    320.91919    12.342142    53.246683   -142.38852    187.73805    14889.651 
   39910    307.99249     10.62126    63.552549   -144.32263     1982.565    14889.651 
   39920    301.74043    7.2856713    58.229692   -146.76134   -614.62363    14889.651 
   39930    286.63616    7.0027097    61.693627   -149.45188   -923.28488    14889.651 
   39940    273.80975    6.6380218    55.459696   -151.61285    -2834.519    14889.651 
   39950    278.85067    8.2362416    55.375882    -153.0157    573.61464    14889.651 
   39960    257.15745    8.4975837    59.342904    -148.6911    259.27989    14889.651 
   39970     281.3188    10.001673    59.014676   -148.44196   -2635.2441    14889.651 
   39980    316.70091    9.1076704    54.002129   -147.42175    1494.8017    14889.651 
   39990    305.67669    8.9308184    56.198541   -146.33254    1841.3642    14889.651 
40000        0.98633159878648668517 10.003168413535689751 1 66 -282.74969810606421561
   40000    303.40481    10.420247    64.051636    -145.2821    1552.3853    14889.651 
   40010    302.10703    8.9937831    60.169135   -144.13842   -1681.2114    14889.651 
   40020    313.92065    8.9549311    56.336156   -147.92744   -667.73858    14889.651 
   40030     317.3913    9.5736848    60.382493   -146.90983    2364.5527    14889.651 
   40040    289.71492    12.361951    67.120543   -146.55045     775.0363    14889.651 
   40050    302.84472     13.35962    62.040531   -146.60638    475.00033    14889.651 
   40060    289.11547    11.691143    62.476292   -147.06769   -432.12143    14889.651 
   40070    314.93496    9.0940685    53.258156   -147.80014   -2931.3052    14889.651 
   40080    284.48242    7.9756377    64.234185   -148.71735    16.843364    14889.651 
   40090    284.05571    9.7997151    61.128187   -149.33267    259.76108    14889.651 
40100        0.98397348786026284095 10.050586213257089341 0.99735449735449732689 63 -276.83709566967695537
   40100    280.98545    11.408571    59.344262   -149.52733    941.91487    14889.651 
   40110    305.10003     8.025343    57.730146   -149.50191    68.321586    14889.651 
   40120    299.90786    5.5278064    62.032826   -144.37029    1251.3151    14889.651 
   40130    312.16356     5.419755    56.942099    -145.0054      2001.54    14889.651 
   40140    291.87024    6.7391173    61.848431    -146.0881   -1374.3313    14889.651 
   40150    300.32217    6.2177546    57.611723   -152.18762    -2431.936    14889.651 
   40160    301.14858    6.7896879    55.932251   -153.83578   -1484.6216    14889.651 
   40170    296.61283    7.3367238    52.862772   -155.71261    160.19133    14889.651 
   40180    293.80216    8.1340223    48.297015   -157.22776     1.379538    14889.651 
   40190     271.6587    6.8917395       60.316   -157.83799   -220.42383    14889.651 
40200        0.98273377877189771468 10.099465019544302535 1 69 -276.94336153867703842
   40200      263.892    3.4946663    56.245951   -157.37835     363.5714    14889.651 
   40210    236.32721     3.820505    67.611867   -155.67131   -356.68101    14889.651 
   40220    285.80671     4.077537    55.291199   -152.23195    739.71024    14889.651 
   40230    319.95764    4.4346459    52.773075   -147.40603   -1287.0454    14889.651 
   40240    358.59201      4.80473    48.880344   -142.68788    438.69075    14889.651 
   40250    344.52351    7.3452465    57.424908   -139.45791     148.8831    14889.651 
   40260    314.75485     11.41167    60.681944   -133.33771   -1204.1768    14889.651 
   40270    349.21416    7.6641299    60.926981   -137.57092    10.600244    14889.651 
   40280    339.91549    5.9474978    61.588883   -139.17681   -1322.7868    14889.651 
   40290    358.96562    7.1743339        45.95   -142.19612   -156.28348    14889.651 
40300        0.987182710846559619 10.097694312178903786 1 69 -293.83971414284394541
   40300    325.70493    6.3019215    54.962699    -146.2683   -290.32962    14889.651 
   40310    317.67494    8.6458834    59.263017    -150.9243    2070.3476    14889.651 
   40320    281.80509    9.7941441    62.279638   -155.41856    1636.0485    14889.651 
   40330     285.4566    10.003285    56.181635   -158.41825    1739.6784    14889.651 
   40340    282.70521    9.5279597    53.235277   -160.07721      537.344    14889.651 
   40350    279.84963    8.0360251    48.649696   -156.36026   -4.8840954    14889.651 
   40360    278.21002    7.3129927    56.485919   -156.07076   -3147.2657    14889.651 
   40370    269.41737    5.0758601    60.400744   -160.82533   -524.82901    14889.651 
   40380     274.3879     4.503888    48.806374   -159.74475   -1722.3804    14889.651 
   40390    289.20371    4.3086096    61.652061   -157.92399    1064.3877    14889.651 
40400        0.98492711022435686097 10.112800672410699576 1 69 -297.71109225894559813
   40400    313.25577    6.6945526    52.496818   -155.78019    1463.0794    14889.651 
   40410    320.31076    8.0420222    57.991308   -154.05617   -105.02339    14889.651 
   40420    296.54979    7.7879687    61.203807   -153.15469   -310.68124    14889.651 
   40430    300.34655    7.3337003    55.526245   -152.47114   -2248.5093    14889.651 
   40440    288.32798    9.5245925    56.982421   -151.73232   -931.43238    14889.651 
   40450     282.3088    7.8876452    58.286267   -150.61355   -1453.4389    14889.651 
   40460    293.10064    8.7439344    57.063537   -148.76012     2624.901    14889.651 
   40470    285.07642    7.0434058    66.182097   -146.70644    2069.2669    14889.651 
   40480    311.83389    6.5887839    56.172831   -139.09784   -378.83947    14889.651 
   40490    307.04055      7.11265    57.792429   -136.69398   -885.91649    14889.651 
40500        0.98167035001795299731 10.132443305479053919 1 70 -277.37554796952485958
   40500    316.10444     7.812564    59.341124   -134.15396     407.5562    14889.651 
   40510    299.80647    7.2620523    68.288165   -131.56467    1720.1924    14889.651 
   40520    328.38212    7.8960324    60.022826   -128.48311    1388.3299    14889.651 
   40530    329.36055    10.077982    62.167853    -125.3433   -3327.5799    14889.651 
   40540    335.30647    8.0278592    59.544179   -122.67168   -830.11684    14889.651 
   40550    306.54425     9.472434     66.99751   -124.78215    130.73885    14889.651 
   40560    335.31809      7.39588     60.39142   -122.01285    180.93663    14889.651 
   40570    359.74473    4.6215237    60.208335   -119.99199   -656.15013    14889.651 
   40580    317.18906    7.9436248    60.972522     -119.879   -1321.3005    14889.651 
   40590    332.47793    8.8592089    56.148892   -116.38041    315.07004    14889.651 
40600        0.98253277599180555146 10.115755642088728905 1 73 -263.78846499291762484
   40600    312.75535    9.5567713    62.149841   -122.08429    1720.4214    14889.651 
   40610    363.48474    8.7464082     50.69402   -129.51926    694.06489    14889.651 
   40620    328.69813    9.9013916     58.39636   -135.09353    653.79195    14889.651 
   40630    315.67956    8.5547053    58.897593   -141.24665      864.938    14889.651 
   40640     298.9967     6.936088    50.652011   -146.71228    2331.6193    14889.651 
   40650    291.28913    5.9790743    62.132115   -150.78157    1115.0359    14889.651 
   40660    289.26197    5.1808819    57.344893   -153.32051   -2042.9426    14889.651 
   40670    280.09407    4.6109044    59.908911   -152.23089   -2287.6933    14889.651 
   40680    306.88169     5.084259    61.078479   -153.33508    181.57941    14889.651 
   40690    306.71465    6.7302322    60.194882   -154.72808    2759.1277    14889.651 
40700        0.97589067426390208038 10.158622564564577573 1 74 -296.13086845033751615
   40700    308.00571    8.2175049    55.136669   -156.57868    2036.5116    14889.651 
   40710    282.73977    8.4750109    59.860828   -158.49766   -1134.7586    14889.651 
   40720    265.47526    8.7543036    59.129396    -159.9628   -6.7431681    14889.651 
   40730    278.46943    6.4690885    55.608762   -160.80476   -1650.6107    14889.651 
   40740    273.58499    5.1639537    56.412379   -160.98122   -152.59735    14889.651 
   40750     299.2435    6.2731408     50.53083   -160.49536    377.49575    14889.651 
   40760    281.98749    6.3727568    59.092146   -159.51008   -2820.7608    14889.651 
   40770    285.90951     6.621837    61.128509   -157.94627    234.30368    14889.651 
   40780    301.32672     7.716466    55.369056   -155.74502    285.52333    14889.651 
   40790    303.92422    10.068841    63.027964   -153.06607    2520.5303    14889.651 
40800        0.96903527571430692067 10.186041435126188759 0.99735449735449732689 73 -293.36434591422943186
   40800    315.87656    8.1862083    56.394412   -150.24601    217.02491    14889.651 
   40810    320.00598    9.0682488    52.518944   -147.48819   -1393.0278    14889.651 
   40820    312.39011    10.130893    54.583865   -144.98558   -551.74537    14889.651 
   40830    316.14367    9.7248718    55.140773   -142.08979   -1277.6532    14889.651 
   40840    305.22726    7.0635595    58.212398   -138.68706    2117.1282    14889.651 
   40850    312.15088    6.2995236    58.848106   -134.75087    2332.9087    14889.651 
   40860    318.10185    5.6736155    56.899238   -130.18544   -46.381123    14889.651 
   40870    334.74475    7.2347837    61.040162   -125.87165   -643.08537    14889.651 
   40880    321.96988    9.2206152    59.784467   -122.84121   -2451.5451    14889.651 
   40890    341.86434    11.545477    54.780945   -120.80888   -518.84492    14889.651 
40900        0.96315792208994377432 10.20546781147819182 0.99735449735449732689 69 -267.17419028409494786
   40900    324.71801    11.668951    64.238889   -120.04994    1141.0754    14889.651 
   40910    330.26616    10.406061    57.077283   -115.23555    330.41313    14889.651 
   40920    324.77785    7.6095488    62.628645   -116.75562    205.77616    14889.651 
   40930    308.07283     7.989079    67.341006   -124.54425   -2161.8112    14889.651 
   40940    317.25971    6.7170432    58.465367   -127.98254   -311.17195    14889.651 
   40950    312.88309    6.1625845    63.453609   -132.86265   -589.14866    14889.651 
   40960    314.50148    7.9458499    54.369224   -138.90789     226.2457    14889.651 
   40970    285.25897    8.5228727    60.752155   -139.70361    1903.3317    14889.651 
   40980    279.90104    7.9778912    58.393452   -143.72144    1955.8983    14889.651 
   40990    303.56376    8.9180071     57.02549   -151.12367    1960.2985    14889.651 
41000        0.95589415040778957788 10.235213959987147447 1 68 -305.08434745608116145
   41000    335.18105    9.1199786    52.834612   -153.21947   -2223.0904    14889.651 
   41010    318.58693     6.582465    46.503657   -155.52922   -2021.4397    14889.651 
   41020    268.87118    5.5969563    59.160188   -157.28119   -1804.5094    14889.651 
   41030    265.57943    6.1061449    52.935305   -157.63548   -346.82012    14889.651 
   41040    281.00623    6.0775421     54.58736   -156.93136   -1872.0964    14889.651 
   41050      307.061    6.4280116    52.998039   -155.81181    746.77249    14889.651 
   41060    296.46222    8.4064037      51.1773   -157.30553   -142.56823    14889.651 
   41070    273.72438    7.4439523     58.34831   -156.22723    2389.7121    14889.651 
   41080    289.38341    7.3109869    57.048053   -154.68018    2293.6155    14889.651 
   41090    287.88536    6.0234697    55.374584   -152.70048     808.3447    14889.651 
41100        0.95093638932622270854 10.233571518183131488 1 69 -299.4433183965999774
   41100    329.01966    4.4023857    48.124545   -150.37006    194.13729    14889.651 
   41110    329.38618    4.1844994    50.898361    -148.0834   -2148.1204    14889.651 
   41120     318.8475    6.0680618    53.280289   -148.60076   -390.44843    14889.651 
   41130    302.35644    8.0320831    50.923925   -143.50617   -2728.6465    14889.651 
   41140    303.00229     9.074402    55.178325     -138.387   -931.62426    14889.651 
   41150    321.25926     7.330823    53.619182   -136.25601    1105.9887    14889.651 
   41160     320.4488    4.6323382     54.39629   -134.34316    1870.6491    14889.651 
   41170    323.20545    4.5078478    46.554637   -129.17362    -718.8867    14889.651 
   41180    313.25627    5.2748131    57.158847   -131.00045    957.96782    14889.651 
   41190    330.35155    8.6572603    50.303819   -129.26964     934.4173    14889.651 
41200        0.94573509471772498891 10.250063842800040348 0.99735449735449732689 67 -280.51074426388402117
   41200    338.03611    7.4002215    57.216892   -127.35229    2386.8819    14889.651 
   41210    333.73857    8.7246955     58.79908   -125.75033    799.68395    14889.651 
   41220    304.85185    7.5588669    61.084869   -124.59671   -871.66561    14889.651 
   41230    324.62571    7.1029163    57.046149   -123.66551   -2046.3236    14889.651 
   41240     338.4356    5.3435059    60.184448   -120.22919   -1276.1415    14889.651 
   41250    320.37029    6.0098289    58.560099   -121.77813   -609.11662    14889.651 
   41260    296.39814     6.076201    59.827481   -124.43189   -112.95707    14889.651 
   41270    281.37093    5.3901496    68.137805   -127.58168   -1060.3921    14889.651 
   41280    300.38575    4.1956938    63.831713   -135.33499    499.27122    14889.651 
   41290    305.16465    6.0649923    53.896166   -139.38372   -1301.8997    14889.651 
41300        0.94568255027145176062 10.247042082231814675 0.99735449735449732689 69 -281.83628527069566871
   41300    305.03549    6.3937212    51.501221   -143.62985   -403.65896    14889.651 
   41310    260.44915    5.2554673     62.75639   -147.17094   -1466.2025    14889.651 
   41320    279.88076    3.5823214    48.180975   -149.26587    1550.0014    14889.651 
   41330    276.87118    4.9261024    58.973901   -150.48939    757.12062    14889.651 
   41340    287.91755    4.7877821    52.370862   -146.86792    1611.0709    14889.651 
   41350    290.55241    5.5956771    57.044282   -147.54001   -2214.1167    14889.651 
   41360    296.41657     7.796732    53.197869   -148.26399    674.33119    14889.651 
   41370    303.44857    9.1682259    49.871059   -148.70066   -592.31012    14889.651 
   41380    288.03387    6.9324922    56.739773   -148.85488    332.50272    14889.651 
   41390     300.5265    7.4293756    47.920926   -148.87919   -1054.2232    14889.651 
41400        0.96388996105273860859 10.208238723705578721 1 69 -279.15137315200701096
   41400    287.41837    10.319883    53.752774   -148.92696    432.62273    14889.651 
   41410    296.76243    10.435174    48.930222   -148.72551    -651.4141    14889.651 
   41420    295.88618    9.9304983     59.46759   -152.82034   -664.95244    14889.651 
   41430    309.77779    10.168378    52.597298   -147.36277    1555.3166    14889.651 
   41440    290.09915    8.9263955    58.532904   -146.69879    1611.1886    14889.651 
   41450    298.23456    6.5550988    55.631165   -150.82219    356.04436    14889.651 
   41460    304.04757    5.6729461    42.869441   -148.96572   -1354.9751    14889.651 
   41470    300.70062    4.3002165    48.399301   -146.21617    -2643.546    14889.651 
   41480    312.92907    4.7524444    55.335228   -142.54907   -2009.8022    14889.651 
   41490     323.1542     5.665421    53.979583    -138.6899    247.65937    14889.651 
41500        0.97417014025693582369 10.168605619132449647 1 69 -273.46707737865756371
   41500    304.94761    7.8099205    60.254097   -135.30046    4106.2736    14889.651 
   41510    308.41287    7.5686247    60.763143   -132.09511    2833.8121    14889.651 
   41520    332.42749    7.2422054    53.355973   -129.09166    951.44453    14889.651 
   41530    331.54099    7.1495554    66.049404   -126.81114   -198.46206    14889.651 
   41540    346.84079    6.4113634    54.210626   -120.77308    -3005.243    14889.651 
   41550    342.11619    6.5375913    61.375683   -121.49205   -1490.6298    14889.651 
   41560    346.26907    5.2504998    61.874251   -123.80794   -1148.9877    14889.651 
   41570    354.64775    10.753013    51.558323    -128.0775    1929.3721    14889.651 
   41580    322.08807    14.122002    57.017836   -138.99892      1352.22    14889.651 
   41590    319.25143    13.783267    54.866699   -144.56096    1708.2414    14889.651 
41600        0.98356509722193308232 10.12456340446299663 1 68 -286.23753806145930412
   41600    302.28526    13.423648     52.53721   -149.27719    185.58084    14889.651 
   41610    277.84892    14.230608    53.323818    -152.0756   -494.77976    14889.651 
   41620    284.25118     12.60536    57.979873   -153.50552   -972.81943    14889.651 
   41630    301.29003    10.175534    54.487919   -154.22668   -773.94996    14889.651 
   41640     303.3649    7.7844531    53.918487   -154.64587    504.53115    14889.651 
   41650    320.08102    7.2108546    54.249718   -154.94357    -455.8781    14889.651 
   41660    304.54935    9.3306389    53.484287   -155.52595   -86.034691    14889.651 
   41670    298.32581    11.509813     56.93664   -156.48697   -410.28975    14889.651 
   41680     314.6391    10.267494    52.995542   -157.62451    1568.4676    14889.651 
   41690    301.99063    7.3323599     55.64383    -159.1795   -1004.2042    14889.651 
41700        0.98394578335910676259 10.135286188365137505 1 69 -293.22362524700042741
   41700     292.0822    4.6633326    50.432986   -160.88611   -2526.4801    14889.651 
   41710    280.73475    5.9352223    57.136208   -162.46338   -1739.5719    14889.651 
   41720     295.6688    7.7149027    53.330847   -163.86521    1280.7192    14889.651 
   41730    281.71208    8.8011229    50.313429   -165.09464    1949.6465    14889.651 
   41740    273.24123    9.4840022    54.971049    -165.9566     711.5512    14889.651 
   41750    274.77517    9.9174156    58.634961   -166.33807   -1437.5457    14889.651 
   41760     278.4204    9.6871455    56.299826   -166.31729    -555.0122    14889.651 
   41770    279.73296    9.7831114    51.957203   -165.84947    587.09975    14889.651 
   41780    276.56556    7.9872784    47.909364   -164.46367    2270.6586    14889.651 
   41790    294.27967    7.1132938     51.24507    -161.5179   -674.11459    14889.651 
41800        0.98982967847027669706 10.099349378419212542 0.99735449735449732689 68 -282.86529128391799759
   41800     277.4156    9.1191991    60.618959   -157.17296   -37.818834    14889.651 
   41810    290.12663     9.536228    57.574399   -151.86094   -1570.6533    14889.651 
   41820    300.45596     10.82875    64.401384   -146.79461    1801.3709    14889.651 
   41830     326.6313    10.886938    52.723427   -142.19469   -887.59274    14889.651 
   41840    318.87782    12.038425    56.965577    -138.8703   -708.95601    14889.651 
   41850    323.69184    12.835199    57.007836   -136.67481    950.82524    14889.651 
   41860    306.28463    12.344516    57.344845   -135.66442    2130.3937    14889.651 
   41870    307.51278    12.199489    59.948817   -135.34446    1425.1305    14889.651 
   41880    291.07799    12.288831    62.038736   -135.25204   -441.08003    14889.651 
   41890    327.81343    10.609108    51.234687   -135.43109   -589.52586    14889.651 
41900        0.98761939164320977635 10.10049654348463477 0.99735449735449732689 69 -282.03846174966406579
   41900    321.26355    9.0857749    62.833971   -136.47937    328.37501    14889.651 
   41910    335.30887    9.8346803    47.658715   -138.51456   -1115.3917    14889.651 
   41920    304.00831    9.0875354    59.927512   -141.19178    -1234.548    14889.651 
   41930    303.01119    7.5914418    60.376875   -144.16003   -1687.3579    14889.651 
   41940    313.13229    4.7334997    57.745648   -147.84206   -2028.3298    14889.651 
   41950    309.79468    5.5025642    56.735817   -152.38114    839.23226    14889.651 
   41960     308.6491    5.8808579     48.52098   -157.05411   -1218.2425    14889.651 
   41970    280.40552    6.3774184    59.546953   -160.94364    1049.4675    14889.651 
   41980    290.92518     8.148354    54.728512   -163.83259    13.459301    14889.651 
   41990    275.23191    12.106301    50.746952   -165.74639    1367.0987    14889.651 
42000        0.98672909535146624549 10.079052032750443146 1 68 -294.58578642588065577
   42000    282.54081    13.505258    50.557359   -166.57131    1725.8495    14889.651 
   42010    298.66372    11.966708    49.098394   -166.47509   -77.917042    14889.651 
   42020    298.22526    10.465568     52.82439   -166.10224   -1248.3949    14889.651 
   42030    288.10264    8.7298153     51.31476   -165.68123    572.82548    14889.651 
   42040    296.35011    8.6421433    52.922694   -165.17983   -808.94908    14889.651 
   42050    299.68243    8.5180442    55.718804   -164.60917     1608.712    14889.651 
   42060    286.39611    9.9650906    53.680609   -163.91371    11.505488    14889.651 
   42070    284.03699    9.0535737    51.028093   -162.99609   -70.642863    14889.651 
   42080    275.76863      11.1358    53.099434   -161.62017   -1715.7358    14889.651 
   42090     281.0504    12.857141    45.156772   -159.68709    318.09927    14889.651 
42100        0.98704907659417917554 10.074102279860664311 1 70 -290.55921633637728974
   42100     294.6857     10.39808    54.573698    -157.0421    2088.5886    14889.651 
   42110    295.95266    9.3758343    54.495116   -154.22838    897.29149    14889.651 
   42120    285.77915     9.176515    54.542885   -151.38863   -1139.7455    14889.651 
   42130    297.04055    7.9393763    57.115168   -148.55615   -2251.0977    14889.651 
   42140    310.10981    7.6211541    62.374698   -145.91136   -1286.4316    14889.651 
   42150    321.17855    7.2811796    59.255353   -144.12677   -404.29571    14889.651 
   42160    323.20539    5.9686126    56.096866   -143.52091   -714.96183    14889.651 
   42170    285.41538    4.5790028    65.335593   -138.76274    2658.1563    14889.651 
   42180    287.18576    8.0329254    54.868745   -144.27801    2687.0844    14889.651 
   42190    271.91097     9.998879    58.491957   -144.22705    2590.7889    14889.651 
42200        0.98530072666102785917 10.070143043338161348 0.99470899470899465378 69 -268.76664137520725717
   42200    276.76162    9.6614263    57.526883   -143.37062    174.78286    14889.651 
   42210    287.73169    10.498692    59.250544   -141.83756   -2594.1725    14889.651 
   42220    306.54204    11.839417    63.434482   -140.12269   -2007.0672    14889.651 
   42230    305.61061    12.105502    56.560166   -139.00861   -1005.3315    14889.651 
   42240    281.04129     8.502379    55.909348   -138.21949    634.90193    14889.651 
   42250    297.61548    7.6296008    52.129139   -137.04006    2770.6733    14889.651 
   42260    319.44155    7.9286457    54.709675   -135.86375   -2321.1903    14889.651 
   42270    353.39119    6.3836957    56.708232   -135.55432    2012.3366    14889.651 
   42280       322.61    5.7115439    60.526191   -136.82204   -941.63308    14889.651 
   42290    299.35802    7.9874619    58.074637   -138.45763    606.06734    14889.651 
42300        0.98688427454320915011 10.079208935616625453 0.99735449735449732689 67 -279.49248796696360841
   42300    307.96519    9.4185879    57.757225   -139.95866     513.0931    14889.651 
   42310    302.72456    8.6886992    54.709964   -141.31427   -676.78456    14889.651 
   42320    319.02421    8.5278744     53.20102    -137.2563    1124.6645    14889.651 
   42330    305.53017    10.387569    53.554753   -138.79041   -558.30069    14889.651 
   42340    314.06679    7.6835652    54.294094   -140.58179   -781.18285    14889.651 
   42350     327.6394    5.6707955    48.136143   -142.86262    1010.8865    14889.651 
   42360    315.18265    3.0283843    51.190634   -145.89161   -693.81188    14889.651 
   42370    309.56763    3.6666306     54.46044    -149.0746    2880.4567    14889.651 
   42380    288.77602    3.3537102    56.398131   -152.15843   -1637.8141    14889.651 
   42390    276.89861    4.4223594    49.345132   -154.61107   -1561.1194    14889.651 
42400        0.98170280454044778207 10.101148737267440225 1 69 -281.34587502045019392
   42400    265.55482    6.4301302    55.816396   -161.02747   -3397.8466    14889.651 
   42410    290.32498    7.4303541    51.957046   -161.61145   -415.24402    14889.651 
   42420    311.07978    7.5168165    49.645104   -161.83034    2537.9538    14889.651 
   42430    303.59209    8.5731244    51.054956   -162.13002    2121.1068    14889.651 
   42440    302.26341    9.6608381    47.343427   -162.29772     1953.277    14889.651 
   42450    286.83915    9.0144272    50.756573   -163.99478    1331.9516    14889.651 
   42460    314.19558    10.396063    45.745292   -161.02981   -1199.8161    14889.651 
   42470    324.99977     10.03621    47.266207   -159.09279   -1427.7659    14889.651 
   42480    328.17529    7.3880917    52.898129   -156.57865   -2811.1791    14889.651 
   42490    293.19627    6.4110096    56.145819   -153.66547    621.37203    14889.651 
42500        0.98208871467850744619 10.096769346735955608 1 67 -292.82692882229298448
   42500    315.30427    5.6963628    51.909516   -149.96788    1697.8363    14889.651 
   42510     320.1089    5.7228379    56.703098   -145.84781    2412.1753    14889.651 
   42520    349.40405    6.2569006    49.102338   -142.04993   -1737.8752    14889.651 
   42530    317.31635    5.6213076    58.616131   -134.28458   -1339.8085    14889.651 
   42540    298.80524    5.8089691    56.706151   -132.40132   -748.63281    14889.651 
   42550    297.40347     2.868463    57.831827   -130.30256    2896.5832    14889.651 
   42560    323.31564    4.0500064    57.044908   -133.47727    309.98604    14889.651 
   42570    358.44182    4.8287674     55.93263   -131.96613   -226.48118    14889.651 
   42580    355.76942    5.7425353    48.625718   -132.19217   -1058.3439    14889.651 
   42590    320.21693    7.9108176    52.016315   -133.81184    -1442.327    14889.651 
42600        0.98169482368131044669 10.141520488994741456 1 70 -266.18497065543618874
   42600    287.77826    10.234075    59.276326    -135.7975    -543.8373    14889.651 
   42610     306.5586    10.962051    51.451493    -137.7324   -1615.0527    14889.651 
   42620    315.23183    7.3205747    58.295159   -139.76296    390.24827    14889.651 
   42630      352.378    5.3074638    41.929103   -142.18202    2533.1789    14889.651 
   42640     319.1936    4.9828655    53.705085   -145.56172    1132.8957    14889.651 
   42650    332.79547    3.5006818    54.621139   -150.31162     2164.686    14889.651 
   42660    289.32095    4.4060757    56.668114   -150.58642   -910.83025    14889.651 
   42670    294.49984    4.6837984    45.058726   -155.04419   -63.277671    14889.651 
   42680     264.4397    5.8696715    52.551281   -157.55369    424.22768    14889.651 
   42690    290.28817    6.4969009    48.813289   -158.41902   -689.58417    14889.651 
42700        0.97892180074799595157 10.149360031149715411 1 69 -286.9916025351150779
   42700    274.06659    9.1734221    59.498722   -162.81666   -1771.7937    14889.651 
   42710    299.86279    11.784987    51.882336   -157.78433   -1686.1013    14889.651 
   42720    307.88958    9.4049776     59.26705     -157.329    1335.9728    14889.651 
   42730     305.4108    9.7593282    53.913857   -157.38522    3025.5789    14889.651 
   42740    276.25814    9.4810996    55.550451   -162.04018    1220.4593    14889.651 
   42750    259.50332    10.011321    54.681527   -161.55364    362.89682    14889.651 
   42760    275.50834    8.0524352    56.780313   -162.81343    46.616345    14889.651 
   42770    290.61497    6.3892976    62.438778   -158.49007    995.80891    14889.651 
   42780    303.34627     7.135146    48.756592   -156.38619   -1411.3208    14889.651 
   42790    295.73324    7.4899633    55.539354   -154.25854   -2366.2957    14889.651 
42800        0.96983773758519709052 10.193836098933065415 1 66 -293.06162228986636364
   42800    311.64679    6.6429709    55.980102   -151.85972   -1579.3953    14889.651 
   42810    310.20053    5.7053075     55.57424   -149.60197   -418.82996    14889.651 
   42820     310.3498     5.756176    51.141626   -147.88239    329.68016    14889.651 
   42830    289.64658     5.319367    62.659309   -146.52094   -643.04812    14889.651 
   42840    299.23673    6.1751897     52.09874   -145.06684    2683.3817    14889.651 
   42850    309.48183    5.5601847    58.871118   -143.49149     1344.401    14889.651 
   42860    297.95342     4.071558     60.50481   -142.05636    1171.9225    14889.651 
   42870    299.18145    3.7428622    62.181131    -143.5407   -1905.3168    14889.651 
   42880    286.66983    4.7862706    56.736665    -142.2971   -480.85296    14889.651 
   42890    304.44198    4.3018436    53.219146   -140.87843   -796.55325    14889.651 
42900        0.96322815581111820293 10.212390772874305966 1 68 -284.8313755015251445
   42900    321.90376    4.1785483    48.736154   -138.98221   -79.530194    14889.651 
   42910     316.5284    5.6724543    63.689699   -133.69197    531.06368    14889.651 
   42920     325.8829    7.0357048    56.625795   -130.44742   -308.10737    14889.651 
   42930      342.287    7.6412746    58.391528   -125.36775    1254.7258    14889.651 
   42940    368.23526    7.3267601    50.795032   -118.67026    3009.6059    14889.651 
   42950       361.99    7.5499324    64.316845   -112.40677   -1752.8064    14889.651 
   42960    357.79056    6.4125254    60.898119   -108.21813   -1982.0104    14889.651 
   42970    321.44962    5.6036743    72.297845   -106.62999   -3575.2846    14889.651 
   42980    348.56556    7.6032462    56.062195   -106.59717    1087.0959    14889.651 
   42990    340.38002    9.4751207    64.802623   -108.00591    -388.8536    14889.651 
43000        0.9549268682062648228 10.24446971644898241 1 70 -266.92788057178296413
   43000    344.53221    8.0644369    61.565216   -110.82615   -864.00737    14889.651 
   43010    340.25469    8.6457773    57.755515   -115.42307   -992.50323    14889.651 
   43020    333.94505    9.5327086    67.861188   -121.37808    657.45946    14889.651 
   43030    338.14143    9.7587051    58.195993    -128.0416   -1052.6126    14889.651 
   43040     321.0262    10.657771    50.432219   -136.61835    96.901699    14889.651 
   43050    313.44518    10.089885    55.373308    -138.6877     1347.194    14889.651 
   43060    313.07635    8.6701011    54.018445   -141.90367    2792.9047    14889.651 
   43070     295.3772    6.2384191    56.175708   -144.45525    836.55971    14889.651 
   43080    304.91371    5.5950465    53.333983   -146.69749   -1059.1841    14889.651 
   43090    297.85399    4.3475997    58.557223   -148.91496   -1941.0911    14889.651 
43100        0.9552369306576234953 10.230931634091199101 0.99735449735449732689 67 -288.916794712892397
   43100    304.28743    4.5766678    53.712724    -151.0493   -335.89464    14889.651 
   43110    290.82085    5.2722646    53.525694   -153.25075    349.06804    14889.651 
   43120    272.80551    5.1839333    61.733479   -155.30704    385.66554    14889.651 
   43130    272.11358    2.5532664      56.7242   -156.77686    306.99963    14889.651 
   43140    247.79627    1.6458921    62.407422   -157.41307   -1796.9945    14889.651 
   43150    272.72404    1.8259476    55.372024   -156.93552   -1999.8933    14889.651 
   43160    275.38809    1.8935563    64.760169   -155.60237   -1407.6313    14889.651 
   43170    292.12812    2.3386466    56.840665   -153.78087     1220.101    14889.651 
   43180     296.3592    3.9744239    53.802907   -151.58461    465.44991    14889.651 
   43190     294.4934    6.6894508    51.209536   -149.17481   -544.25043    14889.651 
43200        0.9558867556557723022 10.212488403974283813 1 65 -288.50499223006147531
   43200     314.0033    9.4355895    54.952436    -146.2354     1706.846    14889.651 
   43210    324.52836    12.491655    52.499858   -143.14016    1961.5528    14889.651 
   43220    327.10977    11.279008    51.085093   -140.60019   -299.05798    14889.651 
   43230    328.51034    8.4722414    50.905854    -138.6921   -2394.6999    14889.651 
   43240    338.25452     8.109237    48.626905   -137.34473   -1142.4267    14889.651 
   43250    323.79623    9.3767798    54.344332   -136.67306    1029.7039    14889.651 
   43260    307.90529    10.229613    52.961352   -136.42274    577.92612    14889.651 
   43270    312.60875    7.7949108    58.671638   -136.39225    892.08626    14889.651 
   43280    328.40766    7.9138544     52.59745   -136.89266    2360.5558    14889.651 
   43290    299.94082     9.360026    58.695905    -138.6902   -305.24141    14889.651 
43300        0.95966460042961021504 10.203275558338075868 1 67 -274.32643985669528774
   43300     293.2618    8.3828467    58.470416   -141.45447    2316.3108    14889.651 
   43310    302.62575    7.2105213    50.078595   -144.99976    569.56424    14889.651 
   43320    313.16289    7.6509422    46.310733   -149.24422   -131.56764    14889.651 
   43330    291.13656    7.9271871    50.973281   -153.60261   -2092.4718    14889.651 
   43340     283.9073    5.9988187     51.90061   -157.45788   -2014.5169    14889.651 
   43350    299.45457    5.0056608    54.618879   -160.76158    69.482032    14889.651 
   43360    303.35994    5.8255215    48.710713   -163.94735   -2141.1031    14889.651 
   43370     286.6372    7.0011535    54.369689   -166.66981   -1126.4455    14889.651 
   43380    292.10097    7.1254339    48.479316   -168.58208    2155.0228    14889.651 
   43390    284.94206    8.8321608    51.107685    -170.0403    3867.7159    14889.651 
43400        0.96996335149009671461 10.185098685670762819 1 70 -287.93996414558324659
   43400    258.37906    8.6243147    53.876324   -170.87277    3080.8421    14889.651 
   43410    258.02447    6.4941891    52.323778    -173.1728   -2053.9462    14889.651 
   43420    282.36674    5.9216984    51.803665   -171.73686   -2212.1544    14889.651 
   43430     290.7565    7.2149998    48.449084   -169.47299   -1488.0732    14889.651 
   43440    289.67516    5.8013179    57.782852   -169.17587    1160.6694    14889.651 
   43450     291.1251    5.1502579    56.761064    -165.6738   -1329.5912    14889.651 
   43460    300.84112    4.8479356    55.360575   -157.61627   -2036.8806    14889.651 
   43470     327.2272    7.0231037    56.008776   -150.32409   -145.01958    14889.651 
   43480     310.1837    5.3167333    57.851949   -147.55996      1847.08    14889.651 
   43490    307.71872    4.2341329     59.27086   -145.78556    1668.0809    14889.651 
43500        0.97169188952263940706 10.18925223689301518 1 68 -273.8179482997027776
   43500    285.38028     5.587899    63.939741   -144.51696   -1074.7241    14889.651 
   43510    295.28868    5.6705316    54.233167   -143.49405    -817.9535    14889.651 
   43520    295.68656    7.0864735    55.732461   -142.44091   -389.57377    14889.651 
   43530    318.01043    8.4871882    53.365242   -146.57269    1839.4441    14889.651 
   43540    302.67642    9.5799993    58.381912   -145.98421    162.29505    14889.651 
   43550    285.28904    11.249609    58.289624   -145.63188    328.71668    14889.651 
   43560    286.70906    8.5690156    55.381021   -145.16851    -1324.918    14889.651 
   43570    301.46294     8.719149    60.842691      -141.94   -197.17493    14889.651 
   43580    322.55764    6.0981331      53.5681   -141.56552   -2600.2549    14889.651 
   43590    300.68228    6.1250494    61.860718   -141.65804   -2156.5361    14889.651 
43600        0.96878573463905381935 10.182469107436999067 1 70 -284.3844963387145981
   43600    314.53623    6.6939225    54.900057   -141.87344   -301.63054    14889.651 
   43610    300.57408    8.6068487    60.228142   -142.41029    3501.4833    14889.651 
   43620    294.64371     7.721123    60.227453   -143.20685    3325.9168    14889.651 
   43630    293.62441    7.1867423    47.504882    -143.8028    2167.6901    14889.651 
   43640    314.21947    6.2845275    50.137179   -143.97691   -1476.8348    14889.651 
   43650    334.29165    4.3792249    51.500118   -144.30014    249.38571    14889.651 
   43660    288.72903    3.5195222    65.029873   -145.32046   -1844.9279    14889.651 
   43670    288.49942    6.3126619    54.151986   -146.47004    765.46401    14889.651 
   43680    290.65947     9.007494    55.223804   -147.40782    774.77209    14889.651 
   43690    307.64342     8.380447    54.072182   -148.03413    683.16404    14889.651 
43700        0.97639925812039762842 10.174465407710350462 1 66 -287.94746677351923836
   43700    307.12126    6.1448471    60.527234   -148.79601   -1070.1141    14889.651 
   43710    284.35965    5.9304568    58.890201   -150.09146   -2376.5453    14889.651 
   43720    288.27614    5.2281102    64.309096    -152.0447   -1995.9645    14889.651 
   43730     288.7681    5.9637579    56.082515   -154.47416    251.39436    14889.651 
   43740    314.05675    7.5460393    45.027542   -157.29954    706.00703    14889.651 
   43750    297.08934    9.2784657    50.706066   -160.55924    2005.8716    14889.651 
   43760    281.45394    8.5981993    58.791131   -164.17703   -1909.5942    14889.651 
   43770    283.41572    11.311959    52.761448   -168.00602   -251.42021    14889.651 
   43780    279.51263    11.316816    48.387784   -171.80712   -1399.0552    14889.651 
   43790    284.58091    11.942918    43.548501   -174.84244    1331.0217    14889.651 
43800        0.97917235438031391404 10.16156273388650888 0.99470899470899465378 69 -303.60605527541235915
   43800    280.01105     11.23785    52.698043   -176.73777    607.40782    14889.651 
   43810    279.92547    9.9039618      51.4241   -177.86364   -208.76171    14889.651 
   43820    263.95387    8.2024908    51.822343    -178.4503     353.8874    14889.651 
   43830     268.0279    5.9462402    47.513805   -178.27736    376.24069    14889.651 
   43840    294.62714     4.314382    44.720902   -172.08919    1056.2959    14889.651 
   43850    287.74314    3.6423038    49.337619   -169.75937    180.31739    14889.651 
   43860    272.84441    4.3282118    53.629653   -165.94874   -1938.5746    14889.651 
   43870    273.51646    5.0958516    49.592376   -159.89396   -907.82217    14889.651 
   43880     293.1585    3.9611205    51.728955   -157.66039    -371.7815    14889.651 
   43890    328.19452    4.2156863    50.319475   -151.31542    737.30546    14889.651 
43900        0.9875082231237582997 10.11642237220628715 0.99735449735449732689 67 -290.66496258049215839
   43900    316.03006    4.5053717    52.946531   -147.47708    935.46488    14889.651 
   43910    331.60025    2.9550356    46.415603    -145.4464   -251.53904    14889.651 
   43920    297.05469    2.8549343    62.508581   -144.65844    1822.1898    14889.651 
   43930    329.29566    5.1508643    44.080578   -146.67316    1732.4863    14889.651 
   43940    323.23599    7.1403374    59.693479   -146.92489    -137.6968    14889.651 
   43950     319.8688    9.3949633    53.424542   -147.67044    952.11755    14889.651 
   43960    292.01964    8.5461871     52.71613   -148.78841   -1260.3075    14889.651 
   43970    287.16806    10.238007    57.099222   -149.69631   -1063.1104    14889.651 
   43980    303.42661     8.963184     54.67626   -150.27028   -2377.0129    14889.651 
   43990    297.96748    9.8113239    57.210546    -151.0937   -1142.1613    14889.651 
44000        0.98879242846665260647 10.082295156162171423 1 68 -283.95672004983487113
   44000    291.34662    9.7993716    54.300504   -151.95248    550.75806    14889.651 
   44010    302.32129     10.44136     53.45845   -152.48522    416.94779    14889.651 
   44020    310.78502    12.255255    51.076496   -152.85611    2430.2111    14889.651 
   44030    288.69084    12.831923    57.454604   -153.47628    3346.7615    14889.651 
   44040    284.83905    9.1747457    57.332752   -154.15465   -271.42075    14889.651 
   44050    311.34234    6.5368347     49.30911   -152.57072   -217.89302    14889.651 
   44060    336.93108    6.3396883    47.056077   -153.65456   -975.58014    14889.651 
   44070    282.26057    5.3950268    62.651442   -155.44217   -1453.5786    14889.651 
   44080    283.47488    3.7535627    61.054752   -157.25922   -901.98632    14889.651 
   44090    298.07878    5.6853874    53.570337   -159.04757    -1613.134    14889.651 
44100        0.98972145510125664192 10.076484697682085212 1 65 -311.64171854705324449
   44100    331.80054    7.2302089      43.6253   -161.30849    769.22853    14889.651 
   44110    297.61445    8.5139081    49.075527   -164.26799    741.20718    14889.651 
   44120    278.28633    6.9974911    47.778121   -167.13624    2001.3914    14889.651 
   44130    266.38799    7.7352587    54.480222   -169.63382    1638.7168    14889.651 
   44140    290.40846    7.8178689    51.633612   -171.78966     1112.333    14889.651 
   44150    306.70197    7.6388243    43.349642   -173.86252   -1009.4493    14889.651 
   44160    280.25491    8.7329222    49.485076   -175.62585   -1701.4753    14889.651 
   44170    284.32997    9.3983766    49.076017   -176.83841      438.067    14889.651 
   44180    252.43416    10.667947    58.509118   -177.16114    -911.7582    14889.651 
   44190    285.43164    9.9359971    47.009673   -176.22186   -2096.8238    14889.651 
44200        0.98830006272734205464 10.090625858064369069 1 67 -313.48999790625663309
   44200    303.17773    8.2882209    53.646954   -176.12528   -217.65908    14889.651 
   44210    314.94997    9.0508034    46.105091   -173.17699    1425.1576    14889.651 
   44220    281.27527    10.564874     54.83497   -169.64675     1516.756    14889.651 
   44230    285.89104    10.830608    47.972712   -164.76675    419.12728    14889.651 
   44240    274.16878    8.7177245    60.433293   -158.74427    1212.4379    14889.651 
   44250    319.48286    10.319324    57.419892   -152.84465   -1692.9541    14889.651 
   44260     316.4445    11.593561    56.837777   -148.57984   -2501.7556    14889.651 
   44270    314.96492    9.8265783    53.608273   -146.23189   -1965.9237    14889.651 
   44280    300.62665    9.2554762    54.291496   -146.85222   -552.26154    14889.651 
   44290    313.65831    8.1798379    58.195956   -145.53588    1160.3174    14889.651 
44300        0.98750604838092070903 10.088062650685278854 1 66 -304.650090869727876
   44300    359.73746    7.8712167    51.919331   -141.65912    1839.6727    14889.651 
   44310    298.40414    6.6509264    66.106125   -142.57602    259.39707    14889.651 
   44320    312.94048    5.0165897    60.215953   -144.17513    1483.3246    14889.651 
   44330    282.94432    6.0051053    66.361927   -143.70554   -90.740311    14889.651 
   44340    298.58076    6.4724429    53.061431   -145.46501    602.94043    14889.651 
   44350    275.97666    6.3617891    68.834977   -146.95237   -670.05107    14889.651 
   44360    309.49278     4.631053    49.608093    -143.3595   -692.76699    14889.651 
   44370    291.86985    3.6330316    62.363981   -144.69273   -1086.8012    14889.651 
   44380    297.96524    2.2001149     57.14214    -150.7471    1071.3343    14889.651 
   44390    268.30045    4.5944613    55.587888   -152.02633     318.0247    14889.651 
44400        0.98321019518098085044 10.118662101535329967 1 68 -272.20240178985528701
   44400    263.73842    6.7366601    57.552967   -152.70697    460.89444    14889.651 
   44410    263.29259    7.6097026    61.901013    -152.2697    907.43776    14889.651 
   44420     283.6241    9.0956447    62.310376   -150.34226    314.80294    14889.651 
   44430    318.82649    9.4256079    56.137428   -147.08502   -499.37439    14889.651 
   44440    299.05491    9.6185632     66.93664   -143.47326   -940.86625    14889.651 
   44450    314.94065    12.210059    58.598479   -139.73342    88.539375    14889.651 
   44460    317.66307    9.5803244      68.7182   -131.21836      327.265    14889.651 
   44470    342.50106    10.164734    65.094237   -127.86737   -744.94524    14889.651 
   44480    336.93793    9.2540602    62.123899   -125.77647   -740.77281    14889.651 
   44490    330.27194    12.285033    59.366807   -125.18496   -1791.2055    14889.651 
44500        0.98320062491167725671 10.13679057065242084 1 66 -272.45226223001998278
   44500    323.61675    11.787269    62.139148   -125.82697   -861.37559    14889.651 
   44510    319.58823    11.473831    65.409359    -128.0646   -371.54767    14889.651 
   44520    309.66574    8.2621554    65.334464   -131.80788    2138.3693    14889.651 
   44530     304.3893    9.4344833    60.088501   -136.79898     1330.144    14889.651 
   44540    299.49742    9.9795179    58.031414   -141.85154    2526.6852    14889.651 
   44550    285.09637    11.097022     56.50064   -146.57563   -576.58872    14889.651 
   44560    284.76252    10.932107    57.358959   -150.17882    8.6817506    14889.651 
   44570    265.47395    9.7897495    62.876525   -152.78058   -1518.4737    14889.651 
   44580    287.79923    6.5422673    51.970364   -157.69945   -2570.6859    14889.651 
   44590    286.05774    6.0033845    55.324945   -158.41896   -919.28299    14889.651 
44600        0.97967709723551932299 10.148839400352532181 1 68 -285.972641284132294
   44600    281.28564    3.3744392    61.509035   -158.52686    720.85267    14889.651 
   44610    277.75421    4.5976526    55.242481   -154.37452    1961.7424    14889.651 
   44620    279.59678    5.2692245    58.138809   -153.42852    1150.2775    14889.651 
   44630    295.55223    7.7720709    57.956366   -152.23999   -1861.6154    14889.651 
   44640    285.80777    6.3913916    55.679382   -151.15029   -519.77997    14889.651 
   44650    292.86363    8.0551458    54.325885   -154.36461   -1340.8107    14889.651 
   44660    304.07677    6.8056832    53.257472   -152.91033     462.0661    14889.651 
   44670    304.53423    6.6887162    46.227477    -151.4319   -919.28355    14889.651 
   44680      288.739    7.0450318    58.172039   -149.75588    2511.8303    14889.651 
   44690    291.46829     6.329108    55.425726   -142.89813    3981.5232    14889.651 
44700        0.9729206828257398465 10.17361938019498524 1 70 -277.81504244221844147
   44700     302.7422    6.0769164    57.426745   -140.64766   -468.78029    14889.651 
   44710    309.51369    7.8190746    61.048722    -141.5452   -3567.3478    14889.651 
   44720    300.49089    9.5281232    55.990983    -140.1635   -1314.2813    14889.651 
   44730    304.95213    10.308709    59.376459   -138.96698   -2030.4802    14889.651 
   44740    329.33465    7.9288343     56.70438   -135.47575    5206.9687    14889.651 
   44750    319.49247    7.6757916    62.142258   -135.51047    1161.8353    14889.651 
   44760    309.18542    7.7339197     53.41838   -136.20817   -253.58483    14889.651 
   44770    290.08049     7.942236    54.232912   -141.45501   -736.45573    14889.651 
   44780    297.35265    5.3780859    57.036964   -141.66919    1817.5046    14889.651 
   44790    313.13855    4.2469719    56.437605   -141.53164    91.475197    14889.651 
44800        0.97006284052084290614 10.198778657487666877 1 69 -285.2794429812835233
   44800    327.08744    5.8154808    49.912688   -137.08164   -3521.9241    14889.651 
   44810    319.21037    7.3987768    51.879328    -137.4009   -3123.1784    14889.651 
   44820     315.8105    7.4546005    54.160579   -137.58878     1150.461    14889.651 
   44830    296.97525    5.5461058    56.655273   -137.66958    1677.4065    14889.651 
   44840    302.98548       4.4683    56.445712   -137.67206   -190.74718    14889.651 
   44850    309.19052    4.6762416    57.167823   -137.72949   -203.00515    14889.651 
   44860    322.03287    3.2970157    56.677871   -138.19462    459.05476    14889.651 
   44870    303.90878    5.3055469    57.057906   -144.08172    436.36141    14889.651 
   44880    289.40805    6.6641746    62.944586   -145.18958   -1012.0883    14889.651 
   44890    305.71678    6.9948112    54.273163   -146.36377    -1002.121    14889.651 
44900        0.97274300900598764663 10.162949357279279283 1 66 -272.19055916084039382
   44900    274.56432    6.7571202    66.666872    -147.7901    463.02531    14889.651 
   44910    288.78768    7.5170539    59.405303   -148.96158    2553.9159    14889.651 
   44920    272.72839    6.9544263    62.069203   -149.79064     2582.141    14889.651 
   44930    313.40603    6.6804169    59.681052   -150.55042   -914.26005    14889.651 
   44940    292.82575    7.3419516    64.043705   -151.88394   -1579.7124    14889.651 
   44950    295.77723    5.6564365    58.079726   -153.85351   -1774.7804    14889.651 
   44960    280.40622    7.5295114    58.250088   -155.88546    568.02326    14889.651 
   44970    285.43076    7.9610391    60.477326   -158.04212   -951.07702    14889.651 
   44980    288.46759    9.1900551    55.295214   -155.14646   -644.76047    14889.651 
   44990    298.12084    7.4491234    55.238387   -157.91441    1494.8155    14889.651 
45000        0.97265107163424280312 10.177831523827965299 1 67 -291.10879154909252975
   45000    287.17814    6.5880082    54.335633   -160.99322    3132.6768    14889.651 
   45010    302.65331    8.5590134    53.209694   -164.00678   -2170.1487    14889.651 
   45020    302.90507    10.647594    47.607905   -172.53854   -1083.3269    14889.651 
   45030    273.14936    8.3016762    50.980165   -175.83146   -175.34941    14889.651 
   45040    246.68556    6.8354329    53.087913   -178.09634    1387.9583    14889.651 
   45050    266.07323    7.2442436    45.957684   -179.03996    701.88881    14889.651 
   45060    273.95628    6.8227815    52.780428   -178.67961    409.03335    14889.651 
   45070    290.63456    5.8592744    42.068614   -177.19224    -891.3598    14889.651 
   45080    273.42072    3.7296308    54.092023   -174.63357   -386.23545    14889.651 
   45090    283.26147    5.1624515    51.178371    -170.3322   -623.15001    14889.651 
45100        0.962420877384423612 10.223319297930958172 1 68 -290.27218042086298055
   45100    277.74035    5.9575459    56.234269   -164.43271   -1184.3137    14889.651 
   45110    293.66135    4.3722869    54.629101   -160.47568   -98.931566    14889.651 
   45120     300.0606    4.8313872    56.495336   -154.96681    1801.4248    14889.651 
   45130    311.71785    6.2390445    58.650402   -151.24578   -1586.0198    14889.651 
   45140    313.17387    6.8717388    57.930738   -149.19357   -459.00446    14889.651 
   45150    290.74044    6.8512348    58.564338   -148.06095   -1515.9301    14889.651 
   45160    314.18014    6.3155185    50.572776   -144.20053    969.72518    14889.651 
   45170    310.26298    4.0121862    57.684662   -143.13164   -447.87051    14889.651 
   45180    297.33997    2.7832172    60.046973   -142.68657    720.80589    14889.651 
   45190    304.64135    2.3337296    60.411168   -142.56308   -90.181656    14889.651 
45200        0.95778060627788486059 10.204263495500892844 1 70 -272.57813143322431415
   45200    287.39306    2.6470927    56.898742   -142.36519    1820.6373    14889.651 
   45210     309.9307    3.9100874    44.908727   -141.61435   -738.08612    14889.651 
   45220     294.9403    6.7023265    55.245871   -135.11695   -608.30584    14889.651 
   45230    317.53673    6.6957613    53.171758   -133.54952   -1248.9967    14889.651 
   45240    325.65568    5.7133178    56.726782   -131.97752   -389.46555    14889.651 
   45250    310.31108    4.9705583    64.482886   -135.99189    547.13647    14889.651 
   45260    320.67065    6.5046131    56.669402   -130.36529     967.0421    14889.651 
   45270    303.16157    9.4207102    53.446544   -130.19878   -363.05058    14889.651 
   45280    329.66073     10.70382    58.645311   -130.19995    1954.8651    14889.651 
   45290    333.77436    8.8669875     55.65639     -130.926    433.36807    14889.651 
45300        0.96620142692438948373 10.195728293251230312 1 64 -291.02658587857280281
   45300    336.47019    7.9389546    57.796461   -138.57762   -1329.1164    14889.651 
   45310    300.57491    7.9434609     58.40548   -142.77121    -1367.678    14889.651 
   45320    304.95689     10.05179    55.216149   -147.60162   -1649.3301    14889.651 
   45330     301.4748    10.555316    59.755704   -153.00231    3195.2984    14889.651 
   45340    294.42941    12.172847    51.353507   -157.71879   -564.79677    14889.651 
   45350    280.23352      9.84941    50.656941   -161.19346   -901.03545    14889.651 
   45360    270.73911    7.1389705    54.255099   -162.94738    1107.1803    14889.651 
   45370    286.51945    6.7416356    47.513687   -163.53133    561.03867    14889.651 
   45380    279.80372    6.6427159    55.787955   -163.51248    1682.1402    14889.651 
   45390    279.60548    7.1576078    51.735682   -162.89895   -608.67851    14889.651 
45400        0.9730627509058821234 10.159958947826092768 1 68 -295.5116287087589626
   45400    295.18933    4.2267752    54.739914   -161.76632    911.38037    14889.651 
   45410    310.70972    2.9310085    53.915608    -160.4419    2125.9126    14889.651 
   45420    302.38338    4.0471658    50.999099   -159.24027   -56.743285    14889.651 
   45430    255.45786     4.310212      60.7624   -157.87398   -1438.4582    14889.651 
   45440    288.77652    4.0542825    55.950403   -155.45173   -78.200029    14889.651 
   45450    321.11978    4.2961099    55.716401   -151.98771    152.88964    14889.651 
   45460     307.0675    5.6977166    55.034226   -149.07308   -275.82571    14889.651 
   45470     285.5837    6.8090938    60.109917   -146.54704   -1625.6652    14889.651 
   45480    294.36082     5.264796    59.521732   -143.67171   -13.588062    14889.651 
   45490    314.80304    4.4741261    53.453493   -135.01737    537.46197    14889.651 
45500        0.96965245325516580266 10.181074946070017617 0.99735449735449732689 66 -265.20318856874160929
   45500     294.5691    4.1882564    64.186064    -131.7389   -1356.6899    14889.651 
   45510    296.19585    4.8232296    67.263393    -128.5644     348.8839    14889.651 
   45520    301.57276    3.7241415    67.783726   -125.46725   -1450.4969    14889.651 
   45530      306.147    4.5121659     60.65749   -122.73178   -504.77605    14889.651 
   45540    300.19446    4.8938901    69.620032   -120.31228   -1791.5298    14889.651 
   45550    336.95212    5.6667969    59.223363   -118.41862   -1268.6822    14889.651 
   45560    351.70107     5.758816    67.089568   -117.81803    2639.8026    14889.651 
   45570    345.69092    6.7718744    54.959846    -119.4365    2892.4614    14889.651 
   45580    319.23497    7.0445265    54.422055   -128.67504    1845.2392    14889.651 
   45590    324.58039    4.4215778    57.136304   -139.04702    2124.1144    14889.651 
45600        0.97012973824444315163 10.190753205998261066 0.99735449735449732689 68 -285.74576828428126873
   45600    298.77902    3.2146316    56.690002   -150.37404   -1708.2778    14889.651 
   45610    284.46871    2.7317824    55.195253   -159.07777    244.90508    14889.651 
   45620    276.37775     2.495444     61.08789    -163.1602   -3188.9308    14889.651 
   45630     296.8684    4.9609364    51.814744   -165.20971    472.49486    14889.651 
   45640    287.13979    6.3829131     62.49685   -166.56714    534.20691    14889.651 
   45650    310.00303    5.6999778    48.140072   -167.52137    604.88248    14889.651 
   45660    285.78451    5.9948039    57.935916   -165.95309    1588.1465    14889.651 
   45670     282.0819    9.2436002    53.491279   -161.07964    -236.5013    14889.651 
   45680    270.57884    8.4185724    61.154668   -164.84682   -3021.9949    14889.651 
   45690    287.86433    9.6583012    58.596243   -164.30566    -791.3156    14889.651 
45700        0.97575383446602714788 10.18674855946581026 1 67 -307.27659492827478971
   45700    316.79827    9.1828219    53.777666   -163.74065    425.90054    14889.651 
   45710    301.71719    11.534313    49.835837   -168.02918    2550.9778    14889.651 
   45720     295.8439    13.137874    46.725124   -164.98496   -2080.0868    14889.651 
   45730    289.39162    10.903437    57.768392   -166.52085    -616.7662    14889.651 
   45740    290.54447    6.2850339    58.846144   -164.60757    1279.6938    14889.651 
   45750     284.6623    4.7202096    57.161448   -159.64722   -1071.6163    14889.651 
   45760    290.96329    5.1316985     51.80067   -157.09989    -1427.721    14889.651 
   45770    305.25198    7.0432753     55.99589    -153.8065    607.19764    14889.651 
   45780    326.00915    9.9109641    52.819157   -150.06486    968.23442    14889.651 
   45790     323.8415    8.8969376    56.359562   -147.10333   -185.78675    14889.651 
45800        0.97362490569579762667 10.158715375268588588 1 67 -283.52552711928450435
   45800    306.09098    6.4087875    64.718469   -144.84087     335.6412    14889.651 
   45810    292.08246    4.1853753    66.166371   -143.23352   -2017.6714    14889.651 
   45820    318.18319    3.3123757    55.802234    -141.9306    255.00255    14889.651 
   45830    311.73689    2.9088834    55.478198   -141.12922    -111.0424    14889.651 
   45840     302.1828    5.0291089    54.759644   -140.61944    349.75975    14889.651 
   45850    271.45149    7.9896431    69.438122   -139.97478   -848.85183    14889.651 
   45860    299.04141    7.9272408    55.557027   -138.74537    36.127188    14889.651 
   45870    292.46856    8.5400767    67.836326   -132.14251   -119.50581    14889.651 
   45880    310.69081    10.984944    60.262886   -134.18939    1543.1146    14889.651 
   45890    282.91267    11.310572    66.552747   -132.90142   -1519.6775    14889.651 
45900        0.97826543443908053899 10.146616573725420807 0.99735449735449732689 72 -269.32242889477947756
   45900    304.73391    7.6905036    64.022601   -131.25264    925.81095    14889.651 
   45910    290.54191    5.2208742     70.66472   -125.91076   -1633.9288    14889.651 
   45920     316.0789    4.3288179    61.222382   -124.16705    1452.1866    14889.651 
   45930    322.99586    5.5079235    65.645469   -122.76897    -1224.841    14889.651 
   45940     333.8894    5.9717325    62.222461   -122.25984    1633.9321    14889.651 
   45950    342.59189    7.9434777    64.758236      -126.76    1107.7383    14889.651 
   45960    310.89407    9.6843337    64.610153   -129.62113   -2038.3479    14889.651 
   45970     309.3262    10.058296     61.62602   -133.78765   -982.40715    14889.651 
   45980    276.52944    12.284168    61.813196   -138.09568    689.85755    14889.651 
   45990    299.93807    15.117852     52.26465   -141.52518    1784.0582    14889.651 
46000        0.98973832343822443214 10.099788028064322631 1 73 -276.29128638569670784
   46000    290.75703    12.037787    62.132012   -144.55418    108.31103    14889.651 
   46010    310.28491    8.5759225    57.002868   -147.10086   -2466.0535    14889.651 
   46020    295.89846    8.2088995    61.375003    -146.3996    2098.3458    14889.651 
   46030    299.51639    7.3234622    54.882392   -152.16324   -296.03924    14889.651 
   46040    304.80325    5.9378068    47.736963   -159.03272    1935.3641    14889.651 
   46050    282.49711    6.6689391    46.761811   -161.15942    26.421927    14889.651 
   46060    296.80827    6.6335963    48.308737   -162.23808   -1560.7608    14889.651 
   46070    279.32194    8.2920498    58.643513   -162.76122   -148.31423    14889.651 
   46080    296.97236    7.4544706    53.221672   -162.91134     641.7606    14889.651 
   46090    292.68677    6.5385745    58.426761   -163.04689    2078.3379    14889.651 
46100        0.98919827614448541109 10.085106633196213366 1 70 -296.16269375016781851
   46100    287.72088    6.6581179    55.566123   -165.80122   -559.48946    14889.651 
   46110    291.82323    5.9815643    51.622703   -165.19238    886.29642    14889.651 
   46120    289.98349    5.5673943    56.940261   -164.14117    2685.4097    14889.651 
   46130    300.51904    7.4129547    56.510322   -160.37057    1111.8022    15742.746 
   46140    291.67368     8.686942    55.177789   -157.94752   -1101.0299    15742.746 
   46150    316.01372    6.1737775     53.23794   -154.25284   -2345.2652    15742.746 
   46160     311.4695     4.222624    56.940399    -149.0309   -1365.6988    15742.746 
   46170     329.6416    4.3125241    54.344081   -142.79016   -903.16377    15742.746 
   46180    285.00036     5.412533    68.528926   -136.89275    363.83086    15742.746 
   46190    304.58569    5.2052814    57.105547   -132.04944    459.85801    15742.746 
46200        0.98414780665839141083 10.12775009754675537 1 71 -267.31612840121351837
   46200    306.60023    7.1996106    65.886535   -128.40074   -702.60424    15742.746 
   46210    344.51085    8.1709401    54.165698   -125.84358    2635.8673    15742.746 
   46220    349.51937    11.016012    56.926121   -120.39009    1681.5339    15742.746 
   46230    323.68843      10.3551    63.132886   -120.50111    44.588919    15742.746 
   46240    313.13231    6.3734837    64.201574   -121.34948   -4058.9707    15742.746 
   46250    319.32327    6.6389308    54.448927   -126.86114   -2311.2078    15742.746 
   46260    337.73135    5.3444399     60.36715   -128.90304   -607.58603    15742.746 
   46270     335.2022     5.552049    61.791203    -131.9763    -192.3186    15742.746 
   46280    321.03517    4.9672069    62.879918   -135.71587    633.46766    15742.746 
   46290    316.09618    6.6034707    56.950673   -139.76213    672.98132    15742.746 
46300        0.9815097450116191391 10.124803422239416761 1 69 -280.82897122564929759
   46300    303.01439    7.3987349    54.563373   -143.53826    1460.6796    15742.746 
   46310    294.38066    6.4213422    58.944715   -143.36549   -1001.5275    15742.746 
   46320    279.39127    7.3446481    60.172004   -145.39084    -2798.524    15742.746 
   46330    286.75074    7.2759786     62.75219   -146.64478   -719.05789    15742.746 
   46340    327.44149    6.5401289    54.909084   -147.80803    1966.1615    15742.746 
   46350    327.72213    5.4165567    55.398498   -149.57785   -202.35653    15742.746 
   46360    313.85899     4.875867    53.895566   -151.73611    1288.1946    15742.746 
   46370    284.31893    5.5970862    57.859484   -153.33069    459.92412    15742.746 
   46380    285.57442    6.2994628    55.789914   -154.45183    262.47621    15742.746 
   46390    277.22334    8.2761239    64.622082   -155.05607    701.67528    15742.746 
46400        0.9827494320121427096 10.130968764327166198 1 70 -285.42295881969283755
   46400    287.67895    8.3034571    51.912602   -155.08048    -3288.092    15742.746 
   46410    281.10011    6.3236938    53.743001   -154.55551    542.29182    15742.746 
   46420    278.36707    9.0051006    55.703192   -153.49357   -1224.5157    15742.746 
   46430    269.98542    9.6952516    57.483098   -152.18346    2844.2365    15742.746 
   46440    313.13565    6.0228027     58.73202   -150.74585    539.16104    15742.746 
   46450    315.92482    4.6686451    57.406341   -149.70455    1902.3326    15742.746 
   46460    316.61944    7.2271196    59.307564   -149.19068      220.339    15742.746 
   46470    301.47029    11.838751    58.147929   -149.25577    1180.3701    15742.746 
   46480    285.89528    10.532884    64.685023   -145.25173   -1175.7331    15742.746 
   46490     283.8974    6.9196713    61.328027   -145.48281   -1361.1096    15742.746 
46500        0.98697409351809073375 10.083931224505185753 1 67 -284.80314531706630987
   46500     296.3126    5.6558964    54.315378    -150.5489   -2032.6098    15742.746 
   46510    302.06791    5.5611666    58.483362   -150.18546    863.20185    15742.746 
   46520    311.37436    6.9982814    59.916999   -149.96024   -187.93806    15742.746 
   46530    291.41771    6.2306416    65.296505   -150.48264   -999.60758    15742.746 
   46540    293.27285    5.6528995    58.528834   -151.61128    -666.9573    15742.746 
   46550    279.16951    9.0668007    58.214067   -153.18332    2585.1615    15742.746 
   46560    285.10162     11.66672    53.406673   -154.43121    2381.6121    15742.746 
   46570    283.13249    10.782819    54.167816   -155.24841   -452.89802    15742.746 
   46580      304.631    10.075796    54.790604   -155.76936   -1822.8672    15742.746 
   46590    302.38651    10.656242    61.069397   -156.42044   -844.80163    15742.746 
46600        0.99102293771686944535 10.075903978062861199 1 68 -303.19148000043486491
   46600    321.75325     10.82769    57.582058   -157.41051   -1227.4183    15742.746 
   46610    299.42284    11.263796    57.204622   -159.17893   -1975.3921    15742.746 
   46620    290.00323    8.4833006    55.406067   -161.31404   -1025.1407    15742.746 
   46630    290.14414    9.7561199    55.138274   -163.35491    862.18211    15742.746 
   46640    284.83141    11.061658    55.720462   -165.01906    3622.9536    15742.746 
   46650    293.21994       10.134    52.750114   -166.27589    2839.5592    15742.746 
   46660    296.94128    9.6130369    54.774399   -167.38133    1001.6106    15742.746 
   46670    289.86383    8.2011017    56.343852   -168.12995   -184.95366    15742.746 
   46680    292.11904     7.360955    49.393491   -168.52421    286.45949    15742.746 
   46690    256.29516    5.6472733    62.681903   -168.30761    591.87042    15742.746 
46700        0.98843753093512265462 10.116774833038713055 1 66 -305.04307433732765276
   46700    304.13876    4.2837466    49.193756   -167.24293   -1117.2202    15742.746 
   46710    271.14995    4.7576719    58.636813   -165.78971    -3810.938    15742.746 
   46720    318.76769    5.5581445    41.482352    -166.0551   -1467.9729    15742.746 
   46730    281.90788    7.5404058    60.911887   -162.83714    755.99569    15742.746 
   46740    317.49251    6.9152994    52.382492   -157.87999    3450.1969    15742.746 
   46750    279.83808    8.9078656    71.013259   -153.63772    1756.0924    15742.746 
   46760    283.79399    11.161515    61.437378   -149.74557    1045.7486    15742.746 
   46770    305.92007    9.0496608    57.464793   -145.74965   -777.34382    15742.746 
   46780     319.9413    5.0959497    64.343761   -142.52194    -25.90387    15742.746 
   46790    311.40922    5.1437479    63.683297   -140.31917   -2016.9579    15742.746 
46800        0.98581874761714882727 10.128896169834623819 0.99735449735449732689 63 -275.05161510638521349
   46800    309.48531    6.5633869    60.875878   -134.82904   -2591.8856    15742.746 
   46810    327.89031    8.7905768    60.391492     -134.069   -2756.2357    15742.746 
   46820    334.39283    7.8900796    54.729517   -134.28444     1678.495    15742.746 
   46830    307.23055    7.0382741    54.607411   -135.10184    1397.2713    15742.746 
   46840    301.75399    6.2920345    63.450011   -135.74817    2801.6811    15742.746 
   46850    290.80538    7.2887204    66.094679   -136.28236    74.823374    15742.746 
   46860    324.65405    6.2259543    55.814977   -134.13004    39.831727    15742.746 
   46870     296.5304    6.3103691    67.242215   -135.54534     678.5364    15742.746 
   46880    292.48492    6.9059564    57.457241   -142.06929   -3249.3518    15742.746 
   46890    316.34617    7.5732157    63.390971    -143.6801   -2708.8961    15742.746 
46900        0.98180684001061924171 10.16288873557644834 1 69 -290.25941536489574446
   46900    317.34843    6.8867781    61.388779    -146.4742   -1288.3071    15742.746 
   46910    288.28134    9.1923595    63.355083   -150.57191    109.73867    15742.746 
   46920    289.32394    8.4476013    63.783893   -155.26605    2722.6157    15742.746 
   46930    293.77124    7.0329145    56.800252   -160.42527   -72.457605    15742.746 
   46940    294.73773    7.7845212    52.421165   -165.67311    1839.8045    15742.746 
   46950    269.18726    7.5486303    62.042235   -170.04411   -146.38424    15742.746 
   46960    288.67351     5.821101    55.454962   -172.75601    2475.2031    15742.746 
   46970    275.41599    9.5178069     61.05074   -174.35256    481.28669    15742.746 
   46980    281.82802    10.231258    60.107323   -174.96077    1148.8352    15742.746 
   46990    278.12367    10.009221    53.316233   -174.96859   -961.31141    15742.746 
47000        0.96882407440782791763 10.205737867754464787 1 67 -301.62956537154218495
   47000    280.28612    7.7951288    54.670665   -174.63665    563.11377    15742.746 
   47010    281.56451    6.7102947    54.395093    -173.9596   -1186.9324    15742.746 
   47020    287.67103     5.041426    49.522571   -172.89566   -1180.4959    15742.746 
   47030    289.44101    2.8296471    55.885866   -171.46434   -2368.3475    15742.746 
   47040    278.48097    3.8378008    58.717723   -169.59858    356.45887    15742.746 
   47050    286.38899    4.6935767    55.057557   -167.12867   -1838.2084    15742.746 
   47060    296.84457    9.0805353    57.437694   -164.51496    650.82237    15742.746 
   47070    292.78698    8.2892263    53.220434   -161.72478     140.8637    15742.746 
   47080    285.26504    6.6227324    53.370532   -158.73893    924.12188    15742.746 
   47090    293.24758    9.5331613     61.70523   -155.20468   -344.61785    15742.746 
47100        0.9635520266424131286 10.210726064109294953 1 70 -290.35438076850175548
   47100    305.79956    6.9948439    56.406221   -151.80176    92.097876    15742.746 
   47110    331.77677    5.4606416    58.546509   -149.27045    1788.8378    15742.746 
   47120    311.26367    5.3388464    56.087383   -147.76611    637.67512    15742.746 
   47130     309.8768    7.3965034    52.159684   -146.61122   -699.88456    15742.746 
   47140    318.65521    7.6169085    66.220024   -145.53182    110.52794    15742.746 
   47150    331.44233    8.1989853    49.993338    -144.9125    34.356785    15742.746 
   47160    329.55599    6.1620802    52.797568    -145.0398    780.95793    15742.746 
   47170    309.61231    4.8734379    53.712862   -140.41354    250.58643    15742.746 
   47180     300.3652    5.4514495     55.45307   -141.17911    -1469.852    15742.746 
   47190     300.4586    5.7860229    62.302082   -141.77111   -728.09391    15742.746 
47200        0.95930066744943898183 10.219293934909252641 1 68 -269.30459984010292374
   47200    280.65548     6.855288    61.920205   -142.14434   -87.080487    15742.746 
   47210    281.28849    6.3040223    64.778383   -147.19194    504.94263    15742.746 
   47220     316.1608    5.2422808     56.33393   -146.54272   -1157.2273    15742.746 
   47230    327.48438     4.584638    60.646472   -145.87976   -1989.6431    15742.746 
   47240    333.01489    5.6706042    56.949461    -145.6913    1024.5515    15742.746 
   47250    286.10243     8.145554    66.501781   -146.67683    1400.8209    15742.746 
   47260    287.64395    8.2146509     57.92339   -142.98275   -957.95067    15742.746 
   47270    305.33253    8.8327194    53.340471   -149.50924   -854.39016    15742.746 
   47280     327.2263    9.0125869     59.61952   -151.22078    1690.0178    15742.746 
   47290    312.41861    11.723913    50.428973   -154.08341    2121.6246    15742.746 
47300        0.95369086756672050154 10.246791404563511563 0.99735449735449732689 70 -293.22871796641243236
   47300    300.21773    9.1738103    55.332832   -157.20513   -25.580225    15742.746 
   47310    295.38692    8.6715877      67.5189   -161.37915    2480.3543    15742.746 
   47320    305.67288    6.7291371    58.443992   -164.27971   -1178.8209    15742.746 
   47330    282.75905    6.8944892    57.301316   -166.09804   -1767.6003    15742.746 
   47340     273.2525    6.9781797    52.271367   -168.80548   -4082.6855    15742.746 
   47350     261.7034    5.1236369    58.059719   -170.25502   -1870.5131    15742.746 
   47360    279.06726    3.5894795    63.968151   -170.80664    580.79168    15742.746 
   47370    262.90528    4.0755768    60.449169   -170.93059    1204.5413    15742.746 
   47380    278.86826    3.3941702    58.465439   -170.18301     2254.995    15742.746 
   47390    285.36576    4.2310054    64.510059   -168.34868    1277.6017    15742.746 
47400        0.95705682749559517486 10.233233420161058191 0.99735449735449732689 70 -286.50827826194449699
   47400    266.03407     5.287582      70.0076   -165.97273   -1093.8216    15742.746 
   47410    291.71077      8.59001    56.031935   -163.18403    -348.4394    15742.746 
   47420    273.31377    11.881112    62.906536    -159.9312   -1693.5613    15742.746 
   47430    304.36658    11.557116    58.663628   -156.08472   -498.84066    15742.746 
   47440    288.91068    9.3632216    63.282669   -146.75536    237.64059    15742.746 
   47450    310.28936    8.8855327    54.795646   -143.18244    2061.5743    15742.746 
   47460    290.87231    7.7722718    69.466523   -145.03312    630.58698    15742.746 
   47470    323.80241    5.3705023    61.954632   -142.46239    402.42869    15742.746 
   47480    318.40263    4.2260174    60.847349   -140.91404    1047.8001    15742.746 
   47490    326.43832    4.2773851    58.679536   -140.57269    241.36705    15742.746 
47500        0.96903884577258458943 10.191563858676181198 1 67 -275.66074401783026815
   47500    298.43921    4.0789416    69.873849   -140.44297   -2965.0417    15742.746 
   47510    304.86777    5.1270684    63.125396   -140.29394   -2877.1957    15742.746 
   47520    306.37918    8.5599077    63.031846   -135.68358   -1168.3593    15742.746 
   47530    320.25666    8.5891968    60.425275   -136.60163    2062.9538    15742.746 
   47540    305.83116    8.2475529    52.051953   -137.80593    2298.0893    15742.746 
   47550    289.24639    7.5630352    55.919267   -138.51253     824.0783    15742.746 
   47560    296.45896    6.9762699    62.052738    -138.7859    735.32102    15742.746 
   47570     307.5554    6.7054521    58.619606   -138.90271    895.05065    15742.746 
   47580     321.9113    5.0651599    62.501946   -139.20869   -1083.8549    15742.746 
   47590    313.34478    8.2698247     61.31417   -140.02816   -23.817041    15742.746 
47600        0.97423398381765580201 10.163846127033172806 1 67 -287.88709772236376239
   47600    323.85664    7.0284344    54.925795   -141.15312   -1780.8058    15742.746 
   47610    339.81351    5.6346074    55.108873   -142.62795    374.21388    15742.746 
   47620    317.60943     4.112908    63.930586   -149.01721   -373.97673    15742.746 
   47630    289.13215       6.4166    59.075829   -150.84729   -139.69701    15742.746 
   47640    277.99753     6.614212    63.980964    -151.9893   -434.11425    15742.746 
   47650    325.33188    7.5851998    53.717857   -148.02751    577.49566    15742.746 
   47660    322.18634    8.2708435    63.044313   -148.72239    -234.9867    15742.746 
   47670    299.23347    9.6347869    52.860481   -149.95222    3040.3261    15742.746 
   47680    271.80242    9.7513307    65.722407   -151.04702    871.36198    15742.746 
   47690    300.69985    9.9612348     54.19221   -156.62722    421.82145    15742.746 
47700        0.97473738876932836117 10.167333456583396156 1 67 -292.47342484728903855
   47700    299.35023    10.430109    58.883381   -156.84289   -2166.0938    15742.746 
   47710    306.34779    8.5886746    61.824729   -157.26787    742.80727    15742.746 
   47720    304.65179    7.0606021     59.96787   -157.91944    66.225128    15742.746 
   47730     307.6032    6.3793703    51.267882    -158.6079   -1289.1152    15742.746 
   47740    298.73846    5.1959502    62.970928   -159.49924    -1308.105    15742.746 
   47750    281.03585    7.4634002    62.322178   -160.62002    283.59874    15742.746 
   47760    290.58876    8.9619771    54.067913   -161.75771    1135.2904    15742.746 
   47770    281.35137    8.4535417    56.167297   -162.64362    1619.5417    15742.746 
   47780    288.55149    8.2935819    61.946041   -165.70203    381.29806    15742.746 
   47790    305.29343    7.9642558    57.046025    -160.6788    367.31287    15742.746 
47800        0.97671574505788594234 10.172838968703969087 1 67 -301.04841927295518644
   47800    309.56812    8.6831944    55.828245   -160.78833   -2423.6724    15742.746 
   47810    300.65928    8.3143229    59.871427   -161.23641    -829.7454    15742.746 
   47820    288.62873    8.3550081     59.21691   -161.69307   -706.65104    15742.746 
   47830    306.50938    6.3523238     57.89182   -162.42878    -1230.936    15742.746 
   47840    302.03893    6.7586625    53.073659   -163.57604   -780.57595    15742.746 
   47850    293.55854     7.879359    54.356866   -164.96531    1863.9148    15742.746 
   47860    258.17395    7.5290379     61.70932   -166.02633    1615.2936    15742.746 
   47870    268.73414    7.4307697    57.072045   -166.17077    1525.1951    15742.746 
   47880    272.21785    5.4898488    61.416816   -165.37129   -650.88134    15742.746 
   47890    296.98126    4.7548305    59.019204   -165.85105    74.953452    15742.746 
47900        0.97940137830198792379 10.158360671421249322 1 66 -299.09007364307450416
   47900    299.37784    2.8450745    60.410468   -163.44703   -757.53093    15742.746 
   47910    291.95566     5.139541    59.120508   -161.16664    839.47923    15742.746 
   47920    271.19082     6.711596    64.966006   -158.83344   -367.14315    15742.746 
   47930    287.14561    6.7728179    60.087317   -154.05876   -408.50998    15742.746 
   47940    283.79666    9.5860838    64.027776    -146.6106   -2058.4008    15742.746 
   47950    321.66392    8.5797299    61.677923   -142.82635    537.12528    15742.746 
   47960    297.17457    7.6471978    72.679027   -140.13727    752.24582    15742.746 
   47970    324.00013    6.2871795     60.04068   -138.02092    113.45507    15742.746 
   47980    333.48721    4.0952077    59.459243    -136.7535   -757.34213    15742.746 
   47990     301.2318    3.9518408    67.059509   -136.72787    988.89582    15742.746 
48000        0.9815527656852937044 10.14325376266653933 1 68 -279.89525051427011704
   48000    306.82368     4.697115    60.867681   -140.87862    2547.9154    15742.746 
   48010    293.61231    5.9634632    63.967212   -141.87334   -276.55703    15742.746 
   48020    328.52622    6.4217074    54.644009   -143.23381   -1772.9907    15742.746 
   48030    318.56587    6.9820499    60.691596   -145.56396   -3166.8524    15742.746 
   48040    325.69966    6.9205009    53.129951   -149.24679   -1679.0428    15742.746 
   48050    300.02075    5.9794695    55.070423   -154.48391    153.72222    15742.746 
   48060    282.84115    6.4562349    58.208187   -164.27918    883.63027    15742.746 
   48070    265.12523    7.0344659    57.321635   -169.06322    2432.2737    15742.746 
   48080    255.89549    6.4429878    60.107915   -172.11785   -300.85925    15742.746 
   48090    275.68665    5.8340933      50.9973   -170.64581    291.85202    15742.746 
48100        0.98448755947831578794 10.139092645260120662 1 69 -298.27603108500096596
   48100    281.06671    5.3878785    54.660467   -170.92945   -709.05137    15742.746 
   48110    285.62026    6.1812281    53.358103   -170.56501    -1563.346    15742.746 
   48120    293.37907    5.1731439    52.499053   -169.63908    -1230.106    15742.746 
   48130    296.27442    6.1349351    54.391755   -168.54191    922.82543    15742.746 
   48140    285.68281    8.1055224    57.817269   -167.45238    69.277908    15742.746 
   48150     278.1605    10.041531     54.36844   -166.33216   -638.71584    15742.746 
   48160    292.54117    7.1419241    53.984298   -165.14235   -951.44596    15742.746 
   48170     320.1051    5.9480849    57.679743    -163.8218    1675.4359    15742.746 
   48180    306.96386    5.9091407    58.886385    -162.9851     1302.134    15742.746 
   48190    289.06598    7.4237423    51.347508   -162.22965    1114.4141    15742.746 
48200        0.98431720599748917522 10.121263554391452644 1 66 -290.96264157281734697
   48200     286.7377    9.7056231    56.263841   -161.04663    89.914531    15742.746 
   48210    278.23685    13.710194    58.612215   -159.25211   -606.30466    15742.746 
   48220    315.76284    14.045864     54.88785   -156.92183   -445.08646    15742.746 
   48230    318.60423    10.751457    58.383178   -154.98189    3316.2385    15742.746 
   48240     326.0935    10.131787    57.543901   -153.79358    1393.4864    15742.746 
   48250    291.25867    11.993773    63.205899   -153.13606   -1323.4928    15742.746 
   48260    298.44893     10.16053    56.668758   -152.52129   -3928.8008    15742.746 
   48270    292.10184    10.312232    62.375046   -146.38995   -985.41322    15742.746 
   48280    304.22485     8.758265    58.376042   -150.74132     1265.623    15742.746 
   48290    291.10581    8.0808354    59.338789   -149.61533   -137.86752    15742.746 
48300        0.98660339396406171453 10.111659403507196942 1 67 -276.8369814466606158
   48300    285.11792    7.2107689    59.729093   -147.65486   -1266.3516    15742.746 
   48310    313.25747    7.4777834    61.422987   -143.66382   -96.413588    15742.746 
   48320    317.94461    9.4193441     65.69821   -137.56359    -283.6517    15742.746 
   48330    343.78214    9.8699974    66.562932     -131.032    174.91773    15742.746 
   48340    340.81678    10.709613    59.557919   -125.46471   -289.96972    15742.746 
   48350    319.20447    9.8166398    68.070359    -121.4422   -257.61382    15742.746 
   48360    325.55703     8.516176    74.755963   -113.36275    2641.1291    15742.746 
   48370    340.15123     7.359694    72.665787   -112.38277    2214.4333    15742.746 
   48380    342.62375    7.2330505    60.075972   -113.50408    -1255.398    15742.746 
   48390    335.50513    5.5740814    59.948813   -116.10044   -1998.7891    15742.746 
48400        0.98542728125058676181 10.115936537188964905 1 68 -272.73274292261709206
   48400    331.72951    5.8173313    60.275058    -122.4317   -24.873001    15742.746 
   48410    313.35744    5.0699177    65.057638   -127.07439    2057.2592    15742.746 
   48420    292.65001    6.0484091    64.132919   -128.77945    1219.5992    15742.746 
   48430     315.0461    9.1120409    54.289303   -132.27391   -346.48134    15742.746 
   48440    281.74029    9.2169961    69.823742   -135.01744    837.74367    15742.746 
   48450    318.52884    6.7569184     56.65658   -141.10819    873.96245    15742.746 
   48460    305.21563    5.3176386    61.823552   -142.90744    1050.1518    15742.746 
   48470    324.32811    4.6934347    57.808746   -144.74283   -2471.2096    15742.746 
   48480    305.02211    5.3905363    53.884151   -146.80122   -3026.0296    15742.746 
   48490    324.60394    5.3640046    55.341973   -148.79205   -1606.4709    15742.746 
48500        0.98806802045609909424 10.113322107803428551 1 68 -294.54537952534030865
   48500    316.30009    5.8047581    55.852972   -151.23515    2412.1024    15742.746 
   48510    307.55236     9.070914     48.63575   -153.77037    729.53343    15742.746 
   48520    294.28155    9.5995236    54.488339   -155.78488    154.02865    15742.746 
   48530    310.50438    7.9715581    47.337886    -157.0905   -131.33065    15742.746 
   48540    294.16543    6.4182924    53.212368   -161.16925    1663.9646    15742.746 
   48550    288.06787    7.4139239    55.921025   -161.83813    1033.6307    15742.746 
   48560    292.51963    8.7536624     54.32567    -162.1662   -1167.8885    15742.746 
   48570     291.1887    9.6108092     60.29834    -162.1555    -1610.752    15742.746 
   48580    291.26297    8.7036057    56.267997   -161.91955    575.87592    15742.746 
   48590    273.30775    8.8662735    59.061292   -161.43768    1979.3828    15742.746 
48600        0.98697126608618934718 10.12205607337465274 1 64 -296.16087365951096899
   48600    299.65414    8.6238243    54.711723   -160.39264    -95.25617    15742.746 
   48610    304.92908    6.6118192    55.044643   -159.09614   -1896.1373    15742.746 
   48620    313.78436    3.7219561    54.760656   -157.60688   -806.92113    15742.746 
   48630    290.60261    3.0507745    57.214708    -155.9309   -1154.7002    15742.746 
   48640    300.19522    2.5166978    54.810965    -153.2358   -1806.4478    15742.746 
   48650    298.86543    2.4909197    62.205502   -149.12162   -1350.8549    15742.746 
   48660    306.48394    4.0075419     64.73025   -143.80648    2832.3699    15742.746 
   48670    308.74883    5.8922056    59.004135   -138.50239    2928.4527    15742.746 
   48680    303.39936    7.8156928    61.999312   -133.76807    1303.3105    15742.746 
   48690    315.04736    8.3718864    62.209511   -129.84127   -427.69821    15742.746 
48700        0.9849236890414002632 10.118515771375598433 1 65 -275.86677800867937549
   48700    328.95148    6.8295635    61.032191   -126.82441    1906.6759    15742.746 
   48710    343.17015    4.7655362    66.196579   -125.47458   -844.65968    15742.746 
   48720    328.99633    5.1172011     66.13884   -125.87829   -1047.8836    15742.746 
   48730    332.91754    6.3282585    65.892085   -127.91857   -1496.3806    15742.746 
   48740    311.57744    8.9292256    65.899443   -131.48771    389.84348    15742.746 
   48750    329.96081    10.077549    62.954235    -135.9142   -461.17097    15742.746 
   48760    298.95496    10.166153    66.781539    -140.6476    180.05988    15742.746 
   48770    302.72773      9.50101    61.420665   -144.70369   -1526.6449    15742.746 
   48780    305.56485    11.206246    62.207635     -148.068    1658.3669    15742.746 
   48790    316.02877    8.6036955    59.756993   -150.89519    1645.0565    15742.746 
48800        0.97848743526018910899 10.146567802058276797 1 66 -305.09181429931931007
   48800    334.55252    6.0258828    54.016129   -153.51171    1538.2315    15742.746 
   48810    286.51695    5.9191928    64.365858   -156.02565   -3157.4525    15742.746 
   48820    305.70932    5.7114656    51.922665   -157.63268   -2799.1448    15742.746 
   48830    283.25026    6.0181038    63.696578   -154.94717   -206.08446    15742.746 
   48840     307.3278    4.7089438    54.613218   -156.04375   -446.09203    15742.746 
   48850    311.39111    5.4212529    61.795731   -157.31212    2401.7891    15742.746 
   48860    329.29403    8.2232048    52.802147   -163.44524    -327.5395    15742.746 
   48870    296.54884    11.713171    53.438616   -165.40284    35.197084    15742.746 
   48880    275.39972    10.112196    56.983098   -166.84172    627.14386    13717.387 
   48890    288.91487    11.088005    49.809298   -167.54582    2153.2101    13717.387 
48900        0.97484667226208565616 10.144721713847639322 0.99735449735449732689 69 -299.81214601891213078
   48900    292.26542    9.4350032     50.22601   -167.39162   -443.70531    13717.387 
   48910    306.42999    7.2858289    54.094247   -166.45248   -1034.4917    13717.387 
   48920    295.74396    7.0886676     53.78975   -165.00947    527.09731    13717.387 
   48930    308.04951     6.616248    57.176553    -162.7923    3928.0077    13717.387 
   48940    332.24249     5.889719    53.013036   -159.90768    -521.7724    13717.387 
   48950    302.06986    5.5344666    62.682021   -152.33442   -1172.4838    13717.387 
   48960    315.10774    6.3199105    57.023442   -149.88292   -1248.4263    13717.387 
   48970    298.06188    6.2377684    64.996479   -145.08661   -288.84615    13717.387 
   48980    327.69081    4.2068045    62.826459   -139.55079   -1319.8836    13717.387 
   48990    303.18526    5.5417572    65.947997   -134.53737   -3294.1926    13717.387 
49000        0.97572831226267819904 10.177760908079360291 1 69 -281.50302700846975767
   49000     328.2234    7.6373683    62.754624   -132.79054   -1632.6025    13717.387 
   49010     338.0673    8.0421554    65.222003   -127.37103    982.64738    13717.387 
   49020      334.393     8.008976    64.192896   -126.05365    659.36659    13717.387 
   49030    306.35851    13.074062    69.715093   -125.88417    2361.9239    13717.387 
   49040    316.37372    11.827209    73.372117   -121.29842    623.71617    13717.387 
   49050    333.14886     10.35143    66.918558   -122.78199    2591.8816    13717.387 
   49060     327.9941    8.4467427    63.738939   -130.39865    1005.4065    13717.387 
   49070    313.84956    8.8063918    57.846018   -136.56339   -182.80966    13717.387 
   49080    303.58972    5.7319862    65.841247   -136.64467   -3776.1926    13717.387 
   49090    331.60756    4.3210032    61.723859   -139.36359   -1032.2242    13717.387 
49100        0.97519187021463293874 10.189189220416944082 1 66 -279.98973237432574024
   49100    315.54216    5.6324429    60.749508    -137.0229     297.2337    13717.387 
   49110    314.35212    7.2809449    60.526477   -139.18738    3356.9961    13717.387 
   49120    306.91119     7.150394    65.845005   -146.43884   -297.94973    13717.387 
   49130    321.26674    6.8139091    53.605292   -147.93468     -1250.04    13717.387 
   49140    290.44473    6.7523574     62.33971   -149.55162   -961.84586    13717.387 
   49150    279.05948    7.7421488    66.444841   -150.48471    358.62295    13717.387 
   49160    320.99963    7.6092031    53.785524   -145.82961   -661.67896    13717.387 
   49170    292.80139    6.0903933    62.236006   -151.97083   -2556.8937    13717.387 
   49180    311.75819    7.0885029    49.888593   -152.79632   -676.82734    13717.387 
   49190    300.65953    7.8005565    55.880733   -153.62117    1858.2965    13717.387 
49200        0.97338615924953264535 10.188973785753933754 1 67 -296.24085303363114008
   49200    312.27299    8.0156987    57.456981   -154.75523    1121.7656    13717.387 
   49210    302.53398    9.2794434    56.295843   -156.14545   -467.61145    13717.387 
   49220    285.74486     8.288579    58.396003   -157.27262   -1713.9585    13717.387 
   49230    290.37507    6.4713358    57.294272   -157.93849    708.30307    13717.387 
   49240    292.18758     5.253234     60.18335   -158.27157    245.16406    13717.387 
   49250     310.7092    4.1599503    54.290926   -158.52716    2494.1062    13717.387 
   49260    290.17952    5.0712647    59.996454   -158.84436    1084.6191    13717.387 
   49270    297.70994    7.8573702    49.330828   -158.84925    284.52947    13717.387 
   49280     270.8096    7.9569567    58.667161   -158.15103   -1013.9665    13717.387 
   49290    284.27581    8.4076532    58.518832   -156.41864   -1805.6256    13717.387 
49300        0.97053059408288122611 10.189675890873377995 1 69 -295.21559216669271564
   49300    312.48383    7.3053648    61.152234   -153.63444    675.98684    13717.387 
   49310    330.76946    7.9549213    62.433078   -145.34665    1030.0294    13717.387 
   49320     321.3423    8.1304729    55.278318   -143.00384    601.92605    13717.387 
   49330    297.32946    7.6797418    68.360994   -141.12833     -352.851    13717.387 
   49340    293.13342    6.5648518    65.427366   -144.19394   -1463.1316    13717.387 
   49350    296.63747    5.4841885    65.093954   -142.17539   -3130.0277    13717.387 
   49360    331.40633    4.0117961    61.875605   -140.36224   -2390.5644    13717.387 
   49370    308.29848    4.8955248     63.59791   -139.55758   -549.29312    13717.387 
   49380    315.28324     5.461848    65.390885   -139.61249    3913.2597    13717.387 
   49390    285.38364    5.0534047    74.458231   -140.52251    2279.5436    13717.387 
49400        0.97633047184173959998 10.13360759687830992 0.99735449735449732689 67 -270.15415329590268811
   49400    283.07663    6.9443771    65.998638   -141.89691   -1028.4211    13717.387 
   49410    267.11402    9.5346045    70.119621   -143.21771   -1772.0593    13717.387 
   49420    284.91431    10.921149    60.741548   -144.23356     1271.948    13717.387 
   49430    281.08756    7.9239936    69.043213   -145.14337    2276.2385    13717.387 
   49440    284.44764     5.414668    62.406546   -145.89538    911.98177    13717.387 
   49450    296.40196    5.4841905    62.920397   -146.64723   -2167.5044    13717.387 
   49460    283.33799    5.4615735    63.128814   -147.69834   -887.44708    13717.387 
   49470    276.05544    4.1214722    67.584104   -148.88046    356.14287    13717.387 
   49480    286.80417    4.8358645    59.652495   -149.88513    3369.5332    13717.387 
   49490    282.50062    5.9993061    59.717608   -150.65574   -808.66514    13717.387 
49500        0.97989380651485913365 10.124446367978556793 0.99470899470899465378 68 -288.96476974133145177
   49500     298.7319    5.1358231    60.608889   -153.61438   -3046.1604    13717.387 
   49510    310.71897    4.7078801    60.946199   -154.46933    -1743.973    13717.387 
   49520     292.1809    4.1764101     57.86185   -153.04253    2637.6949    13717.387 
   49530    277.22469    4.7799315    64.937795   -154.45107     2428.331    13717.387 
   49540    296.73216    5.0971722    48.424303   -155.39239    722.12747    13717.387 
   49550     303.8321    6.9176993    53.286336   -156.17912   -825.16071    13717.387 
   49560    297.62754    6.4856256    54.745337   -152.57806    2749.7824    13717.387 
   49570    287.72845     6.859999      55.2373   -156.82149   -1537.1976    13717.387 
   49580    314.53185    7.7905551    44.884836    -157.1062   -1403.2293    13717.387 
   49590    308.51436    6.4805866    47.957226   -161.51371   -1095.7914    13717.387 
49600        0.97941224095508738756 10.145519961286627364 0.99470899470899465378 68 -299.2072328606350311
   49600    304.72076    5.1769373    52.111311    -161.1434    3861.4243    13717.387 
   49610    287.17408    4.2667018     60.94496   -160.22757     3775.596    13717.387 
   49620    312.66783    4.8167998    50.685124   -156.08059   -2613.8656    13717.387 
   49630    304.07823    5.7521858    58.089372   -153.92978   -3433.4237    13717.387 
   49640    320.75496    6.5965796    58.838817   -151.50861   -3090.1842    13717.387 
   49650    305.62499    8.1342169    59.138301   -149.29299   -975.70473    13717.387 
   49660    274.24172    6.7132144    67.794721   -147.19737    1170.8585    13717.387 
   49670    298.56243    7.1221553    58.624674   -144.21269    674.32051    13717.387 
   49680    295.83399    6.7323009    71.056713   -140.79823    504.27331    13717.387 
   49690    335.43258    8.0346455      55.3635   -137.58909    108.19721    13717.387 
49700        0.97708829700049582012 10.162733728084381468 1 66 -279.11624271824564403
   49700    316.46707    9.1678584    69.119187   -135.73035    471.54364    13717.387 
   49710     309.5785    9.7378593    63.302906    -135.0798    63.953311    13717.387 
   49720    298.52534    8.2610392    63.887223   -135.00348    -1961.707    13717.387 
   49730    304.73583    8.8028611    69.033342   -135.21279    1817.1953    13717.387 
   49740    298.67606    7.4053088    67.833577   -135.91295    -354.3802    13717.387 
   49750    295.66287     7.985962    63.159011   -137.11319    816.94711    13717.387 
   49760    307.51418    5.9658437     62.05033   -141.39931    -447.9639    13717.387 
   49770    312.27743    5.1394969    58.145643    -144.2537   -2044.5287    13717.387 
   49780    302.42155    5.8666357    54.715596   -148.42807    -363.0754    13717.387 
   49790    292.83933    8.3587051    60.817911   -153.37198   -3131.4308    13717.387 
49800        0.97780162114566770981 10.171948377843111899 1 67 -302.61248477124672718
   49800    317.85405    7.8338884    58.450606   -158.59818    649.44189    13717.387 
   49810    313.34476      6.66359    55.378847   -163.98451    2730.3766    13717.387 
   49820    293.38996    4.9269167    45.536874   -170.81905    1917.7287    13717.387 
   49830     251.8599    4.2047197    57.940974   -173.21649    3357.5051    13717.387 
   49840    277.91033    4.2971366    44.611974   -173.76571   -1035.0291    13717.387 
   49850    260.02374    4.0667121     62.47833   -173.09604    417.05521    13717.387 
   49860    317.63267    4.7567242    46.324764   -169.52013   -2520.3448    13717.387 
   49870    285.03127    4.4466608     54.04225   -168.43827   -1246.9568    13717.387 
   49880    295.28237     4.733265    48.228562   -167.29971    28.311085    13717.387 
   49890    265.58838    5.5380568    58.680403   -160.71747    448.32739    13717.387 
49900        0.98057710253541940926 10.165070642430118042 1 67 -288.84681463704293947
   49900    278.67229    9.6830077    57.248403    -162.5851    2682.0964    13717.387 
   49910     303.3362    11.100915    56.079734   -159.77291   -1771.7164    13717.387 
   49920    290.28781    12.515436    58.055887   -157.13043   -2041.9192    13717.387 
   49930    284.07736    11.849938    58.517769   -154.27438   -2897.3113    13717.387 
   49940    265.95628    8.4254242    60.988741   -148.68001   -2027.0811    13717.387 
   49950    308.38061    4.0565927    54.286666   -145.29505   -724.68792    13717.387 
   49960    314.00936    4.5873237    54.628275   -142.39569   -503.27487    13717.387 
   49970    314.18596    6.6871378    54.470878   -140.37403    505.51699    13717.387 
   49980    319.66186    8.2446402    56.076959   -134.75144    1236.7005    13717.387 
   49990    328.79453    6.7570224     59.07503   -134.42477     2683.247    13717.387 
50000        0.9790220090491791316 10.139516104956712184 1 71 -283.2751035834884874
   50000    315.91489    11.032679    56.632957    -140.1394    1928.2789    13717.387 
Loop time of 213.161 on 1 procs for 50000 steps with 153 atoms

Pair  time (%) = 9.19222 (4.31234)
Bond  time (%) = 0.709495 (0.332845)
Neigh time (%) = 0.00530696 (0.00248965)
Comm  time (%) = 0.0754473 (0.0353945)
Outpt time (%) = 0.73895 (0.346663)
Other time (%) = 202.44 (94.9703)

Nlocal:    153 ave 153 max 153 min
Histogram: 1 0 0 0 0 0 0 0 0 0
Nghost:    0 ave 0 max 0 min
Histogram: 1 0 0 0 0 0 0 0 0 0
Neighs:    6041 ave 6041 max 6041 min
Histogram: 1 0 0 0 0 0 0 0 0 0
FullNghs:  12082 ave 12082 max 12082 min
Histogram: 1 0 0 0 0 0 0 0 0 0

Total # of neighbors = 12082
Ave neighs/atom = 78.9673
Ave special neighs/atom = 2.64052
Neighbor list builds = 6
Dangerous builds = 0
