LAMMPS (9 Oct 2012)
# 3d protein simulation

units real

timestep 2

dimension	3

boundary s s s
#boundary p p p

neighbor	10 bin
neigh_modify	delay 5

atom_modify sort 0 0.0

special_bonds fene

atom_style	peptide

bond_style harmonic

pair_style vexcluded 2 3.5 3.5

read_data data.testeo
  3 = max bonds/atom
  orthogonal box = (-200 -200 -200) to (200 200 200)
  1 by 1 by 1 MPI processor grid
  153 atoms
  202 bonds
  5 = max # of 1-2 neighbors
  5 = max # of special neighbors

pair_coeff * * 0.0
pair_coeff 1 1 20.0 3.5 4.5
pair_coeff 1 4 20.0 3.5 4.5
pair_coeff 4 4 20.0 3.5 4.5
pair_coeff 3 3 20.0 3.5 3.5


velocity	all create 300.0 9849853

group		alpha_carbons id 1 4 7 10 13 16 19 22 25 28 31 34 37 40 43 46 49 52 55 58 61 64 67 70 73 76 79 82 85 88 91 94 97 100 103 106 109 112 115 118 121 124 127 130 133 136 139 142 145 148 151
51 atoms in group alpha_carbons

group		beta_atoms id 3 6 9 12 15 18 21 24 27 30 33 36 39 42 45 48 51 54 57 60 63 66 69 72 75 78 81 84 87 90 93 96 99 102 105 108 111 114 117 120 123 126 129 132 135 138 141 144 147 150 153
51 atoms in group beta_atoms

group		oxygens id 2 5 8 11 14 17 20 23 26 29 32 35 38 41 44 47 50 53 56 59 62 65 68 71 74 77 80 83 86 89 92 95 98 101 104 107 110 113 116 119 122 125 128 131 134 137 140 143 146 149 152
51 atoms in group oxygens


fix		  1 all nvt temp 400.0 800.0 100.0
fix		  2 alpha_carbons backbone beta_atoms oxygens fix_backbone_coeff.data testeo.seq
Chain flag on
Chi flag on
Rama flag on
Rama_P flag on
SSWeight flag on
ABC flag on
Dssp_Hdrgn flag on
P_AP flag on
Water flag on
Burial flag on
Helix flag on
Fragment_Memory_Table flag on
DebyeHuckel on

Reading fragments...
Computing FM table...
#fix		  3 all fixprueba 10

variable      biasinge equal f_qbias
# output wham.dat, a file with collective variables that can be used to compute pmfs
compute     qw alpha_carbons qwolynes rnative.dat 2 0.15
variable    qw equal c_qw
compute     rg alpha_carbons gyration
variable    rg equal c_rg
compute     qo alpha_carbons qonuchic cutoff 12.0 nativecoords.dat 1.2
variable    qo equal c_qo
compute     tc beta_atoms totalcontacts 6.5 2
variable    tc equal c_tc
variable    step equal step
variable    E_P equal pe

fix         wham all print 500 "${step}        ${qw} ${rg} ${qo} ${tc} ${E_P}"


#variable    stepq equal step
#variable E_bond  equal emol
#fix energy all print 10 "${stepq} ${E_bond}"



thermo		100
dump		1 all atom 10 dump.lammpstrj

dump_modify	1 sort id




#minimize 1.0e-4 1.0e-6 100 1000

reset_timestep	0
run		200000
Memory usage per processor = 0.857471 Mbytes
Step Temp E_pair E_mol TotEng Press Volume 
       0          300    54.408864    955.49334    706.11014    -33253.58    10890.368 
     100    564.22118    9.8536156    214.78299    146.92166    4025.3796    10890.368 
     200    387.76517    4.8163182    131.12898   -68.385962    3951.0843    10890.368 
     300    319.75891    4.8764881    116.15629   -114.13082    3448.7877    10890.368 
     400    446.72797    7.6270323    112.27766   -44.076898    2673.5008    10890.368 
500        0.97842230708030386577 10.154314321213121275 1 67 -228.69078489294429346
     500     400.4937    7.9344835    120.98932   -47.233849   -3852.7153    10890.368 
     600    350.09043    6.3602512    111.20278   -94.882497   -3315.0105    10890.368 
     700    395.40069    9.4999467     119.3419   -52.887143    31.096448    10890.368 
     800     444.5975    10.508575    107.52044   -46.447695    4316.5608    10890.368 
     900    399.23982    4.3080634    100.34383   -82.203631    1982.1984    10890.368 
1000        0.97078922688542079733 10.177389131902103259 1 68 -235.36319439003099774
    1000    383.24739    5.4248509    119.14914   -61.720267    5009.4691    10890.368 
    1100    428.96844    7.3989707    110.08548    -46.14247    1734.9527    10890.368 
    1200    382.03204    4.2080291    102.47764   -70.667685    2970.0014    10890.368 
    1300    407.20248    4.4629756    91.451318   -78.154235    3361.9898    10890.368 
    1400    418.67233    5.7970196     115.8897   -42.511568    3793.9216    10890.368 
1500        0.98615235580869053944 10.122898345832835432 1 65 -253.70700775084492307
    1500    404.12294     12.59259    89.967394   -70.605724    4860.8561    10890.368 
    1600    452.15272    6.7911728    86.928556   -66.282755   -76.310102    10890.368 
    1700    439.08001    9.9130421    116.30249   -33.381919     649.7386    10890.368 
    1800    409.78713    4.9676374    94.600313   -61.608866   -5354.0616    10890.368 
    1900    393.44155    4.0155084    92.971416   -65.123808    543.50756    10890.368 
2000        0.98398278652289894453 10.115333293784246393 1 69 -216.81116679851353979
    2000    398.86648    6.1221626    113.10654   -36.091495    525.38284    10890.368 
    2100    420.96552    10.516516    87.882789   -49.701541     1181.498    10890.368 
    2200     343.9623    9.4874064    108.69264    -68.64398    5920.2775    10890.368 
    2300    461.29996    7.7917973    103.22862   -26.558071    1490.0506    10890.368 
    2400    428.13481    6.2157921    105.56466   -25.688585   -2514.8579    10890.368 
2500        0.9785420352039218006 10.150559346974477037 1 71 -243.72005594024963671
    2500    406.75972    4.1605595    96.479316   -59.424091    2705.4718    10890.368 
    2600     377.5369     10.81562    93.930151   -71.779807    -2199.776    10890.368 
    2700    477.36973    7.5704474    95.150815   -19.052959   -684.67365    10890.368 
    2800    427.49191    8.0304722    99.930928   -40.352225    4708.3611    10890.368 
    2900    382.14045    10.071952    95.906458   -61.339598   -1828.8931    10890.368 
3000        0.97598592269322126391 10.162793432228998114 1 71 -263.66987054289870684
    3000    368.60879    10.301188    84.959651   -96.659446    354.16045    10890.368 
    3100    409.83829    3.3483413    90.021719   -58.613456    4497.2973    10890.368 
    3200    433.71255    7.8744463    88.506332   -37.899111    5698.8903    10890.368 
    3300    387.74693    4.7637413    100.02308   -50.603037    3980.4541    10890.368 
    3400    406.08243    5.9795754    85.872236   -65.657126     3042.432    10890.368 
3500        0.9441546774285229926 10.257008731570344651 0.99735449735449732689 65 -225.65377937288920407
    3500    431.93498    4.3115688    85.423113   -29.951329     30.74502    10890.368 
    3600    352.11337    10.414872    104.48095   -47.349815    449.33092    10890.368 
    3700    409.76422    4.0179469    83.579765     -71.7745    -649.3285    10890.368 
    3800    382.63803    5.3587341    98.826395   -34.575246    1129.7757    10890.368 
    3900    402.33767    9.0069049    90.274037   -34.283736   -1706.4952    10890.368 
4000        0.97544184459657856667 10.145141459034020315 1 71 -245.27900889584049082
    4000    402.53596    10.900453    80.956482   -62.896758   -1355.0123    10890.368 
    4100    418.38433    7.0135302    87.831958   -52.445738   -995.96759    10890.368 
    4200    393.43317      11.5739    98.785745   -30.012221     1466.461    10890.368 
    4300    412.96145    7.4247511    94.957585   -34.373736   -258.44564    10890.368 
    4400    398.16819    7.5187075    91.647174   -37.538143    2554.2234    10890.368 
4500        0.98020333265383607912 10.150064573195363593 1 69 -193.80389301816262559
    4500     414.0412    7.8939147    108.79473   -6.2088092   -686.61094    10890.368 
    4600    386.62536    11.053992    91.983348   -34.847705   -2296.4227    10890.368 
    4700    437.18815    11.895469    77.473576   -43.483242     4592.966    10890.368 
    4800    436.45053    5.2954647    86.403683   -26.648077   -985.76244    10890.368 
    4900    465.81286    6.1493982    96.384462   -4.0397757    1461.9306    10890.368 
5000        0.98298221761218051995 10.129469933766307221 0.99470899470899465378 70 -237.27745281146849265
    5000    417.24592    3.4730844    91.801372   -48.230368    1620.5203    10890.368 
    5100    419.23256    7.3984844    76.066413   -35.772981   -1212.9874    10890.368 
    5200    448.31659    13.352032    81.234295   -23.634438    683.74988    10890.368 
    5300    414.45304    5.5372995    90.903468    -26.54093    857.02042    10890.368 
    5400    397.29966    5.4565609    82.357253   -64.880096   -1177.7603    10890.368 
5500        0.95549422418281315661 10.236518155877270431 0.99735449735449732689 67 -226.73298088164395381
    5500    426.95721    13.987911    78.849965   -33.285873    2844.1394    10890.368 
    5600    420.66561    6.5515032    79.782678   -21.421008    2454.1258    10890.368 
    5700    397.73588    7.9890155    84.730359   -48.403715     1300.541    10890.368 
    5800    384.50596    10.031662    73.047158   -64.273471   -522.71811    10890.368 
    5900    406.33559    8.4089278    82.694563   -32.008087    4713.7592    10890.368 
6000        0.96703753871231856731 10.173373091307027494 1 67 -239.96511462772815548
    6000    480.37114     8.300246    77.332056   -22.317054   -1014.7281    10890.368 
    6100    392.38599    6.7618645    81.545079   -53.107722   -879.87404    10890.368 
    6200    418.31947    7.1656805    91.079253     -26.2351   -1440.2399    10890.368 
    6300    412.72997    7.6403892    92.654769   -25.745067     3343.027    10890.368 
    6400    419.97347    4.6933646    87.518386   -28.821054    1526.8322    10890.368 
6500        0.97457865987550307274 10.161059463343423914 0.99470899470899465378 71 -232.50133006492615095
    6500    427.10889    8.5617312    95.989457   -38.985498    2950.6626    10890.368 
    6600    385.15577    5.6259066    83.440349   -57.983125    3290.1116    10890.368 
    6700    427.96183    5.2597015    80.828044   -30.886526    2784.6896    10890.368 
    6800    429.37017    6.3805974    93.088951   -3.9192615    -3659.302    10890.368 
    6900    413.66936     8.085761    92.033618   -16.643824    97.471457    10890.368 
7000        0.97491273648998477697 10.179750384253503981 1 63 -231.45056886501907911
    7000    394.27722    7.9348215    87.626262   -52.810211   -647.05272    10890.368 
    7100    416.13878    6.7685824    87.104804   -31.809732   -2194.2678    10890.368 
    7200    421.03661    8.5171289    91.080919   -39.001842   -295.77756    10890.368 
    7300    388.72105    11.824583     100.8353   -41.614985    1019.9328    10890.368 
    7400    394.08991    10.223446    98.228601   -29.037213   -2774.7397    10890.368 
7500        0.98822111903817777545 10.096750137135927616 1 69 -199.64243994735556953
    7500    468.41492    7.6627605    97.480137    12.588457   -2618.6097    10890.368 
    7600    431.46127    3.5085396    81.922899   -29.999268   -725.66136    10890.368 
    7700    433.12892    6.9743141    88.569876   -29.796342   -289.25177    10890.368 
    7800    439.03039    6.7259439    95.367614   -4.1019806    893.66157    10890.368 
    7900    416.69538     4.583063    79.355419   -22.147639    3625.6836    10890.368 
8000        0.96208604803532182803 10.188229358932472834 0.99735449735449732689 70 -197.61145417371096755
    8000    421.49896    4.5206542    97.681032   -6.6373852    1446.7577    12405.854 
    8100    459.65134    5.0982078    80.055062    2.0792808   -2315.2496    12405.854 
    8200    408.20149    8.6105705    92.077894   -16.215989   -3192.8258    12405.854 
    8300    339.03948    10.246295    95.316462   -51.757866    1389.2743    12405.854 
    8400    450.60641    4.9407682    79.609903   -10.560678   -1262.3692    12405.854 
8500        0.94712787709933587976 10.234842679097553741 0.99206349206349198067 68 -219.89033113233355721
    8500    439.41611    6.1903238    87.406558   -20.798306   -884.22539    12405.854 
    8600    398.97562    4.8738198    83.609416   -44.386267    2079.3744    12405.854 
    8700    416.64278    7.9224422    108.54552   0.22952162   -768.00414    12405.854 
    8800    421.32788    6.5925117    82.807082    -28.84587   -1189.5431    12405.854 
    8900    439.38065    5.9113759    82.715885   -37.313272   -885.62178    12405.854 
9000        0.95437197282255825659 10.217908987930877984 0.99470899470899465378 68 -214.17870957533637011
    9000    369.99327    3.9881696    91.860532   -46.541001    700.92519    12405.854 
    9100    453.74483    4.3340051    84.965992   -9.2424902   -1591.3458    12405.854 
    9200    385.12332    6.5370949    87.867255   -35.568953    1230.8249    12405.854 
    9300    374.69243    6.9428982    76.451194    -74.02918   -5118.7005    12405.854 
    9400    435.52522    8.7744212    66.249533   -36.474907   -1271.5301    12405.854 
9500        0.97183194918152149278 10.094937601996232246 0.99206349206349198067 65 -204.86820007050707204
    9500    431.86709    7.9719612    83.186881   -9.1965064    3361.9184    12405.854 
    9600    460.41811    10.488895    94.142528    18.179585   -501.50781    12405.854 
    9700    376.39398    4.7769106    100.29311   -27.675841     2426.308    12405.854 
    9800    406.97422    4.6659837    97.048641   -2.9665418    361.40512    12405.854 
    9900    381.98801    5.6178321    107.23828     7.318853   -1743.0621    12405.854 
10000        0.96204210116782429285 10.156124644027411108 0.99470899470899465378 65 -199.12075187453785929
   10000     415.8739    3.6182654    89.095712   -10.695305    1440.4525    12405.854 
   10100    423.00457    5.1532513    86.036638   -24.327128    2692.6593    12405.854 
   10200    405.51122    9.7475286    84.428092   -55.288766    -2559.818    12405.854 
   10300    429.48451      4.94742    75.219881   -16.761086   -2953.1533    12405.854 
   10400    461.49075    11.218591     73.79951   -13.142093    4813.1579    12405.854 
10500        0.97527726782684442952 10.17153454720200223 1 72 -227.27228342574557018
   10500    423.99755     8.832192    74.317914   -35.166148   -1446.1725    12405.854 
   10600    386.58654     5.700264    78.278801   -51.266462    41.208325    12405.854 
   10700     391.0644    11.768299     87.34358    -4.925883   -536.48041    12405.854 
   10800    439.07799    4.5621686    76.091632   -21.436055     546.5198    12405.854 
   10900    424.60123    8.0259957    73.996823   -26.558999   -1532.1867    12405.854 
11000        0.93709061901551293783 10.257167933179411889 0.98941798941798930755 64 -209.52932620167021582
   11000    428.91488    7.6096621    78.837177    -15.19523   -1971.7296    12405.854 
   11100    450.09621    9.1948125    90.474715   -6.1444494     -674.234    12405.854 
   11200    395.92798    14.328949    66.017044   -46.138673    2550.7941    12405.854 
   11300    416.56651    2.9567458    84.219617   -27.626546    1861.9999    12405.854 
   11400    468.91737    7.8806136    87.582325    20.209899   -341.86201    12405.854 
11500        0.95678160804087986069 10.21975126319503957 0.99735449735449732689 67 -218.6062731024309187
   11500    444.16357    8.7217813    74.933865   -17.363254   -832.72977    12405.854 
   11600    385.23957    7.3883399    88.809499   -35.148188     717.9854    12405.854 
   11700    461.15311    11.279201    96.250724    19.544539    575.59211    12405.854 
   11800    420.91215    5.1667275    91.526749   -29.095118   -433.43063    12405.854 
   11900    407.46921    8.8909009    85.054429   -25.442203   -1380.7877    12405.854 
12000        0.96630377516420484785 10.181880268843702453 1 68 -200.59199876085969549
   12000    438.52488     6.565394    96.059634   -1.9037742    910.93088    12405.854 
   12100    377.59307    6.2762936    86.390923   -28.537451   -842.61208    12405.854 
   12200     368.7863    8.2819489    104.10054    6.4449145    1440.3004    12405.854 
   12300    418.62798    2.0877813    84.503615   -4.6354238   -1822.5888    12405.854 
   12400    418.72558    3.2987676    96.894416   -4.8263797    563.56353    12405.854 
12500        0.977569313272194651 10.079143348551756532 1 66 -199.36639069706046712
   12500     381.1385    7.2455373    79.133734   -26.678968   -2143.7017    12405.854 
   12600    435.07816    10.380627    88.335422   -5.9820673   -2986.1387    12405.854 
   12700    398.18051    2.5586733    89.164143   -16.344649    2975.6228    12405.854 
   12800    407.48579    9.1866525    99.326463    21.430055   -1627.6771    12405.854 
   12900    379.93047    7.5163273    90.788923   -2.1757022    3114.5415    12405.854 
13000        0.92845968950326607239 10.303763890216293575 0.98148148148148139924 65 -191.64519676332724885
   13000    425.54313    2.6695704    85.368332    1.1612173   -3529.6665    12405.854 
   13100    441.15638    4.1337379     115.4643    52.264995    1422.4484    12405.854 
   13200    450.67211    3.5549792    92.778914      17.4101   -1626.3004    12405.854 
   13300     419.0365    7.9820889    88.098653   -1.4391209     -2942.83    12405.854 
   13400    391.11331    9.2535657     82.07326   -12.490489   -1181.4659    12405.854 
13500        0.90218082900472329477 10.322511066675753355 0.9550264550264550012 62 -221.61727775865125523
   13500    412.24213    6.1402299     76.70451   -34.837326   -913.06946    12405.854 
   13600    389.86793    3.7645466    91.344726    2.0051992    2513.7323    12405.854 
   13700    439.91886    10.999812    97.647981    27.440155   -683.42521    12405.854 
   13800    446.96794    4.6899033    73.419931   -9.1622882   -694.57508    12405.854 
   13900     399.1429    5.6836756    103.60649     11.80103   -2110.7966    12405.854 
14000        0.8906143417817613539 10.390050237931580668 0.97883597883597883715 62 -173.08113161872358887
   14000    468.34884    5.3391477    87.346784    39.119826    3228.5425    12405.854 
   14100    417.35895    5.2286364    86.898177   -10.046688    1195.1236    12405.854 
   14200    442.68611    8.9107683    89.760596     1.225516    226.80331    12405.854 
   14300    417.64513    5.2823584     83.26679   -6.6946695    225.58645    12405.854 
   14400    358.95595    7.3081041    81.695958   -39.661231   -662.80376    12405.854 
14500        0.90358237291263654445 10.371337980619896868 0.98412698412698407235 67 -211.83556239162953716
   14500    438.32533    7.1021186     79.59141   -13.237753   -3569.7284    12405.854 
   14600    457.31966    3.5485791    84.075996    12.539111    353.14315    12405.854 
   14700    430.50509     5.238261    91.449421    12.635314   -77.742163    12405.854 
   14800    378.88345    2.2258119    94.398315   -21.592942    2868.3734    12405.854 
   14900    434.19499    5.8152661    80.041934   -2.2496732   -899.21441    12405.854 
15000        0.92673504345345392164 10.303472638139719919 0.98941798941798930755 66 -194.8720848838886468
   15000    480.21925    10.782755    88.123109    22.707154    1760.6424    12405.854 
   15100    402.26762    8.7835755    84.329349   -20.719079   -1334.4739    12405.854 
   15200    453.26068    8.1769556    95.483706    14.731057   -1324.6303    12405.854 
   15300    466.61458    12.872675    97.617039    11.896166    655.08541    12405.854 
   15400    393.97205    5.4116525    85.784339   -29.324832   -34.632432    12405.854 
15500        0.97430302226298137747 10.068801014731551646 0.98148148148148139924 66 -209.01292595121478257
   15500    451.10436     10.80611    87.106642   -4.6251523    873.82903    12405.854 
   15600    404.06584    7.7876436    84.532633   -2.3838617   -931.02923    12405.854 
   15700    432.15529    13.307838     75.46158   -7.7042048    133.40087    12405.854 
   15800    390.90783     7.789257    74.216629   -8.8824717    2551.2205    12405.854 
   15900    479.69957    8.8051177    81.653851    30.942256   -384.93432    12645.314 
16000        0.96807030082910439095 10.107585350701398852 1 63 -208.19188681868126878
   16000     439.3291    6.2023909    81.115835   -9.1392847   -1284.3257    12645.314 
   16100    401.08882    12.201132    83.313215   -20.477502    1025.0005    12645.314 
   16200    435.70676    6.3667663    91.931861    13.365006   -2925.2318    12645.314 
   16300    422.62855    5.9675646    87.833045   -7.6364219   -882.62048    12645.314 
   16400    426.25794    9.3776153    80.245173   -9.6145265    1794.9818    12645.314 
16500        0.9550898147226987156 10.191994994163772859 0.98412698412698407235 60 -182.85745099964393034
   16500    424.19297    8.2537166    85.713439    9.3372247    1174.2615    12645.314 
   16600    383.72698    8.3047527    79.964044    -23.01332    2313.9102    12645.314 
   16700    463.93909    7.0109072    71.388267    -9.368227    2063.5854    12645.314 
   16800    424.01866    3.4393677    89.138816    6.0969023    2434.6527    12645.314 
   16900    450.38522    9.7348049     90.29165     2.740723     1103.942    12645.314 
17000        0.95856805954109935985 10.194465073130507093 0.99735449735449732689 71 -202.66841340726523413
   17000    371.79755    7.7244743    80.796848   -34.213217    491.54754    12645.314 
   17100    474.04308    3.3824416    79.372597    13.514835    105.90558    12645.314 
   17200    420.39202    4.1335562    96.505948    17.226169   -100.20093    12645.314 
   17300    433.35769    4.7851174    88.108162    19.118319     2183.141    12645.314 
   17400    380.41295    3.4639394    88.759272   -1.2830209    1028.9172    13592.768 
17500        0.89975083781236409042 10.326748201480230094 0.9550264550264550012 65 -199.45845508930756296
   17500    491.06701    6.3666843    80.258994    23.035723     284.1873    13592.768 
   17600    463.34742    2.6286211    80.383191    9.1494041    -1792.541    13592.768 
   17700    455.37296    7.7503326    95.954327    16.338952    881.55665    13592.768 
   17800    405.30741    2.0113551    86.216319   -7.9853439   -1280.1163    13592.768 
   17900    424.66921    1.4065651    77.877777    8.9567481   -298.51218    13592.768 
18000        0.87283132458691281563 10.421622826230933612 0.95238095238095232808 63 -178.583612844500351
   18000    465.95256    6.6376541    94.128027    32.531629   -604.71223    13592.768 
   18100    424.49623    8.6825728    92.554926    9.7861439    738.45899    13592.768 
   18200    471.63534    4.3436419     102.1461    52.280877   -762.39396    13592.768 
   18300    418.70029    4.5202036    94.625328    13.517434    1368.2437    13592.768 
   18400    430.08026    5.0638058     94.67548   -8.8740348     2655.697    13592.768 
18500        0.92571425220403025236 10.290256716038953755 0.98148148148148139924 62 -193.93274551525615834
   18500    449.80076    4.7221128    83.056763    9.8643914   -1845.7656    13592.768 
   18600    442.62668    5.3877002    95.401107    20.284144   -1168.3568    13592.768 
   18700    402.05971    4.4628191    84.234747   -19.048157     1264.952    13592.768 
   18800    438.40316    12.169053    90.363983     15.90251    4262.0609    13592.768 
   18900    461.58052     8.089412    90.678873    16.977642    1120.5082    13592.768 
19000        0.96437402092169088874 10.151536597792050642 0.99206349206349198067 59 -214.95142466074818799
   19000    433.10557    8.9306274    75.944712   -18.718596    743.81291    13592.768 
   19100    430.62628    1.9842864    93.813577    26.475454    313.46307    13592.768 
   19200    460.99107    3.7841642    85.891664     26.75121     456.0305    13328.914 
   19300    447.33568    8.4703028    76.607702   -0.8623345   -583.35619    13328.914 
   19400    405.16343    7.3443163    83.230901   -5.7662962   -666.85865    13328.914 
19500        0.96086473488112811303 10.184122589904776035 0.99470899470899465378 67 -177.75775063179617064
   19500      468.903     12.16487    87.570785    34.694285    1227.1795    13328.914 
   19600      392.336    13.426356    102.13405    16.318851    1469.7419    13328.914 
   19700    429.87383    6.0377442     75.26171   -12.967228    1877.2703    13328.914 
   19800    424.61598    4.4967945     100.3955    23.106591     532.6008    13328.914 
   19900     462.8722    6.1561332    79.254758    16.056485      1649.81    13328.914 
20000        0.94721191577016716767 10.158674618510517007 0.98677248677248674547 59 -191.56418851352509591
   20000    382.56964    9.2058219    78.177624   -18.228341   -1019.1782    13328.914 
   20100    446.01396    4.4807305    82.659286     12.34472   -2407.8345    13328.914 
   20200    425.12163    2.9629926    87.796613    25.319636    1759.8764    13328.914 
   20300    396.38638    5.7142129    81.215412   -6.9282853    1144.0485    13328.914 
   20400    424.33522     8.655136    83.281417    15.828653    513.69346    13657.468 
20500        0.9088900624033832143 10.191716305023469147 0.94708994708994698186 67 -140.34078976535982974
   20500    421.94636    5.1718447     106.9674    50.835985    2303.3555    13657.468 
   20600    422.25227    6.9141092    82.583588    24.184492   -513.24391    13657.468 
   20700    413.28487    10.220414    82.083718    7.6151363   -2191.5891    13657.468 
   20800    457.81306    4.0574451    92.271747    42.885273   -1944.8693    13657.468 
   20900    409.85335    7.5653578    91.276475    33.858687    807.55636    13657.468 
21000        0.90352066909300043918 10.27805007550258054 0.9550264550264550012 66 -155.18178220566576897
   21000    460.04048    2.8399326    93.489556    53.254798   -2911.6656    13657.468 
   21100    445.64326    5.7368445     101.7546     70.22854   -3047.3852    13657.468 
   21200    432.46743    2.5041264    86.863886     29.98979    2124.3995    13657.468 
   21300    460.27418    2.1011209    84.134743    57.323146   -683.24359    13657.468 
   21400    477.18441    4.4354944    96.340058    64.674483    1909.8826    13657.468 
21500        0.86760624272191944062 10.412779922031473845 0.96560846560846558262 66 -176.568200659240091
   21500    435.00692    3.0490419    78.750361    20.526094    1967.7176    13657.468 
   21600    438.96596    1.9980229     86.16886    38.520675   -1539.9176    13657.468 
   21700    459.50152    5.4311403    90.389299    55.100798    751.09108    13657.468 
   21800    396.99524    3.3425029    76.234278    22.756508     873.2796    13657.468 
   21900    496.04572    7.0393688    82.911844    44.266487    4510.4845    14388.826 
22000        0.92313163009090426492 10.260004011937841284 0.96825396825396814471 64 -155.9890104119988905
   22000    427.81577    7.1504161     88.25316    37.847097   -2292.6823    14388.826 
   22100    393.84709    8.3155535    82.668954    16.625051    529.47496    14388.826 
   22200    480.33802    2.8508451    86.957596    53.411754    3668.2482    14388.826 
   22300    467.04948    2.7559376    90.400371    48.596184    1406.7483    14388.826 
   22400    462.73861    4.5568542    91.978215    64.873014    1472.4656    14388.826 
22500        0.90790198646132325155 10.252241137883524758 0.93650793650793651146 57 -150.34274870526323298
   22500    432.93009    7.9787716    79.271017    45.810571    1021.3463    14388.826 
   22600    431.63848    6.9081612    90.773613    53.128914   -193.15454    14388.826 
   22700      464.468     4.716424    91.313784    69.543559   -2740.4908    14010.199 
   22800    440.58861    8.7147781    83.409082    33.639485    2476.5611    14010.199 
   22900    429.46279    5.6331457    75.619351    25.952161   -1304.2327    14010.199 
23000        0.94506085975649223307 10.146687941397635413 0.98412698412698407235 59 -148.86656912978654077
   23000    475.04075    6.2749757    98.558712    66.366381   -1759.7379    14010.199 
   23100    403.59432    5.1252182    81.295237    35.810309    310.73161    14010.199 
   23200    446.82495    4.0955048     88.27282    49.268231    2039.2112    14010.199 
   23300    415.57369     6.947301    76.202068    29.216242   -487.95776    14010.199 
   23400    347.39416    7.6320915    75.784344    1.4749186   -1316.0002    14010.199 
23500        0.90009152580450435543 10.193859156434443847 0.94179894179894174666 64 -156.69807268927027621
   23500    463.64509    1.6361168    79.797447    53.371697    -1990.544    14010.199 
   23600    447.32795    4.1928437    88.678889    91.468464    1642.5201    14010.199 
   23700    479.93571     4.101772    90.528265    94.154489    1412.3383    14010.199 
   23800    428.27126    2.9709469    94.775282    63.285206   -931.91858    13461.541 
   23900    416.28523    2.7587296    90.931288    60.503253   -2975.7707    13461.541 
24000        0.8386158100958596151 10.302087618084259546 0.88359788359788349332 56 -147.60627394343833885
   24000    425.50435    3.2189849     80.59721    45.182569   -186.96239    13461.541 
   24100    508.45825    4.4986999    84.385022    75.960625    1541.7599    13461.541 
   24200    439.45778    5.2459209    103.57642    83.697514   -1309.9618    13461.541 
   24300    442.42642    4.2514845    89.323755    62.833421   -609.82272    13461.541 
   24400    486.81835     6.854075    98.468756    102.81889    130.09248    13461.541 
24500        0.80735312062560227186 10.40821855232103843 0.84391534391534384074 58 -115.70461260467449449
   24500    435.58534     1.123109    90.067086    81.651754   -1524.4278     13560.91 
   24600    424.47915    4.7715046    81.411241     28.76107    1241.6474     13560.91 
   24700    464.23187    1.2493407    82.322286    50.544886    489.97851     13560.91 
   24800    488.52259    6.9036201     86.70222    71.716665   -131.97841     13560.91 
   24900    460.86359    2.6718204    99.947544    82.455189   -1621.0202     13560.91 
25000        0.75987531816315201372 10.604231407227292294 0.79629629629629627985 55 -142.62185223879617979
   25000    416.48507    4.0973981    91.115632    46.080506    1499.3771     13560.91 
   25100    492.37785    2.5986792    103.04454    79.827551   -800.39139    15489.197 
   25200    499.80414    4.5830487     82.86999    61.396713    512.25904    15489.197 
   25300    433.59544    3.0447366    92.036105    42.354365   -918.44661    15489.197 
   25400    475.46455    2.2044202    99.599838    82.495556   -2439.2176    15489.197 
25500        0.71678892390617010566 10.708340484740695331 0.76719576719576720869 65 -132.88135088247250337
   25500    449.88649    5.7205083    93.105153    70.954627   -395.77954    15489.197 
   25600    451.80804    5.3530369    93.657177    66.859473    1406.4692    15489.197 
   25700    475.13195    4.0858879    81.028047    77.719081   -1013.3246    15489.197 
   25800    474.82927    8.0557968    74.548573    44.432264   -62.616851    15489.197 
   25900    438.99607    5.8491244    76.401019    45.570151   -1815.2193    15489.197 
26000        0.67072373260544693174 10.78855472317094133 0.71957671957671953678 55 -115.33885802853150437
   26000    441.02474    1.9595675    86.270695     84.48201   -377.24816    14471.748 
   26100    455.05189    1.8395135    104.32244    101.45087     963.4262    14471.748 
   26200    423.15022     1.395942    90.949463    60.843273   -569.33222    14471.748 
   26300    422.65695    4.2295881    95.207944     81.08911    381.63291    14471.748 
   26400    455.92764      3.50173    86.245416    94.830335   -1191.2884     13700.66 
26500        0.66767583767680471762 10.787679934877196786 0.71693121693121686366 55 -140.05648730635550692
   26500    460.74991    9.2586652    98.344309    68.701521   -65.598182     13700.66 
   26600    442.84987    1.9951291    88.076252    65.302892   -3720.4641     13700.66 
   26700    446.79942    3.5137542    93.515891    85.857156   -1020.0273     13700.66 
   26800    440.35717    5.1321121    90.121916    74.712443    461.08858     13700.66 
   26900    433.61609    2.3369194    73.433191    33.775493   -521.42122     13700.66 
27000        0.6343985473736382108 10.725253903850484605 0.7301587301587301182 62 -121.2187400441365952
   27000    437.86259    2.6550808     93.06836    77.169414    1214.4469     13700.66 
   27100    470.57504     7.565222    86.185023    85.553113    2434.9517     13700.66 
   27200    428.26296     3.110776     93.26286    65.529929    -485.9774    14332.643 
   27300    468.30973    3.6802784    93.682394    105.90534   -2492.9876    14332.643 
   27400    469.89557    3.4662248     97.50337    108.00139   -1659.0047    14332.643 
27500        0.63869620363141965669 10.984043524922498136 0.71164021164021162846 58 -144.52773293525632425
   27500    439.84494    3.6896931    83.437726    54.758587    1305.7469    16064.625 
   27600    471.25927    7.5267404    98.041366    94.451688    48.497135    16064.625 
   27700    436.52524    2.9323086    104.42511     88.13736    744.58544    16064.625 
   27800    393.81432    5.1285584    83.474625    45.664988    1268.6615    16064.625 
   27900    492.87777    7.6869524    78.872297    71.874023    52.023723    16064.625 
28000        0.6151654015996853575 11.089004282528648559 0.69576719576719570082 54 -119.80612937534989726
   28000      432.456     5.007489    95.947187     76.13239    1842.2304    16064.625 
   28100    491.77143    3.7414195    93.477925    85.467142   -1920.5951    14638.718 
   28200    401.12755    8.2699147    87.508112    51.592542    100.65021    14638.718 
   28300    434.00879    4.6204955    87.008685    70.356112   -512.89235    14638.718 
   28400    498.70671    3.4908588    99.219009    103.26911    536.68296    14638.718 
28500        0.64806192699643161426 11.091439689254121603 0.70105820105820104704 53 -128.7960717263345316
   28500    415.54319    2.2595945    99.509504    59.479535   -223.35268    14638.718 
   28600     471.3067    3.5805366     77.80129    69.205911   -593.02402    15636.559 
   28700    469.46973    1.7522542    86.817279    85.185486    1190.7893    15636.559 
   28800    476.66136    5.5488827    108.89981    123.44364    3380.1226    15636.559 
   28900    395.87096    5.1553121    92.765657    79.243589    413.44645    15636.559 
29000        0.63731740788446800128 10.879937989158221967 0.71428571428571419055 58 -121.89690122867298783
   29000    465.98748     3.956778    96.607863    89.234162   -1041.6097    15636.559 
   29100    436.59635    7.7241798    95.692112    72.171018    674.82835    15636.559 
   29200    491.04454    2.7101664    98.208636    80.985741   -551.89525    15636.559 
   29300    445.41005     8.531118     90.80326    59.415346    1047.2041    15916.294 
   29400    434.56492   0.59715248    77.453206    40.490034   -936.65782    15916.294 
29500        0.70265532777582750956 10.74343356516983583 0.79365079365079360674 66 -120.80758573932556033
   29500    470.88193    6.0868221    92.206693     92.54107    2334.7032    15916.294 
   29600    449.03651    6.2059726    93.918522    98.370909     1024.051    15916.294 
   29700    510.97287    3.8819554    81.353687    110.36766    556.68704    15916.294 
   29800    487.82756    3.3601993    86.441469    86.300065    109.64967    15916.294 
   29900    403.90124    4.9388028    95.854688     57.20241   -803.56317    15916.294 
30000        0.68817317129016897237 10.739325882399352707 0.76984126984126977078 62 -125.31677380409060163
   30000     489.3888    3.2398491    100.97322    96.417036   -137.58017    15916.294 
   30100    454.78347    8.6980424    94.618502    95.397583    126.25433    15916.294 
   30200    478.61751    2.0882636    90.763681    88.562744    1475.2443    15916.294 
   30300    431.62915    2.8743102    75.834535    39.572265     931.2316    15916.294 
   30400    440.65632     3.771937    80.533734    71.491299   -2227.0807    15916.294 
30500        0.70192701358801634637 10.728636352013559474 0.74338624338624337273 54 -122.88287738211937494
   30500    490.75129    4.4129076    95.603506    99.468253   -1056.3527    14579.193 
   30600    393.23682    1.9950214    88.182235    54.791139   -1069.1006    14579.193 
   30700    510.75544    9.0522731    88.639934    94.876154    295.19057    14579.193 
   30800    448.04709    1.2362752    97.500797     82.54776   -1099.6272    14579.193 
   30900    440.41298    7.8316102     85.37386    59.162559    1866.9044    14579.193 
31000        0.77299883155917015198 10.591184479709452759 0.82804232804232802412 61 -128.92877928239579433
   31000    447.69631    7.1212731    88.362748    73.914867    1205.9067    14579.193 
   31100     460.1174    1.5871687    88.592321    72.869815   -148.43107    14579.193 
   31200    463.43548    1.7928226    75.459987    57.697791   -1335.8138    14579.193 
   31300     386.6073    3.6089046     87.55184    33.550756   -1153.3854    14324.202 
   31400    448.46229    2.3264287    83.030357    31.390781    1327.7833    14324.202 
31500        0.87790672324432261764 10.398225760931058659 0.92857142857142849213 61 -159.30324754929179676
   31500    474.95938    5.6440855    90.868062    55.892836   -985.79774    14324.202 
   31600    484.89956    1.0619466     71.87207    43.599141   -1189.8317    14324.202 
   31700    521.60465    5.9022364    94.028818    96.605002    312.36273    14324.202 
   31800    460.94855    3.7852487    85.063159    46.908397    293.41593    14324.202 
   31900    444.25383    5.4040845    85.385426    45.328242     221.8642    14324.202 
32000        0.93101095089329455323 10.189815094612287183 0.97089947089947081782 67 -145.40027056348662882
   32000    529.72731    9.9124001    92.106177    94.610237    2457.7973    14324.202 
   32100     451.5502      6.38973    77.051562    47.862257   -198.02849    14324.202 
   32200     441.3346    15.882557    91.403175    47.456506    1453.7195    14324.202 
   32300     456.0059    5.1948721    87.816955    46.707999   -2337.8644    14324.202 
   32400    513.48337    6.1764098    80.385188    83.166046   -1442.4842    14324.202 
32500        0.93554166811558803207 10.019590596885196376 0.97354497354497349093 65 -168.49535755910056878
   32500    460.87501    9.6957403    64.505584    40.319334    396.01997    14324.202 
   32600    466.29013    5.7242289    82.737262    61.687146   -1626.7067    14324.202 
   32700    432.99443    6.9970718    100.82882    75.480269   -733.64504    14324.202 
   32800    487.22827    4.9188285    81.949585    100.85096   -2866.8981    14725.484 
   32900    474.86964    8.6100795    79.485017      68.1927    -1547.982    14725.484 
33000        0.93897945868860532848 10.059014544093926702 0.97354497354497349093 65 -148.73884601855223764
   33000    433.70835    5.7514664    98.100889    47.767089    1744.5885    14725.484 
   33100    490.35471    10.149593     89.47561    85.385796   -1363.8062    14725.484 
   33200     477.0501    5.3135983    90.630497    70.622622   -266.62754    14725.484 
   33300    462.35661    3.4164239    84.168518    43.744785   -839.56124    14725.484 
   33400    477.61217    4.9324608    78.301242     80.86206   -4282.8342    14725.484 
33500        0.89937728077306222652 10.277689582315920447 0.96560846560846558262 61 -134.90937640322721336
   33500    479.14485    6.9385668    82.977701    82.183069   -502.37999    14725.484 
   33600    444.63391    2.8336823    75.769304    44.615714    1605.4509    14725.484 
   33700    476.23281    7.4079701    88.874753    79.852204    -2959.063    14725.484 
   33800    485.44296    6.2141016    88.681518    93.548402    272.17449    14725.484 
   33900    461.00644    10.382141    83.277301    53.136895   -43.945857    15222.631 
34000        0.94015651497980023965 10.163123299937716126 0.99470899470899465378 68 -158.12026534095403463
   34000    476.88189    9.7185219    77.708813    57.946871    1267.1976    15222.631 
   34100    500.99699      9.22172    91.487169    80.416335    3665.2138    15222.631 
   34200      492.211    9.5376095    81.815254    66.024987    1113.5703    15222.631 
   34300    435.71735    7.6854426    95.062078    44.479023    423.75577    15222.631 
   34400    451.50857    16.456519    98.788832    65.443927   -302.56684    15222.631 
34500        0.92897298616229950774 10.250889275042407434 0.97883597883597883715 64 -145.1078798976958808
   34500    445.73136    10.302713    97.357963    56.845477    957.96031    15222.631 
   34600    491.83338    5.2407986    83.862238    40.531839   -1119.9225    15222.631 
   34700    488.34819    4.1223382    87.772177    39.863915    1944.9234    15222.631 
   34800    453.82548   0.98849575    113.09555    82.254683   -324.25855    15222.631 
   34900    463.97302    4.1039857     101.3079    78.693914   -2298.6421    15222.631 
35000        0.85856376214825580462 10.431568827358139728 0.92063492063492058382 63 -156.77552826702068955
   35000    464.07547   0.70351053    82.578509    53.489238   -754.69584    15222.631 
   35100    533.95329    5.8332484    106.67609    107.41344    3678.9261    14323.769 
   35200    498.52903    3.7241357    85.896223    77.746202    981.42735    14323.769 
   35300    444.00843    2.6919307    100.73012    55.150222   -763.07035    14323.769 
   35400    494.35739    4.2540035    104.61266    93.346134   -543.99692    14323.769 
35500        0.84902705140963885544 10.46875950906462549 0.88888888888888883955 61 -138.52392981471621169
   35500      470.653    1.9166064    99.646193    74.721003   -1844.4733    14323.769 
   35600    458.96047    3.8731867    99.733466     65.80233    2401.5438    14323.769 
   35700    520.35056    5.0190354    112.66904    118.21456   -51.919919    14323.769 
   35800    486.15096    2.6966819    94.055756    63.531796   -832.59046     16980.68 
   35900    460.02069    3.1290311    91.256776    41.756735    2158.6908     16980.68 
36000        0.91775136930698675286 10.288702559578595697 0.97883597883597883715 57 -156.10975430140081244
   36000    523.66612    3.2200048    95.007557    81.154529    876.85585     16980.68 
   36100    412.60064    4.9270522    87.586756    26.235955    182.71605     16980.68 
   36200    440.78676     9.586627     103.2111     62.29923   -228.96257     16980.68 
   36300    499.02508    4.9214813    96.771965    66.092816   -2532.2331     16980.68 
   36400    463.21157    8.4864404    90.499001    45.824826   -857.66108     16980.68 
36500        0.95356816235387464875 10.224584743460797043 1 68 -166.2715426705950108
   36500    470.77737    8.2527499     92.41138    47.029739   -770.29226     16980.68 
   36600    418.22834    10.362338    89.378671    9.5086442    266.73258     16980.68 
   36700    466.93368     12.36295    90.924526      47.0316   -2420.2795     16980.68 
   36800    523.86749    8.6266999    99.038003    72.346318      2009.09     16980.68 
   36900    435.96371     4.054213    93.815372    41.409645    195.44856    14324.193 
37000        0.96381776553005837904 10.121806234730119201 0.99470899470899465378 70 -138.46714765324168184
   37000      478.467     5.807904    110.19223    78.318178     4225.696    14324.193 
   37100    498.81666    6.4649969    100.56753    85.012448    366.31125    14324.193 
   37200    464.62078    11.043744    82.296861    37.617771    1917.9061    14324.193 
   37300    544.56067    5.7337251    87.882087    74.882811   -1176.3878    14324.193 
   37400     483.2659    8.5154778    95.742847    74.360317    -1588.592    14324.193 
37500        0.93758591168223781587 10.084023070733350025 0.97089947089947081782 63 -127.05090687997362409
   37500    457.44735    8.7918952    106.30914    80.210769    1516.5232    14324.193 
   37600    489.65707    7.3095555    121.23796    110.74134    240.98093    14324.193 
   37700    483.84337    4.2909579    96.401618    75.161406    -702.3714    14324.193 
   37800    490.00325     4.264658    103.34448    79.151868   -311.61349    14324.193 
   37900    460.41707    2.2193055    96.365064    72.195661    -845.4032    14324.193 
38000        0.93475949395848834111 10.166746784229395928 0.98412698412698407235 63 -106.86647993700367465
   38000    470.36938     8.637066    108.13019    106.24995    33.586898    14324.193 
   38100    530.64864    4.6974246    93.342212    84.521101    1986.2275    14324.193 
   38200    412.61148    6.6813152    113.33948    69.914568    898.64984    14324.193 
   38300    483.51221    8.1372083    100.35118    63.767738    4281.5198    14324.193 
   38400    448.84861    5.2559646    94.338052    44.090067    891.81276    14324.193 
38500        0.90953280027101812699 10.32077304204538315 0.98148148148148139924 59 -123.9364690623606009
   38500    435.32508    12.706424    110.23798    73.301981     1976.043    14324.193 
   38600    441.54533    1.7960112       103.57    57.596794   -2957.1561    14324.193 
   38700    467.10915    5.4082414    96.507071    56.876202   -798.31294    14324.193 
   38800    480.77265    7.3776889    102.19375    79.150054    29.062925    14324.193 
   38900      559.369    6.0892228    112.17267    119.72648    2182.5003    14324.193 
39000        0.86327853086852279763 10.410936824533880696 0.93915343915343907355 65 -122.20113803300581878
   39000    425.92303    5.6552525    106.04926    70.777399   -369.32077    14324.193 
   39100    487.45762    6.1799886    115.45816    97.199971    1542.0901    14324.193 
   39200     429.6145    5.0700291    95.536401    45.728422    1478.2956    14324.193 
   39300    478.51931    4.0036505    88.919692    52.880317    786.11226    14324.193 
   39400    464.66653    3.4899215    115.51529    83.698886   -287.15806    14324.193 
39500        0.80248586692909684714 10.583078664118687584 0.88624338624338616643 61 -128.32489536350649928
   39500    489.94745    5.5821523    110.34621    93.662026    233.46579    17029.138 
   39600    496.66523    2.2731015    90.923652      32.4607    1996.7639    17029.138 
   39700    491.12893    5.1103314    93.481306    57.522233    2341.9838    17029.138 
   39800    507.30906    5.3553402    103.97519    73.167406    2193.6939    17029.138 
   39900    467.55474    3.0464523    94.762916       48.156    126.24047    17029.138 
40000        0.81722630017957409443 10.534033165452038716 0.85449735449735442216 64 -139.43072695606153388
   40000    528.16248    7.5516282    94.366821    99.870782   -3594.7589    15961.813 
   40100     475.9531    3.8285814    98.275041     62.18861    2093.0749    15961.813 
   40200    456.27132    6.3014356    104.29095    66.172493    905.59495    15961.813 
   40300    504.18103    6.0280177    86.135045    72.304059    1333.4429    15961.813 
   40400    451.76966    3.2845088    115.04207    78.615587   -1315.6478    15961.813 
40500        0.88062577415218012966 10.342755994164308575 0.94179894179894174666 63 -125.64483407999196629
   40500    507.10111    6.4215451    106.03306    104.11412   -364.13145    15961.813 
   40600     442.7818    4.5728463    92.419092    55.994347   -2872.6354    15961.813 
   40700    457.32813    5.2980054    125.33282    86.949976   -619.51248    15961.813 
   40800    488.16851    2.1157358    103.34131    61.428297   -1987.8776    15961.813 
   40900    461.73682    4.4969735    94.454585    57.441991   -286.84585    15961.813 
41000        0.8852927768131143571 10.333920217922798912 0.94444444444444441977 63 -129.89209160979334001
   41000    497.50216    3.1661029    116.37304    95.517741   -3532.5508    15961.813 
   41100    418.28005      4.91284    105.37201    55.601593   -800.91996    15961.813 
   41200    522.49438    5.4231845    107.34213    105.62367   -701.12375    15961.813 
   41300    474.65788    2.8274934    95.734414    88.270204   -1749.7728    15961.813 
   41400    448.77596    2.3110502    96.670078    80.224772   -422.94383    15961.813 
41500        0.88454258688652631637 10.305940821495532589 0.93121693121693116524 57 -111.49882994182007678
   41500    525.83744    7.7385329    101.19259    126.74924    360.80525    15961.813 
   41600    461.90153    8.3144743    107.70686    85.225463    779.59197    15961.813 
   41700    467.28291    6.8099126    100.44082    81.836794    1563.3798    15961.813 
   41800    466.38415    5.8232285    109.11427    108.44499    531.85673    15961.813 
   41900    511.86703    7.7816912    96.643224    126.01152   -1781.8729    15961.813 
42000        0.91400760162460337188 10.223398064733558499 0.96560846560846558262 62 -130.63232696643794384
   42000    483.29403    10.008025    87.350232    88.340043   -1175.0947    15961.813 
   42100    417.63569    7.8754111    82.814075    59.988186    -592.0807    15372.551 
   42200    472.97583    6.4681125    100.98525     84.88743   -143.74085    15372.551 
   42300    460.97233    11.215686     87.34543    85.090377   -823.43078    15372.551 
   42400    430.58383    4.1707195    110.09574    103.25709    567.24146    15692.402 
42500        0.91635842750246621069 10.265659459845506873 0.98412698412698407235 60 -121.70457204900381498
   42500    512.84573    11.294455    95.937365    110.65718    837.40584    15692.402 
   42600    479.05073    3.6328004    90.889722    90.424385    1033.6413    15692.402 
   42700    486.26692    6.5206061    90.765914    91.562888   -3570.7363    15692.402 
   42800    543.21885    5.7744861    102.36035    116.62495    1514.2672    15692.402 
   42900    484.17672    6.4926779    87.733166    70.766227    425.82349    15692.402 
43000        0.95555452276323915584 10.135267778058963728 0.99470899470899465378 61 -126.89051937906148737
   43000     432.4124    8.6012531    96.978699    69.028245    2038.8589    15692.402 
   43100    544.04381    3.4872474    103.11084     123.5658   -623.07741    15692.402 
   43200    507.23759    6.5001529    99.443576    91.917809    897.02815    15491.889 
   43300     461.3688    9.4567482    98.125646    67.540781   -1517.1088    15491.889 
   43400    522.55287    7.1754789    95.316324    106.23901    -1666.933    15491.889 
43500        0.86816476275028953147 10.345333978875514092 0.92592592592592581902 61 -140.10063571111311376
   43500    517.23635    8.1182419    104.55538    94.250429    1366.7708    16542.604 
   43600    470.05833    3.2736612    97.934083    73.542296   -132.14822    16542.604 
   43700    504.35705    6.2882968    108.02223    112.14085   -468.45983    16542.604 
   43800    490.35695    3.8560606    117.22096    109.68255    1857.9375    16542.604 
   43900    512.79904    4.7867281    102.82385    85.081966    1717.5882    16542.604 
44000        0.85253494762536452534 10.416778792434996603 0.94973544973544965497 58 -153.64932239002092729
   44000    468.78077    5.3705197    94.926308    58.747333     1023.219    16542.604 
   44100    444.12868     3.004799    119.81341    96.373578   -37.346272    16367.735 
   44200    539.62904    7.3138483     101.5418     108.7714   -1003.3585    16367.735 
   44300    459.58209    3.7189149    101.18785    78.050654   -2291.9755    16367.735 
   44400    490.09953    3.6691711    103.80335    84.422907   -743.61905    16367.735 
44500        0.81345191313144982193 10.593173467434169766 0.90476190476190465617 55 -104.41531759167502003
   44500     441.4221     3.488958    117.00991    95.585589   -890.80268    16367.735 
   44600    530.83699    3.0570487      101.108    112.21022    2267.8531    16016.777 
   44700    491.00967    2.6986487    94.303051    88.437467    -434.5643    16016.777 
   44800     528.2706    5.6813078    104.37648    123.58486    1119.1618    16016.777 
   44900    507.08749   0.82111422    103.48596    112.28506     2638.663    16016.777 
45000        0.81789803895172474846 10.581289957912138888 0.88359788359788349332 57 -102.42242030129675356
   45000    447.02566    6.2594839    104.86457    100.11736   -1783.6123    16016.777 
   45100    466.03184    6.3788352    100.26012    100.81059   -2484.0246    16986.454 
   45200    455.77854    6.1935168    91.219218    63.709584   -628.64625    16986.454 
   45300    525.28627    1.9538327    114.36175    105.32817   -3011.7016    16986.454 
   45400    420.81447    6.2275488    98.005486     60.65801   -1218.9507    16986.454 
45500        0.88447820266237597853 10.365789623783514983 0.96560846560846558262 59 -146.57356205740555311
   45500    521.73623    6.9865457    101.52156    89.816321    -623.8896    16986.454 
   45600    488.17918    6.2475332    93.416965    77.553267   -286.43797    16986.454 
   45700     458.1232    3.1876329    72.329085    40.269026    1258.0918    16079.955 
   45800    483.48492    5.6737069    87.684038    31.225675   -708.87442    16079.955 
   45900    528.07392    2.0226166    95.493707    81.422627    1132.1624    16079.955 
46000        0.91076520913720970807 10.346195808241450464 0.96825396825396814471 60 -161.83739140803467649
   46000    459.64852    1.7954985    98.917515    46.421598    624.01813    16079.955 
   46100     499.5759    10.276601    111.16318    80.589375    1589.0517    15936.257 
   46200    470.41578    6.0076531    100.25103    87.390621   -3492.4515    15936.257 
   46300    481.39161    4.6049181    116.21774    118.12728   -312.25839    15936.257 
   46400    518.92257    6.9583117    99.446103    102.70882    1751.5031    15936.257 
46500        0.86847344305640861162 10.206486253278947984 0.93121693121693116524 64 -134.4304002570421801
   46500    493.45206    5.6423077    94.918364    89.144402    260.29351    15936.257 
   46600    511.03747    3.5209482    99.945511    128.91485     61.58266    15936.257 
   46700     443.3318    4.8202231    98.287735    83.648071    2287.1309    15936.257 
   46800    454.20912    5.9107649    99.180342    104.21164    1361.3705    15936.257 
   46900    558.62491     5.707275    102.40552    142.61035   -565.08535    15936.257 
47000        0.80829638067921949496 10.136219224594663402 0.87566137566137558501 60 -96.828930301482884602
   47000    444.98195    3.4198472    107.48034    104.78488    1542.6849    15936.257 
   47100    479.44442    4.5378237    100.90955    121.80193   -365.47081    15936.257 
   47200    511.46214    1.2210082    89.421878    127.27702   -2441.0867    15516.544 
   47300    488.41759     7.529008    102.24826    110.65694    640.41674    15516.544 
   47400    509.40952    7.1585844    110.86367    131.36976   -1574.3045    15516.544 
47500        0.79465079051022446954 10.056615798106697923 0.88624338624338616643 60 -95.681962437328408555
   47500    474.60001    11.453619    111.46762    119.35129   -263.17092    15516.544 
   47600    459.95741    5.8385864    97.012182      95.7492    2595.3605    15516.544 
   47700    539.88054    7.8532156    92.204665    122.15368    1996.7502    15516.544 
   47800    475.27269    2.9575083    107.36926    104.89077    941.94053    15516.544 
   47900    551.52501    3.7425331    96.120526     155.4585    2058.1697    15516.544 
48000        0.80965151896918441388 10.119140722202711657 0.89153439153439151266 58 -77.913977566321719337
   48000    497.03904   0.67726507    103.88475    147.28602   -273.75745    15516.544 
   48100    524.71077    5.3696055    90.003892     130.4886   -1406.5565    15516.544 
   48200    514.73268    8.5949217    110.65301    151.99893   -370.74298    15516.544 
   48300    522.13385    3.0246297     78.52524     110.9488   -915.38646    15516.544 
   48400    525.15042    5.5047305    92.335001    114.80301   -883.03372    15516.544 
48500        0.81436048423118756467 10.038876116332559718 0.87566137566137558501 59 -88.029065438418456324
   48500    546.67227    10.346114    93.901561    159.65892    1275.9518    14075.385 
   48600    511.95918    4.0668217    91.720921    143.70789    984.66465    14075.385 
   48700    510.81819    3.7878086    85.855759    113.55641    901.43076    14075.385 
   48800    490.02775     4.808762    94.486444    107.95366     1077.979    14075.385 
   48900    451.33907    1.4500186    91.376517    108.63491    1676.1232    14075.385 
49000        0.81212797905757350136 10.411302562331210098 0.84920634920634918696 56 -77.324330600969545912
   49000    511.09778    3.5717293    100.17409    154.24545   -580.14449    14075.385 
   49100    452.25543    2.3435906      92.8016    117.35611    788.26128    14075.385 
   49200    499.91745    4.8680916    87.557871    122.81905   -754.19486    14075.385 
   49300     548.3374    5.0641895    94.197292     138.3212    253.94203    14075.385 
   49400    456.62181    2.4824829    94.098578    92.788623   -1056.3432    14075.385 
49500        0.83512020374433104664 10.373872244465156101 0.89417989417989418577 58 -119.33859424531748061
   49500    543.58066    6.9300626     86.55734    126.94863   -586.11858    15340.311 
   49600    525.23751     2.410235    94.517509    127.18357    -221.0624    15340.311 
   49700    595.28858    6.1060172    106.18175    178.34006    1737.8773    15340.311 
   49800      451.916    4.7678939    102.81135    132.59406   -3522.6975    15340.311 
   49900    500.71556    4.9825469    105.19352    140.50053    1101.2091    15340.311 
50000        0.7762736521811415269 10.447335947853463978 0.87301587301587302292 65 -120.92846590532310813
   50000    467.48208    4.3583436    83.339731    90.879778    1118.0995    15340.311 
   50100    521.10494    6.3480775     91.45147    126.79525    963.24899    15340.311 
   50200    507.18688    10.077208    87.051157    115.02783   -2209.4273    15340.311 
   50300    468.09593    8.5617076    80.441412    89.548846   -1381.8481    15340.311 
   50400       484.94    7.0187298    81.411538    107.50087    -1909.087    15340.311 
50500        0.66099089679406031195 10.920205063178505256 0.70634920634920628224 54 -76.553317312689685536
   50500    463.17691    5.5341173    92.483175    133.30432   -3125.1997    15340.311 
   50600    553.52757    3.2578795    82.640337     158.0561   -2214.9477     17941.11 
   50700    477.23988    4.0196989    118.16609     170.6116    87.284734     17941.11 
   50800     478.1423     4.778306    95.669666    129.58065    1471.8129     17941.11 
   50900    499.87046    5.0832616    106.50373    156.98142    174.74927     17941.11 
51000        0.5985472595859888667 11.301422389892305631 0.66137566137566139446 47 -73.93092486078030845
   51000    493.66727    4.1386092    89.424548    149.74139    396.47158     17941.11 
   51100     472.7839    3.7773289    116.59283    158.53395    1217.2691     17941.11 
   51200    531.27226    6.3476095    102.46978    188.13846   -1244.3385     17941.11 
   51300    490.00797    4.7331609    91.060909    131.96829   -57.776713    19414.019 
   51400    526.07177    7.3603443     85.88586    142.41985    931.29049    19414.019 
51500        0.58572901930506393597 11.353565370066442952 0.65873015873015872135 55 -71.641155764731465183
   51500    566.07888    1.3729661    93.901749    184.83964    1217.1929    19414.019 
   51600    502.93585    3.7336624     81.39517    138.79159    99.415546    19414.019 
   51700    503.54441    3.7515232    109.26378    169.90974   -1608.1057    20739.575 
   51800    525.30686    2.3578507    105.87488    186.76923   -484.37196    20739.575 
   51900     511.5774    3.4072345    76.136664    137.61494   -458.51189    20739.575 
52000        0.55393166951425443223 11.387091417522503534 0.66402116402116395655 50 -74.023130277851464598
   52000    510.32351    4.5823016    95.099055    157.19584   -102.39232    20739.575 
   52100    565.10201    7.6011103    108.08771    211.24618    359.40963    20739.575 
   52200    535.86431    3.8792586    107.06808    186.57728     1590.453    20739.575 
   52300    483.42309    1.6573759    88.776463    156.63728    2068.9195    20739.575 
   52400    544.26335   0.95368244    94.533725    204.12216   -393.31068    21185.315 
52500        0.52470561323680386945 11.587931542637289084 0.62169312169312163086 54 -34.306091337804787145
   52500     528.8969    2.6436014    103.94683    205.32817    -194.4628    21185.315 
   52600    525.18432    6.8381919    92.526856    185.47652    527.07894    21185.315 
   52700    442.94444    4.5174849    84.151461    134.63123    904.26466    21185.315 
   52800    496.96784    4.8534555    94.606232    182.35292     1019.217    21185.315 
   52900    532.56947    6.4297008     109.9655     220.3529    1296.1442    21185.315 
53000        0.53423638672091333657 11.614121233484237194 0.63227513227513221228 53 -57.143870664963941408
   53000    502.85238    3.1006391    91.418357    170.69006    2228.9167    21623.549 
   53100    494.69378    7.7922307    98.602799     190.8289   -1356.6121    21623.549 
   53200    509.34495    5.1230046    118.22753    217.54461    1259.1063    21623.549 
   53300    501.31147    2.1535822    105.81695     196.6704    570.54808    21623.549 
   53400      525.911    3.7204579    90.309331    189.56901   -1175.0644    21623.549 
53500        0.51722105871451551362 11.602535787706056425 0.57936507936507930516 53 -22.836367494406147216
   53500    571.68999    3.1494438    110.13013    236.18672   -196.30981    21282.572 
   53600    512.12302    3.7514395    91.220962    176.26622   -291.32757    21282.572 
   53700     484.2751    4.2503825     93.98436    166.85982    771.66807    21282.572 
   53800    524.20472    4.2241904     99.80687    202.51208   -93.449657    21282.572 
   53900    537.73011    7.4638428     93.52813    216.13927   -700.04059    21282.572 
54000        0.50960747379811455193 11.669307646616516649 0.53174603174603174427 46 -50.116833272251497533
   54000    483.29065    2.7142059    90.949185    168.85401    158.61509    21282.572 
   54100    503.52499    1.6979277    103.99147    210.71395    -939.7936    21282.572 
   54200    514.65655    3.3649239    110.44356     220.5048    243.41919    21282.572 
   54300    488.27886    2.1432584    89.933647    194.20475    1011.5138    21177.633 
   54400    533.80455    3.6319065     107.5377    231.70846    1635.2515    21177.633 
54500        0.49823491970932820561 11.831187868778675565 0.53439153439153441738 49 -11.081334065580421111
   54500    483.56167    8.3616845    109.95913     208.0123    1792.2575    21177.633 
   54600    521.21483     2.818568    94.794244    205.75422    844.89654    21177.633 
   54700    520.10367    3.5773692    94.434688    200.54723    351.84858    21177.633 
   54800    513.09333   0.84350202    93.267491    201.80042    139.61651    21177.633 
   54900    561.60576     3.426941    113.43721    242.89392    1223.3912    20660.874 
55000        0.46361275712420263462 11.916603701205662702 0.52116402116402116285 48 -16.840826527785665689
   55000    493.42399    2.3486876    104.14523    206.72126    2212.8203    20660.874 
   55100    467.25438    8.2581236    116.93641    224.54611    116.80157    20660.874 
   55200    506.89541    1.7480717    100.40353    225.85713    785.25765    20660.874 
   55300    460.51577    7.9891418    92.455287    195.65165   -391.94145    20660.874 
   55400    562.16998    3.2516366    109.26368    243.27125    539.01906    20660.874 
55500        0.45282615954645311085 11.837842425013411329 0.47354497354497349093 36 -27.592451053312203157
   55500     516.4429    5.6172527    90.279286    206.39911   -1459.5777    20660.874 
   55600    490.34859    1.7598996    97.380737    204.50361   -1432.9701    20660.874 
   55700    577.53825   0.85172151      97.3766    246.53081    72.426536    20660.874 
   55800    488.68634    3.5976096    92.897613    220.66944   -399.54941    18169.251 
   55900    550.08671    1.8105743    95.409404    249.74829    -593.3362    18169.251 
56000        0.43865437516148425567 11.587074189148347969 0.45238095238095232808 37 25.889398973001291893
   56000     461.3874    9.3205801    112.54936    234.93625   -176.68185    18169.251 
   56100    526.71831    1.6683325    96.713836    234.38663    163.93609    18169.251 
   56200    537.23406    3.8884666    107.12484    238.43322    2167.9455    18169.251 
   56300     522.3295   0.72078501    106.95403    207.98624     731.2019    18169.251 
   56400    448.08033    1.7121209    106.55397    172.16049    31.079576    17371.335 
56500        0.44260242490639728485 11.453687827305447655 0.48941798941798941858 45 -14.333343518040265963
   56500    540.97774    1.7720066    100.74606    230.77454     -302.699    17371.335 
   56600     454.3348    2.6190683    95.766776     197.1919   -692.55466    17371.335 
   56700    541.90554    5.0263458    109.97141    246.99298    828.81706    17371.335 
   56800    500.51694   0.97380638    104.32859    231.20471   -1541.9767    17371.335 
   56900    548.94361   0.94192033    103.61479    241.44785    1048.1172    17371.335 
57000        0.44140396367489836971 11.40604331192765919 0.5052910052910052352 44 0.97138692413150806715
   57000    508.02219    6.1969821    97.396681    231.14767    1316.0162    17371.335 
   57100    447.98061    2.1515802    109.49278    216.32587    1169.0185    18229.044 
   57200    539.17012    8.1032034     99.28133    256.12261    -65.98725    18229.044 
   57300    496.00828   0.84216565    91.941226    214.42224   -15.820508    18229.044 
   57400    468.04657    4.3300701    101.32303    212.84665   -519.11323    18229.044 
57500        0.40861223779175581683 11.638250591834916392 0.4550264550264550012 47 -6.0886845345372364591
   57500    534.66919    3.2594483    96.665985    236.16091    1879.6989    18229.044 
   57600    551.01668    4.8806424    119.83502    271.96729    577.29648    18229.044 
   57700    525.92819     3.988474    99.383697    235.45268   -682.93335    18229.044 
   57800    486.86714    2.5192774    107.12972     235.0554    655.08353    18881.807 
   57900    537.31601    4.2944941    108.10994    255.63754   -2265.7744    18881.807 
58000        0.4052691301748281294 11.807480499971315879 0.44179894179894174666 41 -6.1230662605719885505
   58000    475.87965    9.3118731    105.04108    209.48997    304.07888    18881.807 
   58100    525.27611    9.7528414    103.55472    254.76344   -13.057384    18881.807 
   58200    562.41544     2.970713    108.87581    275.55137   -130.96027    18881.807 
   58300    495.95903    6.5556698    103.82058    230.33269   -2115.4804    19005.638 
   58400    469.19637    2.8233986     109.7238    231.89758    822.18296    19005.638 
58500        0.39049223145491473996 11.803022628350925416 0.42592592592592593004 39 13.871938151871816558
   58500    535.17046    8.6516663    117.51832    256.34864     1152.856    19005.638 
   58600    485.50961    4.1211484    106.96723    231.56523   -1764.6028    19005.638 
   58700    507.71051    4.0577961    106.19784    264.67606   -971.82971    19005.638 
   58800    547.98647    5.6627253    112.44074    262.82602   -38.264606    19005.638 
   58900    488.13165    3.8449659    103.47428    228.70948    1124.8053    19005.638 
59000        0.39217920302414238654 11.612175630615778843 0.44179894179894174666 46 -9.4629456533149749475
   59000    511.93394    3.6598578    104.73347    222.48569    329.72879    19645.777 
   59100    571.60726    5.5242295    108.77959    261.29852     802.6347    19645.777 
   59200    506.01526    8.4536416    91.806214    233.91915   -272.05851    19645.777 
   59300    504.84686    2.5943307    112.20192    261.69483    1059.6397    19645.777 
   59400    543.49147    1.6386879    110.83922    255.81192    908.74069    19645.777 
59500        0.39060947238226928491 11.501913976790536509 0.48412698412698407235 47 12.063814751739570852
   59500    514.12426    4.4223678    87.972436    245.00484   -920.75872    19645.777 
   59600    509.98311    3.7649393    114.47367    258.77879    378.96345    19645.777 
   59700    612.17909    3.1844129    111.23611    313.63037    278.23689    19400.433 
   59800    485.91479    13.965767    108.35328    260.89951   -869.51406    19400.433 
   59900    494.97352    1.5712914    90.157845    259.70907   -489.87505    19400.433 
60000        0.34223868766599740976 11.513198502641801113 0.44179894179894174666 49 24.243806155729885177
   60000    504.40546   0.22934947    102.12952    252.78141    127.39989    19400.433 
   60100    534.21112    4.7573884    112.01434    265.21341     432.8034    19400.433 
   60200    521.98655    5.3197897    94.073085    244.76316    830.78695    19515.748 
   60300    458.84762    4.2192625    98.752929    224.78981   -287.28354    19515.748 
   60400     533.6474    3.2436873    104.58216      255.061    724.42307    19515.748 
60500        0.36213192445984843104 11.356045633350635882 0.44708994708994709288 45 -11.143321381558308758
   60500    563.48789    3.3413641    87.917869    244.16354    1382.0134    19515.748 
   60600     474.6633    3.8378428    77.690891    211.61281   -1184.9629    19515.748 
   60700    534.33522    5.2752951    101.78437    265.38444   -372.63174     19151.18 
   60800    493.93848   0.16075558    98.212527    228.35505   -145.28285     19151.18 
   60900    537.82243    3.3086946      92.9896     250.9695   -1621.2448     19151.18 
61000        0.36288824145656661813 11.243142485407444653 0.43650793650793651146 47 32.562574473680797382
   61000    526.63293    4.1092656    105.61709    271.17107     -785.165     19151.18 
   61100    491.37725   0.11872627     87.39867     235.3854   -467.85201    19956.656 
   61200    528.61455    2.3869709     119.0807    279.51706    1478.1265    19956.656 
   61300    509.33484    1.8260102    103.57452    260.83699   -730.14905    19956.656 
   61400     501.3345    2.9723546    96.043888    250.84298   -951.76792    19956.656 
61500        0.3592246747881201463 11.030242489229303615 0.44708994708994709288 41 45.437495352317768038
   61500    577.56526   0.51234395    119.77902    307.12257   -600.53102    19956.656 
   61600    561.19402    4.4984063    126.37041    304.42292     180.8083    17452.742 
   61700    543.93662    1.8551642     98.01031    251.71106     638.5427    17452.742 
   61800    492.95493    1.9702674    96.755511    229.92573    50.711518    17452.742 
   61900    585.89286    3.0729103    107.53228    279.76804    284.26356    17452.742 
62000        0.36423450796951750696 10.928242808165702371 0.46031746031746029191 48 33.513718971250426648
   62000    473.08561    1.3626808    103.89604    247.86083   -482.37159    17452.742 
   62100     451.6031    4.6763913    101.95441    217.45336    959.10378    17452.742 
   62200    568.75452    1.3102649    92.068566    260.90245   -442.96851    17452.742 
   62300    569.08016    3.8525421    97.961819    280.23617   -761.98999    15836.071 
   62400    484.16719    1.1033085    93.959077    228.19571    1320.8917    15836.071 
62500        0.36877228917280496789 11.050665507055128955 0.44708994708994709288 38 32.649232427344429652
   62500    511.67173    6.7947559    104.22802    264.47906     639.7305    15836.071 
   62600    485.83961    4.3931094    119.80913    277.46218    860.73915    15836.071 
   62700    551.25699    4.9246458    125.35682    315.89023   -505.77499    15836.071 
   62800    465.65528    1.5123587    108.87898    256.79219   -1541.9443    15836.071 
   62900     550.0052    3.7647989    114.78451    295.20272   -625.85876    16630.808 
63000        0.39482960556791585338 10.711791297911963383 0.47619047619047616404 43 39.029626048331380161
   63000    466.11721    1.1163582    108.85196    250.21947   -1287.4445    16630.808 
   63100    510.02221    1.5910102    108.76743    267.97608    6.0894421    16630.808 
   63200    531.35273    2.5001748     113.3403    287.27809   -1660.9573    16630.808 
   63300    488.91948   0.73900961    83.917846    222.73802     94.25846    16630.808 
   63400    513.68339   0.50630462    85.009295    244.18393    711.25424    16630.808 
63500        0.39861375838092028001 10.634225425690281952 0.48412698412698407235 41 40.654088067372207149
   63500    556.10185     2.943953    98.763137    292.61445    -71.30716    15400.963 
   63600    493.08425    3.1764245    112.21267    260.66182    1069.1474    15400.963 
   63700    477.90613    1.4336287    104.69124     257.5175   -3058.0018    15400.963 
   63800    520.34051    3.5360877    123.04546    278.70198   -3093.5019    15400.963 
   63900    466.85443    6.8427145    98.076751    235.25518    33.666697    15400.963 
64000        0.40880162097081412798 10.477500557574042972 0.51058201058201058142 46 33.800081368108820357
   64000    513.18832    2.8057651    110.31664    266.31705    1268.6382    14831.694 
   64100    539.59021    1.5609083    115.92755    276.01749   -692.34169    14831.694 
   64200    501.17097   0.14271663    92.115521    240.12605    -1414.279    14831.694 
   64300    514.70016    6.1039964    95.194182    257.69991   -465.83745    14831.694 
   64400     504.4603    3.2436721    114.29315    270.80227    2076.4133    15913.968 
64500        0.39242687701024159264 10.737070169602773717 0.49735449735449732689 45 28.602807826892970411
   64500    481.04993     2.663804    101.03058    246.55842    901.94497    15913.968 
   64600    538.36411    3.3109369    113.53507    301.92783   -293.84018    15913.968 
   64700     555.7828    2.6218776    96.414608    293.71573    -2100.132    15913.968 
   64800    498.82716     3.501343     85.77328    246.00409    2257.0113    15913.968 
   64900    523.43233    3.6057609    108.10585    293.91148    1422.2838    15913.968 
65000        0.34141687979736679015 10.82507808692695761 0.43915343915343912906 39 58.665436580450453619
   65000    561.32629    2.3862145    109.68462    312.99291   -755.77125    15913.968 
   65100    472.52377    9.0313714    115.40467    277.49972    2338.4013    15913.968 
   65200    491.18764    1.2012773    104.98557    275.92105    1634.9884    17705.997 
   65300    563.15891    2.2078858    104.29894    312.14764   -885.89464    17705.997 
   65400    498.75094    3.9243537    103.10031     283.7837   -1596.5455    17705.997 
65500        0.29621261592540648611 11.326462734226957707 0.41798941798941796621 33 53.719031359572817053
   65500    533.82857    1.9255623     101.4876    295.58775    -1553.529    17705.997 
   65600    550.05795    4.1869011    96.429543    295.26203   -442.70468    20958.067 
   65700    490.37765    5.6018268     114.5933    287.82084    1746.8346    20958.067 
   65800    576.75796    3.9796349    115.43332    340.89229   -91.488573    20958.067 
   65900    557.28518    3.3281742    96.969605    294.46385    64.930658    20958.067 
66000        0.27679804154729981125 11.67092615158061264 0.34920634920634918696 32 37.930433577948790003
   66000    529.22294   0.74836085    102.53723    277.71242    1881.4225    20958.067 
   66100    519.05111    9.6538635    126.17491    333.23953     1535.862    20958.067 
   66200    508.17968    4.5114486    103.91563    288.54382    454.89104    26703.038 
   66300    542.05835    3.0602503    94.223316    289.80703   -1225.0565    26703.038 
   66400    553.00005     5.514655    114.64483    307.43624    93.518251    26703.038 
66500        0.26092204139141705888 12.16417801257178688 0.34391534391534389625 27 50.651878089796142035
   66500     510.8957    3.6283283    95.304808     282.1301    586.25766    26703.038 
   66600    518.81522    4.8260196    91.306605    256.45155    255.33385    26703.038 
   66700     538.5837    6.2447164    100.51932    307.63265   -211.47453    26703.038 
   66800    492.60642    5.5045661    102.33893    291.58518   -916.45812    31730.514 
   66900    498.32178   0.79593404    98.155704    271.69529   -753.06464    31730.514 
67000        0.24517756434374091135 12.783665325760642517 0.32275132275132273341 23 60.882677167537821106
   67000    566.30177    7.0782195    111.86298    317.46446   -1151.1211    31730.514 
   67100    459.81445    8.5606254    99.929328    270.87121    841.02452    31730.514 
   67200    570.90309    3.5571039    91.265655    308.53313   -655.71627    31730.514 
   67300    527.26776    2.7050276    105.14753     294.2761    1059.5575    31730.514 
   67400    512.64733    4.7559811    89.689484    273.16767     69.29749      30368.7 
67500        0.22621157194443661242 12.935840968184649569 0.29894179894179895296 20 28.000257701441505276
   67500    612.19513    5.5267809    85.685666    305.37554   -751.29193      30368.7 
   67600     532.7464    3.6876529    100.63622    281.54124   -171.47044      30368.7 
   67700     529.0309   0.95290975    88.475987     297.8386   -970.43073      30368.7 
   67800    565.23792    6.2680587    90.953239    308.47762    754.26387    30915.844 
   67900    544.98377    7.1009806     106.4052    304.13209    368.61968    30915.844 
68000        0.21029770032080202791 13.002755962511653109 0.26719576719576720869 20 60.690388822694536941
   68000    638.97985    5.9070355    102.88387    350.20138    587.74066    30915.844 
   68100    479.04917    6.2421583    93.390723    290.66063    577.37568    30915.844 
   68200    525.27151    2.0185909     98.07233    309.39753    1207.9421    30915.844 
   68300    567.44923    4.1269531    97.676521    310.75676    922.73129    28416.643 
   68400    497.67753    11.025544    88.625943    270.73381   -390.92549    28416.643 
68500        0.19965729407637677895 13.008874964389175233 0.26190476190476186247 28 78.591186594463778192
   68500    541.72352    7.4048954    110.24638    324.03697   -1701.5856    28416.643 
   68600    555.53561    2.5247099    82.819944    293.87063    435.37257    28416.643 
   68700    547.54806    3.9000798    103.78353    305.93231   -378.20725    28416.643 
   68800    556.50475    2.1899205    101.79244    332.96639    616.59834    28811.811 
   68900    503.75319   0.85519641    91.714944    287.78413   -846.26571    28811.811 
69000        0.20924667374719571611 12.952189833306629652 0.26190476190476186247 18 104.81039119249058444
   69000    538.86016     15.58354    121.29757    348.95884    712.24594    28811.811 
   69100    553.49533    3.7348978    99.139327     328.5071    523.21627    31376.518 
   69200    552.51375    3.2846241    101.67531    330.98252   -501.49568    31376.518 
   69300    554.24945    4.6487019    119.26277    356.64646   -1122.8343    31376.518 
   69400    553.51298    3.9484186    89.209542    306.53537    109.07135    31376.518 
69500        0.21745627467118883169 13.123820639915297903 0.25925925925925924487 23 105.75939684146264597
   69500    535.03041    3.8700203    124.11485    348.17265    426.91758    31376.518 
   69600    556.45874    5.3915001    112.96966    343.35514    -623.1238    31376.518 
   69700    535.22297    1.7122034    104.88573     311.8506    267.88923    31376.518 
   69800     556.2254    2.8348489    99.474252    294.41799    316.98175    30776.129 
   69900    509.29075    1.8874858     104.3096     276.0794    109.28137    30776.129 
70000        0.21209029766589307386 13.155158492745025356 0.24603174603174601809 19 81.205457389377414756
   70000    553.16821    3.5223948     121.4037    331.83664    412.59267    30776.129 
   70100    550.51403    2.1095689    129.40383    336.06384     225.5906    30776.129 
   70200    579.39539    3.2209602     114.9074    342.81708    91.534398    30776.129 
   70300    555.47704    5.0759511      90.5366    302.91265    110.74348    29129.023 
   70400    620.56973    1.9155099    104.20608    349.68702   -335.24017    29129.023 
70500        0.23614763250801729111 12.997481080858534597 0.26455026455026453558 24 76.737322053244213294
   70500    532.36816    2.6348737      115.292    317.94435   -461.15092    29129.023 
   70600    531.63057  0.062657283    111.52596    316.44959   -950.31244    29129.023 
   70700    528.86849    6.0165073    109.38188      313.412   -236.43775    28492.032 
   70800    525.03844    1.1792004    114.16611    313.50247     462.4564    28492.032 
   70900    543.92926    4.9091465    104.18282    301.40287    795.04368    28492.032 
71000        0.24749711253038786385 12.777682179744509483 0.29894179894179895296 29 58.23089318578584539
   71000    599.27484    2.5476686    108.70305    329.75221    781.19141    28492.032 
   71100    544.17454    3.0919681    115.71858     326.0955    1004.4643    28492.032 
   71200    478.74059    10.689587    108.75312    280.00683   -222.27715    28492.032 
   71300    591.86395    5.6050576    119.00256    333.18323    194.94866    28492.032 
   71400     600.3722    7.8909012    130.44705    374.99296   -13.391464    28111.159 
71500        0.26122693706395450075 12.453130174612013548 0.33333333333333331483 35 33.289857993907759237
   71500    595.69518    3.6565543    94.221948    303.18929   -205.86137    28111.159 
   71600    497.87393    4.3455947    105.92329    277.98007   -860.22989    28111.159 
   71700    569.48233    5.0675768    119.35723    332.91026    307.84847    28111.159 
   71800    552.09478    1.8360984    120.16181    315.58035    772.46104    28111.159 
   71900    513.45933    4.1600136    89.579907    272.42664    -30.96214    28111.159 
72000        0.26514805955336540055 12.392446187790884693 0.31746031746031744269 30 56.122312930326700098
   72000    535.95153     4.975679    107.00959    298.95291   -700.66597    28111.159 
   72100    598.69347    4.4829312     102.9525    308.78988     -884.495    28111.159 
   72200    521.06284   0.71374351    119.39398    314.88522      786.057    28111.159 
   72300    604.09026    3.1341637    113.90354    336.92484    136.87815    23207.464 
   72400    461.77117    6.3898633    113.10921    291.47098   -534.25433    23207.464 
72500        0.26185585411217410234 12.156834263709100696 0.30687830687830686127 32 85.295797245853094637
   72500    549.60747    6.0192679    127.85078    334.31367    72.805967    23207.464 
   72600    556.07929     5.701223    108.39759    316.81888    1494.8991    23207.464 
   72700    550.03016    2.5824639    87.958342    287.02678    534.53876    19814.254 
   72800    554.39895    5.3690873    120.46296    333.93047    316.77068    19814.254 
   72900    544.62441    1.0499093    103.76078    289.29924    -333.5802    19814.254 
73000        0.2628554727082056397 12.023070915874178866 0.30687830687830686127 30 51.159881456286960599
   73000    556.52146    4.0845416    93.126299    303.31037    190.91361    17997.793 
   73100    544.25285    1.2061694    120.37142    328.79582    644.89983    17997.793 
   73200     508.5945    4.6642144    124.70578    310.86457   -1015.2476    17997.793 
   73300    502.13553    1.4516202    101.71749    263.39706    1412.9701    17997.793 
   73400    551.67365     2.296186    108.39462    307.62833    757.30162    17997.793 
73500        0.25085713880002413756 12.044104751685974719 0.29100529100529098914 28 80.551717766355437789
   73500    523.90162    4.2261692    114.78434     317.9227    -378.7908    19389.594 
   73600     560.6635    5.8913209    117.66964    328.20283    1843.0349    19389.594 
   73700    510.80562    5.0215335    113.05718    325.84021   -1081.9685    19389.594 
   73800    598.80843   0.94049736    122.11375    361.80423    688.91614    19389.594 
   73900    500.60676    7.2026946    119.40328    308.41152   -1002.4268    19389.594 
74000        0.24568324136288482995 12.310585608017543535 0.25396825396825395416 23 83.756668585953562456
   74000    574.51902    9.7574749    109.16155    344.06154   -645.58875    19389.594 
   74100     595.4974   0.51549605    141.69533    404.62663   -1157.7678    23529.538 
   74200    547.02005    5.2985292    115.74432    336.02047    749.31122    23529.538 
   74300    558.26435    3.4914067    106.81007    314.99621    382.19904    23529.538 
   74400    605.76563    7.1914407    133.17916    371.99366   -133.43198    23529.538 
74500        0.25754304578697062578 12.520526001507205294 0.23280423280423279131 18 82.553320712826291583
   74500    515.46342    3.2027816     125.0341     316.1011     1006.256    23529.538 
   74600    534.88268    4.5492749    134.58176    334.83469   -533.05377    24504.243 
   74700    557.45568    6.7700478     115.0911    324.78179   -505.01149    24504.243 
   74800    534.97544   0.31873948     109.4299    292.16491   -2035.5987    24504.243 
   74900    524.35564    4.0208941    137.41304    322.14623   -127.23804    24504.243 
75000        0.26977604539369987036 12.13940208798931053 0.28835978835978837154 25 69.433674202907241124
   75000    521.69579    8.3371214    116.40007    305.80523     255.4887    24504.243 
   75100    577.79619    2.5040887     140.5617    357.50887   -296.56304    20224.349 
   75200    562.01378    1.8996656    114.46699    308.20949   -1576.9594    20224.349 
   75300    533.18542    3.8362545    131.85801    303.80569    157.91951    20224.349 
   75400    636.91351  0.092947706    119.30506    359.80165   -145.38828    20224.349 
75500        0.27239966783505303871 11.649757036165484081 0.32275132275132273341 31 58.521235072889581375
   75500    514.84859    5.9136719    112.48632    291.79044    418.04902    18737.027 
   75600    532.86308    4.2819584    128.01235    314.28561    1094.7058    18737.027 
   75700     571.9175    2.0323605    109.15052    329.87465    430.19184    18737.027 
   75800    502.70093    2.6775869    113.52416    280.27531   -1905.2135    18737.027 
   75900    620.81083    4.3974038     93.16008    308.91392   -1542.2929    18737.027 
76000        0.26521765834705102183 11.292382224167250016 0.31216931216931215198 37 36.501030368954616279
   76000    564.07289    9.9932708    115.12465    292.07294     1638.588    18737.027 
   76100    534.17425    2.4410075    121.73508    310.94323   -1193.5241     18770.41 
   76200    526.89291    10.525724    123.28508    323.80161   -794.75065     18770.41 
   76300    519.50482    2.1127762    112.98718    291.17261   -1349.2272     18770.41 
   76400    590.59802    3.0700501    110.19128    344.37932    1316.7387     18770.41 
76500        0.26853257623770954154 11.122758299668909387 0.33333333333333331483 36 43.076972188966678345
   76500    561.22511    1.1049441     104.6359     297.3586    1061.0578     18770.41 
   76600    537.14493    2.1815268    108.07259    297.08686    492.04444    17912.709 
   76700    568.83706     1.376688    126.05446    335.44867   -554.60036    17912.709 
   76800    570.53058    5.9252438    115.70045    321.20219    352.29298    17912.709 
   76900    515.75241    3.7318822    120.72607     295.0214    1402.8974    17912.709 
77000        0.26331573601061714074 10.821712630757009066 0.31481481481481476958 35 60.965878388161925727
   77000    625.38589    6.6905435    118.74977    344.31767   -1552.7436    17912.709 
   77100     492.8453    4.9742241     117.3418    306.03524   -1211.5502    19816.432 
   77200    535.63032     4.465476    118.80599    311.52756   -835.33785    19816.432 
   77300    572.68426    2.0422189    105.95012    312.55466   -817.66954    19816.432 
   77400    542.11642    3.4214317    105.00558     302.4316   -978.27151    19108.463 
77500        0.26360782970559165639 10.653886881149420063 0.35185185185185186008 38 78.877400282969745149
   77500    602.97832    2.4244274    129.33121    352.07671    2539.7919    19108.463 
   77600    555.25126    1.2551852    117.20283    311.99554    15.357206    19108.463 
   77700    529.75397     5.331042    114.35502    319.61287   -1231.4328    19108.463 
   77800    603.74293    4.5540185    90.076803    303.35151   -1165.7509    19108.463 
   77900    572.72697    8.6296137    98.890477    306.31934    1117.4114    20819.098 
78000        0.27483697673464013711 10.768288913197338275 0.34656084656084651385 42 68.2103930737373787
   78000    597.39912    5.9032682    111.61185    338.88186    579.67591    20819.098 
   78100    493.72276    2.9909704     109.7705    273.98821   -1584.2272    20819.098 
   78200    561.46223   0.84390141    127.69453    322.39736    1329.5896    20819.098 
   78300    546.37109    1.9333844    104.96083    306.96326    -1143.827    20819.098 
   78400    519.48569    2.3917721     95.92943    258.87442   -2021.8866    20819.098 
78500        0.27208305024065781996 10.851811658023139628 0.34391534391534389625 35 74.746810937754787574
   78500     528.0704    2.6486106     115.7195     314.0066   -1144.5637    20819.098 
   78600    531.42599    3.1772459    105.20258    313.10032   -1767.3036    20695.312 
   78700    553.52303    3.1454763     99.71716    332.06605     103.5074    20695.312 
   78800    549.32957    2.4550807    120.22482    338.74725    -1835.684    20695.312 
   78900    571.37162    4.9424635    96.325702    297.29462   -919.36627    20695.312 
79000        0.25586006705056291155 11.186803375362449842 0.28306878306878302531 35 60.804802771744988377
   79000    529.06037    4.7764107    107.89516    300.51313    391.96554    20695.312 
   79100    534.82541     6.592414    103.84863    295.77652    1941.6707    22729.957 
   79200    584.89087    2.1111794    89.580542    316.44359    536.38278    22729.957 
   79300    524.73735    3.9730541    121.66279    325.93331    490.47045    22729.957 
   79400    496.97186    2.1575238     98.48554    286.10608   -829.51705    22729.957 
79500        0.2416187001636466436 11.34881857177338027 0.24867724867724866344 28 69.165003055094544493
   79500    555.60449   0.79555472    111.27994    320.90002   -1813.3316    22729.957 
   79600    587.84255    5.3462232    107.11037    332.17996   -989.34931    22415.026 
   79700     560.7221    1.2858363    95.839429    299.77653    385.69251    22415.026 
   79800    489.90897    3.9077146    89.393791    266.47703   -332.56198    22415.026 
   79900    575.31534     2.329996    105.82712     320.6597   -61.172156    22415.026 
80000        0.24680074624141323802 11.466800204478685643 0.26455026455026453558 35 56.432220720659927338
   80000    579.34089    4.0281473    95.115707     318.9218     163.0664    22415.026 
   80100     547.1696    2.5178924     102.4915    282.96686    318.82985    22415.026 
   80200    592.04932    4.4438961    109.60185    337.37808    313.42939    22415.026 
   80300    581.66803    1.5352586    106.36459    323.18983   -655.38936    22073.408 
   80400    542.40092    4.5340371    109.67151    305.64184   -1130.5764    22073.408 
80500        0.24883100024881743551 11.882442773862097241 0.28571428571428569843 32 50.423553797897987749
   80500    542.68382    3.1259583    99.268167    296.30444    453.14442    22073.408 
   80600    679.42582     5.688607    113.84036    362.77766    1433.1194    22073.408 
   80700    619.94857    1.2184672    108.01558    333.42938    944.46558        23138 
   80800    568.68538    4.2089142    103.97277    330.69024   -220.05625        23138 
   80900    526.07087    5.9972279    103.03469    287.94985    464.20313        23138 
81000        0.24166171585335655125 12.41904764159643193 0.275132275132275117 32 48.789785930428962502
   81000    572.39768    3.9851262    96.512939    308.13352   -1036.2685        23138 
   81100    553.28546    6.4461919    121.90147    336.79364   -1065.0658        23138 
   81200    551.23259    3.3150332    103.48096    322.78651    1793.0957    23909.633 
   81300    549.33451    3.1375252    113.36243    303.79616     126.1257    23909.633 
   81400    579.03236    9.5670045     103.1911    344.91304   -11.885945    23909.633 
81500        0.2441161175483687884 12.929326701687447354 0.30158730158730157056 34 88.066999532734826062
   81500    532.21178    3.8465867    122.03003    329.20318   -1280.5262    23909.633 
   81600    547.92434    4.7672084    104.89745    312.01041    988.15234    24441.222 
   81700    595.55129     5.496046    106.65107    344.83477    141.65697    24441.222 
   81800    563.80571    2.0264818    119.72304    352.91213   -310.35318    24441.222 
   81900    524.39411    2.4470057    113.70395    300.89545    815.50528    24441.222 
82000        0.24147859178687766657 13.364413212273920095 0.27777777777777779011 39 85.883603890534629954
   82000    565.67419    7.2475903    122.28991    342.18104    706.13538    24441.222 
   82100    608.43595    3.5362654    112.87249    357.06885    455.62008    27626.771 
   82200     540.2669   0.79304676    124.51729    326.26932    869.49993    27626.771 
   82300     550.0265    1.6589808    105.13708    321.15795     1162.773    27626.771 
   82400      547.552    4.5363524    105.12046    301.57904    348.41859    27626.771 
82500        0.24447086227933523261 14.014271010918797344 0.24867724867724866344 24 31.867471223881125297
   82500    663.93818     2.012464    94.358278    332.68666   -186.24484    27626.771 
   82600    495.81498    3.5292271    93.557516    276.44908   -1628.4267    27802.685 
   82700    560.64309    1.3207155    107.76025     313.4297    680.80034    27802.685 
   82800    543.16204    1.1947145     105.9845    323.81234    -527.2773    27802.685 
   82900    609.40919    8.0368525    115.28514      372.191    -151.0976    27802.685 
83000        0.24400983223331687566 14.147326649677683719 0.25925925925925924487 26 66.379833494591579779
   83000    571.30811    8.8904754    107.25819     325.2299   -1502.5959    27802.685 
   83100    574.03469    3.2745286    84.718595    303.98864    1010.2664    31430.295 
   83200    574.49489    5.6182527    94.460042    306.66107    400.34579    31430.295 
   83300    591.04547    1.3367797    119.11897    360.80118   -262.96265    31430.295 
   83400    536.41184     1.685215      105.216    312.01574   -115.31822    31430.295 
83500        0.23374606490994587205 14.609091399528997712 0.25925925925925924487 22 49.55461803174731017
   83500    562.04061    2.0598135    103.43789    304.20573    402.10321     36773.98 
   83600    571.97377    2.7168806    106.68417    329.80221    292.14252     36773.98 
   83700    635.58078     6.410377    119.40065    375.72692    367.50351     36773.98 
   83800    513.48811    8.0037795    119.03087    306.95751    386.86249     36773.98 
   83900    579.18356    3.4131688    99.822916    321.20732    1054.8707     36773.98 
84000        0.21449694823157114398 15.020395938369135891 0.24603174603174601809 23 86.229993283122951198
   84000    588.42598    6.4410313    110.04388    352.83588    -50.64242    38189.241 
   84100    487.75999      3.76185    106.68234    288.53367   -118.89023    38189.241 
   84200     597.6228    2.4927057    98.202199    334.61269    -528.9745    38189.241 
   84300    544.10893    4.9032365    94.727692    309.70912   -52.997792    38189.241 
   84400    501.87903    1.7946549    87.956513    286.83817    513.29073    38189.241 
84500        0.20433250105112774064 15.278200147277336995 0.25925925925925924487 25 80.635847330302425462
   84500    569.82386   0.60387913    110.80936    338.81342    544.62735    37560.335 
   84600    505.88618   0.89168456    99.963836    301.69087   -672.87028    37560.335 
   84700    624.88329    3.6373778    94.651329    343.34811   -434.28045    37560.335 
   84800    605.81593    3.1778063    95.786885    344.59298    565.26382    37560.335 
   84900    475.99095    6.0961839    95.238313    283.95569    636.39164    37560.335 
85000        0.23623517939258079079 15.379000661392847604 0.30423280423280418816 35 78.826694366340802844
   85000    578.62024    0.9380887    107.36111    340.98976    230.35232    37560.335 
   85100    543.38683     8.374684    109.58835    350.76181   -68.301045     35321.44 
   85200    588.04316    8.0914013    128.40044    381.99583     717.4768     35321.44 
   85300     572.4325    4.8223277    88.293316    321.16762   -59.372803     35321.44 
   85400    585.70077    1.9166137    107.96166    357.76322   -247.32245     35321.44 
85500        0.23021444232010862541 15.567757444915729437 0.31216931216931215198 29 82.547703788312475126
   85500    590.82059    2.6032511    96.145734    350.23854   -272.38623     35321.44 
   85600     553.4555    1.1963757    108.20716    342.69547    441.87645    33499.677 
   85700    590.95235    9.4587406    103.62625    354.69362   -95.038523    33499.677 
   85800    607.79573    2.5529135    120.39516    387.48054   -731.96062    33499.677 
   85900    563.28434     3.956285     101.5738    335.82459    72.611089    33499.677 
86000        0.19864495081000926868 16.025526736495844915 0.24074074074074072738 20 94.044896011753579046
   86000    561.23593    1.5704692    105.06241    348.33143   -444.91091    33499.677 
   86100    621.37051    1.6281316    105.53418    389.83943   -580.38123    38490.413 
   86200    566.72059    2.6714789    103.97777    345.34832    421.65165    38490.413 
   86300    573.30068    1.2997515    109.77625       365.12   -1239.4012    38490.413 
   86400    619.36828    3.8602383    110.22477    371.98862     269.0664    38490.413 
86500        0.18125910436341699516 16.354654090356369522 0.23015873015873014595 22 80.853301156341274236
   86500    581.81109    5.2323877    106.63571    344.46209   -441.28654    38490.413 
   86600     604.0473    1.4146481    113.18518     380.1683    222.25291    39193.944 
   86700    560.93556   0.61308443    113.98305    350.83003    546.95757    39193.944 
   86800    572.98415    6.9722367    106.24862    336.47297    291.92079    39193.944 
   86900    579.46936    3.0603938    140.34932    400.56494   -804.98137    39193.944 
87000        0.16978297557145574648 16.558257322409509982 0.19576719576719575633 26 92.056538602287133699
   87000    591.37585  0.003097108     120.1477    359.99896   -31.427599    38350.025 
   87100    523.44333   0.76875405    136.95115    330.37512    395.40472    38350.025 
   87200    624.99857    7.8569803    114.24307    393.33702    787.58764    38350.025 
   87300    628.05015    2.2731992    116.70103    351.94976    1037.6931    38350.025 
   87400    513.01586     4.330928    121.80459    328.34658    1229.4093    41737.785 
87500        0.16860052354074819836 16.653247984878774446 0.21693121693121691917 24 106.48851176824618392
   87500    616.93211     2.763079    121.93517    386.01004   -9.0907297    41737.785 
   87600    564.15326    2.0998418     100.3106    337.50796   -1170.9088    41737.785 
   87700    615.22312    2.0005718    114.72479    362.18923    611.97507    42772.087 
   87800     559.4486    8.5281406    111.50867    342.56687    222.13737    42772.087 
   87900     512.4488    6.3461258    101.12241    300.65849    976.60335    41983.763 
88000        0.16726874538245012358 16.706728832048636235 0.23809523809523808202 28 110.77037293008007168
   88000    549.31844    4.4924252    117.28227    359.65729    651.18852    41983.763 
   88100    598.98283    4.0924084    97.269308     351.8057    315.91678    41983.763 
   88200     504.8745    5.4894229    111.41477    319.28428   -707.50895    41983.763 
   88300    624.92838    9.4901794    116.67272    378.38227   -293.95658    42221.284 
   88400    572.21563    6.6718436    89.488765    327.75094   -266.95525    42221.284 
88500        0.1446806187634776808 17.090876486942111256 0.19576719576719575633 25 83.623885363292629336
   88500    584.94686   0.67833465     105.2391    348.65344    163.97264    42221.284 
   88600    610.24078    7.1317691    102.74384    354.16433    9.8418613    42221.284 
   88700    562.82792    1.2790828    97.952809    320.44272    256.05564    45124.531 
   88800    593.43805    2.2023371     108.8753    361.51844    193.90058    45124.531 
   88900    568.04079    3.9150847    98.204234    329.02174    530.89872    45124.531 
89000        0.13635333647903166709 17.152453427815416376 0.17989417989417988419 22 88.124084329831106288
   89000     570.8318    3.1284448    100.98924    346.75834   -258.20737    45124.531 
   89100    616.09503    1.1848761    101.94404    360.55152    200.79076    45124.531 
   89200    540.58616    3.5015295    108.61571     336.4653    567.36211    48724.759 
   89300    631.92559    3.3222261    119.67115    387.77446   -152.49389    48724.759 
   89400    592.75458    6.6862957    109.16827    346.78825   -199.28684    48724.759 
89500        0.14433337152944414328 17.394979221602607566 0.17195767195767194813 19 75.818233999838611226
   89500    672.25604    2.3333699    105.13359     380.4061   -193.46218    48724.759 
   89600    563.16015    6.9344567    124.12139    380.76663   -421.27733    48724.759 
   89700    575.83562    2.7915626     102.5997    337.27417    90.039238    46241.642 
   89800    552.40179    4.2935125    117.70472    361.74628    346.42867    46241.642 
   89900    648.75011    4.5152401    112.51656    377.30453    387.83186    46241.642 
90000        0.13576790317229675553 17.632056993590254024 0.18518518518518517491 27 93.200123498124867183
   90000    550.18986    4.3643932    111.87356    342.48187   -647.39578    46241.642 
   90100    651.26938    2.3100352    108.04389    387.68075   -1375.9217    45463.797 
   90200    537.05069       1.2764    108.64724    327.17408   -620.00834    45463.797 
   90300    598.55514   0.94624349    87.739006    337.55835    259.49681    45463.797 
   90400    605.19451   0.06398535    110.28562    391.71936   -795.55346    49247.218 
90500        0.13427720557873823459 17.57810268020660871 0.19312169312169311097 14 87.471919490567771049
   90500    629.08909    5.2667517    118.96154    372.50157     828.5994    49247.218 
   90600    550.35706    4.9967005    103.96838    323.16013    233.71479    49247.218 
   90700     584.9248     1.613487    118.45826    353.65702   -73.573628    49247.218 
   90800     613.4878    3.0579488    100.63603    349.80779    230.29105    49247.218 
   90900     594.9242     3.518393    113.30819    348.74102   -930.89519    39488.335 
91000        0.14746110238875484444 17.462921580028908153 0.2275132275132275006 15 126.1465900661907682
   91000    600.81118    1.7544951    139.70179      398.364   -817.04489    39488.335 
   91100    606.60692    1.3923144    123.72563    376.08702    140.24595    39488.335 
   91200    579.93542    5.3176685    105.78304    336.02133   -102.76012    39488.335 
   91300    631.05544    1.0806584    104.98065    350.12139    232.68633    39488.335 
   91400     635.6742    4.8413353    112.22634    379.71451   -244.15807    39488.335 
91500        0.16960757652115812655 17.187205074948955996 0.26984126984126982629 24 55.903113606088929544
   91500    597.34361   0.64974567    92.862319    326.54943   -71.133249    38262.729 
   91600    605.90483    2.6079587    109.37631    340.51185   -902.65965    38262.729 
   91700    640.51303    4.2946122    121.18615    381.96147   -15.441669    38262.729 
   91800    589.94964    10.030479    103.61508    345.80436   -983.87881    38262.729 
   91900     606.0907    1.1929341    111.94418    337.97511   -68.963261    38262.729 
92000        0.16702883927193873381 17.002798039885519188 0.275132275132275117 28 101.1006961749196762
   92000    636.63622    10.026429    137.26568    389.54983    495.16731    38262.729 
   92100    606.75197    4.0492793      97.5614    341.13759   -1480.2737    40735.769 
   92200    629.33372    1.7260404    90.302784    348.80216   -52.970888    40735.769 
   92300    632.49768    5.0546914     110.3014    364.11697    577.99851    40763.513 
   92400    564.62803    6.0623055    93.818292    319.33685    251.88773    40763.513 
92500        0.18039854114580275435 16.860352032800115296 0.28571428571428569843 20 111.12394705189100819
   92500    558.86394    3.6815997    122.19748    364.33577    167.93555    40763.513 
   92600    589.61675     5.853172    123.35087    353.97658    686.01025    40763.513 
   92700    544.87869    1.1233457    108.78336    320.83031    439.69108    43337.559 
   92800    624.65685    1.1344433     109.8969     373.9198   -1520.0645    43337.559 
   92900    543.31286   0.68859736    117.26891    329.74685   -199.77024    43337.559 
93000        0.17852426283946112862 16.850743218947108915 0.23809523809523808202 21 60.995391626872603297
   93000    622.97467    1.1456661    106.48728     343.2547   -456.14173    38266.419 
   93100    582.63417    4.7384693    114.54236    341.72125    190.16748    38266.419 
   93200     574.6544    6.9553108    113.12785     340.1681    335.90378    38266.419 
   93300    580.36103    12.499673    107.15955    341.37221   -152.79256    38266.419 
   93400    570.91468    2.5144659    113.58454    317.60698    449.02705    38266.419 
93500        0.15877395895610671439 16.544922107632565655 0.24074074074074072738 27 105.06398477469588215
   93500    567.57261    4.1967343    134.75509    362.22156    350.40025    35950.593 
   93600    601.93872    6.3595408    125.65509    348.56354   -695.26944    35950.593 
   93700    565.31658    2.1738107    118.47363    324.46791    941.37413    35950.593 
   93800    587.31607    7.2833496    138.17031    368.24036    317.69218    35950.593 
   93900    626.24317    4.9972138    117.46135    374.33055   -423.08332    35950.593 
94000        0.16536274108127999027 16.277175818638820459 0.23809523809523808202 24 72.194108968698969875
   94000     612.3661    1.7690774    115.37965    349.64686   -186.25502    36077.363 
   94100    568.61354    4.0786985    125.97542    334.98904   -841.12528    36077.363 
   94200    596.22529    2.2732203    145.03148    395.07239    760.08615    36077.363 
   94300    623.38634    2.9436258     106.8413    361.67063   -41.793553    36077.363 
   94400     553.4637   0.72956326    129.30528    348.86297   -432.20635     36583.15 
94500        0.18760307713009891084 16.073305782199827973 0.24074074074074072738 18 57.52031526185007948
   94500    521.29929     3.024356    105.02291    293.71223   -390.80746     36583.15 
   94600    597.64425     12.22132     114.7636    362.95669   -689.61313     36583.15 
   94700    563.58976     7.485852    113.81926    344.67413    284.20223     36583.15 
   94800     571.2808    4.2712644    127.52107     359.5326   -89.878242    36889.366 
   94900    647.62374    3.5466579    113.02766    383.62767   -617.54859    36889.366 
95000        0.19407142843796321152 15.865685970327659149 0.24867724867724866344 19 83.578925321652036473
   95000    604.44827   0.85154418    110.31005    357.44424   -600.88771    36889.366 
   95100    519.98553    3.0502202    113.40305    315.88081   -266.17328    36889.366 
   95200    605.88385    2.8240087    110.19539    326.34807    185.47008    36834.803 
   95300    590.91211    5.5953979    110.95305    348.45258   -66.762744    36834.803 
   95400    576.47558    3.6855351    104.78143     314.7973   -214.20509    36834.803 
95500        0.19348065695746002879 15.466272800322753866 0.24338624338624337273 20 78.763569264039460904
   95500    537.82447    3.6372463    119.58676    322.44276   -221.16377    36834.803 
   95600    627.73402    3.3140637    112.70728    349.65412   -222.06674    31226.653 
   95700    545.44831     4.829228    127.73746    343.64009    1109.2495    31226.653 
   95800    643.08806    4.0121566    119.70295    384.88538   -818.06451    31226.653 
   95900    533.68911    3.0649642    127.74482    326.07911    523.33196    31226.653 
96000        0.19057994064202249396 15.103713533317320028 0.24867724867724866344 26 47.513143784210868148
   96000    643.00774    1.5714053    85.671781     338.8491   -112.55101    31226.653 
   96100    661.22327     0.874166    117.80686    380.00488   -110.40505    31226.653 
   96200    608.03389    4.9591634    115.60115    354.78567   -684.89921    33246.454 
   96300    596.28724    6.4707651    121.97352    337.52805    -329.8502    33246.454 
   96400    670.42879    2.9968703    131.42373    396.36376    554.68775    33246.454 
96500        0.20820143789514944377 14.373394057783857036 0.28571428571428569843 31 70.772998989168087292
   96500    574.76044    7.6064331    106.96535    331.18726    667.97293    30818.944 
   96600    628.46198    4.1985092    123.97974     351.6409   -1251.7963    30818.944 
   96700    621.22759    6.7977784    113.50983    351.91126    1160.0101    30818.944 
   96800    564.29923     2.530649    128.45639    332.54057    497.10171    30818.944 
   96900    557.06672    2.9970762    131.97142    360.69206    1194.7025    30818.944 
97000        0.20926929585738132666 14.290166068912217412 0.28571428571428569843 30 108.41816784295079401
   97000    575.88938    7.8654822    121.61743    369.34393    219.66493    30818.944 
   97100    591.33293    6.6870373    97.816711    328.83148    224.09027    29040.066 
   97200    583.59728    3.8644451    139.83823     376.4955    272.11064    29040.066 
   97300    676.86257    3.1783639     112.1916    381.47283    913.56771    29040.066 
   97400    550.11591    2.9968958    130.51636    358.15699    1795.0527    29040.066 
97500        0.19546101223768866384 14.304252019410006014 0.29894179894179895296 28 80.361915168229444362
   97500    652.86811     5.224427    121.63468    376.16544   -698.29069    29040.066 
   97600    576.52042    4.3917241    113.44713    330.11999   -135.85986    29040.066 
   97700    591.23479    7.1251409    119.27968    366.07636   -920.46849    28779.168 
   97800    582.47342    7.7290008    118.58996    340.56975    351.38222    28779.168 
   97900    589.00586    1.8053693    114.73357    332.97339    340.45063    28779.168 
98000        0.18610846785973153561 14.33520915857600464 0.27248677248677244389 28 62.067960937947894706
   98000    619.52827    2.0561218     116.4241    342.76577    85.190324    28779.168 
   98100    505.47148     2.562326    119.35303    281.78172   -740.93709    28779.168 
   98200    623.15158     12.10811    95.434111    328.69581   -143.78208    27816.149 
   98300    590.25765    2.6645929    116.78094    327.53218   -255.68941    27816.149 
   98400    500.27107    2.5402531    102.33809    281.24358    887.11831    27816.149 
98500        0.18669097992075067705 14.357276093836663478 0.27777777777777779011 28 58.408000469517418196
   98500    629.28045    3.1281294    115.33956    343.52436   -157.39613    27816.149 
   98600    614.50053    5.3335169    110.38418    358.92004   -141.06192    27816.149 
   98700    616.12096    2.8803708    124.99599    380.29023    703.07091    30159.786 
   98800    525.48998    3.5140667    124.04191    368.79315    1001.6899    30159.786 
   98900    509.52693    3.8156249    120.66568    311.51622   -1286.0842    30159.786 
99000        0.19428035787718511695 14.325661390879334434 0.28306878306878302531 34 79.216222205682782942
   99000    579.25547    8.2431477    116.16762     341.6671   -536.85462    30159.786 
   99100    606.80349   0.83509462    119.70083    356.30826    693.52572    30159.786 
   99200    523.93541    6.5625516    98.243045     300.2135   -855.90163    32039.796 
   99300    614.25427    3.7706227    104.65652    324.74208    396.31929    32039.796 
   99400    607.11494    4.7450643     118.7614    361.08293    215.32514    32039.796 
99500        0.20376896278580383659 14.133485990531232446 0.30158730158730157056 30 78.402640505487340761
   99500    540.20978     7.595253    113.29551    323.16258    -396.4646    29679.156 
   99600    597.76297    1.7304419    110.37767    322.86992     280.2745    29679.156 
   99700      629.712    7.6471444    102.44502    344.04569   -1087.6503    29679.156 
   99800    583.21523    14.864486    117.85918    344.42294   -571.87412    28493.457 
   99900    559.02757    1.7511714    119.92765    302.68239   -321.78408    28493.457 
100000        0.19123344911422412995 14.289517432957564935 0.28306878306878302531 29 60.078405935646784997
  100000    590.75928    1.5124167    107.69983    327.74147    -637.4871    28493.457 
  100100    666.44921    4.1733421     109.9622    358.62192     362.3408    27712.173 
  100200    549.47202    10.511173    116.28801    306.99779    481.01346    27712.173 
  100300     574.9299    4.5271761    123.33152    332.08669   -1367.4408    27712.173 
  100400    648.80944    5.3721039    128.56307    366.24406    699.09581    27712.173 
100500        0.19804438960962453264 14.347162670673396789 0.29629629629629627985 29 113.14699050924804169
  100500    600.28443    1.8044982    138.00516    385.12574    1093.6341    27712.173 
  100600    639.19873    5.9539046    110.43918    336.47172    388.73926    28430.266 
  100700    544.21301      4.21024    128.46993    326.13588   -2139.9104    28430.266 
  100800    621.36398    3.9685138    122.92967    356.92547    281.21154    28430.266 
  100900    580.21441     6.945443    118.82294    335.49236    1288.6743    28430.266 
101000        0.19699339014124594982 14.197050175619624568 0.30158730158730157056 27 82.869275700028396159
  101000    663.30083    3.2047462    123.33087    383.39969   -681.13382    28430.266 
  101100    608.55699    3.4481959    123.69382    340.18166   -122.92177    28430.266 
  101200    579.08468    3.0444344    114.62058    318.25782   -114.44832    29055.776 
  101300    630.81122    2.2361548    122.27967    366.76814   -115.24426    29055.776 
  101400    601.39652    2.3634921    149.95851     379.4728   -318.30429    29055.776 
101500        0.2003230998081338976 14.142772872840589926 0.275132275132275117 30 77.296694835358493947
  101500    596.14687    4.9215627    117.56417    347.40078    -274.1862    29055.776 
  101600     642.1373    1.9211337    130.18617    391.47924   -1182.0301    29055.776 
  101700    658.65097    3.1932414    118.51535    379.28096    714.52001    29055.776 
  101800    565.23671    2.5590963    128.03331    362.22862   -1080.3059    27917.427 
  101900    520.84425    2.4776813    117.62879     325.2408    699.14106    27917.427 
102000        0.20397146347362962726 14.14586405399710145 0.26719576719576720869 21 99.283207720698243293
  102000    598.29401    4.6038686    129.37897    370.36013    832.98939    27917.427 
  102100    604.49471    4.5626094     123.5447    373.68695   -480.56592    27917.427 
  102200    556.22263    2.9358744    120.93815    342.65611   -268.62535    27917.427 
  102300    621.66804    4.6838565    124.48835    406.40645    938.54609    27917.427 
  102400    569.56231    3.0951995    118.11935    358.38181   -598.03816    27917.427 
102500        0.20256426073515418351 13.914882834339973527 0.28306878306878302531 17 112.45568978806365124
  102500    542.16396    1.0814037      139.403    358.10103    813.13914    24676.122 
  102600    611.63174    2.6656264    126.18295    392.30835   -1565.3191    24676.122 
  102700     626.9758    7.1998036    122.97464    387.56134   -725.98593    24676.122 
  102800    630.80619    7.8598669    109.59923    372.76241   -35.540416    24676.122 
  102900     522.4322    7.5034961    100.90376    311.66465   -908.05735    24676.122 
103000        0.21138200755032005018 13.650320139279287446 0.25925925925925924487 18 91.912487177206187994
  103000    607.54059    6.7706791     116.7588    367.17888    517.69259    24676.122 
  103100    691.03602    3.2463197    105.00237    380.60843   -399.49001    24676.122 
  103200    548.11147    2.0966337    113.48745    328.83557   -133.03683    26973.831 
  103300    623.53486    3.7313538    119.31723     379.9408    881.70333    26973.831 
  103400    632.16576    1.5078331    114.45302    357.23591   -1484.0755    26973.831 
103500        0.23986603613490006803 13.262252483921443513 0.27777777777777779011 25 58.227625599368110443
  103500    574.49096    2.8477539    109.57648    318.51979    598.69276    26973.831 
  103600     576.7409    5.6856139     123.9448    357.63682   -402.83443    25792.837 
  103700    628.80622     3.581176    119.67966    368.06039    133.40221    25792.837 
  103800    556.98554     1.547472    121.06139    343.10991   -651.79539    25792.837 
  103900    609.26867    8.2155532    120.90264    367.08754      409.898    25792.837 
104000        0.2526250052396613599 12.852398775524131125 0.29365079365079360674 24 101.05733559015550327
  104000    707.49272    11.165266    134.15522    421.61035   -531.02671    25992.822 
  104100    629.27937    3.0207981     123.1816    351.20894     1569.636    25992.822 
  104200    617.33946    10.562163    130.39732    374.41608   -850.58051    25992.822 
  104300    545.00678    6.0807887    139.04329    361.85908   -208.75796    25992.822 
  104400    600.87987    4.1222368    117.05107    344.00378    303.90292    25992.822 
104500        0.28453109873896759163 12.245621137157165492 0.34391534391534389625 24 76.596357184366553383
  104500    649.10341    7.2858256    122.12386    370.69416   -723.15211    25992.822 
  104600    580.94781    2.8346608    116.55263    346.59506   -1215.2761    23230.021 
  104700     560.5396    1.8938132    113.47242    308.13387    1631.4853    23230.021 
  104800    682.75284    6.1637008    111.85125    360.54203   -1750.1482    23230.021 
  104900    641.82389    1.7761575    117.46575    342.01093   -371.07408    23230.021 
105000        0.32197326033574991122 11.641867571001883519 0.40476190476190476719 34 72.87765557374781622
  105000    536.64344    5.6624821    115.34526    316.02175    1278.1614    23230.021 
  105100    615.91965    7.9397068    146.79113    370.07394    1102.8076    20289.683 
  105200     619.0218    12.857082    124.13731    358.87529   -986.97526    20289.683 
  105300    601.16647    6.7497543    128.15803    350.73584    627.31281    20289.683 
  105400    601.48893    3.6116537    117.79513    344.55189    880.64301    18937.817 
105500        0.3332885449398807487 11.455780737381076051 0.40211640211640209408 30 89.264026904644765636
  105500    617.55398    4.5616074    139.73602    369.06731    2281.3217    18937.817 
  105600    586.11308    6.5051979    112.93348      335.201    1061.1107    18937.817 
  105700    588.00982    3.9201525    116.00302    335.34906   -251.69357    18937.817 
  105800    662.10505    3.9162746    118.90415    358.86164    -656.6363    18937.817 
  105900     592.7938    2.0648741    114.71717    333.19518   -2711.2651    19438.546 
106000        0.28461250687445416307 11.632319744585370103 0.32275132275132273341 28 56.58310776545438614
  106000    588.86386     4.418041    118.44035    323.38739   -714.46644    19438.546 
  106100    642.27255    4.9442162    122.41414    369.46337    188.44763    19438.546 
  106200    589.48343    4.4723758    123.84634    354.58234     399.6895    19438.546 
  106300      609.148    2.7099927    104.66662    345.27601   -965.13556    20379.706 
  106400    603.87583    8.5499127    134.35694    385.91517   -367.78615    20379.706 
106500        0.24355486425626290958 12.035873579347883933 0.26984126984126982629 31 95.676816385616888283
  106500    547.45479    9.4350193    112.39794    343.71934   -2517.3522    20379.706 
  106600      682.692    9.4277674    119.55844    395.84048    236.83238    20379.706 
  106700     607.3136    7.7264611    130.96442    376.77975    905.82667    20379.706 
  106800    594.91374    4.8985894    129.16934    377.09054   -293.20416    23423.659 
  106900    613.19576    3.8415561    146.87993    414.29018   -767.07834    23423.659 
107000        0.23621911282039922964 12.417591713311123769 0.23544973544973543667 19 120.96562747556012596
  107000     594.9123    2.8849519    139.30746    390.51035    864.82309    23423.659 
  107100    589.60543    3.6960927    129.16209    357.41048     432.3811    23423.659 
  107200    644.43062    4.4446924     144.2626    428.65726   -535.31658    22478.121 
  107300    604.49976     7.004959    120.76976    380.29301    1208.9758    22478.121 
  107400    593.02187    2.9899498    119.96308    372.68932   -1041.6656    22478.121 
107500        0.23016335148191499615 12.481053424791380024 0.22222222222222220989 19 130.11826495056118347
  107500    685.36674    3.2264272    145.77634    440.64637   -3062.5396    22478.121 
  107600    689.66924    5.0227045    104.20643    373.64312    838.30072    22659.213 
  107700    570.73223    4.0843091    128.07903    361.20659   -894.27217    22659.213 
  107800    683.20126    5.1545122    122.50428    420.21288   -314.17979    22659.213 
  107900    616.43514     1.030953    106.22292    352.20426   -482.39825    25624.036 
108000        0.21930187077223023406 12.390335232603119309 0.24074074074074072738 22 92.68514880990650795
  108000    608.80444    7.6525315    117.03194    368.52417    883.75819    25624.036 
  108100    630.15285    7.2703678    133.60308    406.24895   -158.79748    25624.036 
  108200     617.8435   0.93737099    99.912281    351.01767   -909.00615    25624.036 
  108300    623.63683    4.9258734     118.3741    379.70219     799.4436    25624.036 
  108400    584.80866   0.85158194    131.86646    372.31311     237.5368    24232.178 
108500        0.22058644092407744819 12.345661581608780466 0.23015873015873014595 16 102.85762724884369845
  108500    522.23984    7.3070057    131.73301    339.47569    766.12017    24232.178 
  108600    648.74191    4.3435358    125.52346    406.24902    -199.8494    24232.178 
  108700    617.19372    4.8258552    129.13104    371.09615     1454.944    24232.178 
  108800    607.54181    3.5075663    112.73921    367.38556    570.43305    24232.178 
  108900    631.31434    2.1389809    128.28495    397.44534   -1198.6485    24232.178 
109000        0.23584676022166578546 12.397376934464332976 0.24603174603174601809 23 117.71275102371158994
  109000    515.62862    2.1619628    130.04547    351.33538    1594.7447    26754.003 
  109100    696.65827    1.2049854     114.1618     415.7998   -655.27329    26754.003 
  109200    588.61547     5.540184    116.26751     364.2606   -1216.0477    26754.003 
  109300    564.94634     3.751792    148.71826    385.86274   -1076.1342    26754.003 
  109400     717.6191    5.3990695    123.28467    407.55805   -127.49147    26754.003 
109500        0.22994630935110860204 12.389135528030315925 0.23280423280423279131 26 96.223309219295501293
  109500    586.85582    8.0668693    120.08834    362.11778    914.16511    26754.003 
  109600    668.93405    4.7710983    127.87472    419.75196   -64.961547    28373.621 
  109700    614.70907    5.9088377    121.45017    391.09452    370.31879    28373.621 
  109800    600.40158    6.2918199    124.70169     372.3715    212.56706    28373.621 
  109900    716.69694    1.3108148    115.54731    436.86773   -330.30066    28373.621 
110000        0.2301854818690864668 12.462341089593865107 0.2275132275132275006 26 115.59915702180886399
  110000    619.00726    4.2213345    128.78146     396.0609   -114.88633    27119.522 
  110100    639.22744     3.456727    112.74689     376.3185   -383.46879    27119.522 
  110200    603.70494    2.4727065    124.80466    389.50334   -902.57112    27119.522 
  110300    611.77129    4.4336668    138.16834    399.96678   -301.06067    27119.522 
  110400    614.04824    5.3471818    105.53809    363.58237   -538.99012    22526.988 
110500        0.24516548493203779713 12.237561690440079687 0.26719576719576720869 25 103.83369608746184554
  110500    646.60794    1.9149757    123.81624    396.80084       520.34    22526.988 
  110600    611.18268    5.5322283    145.59591    403.79775   -1670.0383    22526.988 
  110700    601.87624     4.360515    124.58349     384.6349    1111.1759    22526.988 
  110800    678.61258    2.0765991    119.00395    404.25501    692.04214    21123.218 
  110900      579.246    3.7997188    99.621889    360.78998    215.06932    21123.218 
111000        0.23020689634089983033 12.225760761656124131 0.27777777777777779011 25 96.716522134829517654
  111000    613.59887    10.922704    104.11536    374.72782    838.86647    21123.218 
  111100    617.24622    4.0519003    117.23402    381.36827   -517.86322    21123.218 
  111200    608.42775    1.7305089    105.01618    354.43859   -1151.6803    21123.218 
  111300    679.57612    0.4037867    132.04851    422.25863    256.68059    21123.218 
  111400    633.54192    5.6784359    114.83143    388.48618    389.80657    22672.032 
111500        0.2272001768721818582 12.348119947619558445 0.24603174603174601809 24 100.91201954549589459
  111500     657.5836    5.5700664    125.05272    398.85205   -386.69324    22672.032 
  111600    585.44222     7.410396    117.16579    357.24779    900.10721    22672.032 
  111700    616.51218    5.3259245    107.30871    359.50812    735.80511    22672.032 
  111800    670.41614    8.1209438    135.00718    430.74898    684.22158    24947.963 
  111900    622.02224   0.84791459    116.31097    359.81915    282.90889    24947.963 
112000        0.20275154087551594539 12.519580283706416068 0.22486772486772485524 28 84.946893557390495744
  112000    647.54112    2.8622872    113.57962    378.33685    476.65111    24947.963 
  112100    601.72672    4.9859886    125.67841    382.64026   -694.73318    24947.963 
  112200    648.51077    4.2542599    121.92762    402.70855   -939.38876    24947.963 
  112300    676.24991      2.73903    123.03588    394.82265   -898.40941    24845.301 
  112400    590.33726     6.344987     132.8973    369.52131   -259.80277    24845.301 
112500        0.21224842721406317336 12.28305994169593518 0.25925925925925924487 30 113.60097536515374372
  112500    631.64186    3.0824016    145.85441    399.78725    1816.8874    24845.301 
  112600    637.98484    1.7507282    133.60054    405.84257    990.32032     23094.83 
  112700    594.85496    2.3860933    115.47128     356.1844    144.54402     23094.83 
  112800     661.2816    2.5015008    120.59294    400.29184   -276.25738     23094.83 
  112900    737.16541     2.589608    123.90226    457.22374    63.829537     23094.83 
113000        0.24013164287987184831 12.068335006310208612 0.30952380952380953438 27 111.79386284422136555
  113000    634.02148    2.5454439    127.07657     399.0583   -170.96853     23094.83 
  113100     621.1703     11.22295    126.33283    370.16661    316.13655    21285.943 
  113200    550.07143    2.7850721    108.42922    336.53729   -1683.3374    21285.943 
  113300    654.37092    1.7859501    132.22928    408.82427   -696.55284    21285.943 
  113400     596.1161    4.1164902    138.64211    377.91623    771.40931    21285.943 
113500        0.24312460804165705874 11.937771808975307763 0.32539682539682535101 21 80.254139589264525512
  113500    630.04892    4.5693646    116.95325    365.71867    764.08344    19682.487 
  113600    651.30688    4.0244717    139.75759    410.84553   -410.81611    19682.487 
  113700    611.82813    1.8276052    113.26185    352.49541    815.25591    19682.487 
  113800    584.44207    4.7022408    142.33862    371.02395    657.51737    19682.487 
  113900    637.62368    9.3786521    134.61533     391.9923    779.62704    21695.383 
114000        0.25424100361879392596 12.303161337663627961 0.29894179894179895296 24 108.87630417034498009
  114000    636.15074    2.4906654    140.53432    397.10547   -384.23355    21695.383 
  114100    594.35454    3.0098133    121.57551    359.30549   -327.41658    21695.383 
  114200    635.03483    3.8408212    142.30793    400.78911   -429.76445    21695.383 
  114300    566.55327   0.31463128    131.79394    377.00603   -2241.8011    21695.383 
  114400    647.86977     4.958706    100.05521    379.24097    848.85509    22820.334 
114500        0.24240871676054556727 12.451558231156369061 0.28835978835978837154 21 119.12357835774102455
  114500    653.88668     2.685353    134.88463     415.3886   -193.25817    22820.334 
  114600       604.21    6.4728429    117.58005    364.03336    1700.5961    22820.334 
  114700    665.22967    3.7658092    115.99302    435.42612   -54.422068    22820.334 
  114800    620.91506    8.4183405    119.29268    396.76611    737.32956    22820.334 
  114900    669.88942    6.2106084    127.55297    408.46194   -1064.8115    22820.334 
115000        0.24473938502563580277 12.478855644352712773 0.29629629629629627985 27 61.330329832565851689
  115000    624.82012    3.0030049    107.62611    344.42578     574.9904    23214.851 
  115100    591.67068    2.5207965    141.03436     372.1139   -836.09815    23214.851 
  115200    630.51177    4.6196053    144.59392    396.97697    259.95684    23214.851 
  115300    639.10276    6.0978754    117.27692    381.37563    610.33297    23214.851 
  115400    635.71971    6.9909013    120.25516    392.10498   -824.17874    22191.762 
115500        0.25273642558838826933 12.154340212666992826 0.30952380952380953438 28 121.57503447842502453
  115500    655.30009    4.3907751    129.32154    418.48045   -841.45648    22191.762 
  115600    645.60427    5.0701525    131.02053    397.48503     1544.881    22191.762 
  115700    674.48127     4.211184    118.25428    390.35244    46.338063    20199.256 
  115800    571.49561    2.3382353    120.88132     339.3777   -144.09192    20199.256 
  115900    648.39645    7.8160955    145.35557    408.00447    1828.4649    20199.256 
116000        0.24938789557042362333 12.172996399167598014 0.26984126984126982629 25 96.392041052728586692
  116000    620.86283    2.9352548    124.99896    377.69451   -137.02607    20199.256 
  116100    575.90868   0.81575909    113.72298    352.70333   -1184.9829     21767.47 
  116200    659.73205    2.9674922    131.22987    407.66987   -629.31561     21767.47 
  116300    566.53384    7.0984047     137.9237    374.70679   -574.40473     21767.47 
  116400    686.62153    6.2435542    126.38488    401.25709   -505.21135     21767.47 
116500        0.26725626089941678654 12.287809866964357397 0.28306878306878302531 23 96.477679826193678991
  116500    666.87557    2.5068556    133.66876    398.62775    726.64973     21767.47 
  116600    575.50409    5.0897531    138.92345     380.3921   -1643.1647    22813.061 
  116700     683.4906     2.071047     140.1853    437.40677   -272.80819    22813.061 
  116800    615.29413    2.6449159    126.22801    399.65846    232.93791    22813.061 
  116900    625.12239    2.3277501    124.06683    365.27122   -7.4429257    22813.061 
117000        0.27181994064439057857 12.293668998295013139 0.27248677248677244389 20 113.75878818252297719
  117000    671.12236    5.0290637    126.03828      417.833    1348.7206    19861.307 
  117100     656.7133    2.2239125    129.55888    409.70571    564.32554    19861.307 
  117200    610.52949    7.3877584    127.60797    379.93912    903.21258    19861.307 
  117300    656.02434    9.4130161    114.95789    398.18908    91.808235    19861.307 
  117400    671.28015    1.4105692    161.42419    424.39544   -134.91124    19861.307 
117500        0.2752140951643171074 11.675096466139248008 0.31481481481481476958 29 84.843756481674944325
  117500    632.55245    5.0186661    139.93626     371.4426    1021.0608    19861.307 
  117600    612.91811    8.7669708    133.47585    393.78555    1356.4695    19981.685 
  117700    695.51009    9.1107506     139.0541    423.69566    204.39951    19981.685 
  117800    656.80486    5.7729402    127.22624    383.45885   -2529.0074    19981.685 
  117900    649.49793    2.7042328    131.78008    373.63201   -283.36139    19981.685 
118000        0.27316181859413002364 11.685195199138261657 0.29894179894179895296 29 64.883969065147510946
  118000    578.97429    4.0033515     126.2395    327.20745    1728.1151    19981.685 
  118100    650.17266    2.1173364    122.58149    375.53137    999.92458    19981.685 
  118200    641.23191    2.5556597    126.89916    380.93844   -1208.1822    19580.246 
  118300    692.45922    5.4022568    129.59811    420.90471   -247.03024    19580.246 
  118400    592.92596    2.6665342     144.4368    374.19479   -890.12838    19580.246 
118500        0.27061982584914817673 11.763355705933888018 0.29894179894179895296 24 73.004038091104021646
  118500    689.04601    8.4587366    121.37945    385.19916    1749.1356    19580.246 
  118600    606.15601    7.4755917    139.10466    410.76878    -122.0386    19580.246 
  118700    665.03513    12.338727    148.66123    426.70388    869.16836    19580.246 
  118800    604.26721    4.4782524    126.50673    360.03821     388.1473    19580.246 
  118900     684.2722    1.0887395    121.80986    411.56437   -524.97521    19413.813 
119000        0.25419881280750106223 11.798796003629931306 0.30687830687830686127 21 110.41522849834002784
  119000    660.26331     3.921593     132.4147     409.5694    2284.2532    19413.813 
  119100    571.73724      5.31275    116.95956    354.56428    1454.0126    19413.813 
  119200    654.67015     0.269787     139.0522    411.19766   -590.02818    19413.813 
  119300    662.88313    3.2974027    118.06425    365.67004      -788.76    19413.813 
  119400    534.69953    3.3579165    124.93775    332.55557     106.3816    19138.847 
119500        0.26337781328173270889 11.798870656269352608 0.31746031746031744269 19 104.97544625168680454
  119500    630.12418    1.1590766    133.27567    390.47408   -588.24596    19138.847 
  119600    653.35538    3.5162921    124.35167    399.95516   -1054.4865    19138.847 
  119700    638.43214   0.56272495    105.83563    344.37996    480.16155    19138.847 
  119800    635.67164     1.002439     139.9485    391.77303    -1780.489    19138.847 
  119900    597.58855    6.7796042    155.71801     402.3456   -1140.3596    18111.455 
120000        0.24920214699120127322 11.712668886431655935 0.31481481481481476958 30 110.15115180902448344
  120000    737.57182    3.4361535    144.33978     444.3325    33.139586    18111.455 
  120100    612.33123    6.4471451    129.70406    391.47065    1875.2406    18111.455 
  120200    596.56342    4.3262666    146.61112    405.52518    1738.5983    18555.401 
  120300    723.17428    1.7930999    128.50479    437.34059    1974.1419    18555.401 
  120400    615.11855      5.79347    140.75721    419.41223   -490.27765    18555.401 
120500        0.24844447630408442174 11.607829839254417692 0.29894179894179895296 34 88.60283396914994114
  120500    661.46185    7.9899038    111.77236    388.30004   -356.26353    18555.401 
  120600    586.74441    6.5895127    141.06897    377.76202   -2515.6554    18555.401 
  120700    735.20034    5.2447046    124.21109    429.01358    977.97128    18555.401 
  120800    642.56588     3.948341    119.04958    376.62187    851.85192    18555.401 
  120900    669.98605     1.195084    134.46475    401.23943    2059.2501    19295.365 
121000        0.26583830654519108316 11.84633763547216212 0.28306878306878302531 23 163.55686695501682948
  121000    676.71529    17.695872    166.26315    470.16515    144.57237    19295.365 
  121100     614.5521    5.8986889    139.99384     398.2879      858.668    19295.365 
  121200    688.80401    3.9484246    137.90396    415.43376   -441.52409    19295.365 
  121300    767.67509    7.6546657    143.41669    468.82056   -1386.5508    20468.165 
  121400    679.16227    4.2328528    113.78276    389.50929   -1126.8253    20468.165 
121500        0.24491393731544403023 12.306488512845751515 0.23280423280423279131 20 102.59942136358047549
  121500    660.12246   0.99151838     131.2327    401.68977    2375.2222    20468.165 
  121600    683.99412    2.0275001    162.97175    457.33891    3000.3605    20468.165 
  121700      588.712    5.2678146     156.2734    412.93699    583.38637    20468.165 
  121800    648.42378    1.6485988    127.44164    391.51797    514.91786    20468.165 
  121900     617.3543    5.7885875     124.8073    380.14717    3373.7109    22209.472 
122000        0.2286250041257769372 12.563305144641876865 0.23015873015873014595 21 143.80688383985605583
  122000    644.42912    3.4081073    158.98658    435.78685    750.39653    22209.472 
  122100    619.78145    5.9103669    132.47714    384.68857    1547.6557    22209.472 
  122200    707.81929    1.1320192    126.33722    459.00818    17.707756    22209.472 
  122300    668.00251    1.1138032    137.24176    429.88637    739.63469    22209.472 
  122400    647.96314    3.4971705    116.38874    392.94042   -63.446003    22209.472 
122500        0.23128922221048719976 12.710870218664409137 0.21164021164021162846 19 111.37097373519506505
  122500    705.89783    1.6700403    118.40004    431.20137    873.42361    22209.472 
  122600    635.29864    4.7913505    143.75788    414.87864     192.4819    21514.341 
  122700    634.09152    4.6570872    152.42284     436.7309     190.6913    21514.341 
  122800    672.03418    10.188367    135.25935    426.33053   -413.30243    21514.341 
  122900    611.18084    2.7721942    133.81389    403.48913   -622.33724    21514.341 
123000        0.22112150606735997416 12.840521125659723367 0.18783068783068782026 19 134.04676809478809218
  123000    658.58729    2.2214911    142.65726    432.44156   -1727.8512    21514.341 
  123100    688.92306     1.059913    131.95249    416.01944   -238.73342    22386.239 
  123200    631.78218    1.7457184    125.94682    396.20445   -2179.3306    22386.239 
  123300    633.92803    3.7643416    151.43663    422.25022    156.01976    22386.239 
  123400    648.63842    5.8278187    124.81039    401.54456    281.12891    22386.239 
123500        0.22682729611662993952 13.044029966022392841 0.23544973544973543667 21 79.982459138425539891
  123500    643.65073    8.6153581    114.19449    371.60975    753.55225    21621.356 
  123600    681.94253    6.3631451    133.61204    430.36356   -1618.1133    21621.356 
  123700    619.75229    5.0148395    129.24574    392.02861      -1646.5    21621.356 
  123800     569.3889    2.6178047    115.86616    340.43199   -1173.0389    21621.356 
  123900    665.45339    9.0397414    126.32297    401.39232    1607.4729    21621.356 
124000        0.22523545436071945591 13.226116448586436647 0.21957671957671956453 21 107.52919885518332421
  124000    658.80085    2.5873034    118.37459    406.02075   -1579.9299    21621.356 
  124100    617.04853    5.5888859    131.93493    342.28559    1320.1274    21621.356 
  124200    671.17619    3.1740118    116.94813    379.63877   -587.64842    21621.356 
  124300    691.23427     4.054922    122.57603    407.21669    283.85247    21798.978 
  124400    611.64878    2.1084936    136.96244    401.88944   -348.73623    21798.978 
124500        0.23220763893547699541 13.475497200176102197 0.24603174603174601809 22 84.753517843445095536
  124500    649.46401    0.9111623    107.75862     379.0147   -1079.0995    21798.978 
  124600    668.81179    4.8290754    131.78948     439.3698   -140.33011    21798.978 
  124700    586.69007     7.446553    124.70947    383.09639    -878.4392    23618.586 
  124800    663.47934    1.0257313    127.94911     420.0142   -222.03274    23618.586 
  124900    648.88287    5.4367555    130.27148    432.96803   -566.47944    23618.586 
125000        0.23158174029193165366 13.739365388196810969 0.23280423280423279131 22 93.795921558224620185
  125000    584.58188    3.5653304    116.75949    358.66011    -1436.484    23618.586 
  125100    639.04708    3.2656649     131.2505    410.82714    546.37659    23618.586 
  125200    654.59741    2.5926216    121.48189    405.15833   -631.40816    25977.329 
  125300    684.91199    1.2469591    158.57198    461.81232   -459.64537    25977.329 
  125400    666.95226    3.0096192    149.11824    428.55732   -540.20897    25977.329 
125500        0.21280879186161569261 14.030043343340407702 0.24074074074074072738 22 113.38611321911730556
  125500    657.51704    2.5206563    129.01964    411.29599    -587.6549    25977.329 
  125600    741.54453    1.9820464    136.14614    444.13227    968.58582    25977.329 
  125700    576.11791      8.18507    132.61409    381.21902   -836.44873    25577.666 
  125800    643.48253    3.4217991    135.51054    416.16672   -428.55826    25577.666 
  125900    585.36926     4.223708    129.38911    375.15996    40.149237    25577.666 
126000        0.22626175388622543627 13.877162140659329737 0.24867724867724866344 15 100.87324729499178488
  126000    661.35241    5.0557107    118.91917    400.52087    1470.3817    25577.666 
  126100    665.34964     4.726423    130.88626     429.1282    341.67002    25577.666 
  126200    598.48563    3.1608294    115.10677    375.58494   -1233.5357    25577.666 
  126300    643.98292    1.8326457    124.84457    380.57545    344.79742    25577.666 
  126400    728.25081    9.5789679    121.02593    471.37523    51.498005      26758.7 
126500        0.22083578966760569751 13.876600797923769548 0.24338624338624337273 24 98.474023005263205732
  126500    730.45177    6.2366173    118.77307    429.42939   -240.67567      26758.7 
  126600    600.20278    11.288799    130.02931     421.7922   -828.54528      26758.7 
  126700    667.04589     1.380449    117.08324    403.55593   -162.19108      26758.7 
  126800     661.6971    4.8101428    111.87695    396.93593    435.64104      26758.7 
  126900    655.91923    8.9313638    125.30454    405.58557    636.23592    24569.894 
127000        0.22111243648752484936 13.908494647800949906 0.24074074074074072738 25 80.740760986364762175
  127000    593.05766   0.99371633    108.15617    349.44518    705.73661    24569.894 
  127100    742.49292    4.0434492    111.17169     409.2058   -12.096226    24569.894 
  127200    675.74892    2.5790231    120.21991    394.10745    923.83279    24569.894 
  127300     696.4202    6.2879285    130.72907    430.98876    12.082461    24569.894 
  127400    712.06043    4.0260995    100.67564    409.40213    258.62841    28734.668 
127500        0.20958310672750921078 14.098590212945556033 0.2037037037037036924 20 140.49123859121294799
  127500    623.37084    9.4114198    125.12579    422.93005    229.65079    28734.668 
  127600    671.14283    2.1798064    126.21046    429.56538    556.53546    28734.668 
  127700    608.30736    4.9449794    113.96135    396.62966    777.39116    28734.668 
  127800    677.93612    6.9103075    112.52453    419.69258    314.16159    28734.668 
  127900    711.97438   0.64972288    134.99551    449.95822    -394.3497    28734.668 
128000        0.18741110224572163356 14.312638034846612456 0.16402116402116401206 21 149.74471804584675283
  128000    678.21903    3.1595318    135.81701    457.03432    97.343614    29326.235 
  128100    591.16418    2.5561037    148.19969    412.89687   -315.57583    29326.235 
  128200    671.51248    4.0323284    139.83886    461.89313    1270.6909    29326.235 
  128300    691.48975    3.6853101    119.76101     445.5193    742.28018    29326.235 
  128400    643.90867    6.5784475    132.45151    428.25767    128.70338    29326.235 
128500        0.17486101090298877825 14.527702132922080125 0.16666666666666665741 21 139.46623720054259365
  128500    672.51279    3.9604751    117.85995    444.17043    2.0049039    29326.235 
  128600    677.58834    6.2111207    138.66405    454.30427    756.45688    29747.547 
  128700    648.85797    1.3292338     115.7159    409.62779   -525.59476    29747.547 
  128800    737.27587   0.12370008    131.49683    466.67268    -412.4135    29747.547 
  128900    667.00596      5.11122    134.78109    449.27294    645.72572    29747.547 
129000        0.16260378896275184957 14.827410535658179569 0.14285714285714284921 13 145.37631206233558601
  129000    655.08093   0.66080823    140.16158    442.18243   -708.67818    30776.587 
  129100    665.76222    12.948118    125.10866    446.69919    1549.5557    30776.587 
  129200     717.8661     1.278495    121.91463    444.73125    428.07393    30776.587 
  129300    613.23213     2.171843    144.43537    410.86916   -666.56597    30776.587 
  129400    670.53541    2.5132696    163.70345    472.19207    583.49137    30776.587 
129500        0.17625301778904850503 14.493463212690890884 0.15873015873015872135 16 141.60377909219616299
  129500    627.45433    2.7409786    141.68033    425.89275    449.97779    32318.532 
  129600    664.06336   0.22564328     150.9722    427.70955    1567.9142    32318.532 
  129700    734.16189    1.4304413    131.55756    452.13483   -89.269663    32318.532 
  129800    675.45477    4.8916611    139.72122      450.102    -291.8521    32318.532 
  129900    618.13224    0.6449753    135.59864    407.43797    438.69062    28232.055 
130000        0.18864823956601720067 13.883220550907154234 0.21428571428571427382 24 156.24535022162274345
  130000    722.14948    5.0644116    141.41145     483.4391   -170.34664    28232.055 
  130100    597.78339    1.0123123    140.85811    421.79337   -14.563289    28232.055 
  130200    636.63809    13.754483    138.86204    421.74614    479.90555    23805.776 
  130300    700.44765    3.7231322    161.32361    489.43994    578.91639    23805.776 
  130400     647.2929   0.49629908    145.00506     422.1971    212.34701    23805.776 
130500        0.20043588217131508289 13.602292262990596683 0.20899470899470898311 18 128.13804407808103747
  130500    665.79818    4.2821171    132.32341    429.79997    1009.3073    23805.776 
  130600    725.69028    5.5460823     146.6441    456.53272    160.73743    23805.776 
  130700    610.01269    5.3725149    144.58954    394.28771   -822.42874    21560.642 
  130800    688.35675    4.0446359    147.11295      452.862   -250.51227    21560.642 
  130900    648.34038    3.5866343    148.59269    449.99883   -755.20793    21560.642 
131000        0.23343635565857151493 12.978353223470444178 0.24338624338624337273 26 143.64532615529927284
  131000    657.46372    5.6807264    129.71566    441.53105    47.735416    21560.642 
  131100    620.64521    6.9001341    158.65244    431.25718    1144.1357    21560.642 
  131200    624.68742    6.2697453    129.14172    384.26572   -1864.7148    21560.642 
  131300    725.49652    3.7368562    158.73154    457.11602    547.71127    17656.659 
  131400    643.81808    3.4950778    135.44278    401.05296   -333.29734    17656.659 
131500        0.23981989858822141959 12.714816501504492052 0.25396825396825395416 26 95.657602349676324138
  131500    689.84781    2.9924205    125.58405      408.216     1323.816    17656.659 
  131600     708.5782    4.5899556    158.23052    482.08162   -215.40134    17656.659 
  131700    642.19909    5.6914446    139.06262    418.02639    784.88358    17656.659 
  131800    666.79586    1.3665713    158.51098    440.71056    132.76401    15245.958 
  131900    606.75686    5.4442334    106.34229    375.93895   -1010.7311    15245.958 
132000        0.24294463604983640437 12.221932806585854792 0.29629629629629627985 31 109.10854201748917092
  132000    697.44728     4.226792    131.84609    425.11014    2574.1323    15245.958 
  132100     612.2384    2.6725361    143.91082    409.21562   -649.16595    15245.958 
  132200    555.52806    2.6062995    120.07421     350.4157    687.09251    15245.958 
  132300    661.11894    0.7685709    143.53057    421.27953   -1119.0275    15245.958 
  132400    644.28852     11.85826    118.54054    425.00192    1969.7474    15245.958 
132500        0.24102747913872843433 11.955704602382192903 0.30158730158730157056 34 125.69862745583202468
  132500    690.86589    6.3836268    148.57373    438.71831    1364.4919    14511.149 
  132600    589.77724     1.952774    130.68546    382.37975    983.08947    14511.149 
  132700    704.73935    2.9481749    134.08477    442.23846    1545.5993    14511.149 
  132800    743.35245    7.3256829    116.68365    431.66842    -1320.199    14511.149 
  132900    663.90784    2.9154666    133.94482    410.68023   -4398.6038    14999.351 
133000        0.25500303436631460707 11.80768673032410554 0.25661375661375662727 26 97.465083674602126962
  133000    675.02272    1.6561682    116.80091    403.30649    1846.7389    14999.351 
  133100    740.03579    9.1557046    121.30608    448.02435    -450.2247    14999.351 
  133200     586.8608    4.0555926    123.88384    387.04219   -1944.7157    14533.294 
  133300    692.42778    4.6554834    142.11237    423.70952   -1039.7879    14533.294 
  133400    690.86832    3.2243842    115.17929    413.38299     1344.997    14533.294 
133500        0.29266318667090518435 11.512461842623254782 0.30952380952380953438 29 81.555548808688115514
  133500    679.69368    3.0716953     124.2867    389.51329     1086.186    14533.294 
  133600    634.89231    2.8687865    126.47989    408.83756   -2234.1118    15010.265 
  133700    673.12587    3.7931312    119.53951    396.74919   -1377.4681    15010.265 
  133800     671.0278    1.3863232    115.37695    379.95297   -1023.3921    15010.265 
  133900    699.75012    2.4631184    146.04419    451.24057    675.01711    15010.265 
134000        0.31019996345055866893 11.307893253345872253 0.33068783068783069723 25 86.183020881242768496
  134000    672.46609   0.86634404    110.19262    390.86606    1423.7976    15010.265 
  134100    673.78353    5.3798386    110.79684    397.78355    1869.0217    15010.265 
  134200    685.52564    2.9299756    128.68341    418.20056   -269.23647    15010.265 
  134300    770.33317    3.7472216    138.81647    474.76616   -484.32047    18196.988 
  134400    636.48938    9.4501086    124.13229    401.05405   -1273.9293    18196.988 
134500        0.28805543975546993307 11.257281539583493313 0.32010582010582011581 25 110.62307605533429467
  134500    698.51195    5.0346428    127.55555    427.10705     1409.795    18196.988 
  134600    636.22694    5.2129874    127.76939    385.46965   -649.64006    18196.988 
  134700    609.55771    2.9152973    125.81982    373.00895   -1935.0469    18196.988 
  134800    667.98218    6.4810647    126.02116    415.64378   -1209.8141    21138.154 
  134900    678.61088    3.1325613    126.97937    429.41798    -147.2679    21138.154 
135000        0.26555211481694829256 11.666558799427036774 0.28571428571428569843 19 76.066413115408280987
  135000    638.65606    3.6216771    111.84333     365.4307    1147.2955    21138.154 
  135100    702.27757    5.7128168    120.61034    419.31523    165.98277    21138.154 
  135200    692.33718    10.029867    112.45881    392.29552   -599.77645    21138.154 
  135300    560.09638    2.6826658    117.80469    341.40074   -2128.2648    21498.533 
  135400    692.75171    1.6381773    128.71953    410.87277    1039.1657    21498.533 
135500        0.23732913663973495555 12.293601125494372894 0.27248677248677244389 25 116.8336721935636433
  135500    655.15503     3.341807    141.91111    413.67336   -1152.0996    21498.533 
  135600    713.99274    23.526795    127.09832    447.56611    1668.8648    21498.533 
  135700    592.01871    4.9490099    145.01321    392.66628   -622.03057    21498.533 
  135800    696.43858    1.8890297    142.84607    433.90359   -1515.7954    23616.297 
  135900    696.89664    4.8579478    131.84686    418.66313   -731.27244    23616.297 
136000        0.22182315242341973938 13.046304484288516079 0.20634920634920633775 21 129.9563860827592805
  136000    673.60413    4.4599969    132.41372    435.15505    1234.1282    23616.297 
  136100    658.70511    4.7490042    149.54081    465.38287    3256.5595    23616.297 
  136200    627.26906    2.9990248     131.5472    413.66976    668.01243    24457.004 
  136300    712.61175    8.7981314    113.95856    448.21476   -771.12977    24457.004 
  136400    675.69094   0.50550976    129.91823    445.36405    251.63756    24457.004 
136500        0.2060120442834167398 13.537539552828226519 0.15873015873015872135 19 130.51765845183746251
  136500     639.1982    12.354279    131.22688    420.12758   -2046.8458    24457.004 
  136600    700.90986    3.6645658    133.02567    447.62184    202.04745    20958.587 
  136700     625.3802     4.834824    117.61417    378.18602    317.92347    20958.587 
  136800    766.98869   0.77419531    123.91339     439.9879   -592.29279    20958.587 
  136900    642.65251    9.1991154    135.65902    427.27745    1095.6337    20350.969 
137000        0.17883190073401841746 13.719333399342797719 0.21693121693121691917 27 100.83612433849148715
  137000    672.42839    5.9514662     113.0739    405.50208   -2075.4207    20350.969 
  137100    608.28377    9.5076253    110.98217    372.43965   -449.24474    20350.969 
  137200    773.79587    2.7893315    125.27563    435.58555   -1133.9532    20350.969 
  137300    634.44281    7.5162226    111.42307    404.73199   -767.24358    18770.944 
  137400    735.60118    11.157097    137.66178    471.38705   -2332.0757    18770.944 
137500        0.19289866271184671898 13.819335036329183808 0.2275132275132275006 24 97.857837536297509473
  137500      682.056    2.1491622    117.77716     406.8859   -856.08383    18770.944 
  137600     641.2351    4.5400894    132.09083    415.07882    588.33788    18770.944 
  137700    720.23952    11.355868    120.09002      458.684   -1966.6828    22119.027 
  137800    634.54352    4.3539828     137.2909    423.61687   -457.33032    22119.027 
  137900    691.25876    8.1761576    132.17335    442.91174    339.78215    22119.027 
138000        0.18663726982110737107 13.932607100041293435 0.21164021164021162846 25 137.9647362780299602
  138000    687.95153     4.706274    139.98883    449.66397    192.50438    22119.027 
  138100    654.20982    2.7023628    138.59358     435.4424    306.63127    20922.813 
  138200    709.85803    1.4407785     120.3517    458.62615    1367.3627    20922.813 
  138300     621.2674    2.9479857    125.35342    392.46606   -1952.2453    20922.813 
  138400    752.99471     10.18279    125.06561    446.08271    493.24523    20922.813 
138500        0.21391857561109481334 14.025873390066943003 0.25132275132275128104 29 97.706567343484152843
  138500     622.9251    2.1799741    115.99447    379.94342    896.52018    20922.813 
  138600    688.13661    4.9327188    113.83843    409.11714    251.24105    20580.376 
  138700    690.54688    8.3798366    123.65686    441.01991    414.76946    20580.376 
  138800    693.09908    11.537207    176.22213    518.67094       14.982    20580.376 
  138900     716.2332    5.1800406    131.75751    446.75387    672.22467    20580.376 
139000        0.19723100947574118136 14.283686112346554609 0.21693121693121691917 24 122.4380653775051826
  139000    673.85977    1.5262788    128.47128    427.75256   -230.60407    20580.376 
  139100    623.91893   0.59099046    122.79398    402.14296     20.71465    23665.648 
  139200    721.52517     1.255968    142.29375     460.4035   -516.97049    23665.648 
  139300    677.28404    3.4262011    138.71285    446.23972   -887.93422    23665.648 
  139400    647.81565    10.206116    104.42099    384.41965    690.36227    23665.648 
139500        0.18348381781648276379 14.449210082527262244 0.2037037037037036924 16 149.84803858942876786
  139500    674.32681    1.2895607    129.77175    455.37414   -3336.6574    23665.648 
  139600    706.29099    4.9820959    125.34293    449.98418   -148.90936    23665.648 
  139700    621.28812    4.0146911    116.30569    400.76188    595.01921    25719.188 
  139800    720.78836    3.7942734     126.9655    479.56767    -593.7633    25719.188 
  139900     677.5106    2.7409765    127.29661    429.67721    421.71674    25719.188 
140000        0.18207076966590116096 14.762572604646249985 0.17460317460317459348 17 145.52327280485641836
  140000    686.84209    0.1531412    140.26058    456.71983   -322.37126    25719.188 
  140100    678.97299    1.7030796    143.72321    464.72197    434.23295    24775.648 
  140200    649.08281    4.1997088    146.11571    434.46802     905.5672    24775.648 
  140300    707.31826    3.1285402    133.30474    449.69632   -650.28752    24775.648 
  140400    664.88739    5.8798441    150.59791    459.41253   -182.34571    24775.648 
140500        0.16766136695403355272 15.140557731771107086 0.12433862433862433172 11 132.29604534244478486
  140500    630.65801    1.1649612    138.68373    418.03655    1173.1442    24775.648 
  140600    687.61311   0.71632297    128.91472    465.80039    799.43847    26658.116 
  140700    664.13808     7.863839    137.76666    466.03737    804.25443    26658.116 
  140800    709.44087   0.38418307    165.86112    504.99157   -1000.4124    26658.116 
  140900    664.76597    1.4197826    138.09166    455.43103   -237.61558    26658.116 
141000        0.15356290015826282169 15.155934621559376652 0.10052910052910052352 10 166.16097985004836346
  141000    658.19596    3.2445027    148.56448    464.37846   -2505.7464    25419.943 
  141100     668.4627    2.6239237    136.53134    468.21788    452.55593    25419.943 
  141200    722.85741            0    116.74496    435.09319    176.23434    25419.943 
  141300    725.55877   0.20775747    118.26564    456.11226   -23.523705    25419.943 
  141400    638.63013    7.3767361    155.49808    469.84213   -1220.2498    25419.943 
141500        0.15757128170962586555 14.925896145885817035 0.1137566137566137503 18 134.4615452576243797
  141500    607.52991     4.120414    144.38883     409.7231    1159.8958    25419.943 
  141600    646.84576    2.2837855    157.50251    453.97658     172.1664    24390.838 
  141700    703.47256    3.6644296    153.67033    461.44316   -117.75579    24390.838 
  141800    632.00353    3.7227005    148.20285     420.5328   -513.02784    24390.838 
  141900    704.15177    3.2133123    160.21876    482.75499   -179.58998    24390.838 
142000        0.17588949052117694438 14.714911302603148613 0.14285714285714284921 19 143.02242260602699275
  142000     693.9211    13.486928    145.42595    457.42636   -888.40178    24390.838 
  142100    676.69302    3.1479568    114.04375    399.03453    871.29457    24100.933 
  142200    638.00569    9.7294043    136.91274    432.08108     729.6101    24100.933 
  142300    699.72878    2.5560498     142.4664    480.56626   -877.31823    24100.933 
  142400    643.42211    1.9268524    136.51194     415.6132    -849.9766    23098.983 
142500        0.18428347266958319817 14.704945419799164696 0.15343915343915343064 9 130.73050005681821517
  142500    711.82945    2.8467884    137.74043    453.24841   -471.15535    23098.983 
  142600    710.60787     7.322052    135.34562     476.7888   -247.29974    23098.983 
  142700    640.49971    2.3168002    125.92607    419.89118    1132.5027    24776.673 
  142800    726.62616    5.1498911    138.35621    480.13375      1009.22    24776.673 
  142900    660.82169    5.6127995    154.55827    474.80123   -845.77633    24776.673 
143000        0.20676241669614406349 14.4644256814913863 0.20899470899470898311 19 133.87233883707395421
  143000    581.53862    2.4728941    135.67421    397.35767   -2741.2584    24776.673 
  143100    668.69545     7.901904    129.95143    444.85593    1378.2194    25056.747 
  143200    703.35803     8.206019    154.98525     483.8688   -277.12859    25056.747 
  143300    673.99958    5.3599107    107.38724    418.86644   -80.085548    25056.747 
  143400    736.10885    3.4196507    133.11952    442.32952    392.85274    25056.747 
143500        0.22198008548919356819 14.138863946760588775 0.26190476190476186247 21 124.30457944451039509
  143500    682.85875    1.9865509    146.25895    433.69636    1285.4815    25056.747 
  143600    670.31865    3.3877966    124.15645    400.89651    -413.9733    28147.461 
  143700    715.62421    4.7527435    130.01449    435.76144   -445.59805    28147.461 
  143800    696.26594    6.2102661    125.32354    439.00264    1129.3063    28147.461 
  143900    749.09442    5.5382847    137.83564    472.85872     240.4371    28147.461 
144000        0.22154253121385200642 13.830845949628221447 0.28042328042328040771 25 111.58714748901584812
  144000    701.36869    3.3319717    134.11719    429.36547     149.5168    28502.946 
  144100    680.38039    2.9131724    138.65696    436.01393   -1144.0741    28502.946 
  144200    752.34897    5.6942051     128.2192    465.60472   -375.72233    28502.946 
  144300    662.94966    4.9203793    117.17795    403.63329   -44.278218    28502.946 
  144400    676.22177    3.2345045    133.77117    447.85316    965.57213    28502.946 
144500        0.21143579083866848034 13.987552800472030867 0.24867724867724866344 26 155.27858970029942043
  144500    687.90732    4.7918467    141.79342    466.95779    1086.3538    28198.365 
  144600    642.74612     2.097915    131.69651    413.04751    581.03253    28198.365 
  144700    695.10928    4.0802756    134.51549    438.46158    1542.7205    28198.365 
  144800    734.42819    1.2764955    134.19812    466.09755    9.8945075    29041.652 
  144900    670.10433    8.9085252    139.76652    436.13176   -587.72909    29041.652 
145000        0.21268133689749491033 14.002714118785414499 0.27777777777777779011 21 162.62941329191536965
  145000     746.6985    5.5959107    143.20302    500.94591   -874.56169    29041.652 
  145100    689.10094    4.1301947    133.64788    446.65347   -431.85136    29041.652 
  145200    688.40949    1.4492848    135.39102    453.91296    1078.3482    29041.652 
  145300    804.80162    3.8787185    167.43399    541.06385    1926.9618    32726.805 
  145400    725.14645    3.4688277    130.91185    458.75507    764.00738    32726.805 
145500        0.21169796495087067623 14.211097581463812745 0.25661375661375662727 19 151.45157177734583342
  145500    591.37589    1.3460876      147.743    419.39401   -490.27545    32726.805 
  145600    738.90279    4.4133675    146.12831    491.78715    -1075.469    34049.417 
  145700    668.99243    2.2103946    126.98548    448.55511    96.122304    34049.417 
  145800     727.2484    2.7501768    126.30442    439.67476   -579.72571    34049.417 
  145900    587.70717    7.8278966    132.93231    384.68113   -1358.1862    34119.527 
146000        0.21259014507747747702 14.245115802321551612 0.26984126984126982629 21 130.13479222892124199
  146000    716.92402    3.6722807    133.71682    454.96097   -774.94999    34119.527 
  146100    622.75838    2.5832898    166.96026    430.48836    -918.8971    34119.527 
  146200    645.08046    4.8795235    131.82597    446.52096   -290.19574    34119.527 
  146300    623.55388    1.3293544    156.20262    471.19523    522.50333    34119.527 
  146400    772.76034    5.8638898    128.58444    496.76134   -278.39284    34119.527 
146500        0.22071964744034464068 14.099640537357013059 0.30158730158730157056 26 122.85885177265215873
  146500    682.25013    1.5963608    122.34921    431.97488    427.84437    34119.527 
  146600    658.56866    3.4575464    141.85611    418.18909   -719.69799    34654.926 
  146700    826.16015    4.0101599    123.08364    470.83638   -274.53924    34654.926 
  146800    722.37668    2.8026126    127.16125    451.29979    1100.2351    34654.926 
  146900    679.89624   0.66332866    120.70659     407.3277   -548.42899    34654.926 
147000        0.2287114531269439921 14.081137429749709611 0.26719576719576720869 22 130.1713068994324658
  147000    705.76306    3.4201994    144.32721    449.94064   -1124.1112    33029.439 
  147100    725.38648    3.6095995    138.59516    462.19156    542.84696    33029.439 
  147200    659.64601    7.3227712    118.01622    408.21014    416.85286    33029.439 
  147300     717.9955    7.6397569    126.37166    446.78975    -313.3808    33029.439 
  147400    619.87537    3.0500261    120.80461     405.8035   -17.413798    34630.963 
147500        0.22826475769522466819 14.085844280099754755 0.29100529100529098914 32 107.4085500203180743
  147500    711.06734    8.7043193    118.80785    429.58116    1161.5816    34630.963 
  147600    666.92929    11.387526    142.46923    445.27788   -376.20678    34630.963 
  147700    716.21523    2.0385834    132.50076    466.02461   -63.816966    34630.963 
  147800    688.69336    0.5508518     146.5504    447.22225    1140.2372    34630.963 
  147900    703.48089    3.9255837    117.96848    436.82527   -961.26287      30700.8 
148000        0.22002970405367650031 14.215524569415828537 0.26719576719576720869 19 135.85672892539389522
  148000    773.45975    3.0058218    150.06321    486.29829    118.59873      30700.8 
  148100     674.5077    12.115767    129.31312    442.39494   -43.703532      30700.8 
  148200     771.8582    1.4949126    131.85583    466.16369   -579.51486      30700.8 
  148300    669.17945    5.5075736    124.95291    408.98927     481.6984    34964.836 
  148400    742.42268    6.6425357    147.20418    481.03039    226.55181    34964.836 
148500        0.20437730150453839451 14.002855328333451368 0.25661375661375662727 25 137.17829328335653827
  148500     672.0804    5.3730474    141.98372    441.68658    225.77431    34964.836 
  148600     673.6956    1.3566885    148.29173    439.20304   -1123.3296    34964.836 
  148700    777.74517    6.8299664    140.03994    511.02679    1017.1207    36148.285 
  148800    668.12117   0.49795154    142.86778     436.3041   -1222.7618    36148.285 
  148900    757.82825    2.1102967    121.29685    462.21302   -679.62597    36148.285 
149000        0.1950296204655899146 13.74028525689488589 0.24074074074074072738 22 166.20428910451855131
  149000    649.62923    5.8582878    154.82035    460.54033    438.07575    36148.285 
  149100    619.77287    4.2132931    146.07566    417.66382   -539.20507    36148.285 
  149200     712.8523    4.1252193     154.3313     474.8189    252.08864    33470.841 
  149300    737.53205    4.1826044    149.81774    492.85345   -818.11182    33470.841 
  149400    674.62704    1.4826739    158.64698    458.55929    285.09239    33470.841 
149500        0.19851455039706550343 13.643607554621238975 0.25925925925925924487 28 145.2100613428358713
  149500    672.82883    2.1891609    137.61367    450.05745    290.07288    34231.749 
  149600     787.3767    3.1840829    131.01007    485.56601    451.12812    34231.749 
  149700    666.99181    6.2122584    141.50097    439.78296    725.94655    34231.749 
  149800    662.30985    8.1677789    151.79972    466.48604   -785.27966      31355.4 
  149900    690.17267    2.3542329    151.12962    478.02862   -804.63309      31355.4 
150000        0.19835979840616835279 13.825562426523299919 0.25925925925925924487 35 127.37930529749274911
  150000    705.52447    1.6280164    134.60689    447.04054   -20.166769      31355.4 
  150100    727.33108   0.83842111    145.18808    498.95104    876.16269      31355.4 
  150200    650.11937    2.3784801    141.29908     439.2109    374.30064     32775.58 
  150300    742.16168    6.3952074    113.98844     461.1147    -488.9735     32775.58 
  150400    686.51633    16.798679    137.80123    487.55677    83.504501     32775.58 
150500        0.18843242259332776412 14.09315398246962836 0.21693121693121691917 24 136.55675346889540833
  150500    665.94448    8.7060684    137.07249    438.28496    -176.1062     32775.58 
  150600    736.85973    3.5909578    152.62714    484.43259    -125.3621     32775.58 
  150700    717.41447    8.2743799    149.20217    492.14693    41.224505    35645.126 
  150800    683.00368    6.9425381    131.48701    436.85856   -137.21834    35645.126 
  150900    740.15119     7.486071    124.96087    484.72302    66.649961    35645.126 
151000        0.17522126242859054068 14.281639477473062172 0.17460317460317459348 20 174.70106870037588465
  151000      714.379    6.6399314     147.1099    498.37414    530.79725    35645.126 
  151100    685.54306    4.6207893     133.2152     450.5573    239.20257     35203.75 
  151200     747.9792    5.2365161    135.98979    511.68488    102.71439     35203.75 
  151300    624.71248    1.2633691    136.60698    452.59659    257.14806     35203.75 
  151400    654.43588    3.7784594    131.14708    464.69649    326.10045     35203.75 
151500        0.15983115565766312094 14.302936364354403409 0.15608465608465607599 21 123.45865947347914471
  151500    817.84636   0.49258742     119.2608    494.01105   -446.33917    32335.255 
  151600    680.33529    2.9536723    136.94745    426.28577    702.57661    32335.255 
  151700    756.00405    4.2891175    133.60918    452.46831    1215.3424    32335.255 
  151800    754.39652     8.430957    167.28291    503.87924   -341.98272    32335.255 
  151900    654.16153    3.4618866    140.39132    422.83189   -1617.9151     27473.51 
152000        0.16998645637431863964 14.057833474258812245 0.16931216931216930277 18 156.34951892983056609
  152000    714.36939    3.7938181     168.3079    480.01824   -493.43827     27473.51 
  152100    649.78651    3.3925881    139.95938    432.92418   -603.10728     27473.51 
  152200    724.79137    5.7851995    123.24744    424.29819   -84.106583     27473.51 
  152300    744.24271    4.9445728     142.4549    478.92724   -245.84812     27473.51 
  152400    683.94063    5.0245118    143.66472    452.85285   -369.47325    30099.232 
152500        0.18851640838371863662 13.645419033019646093 0.17989417989417988419 14 120.06980660329635668
  152500    720.22625    4.1168535    142.01381    446.39217     883.0901    30099.232 
  152600    740.92024   0.45916799     140.2264    467.94435    344.56646     28601.64 
  152700     773.1476    2.7683942    144.10097     486.1047   -1084.0588     28601.64 
  152800     679.2307    3.2116852    139.37923    428.57876   -510.65055     28601.64 
  152900    768.66277    3.0921255    117.19321     459.7475    1214.4412     28601.64 
153000        0.22823035213537934407 13.25422472673122698 0.21957671957671956453 17 126.99511380534724481
  153000    679.26076    1.7289104    128.53167     434.7567     822.0526    24095.466 
  153100    682.93511    8.3676165    148.04679    456.19655    1316.8477    24095.466 
  153200    716.15272     6.458561     132.4494    463.96516   -541.86029    24095.466 
  153300    661.04288    7.6219292    132.14376    439.02128   -615.09393    24095.466 
  153400    734.86484    11.578671    128.04776    456.34654    1008.2598    24095.466 
153500        0.22863205287695828605 12.838718608262878362 0.22222222222222220989 19 156.0703583913884529
  153500    656.44136    4.0672023    156.84805    453.49286   -904.79965    23624.652 
  153600    752.65496     6.760396    147.29445    500.62715    2775.2355    23624.652 
  153700    654.76815    2.3757894    147.03068    433.19085    -1588.546    23624.652 
  153800    707.48176    1.5398686    151.87248    461.98639   -2836.1416    23244.684 
  153900    793.32788    13.124704    145.13148    521.99681    146.56513    23244.684 
154000        0.23148359603593157696 12.731374125852843449 0.24867724867724866344 25 130.83389153194553955
  154000    684.94315    8.6177225    146.17102    441.17007   -268.91226    24163.913 
  154100    647.27276    4.1416222    144.26428    427.79347   -155.63722    24163.913 
  154200    794.61321    1.2941069    147.30846    489.80785    668.35187    24163.913 
  154300    677.35592    5.6780484    129.79419    420.00135   -251.80496    24417.183 
  154400     714.0094    2.5156278    145.50267    449.05826    678.68426    24417.183 
154500        0.25015954181328742267 12.547925729256261818 0.26719576719576720869 21 149.03712812396489085
  154500    734.96857    7.7318502    154.49732    482.03899    1735.3324    24417.183 
  154600    671.19001    3.8172983    143.43138    408.87007   -24.933118    24417.183 
  154700    717.06754    2.3756091    147.83012    461.05054    895.86945    26368.541 
  154800    707.88807    14.314565    136.59962    447.11276   -1337.2713    26368.541 
  154900    672.20083    10.440431     139.3008    421.24646   -1183.3007    26368.541 
155000        0.27276678207658044961 12.194668556104790724 0.29894179894179895296 29 102.80752674063337793
  155000    786.38738    1.4374059    129.58417    459.10638   -975.21575    26368.541 
  155100    680.73313    2.9097339    122.41468    397.94131   -75.931172    26368.541 
  155200    640.05876    6.0279763    122.67654    360.69884    754.22946    26368.541 
  155300     674.2859    5.1045218     148.4883    437.21804   -726.36809    22574.152 
  155400    665.10743    9.7348364    174.64719    449.61613    300.98966    22574.152 
155500        0.28685632910892638892 11.944133430826267883 0.28042328042328040771 25 92.297872487506936068
  155500    695.51408     4.111604    127.02515    407.42357   -249.23118    22574.152 
  155600    749.73099    6.1181025     156.0533    489.43822   -426.17486    21242.318 
  155700    703.75551    2.3391019    148.18554    438.06928   -1653.4792    21242.318 
  155800    739.74583     8.118612      135.534    459.02652   -1616.7988    21242.318 
  155900    722.05617    3.5832055    162.06294    470.46751    -1061.981    21242.318 
156000        0.27514025746990322663 12.032010132537456215 0.28306878306878302531 22 111.87008175212116612
  156000    702.96893     8.638523    151.17214    430.37344   -58.626176    22261.681 
  156100    772.68094    4.0454235     145.2825    473.27481    49.358429    22261.681 
  156200    717.55839    1.4837622    152.55978    453.05411   -427.66417    22261.681 
  156300    671.39125    3.6476846    163.45764    437.95844    609.69373    23247.753 
  156400     774.2607    2.4401998    164.14696    481.37957    137.74018    23247.753 
156500        0.25866705984563953535 11.948161264150712668 0.29100529100529098914 24 103.33999961496738251
  156500    683.37775     3.091378    133.89547    412.96693    185.50707    23247.753 
  156600    744.25269    1.9089507    144.52736     441.3706    1221.3853    23247.753 
  156700    812.07829    6.1049835    147.99752    500.50789   -629.60659    23247.753 
  156800    737.04663    6.7292469    143.43925    466.51643   -20.661103    23247.753 
  156900    672.70912    6.6617676     151.7203    456.21626   -900.87017    24546.717 
157000        0.23710069451860810164 11.909428638597542971 0.26455026455026453558 33 120.69618215452541676
  157000    824.11362    2.9365108    132.65146    494.08816    1138.1487    24546.717 
  157100    656.24341    6.3720282    134.15977    413.72409   -489.10363    24546.717 
  157200    724.36294    4.8273853    127.25331    457.93845   -322.45951    24546.717 
  157300    709.40986    6.0893495    131.53211      457.634   -479.43203    24546.717 
  157400    672.93188    2.8027428    137.30558    434.34929    166.00305    26227.064 
157500        0.23688516566740053237 11.946186937994012212 0.25925925925925924487 25 134.66751632228337598
  157500     748.6406    2.1492756    145.06036    473.86394   -1890.7079    26227.064 
  157600    660.46475    3.6454558    128.67699    413.73421    106.12394    26227.064 
  157700    681.48769    2.7764919    112.42872    393.94054    201.28485    26227.064 
  157800    763.73168   0.99825589    140.25386    475.85005     539.2576    25995.139 
  157900    681.75168     5.012204    123.75431    429.15949     908.1195    25995.139 
158000        0.24743698236034764038 11.807734479534442329 0.275132275132275117 23 171.14681240306603627
  158000    722.78138    1.9140642    160.36843    498.62686    327.03995    25995.139 
  158100    700.75041    2.1612637    133.38946    470.86178   -1022.8742    25995.139 
  158200     706.5439    2.5771265    147.62233    459.48576      713.701    25995.139 
  158300    848.23962    3.2149517     141.9823    546.82995   -700.86492    25899.386 
  158400    654.84836    4.0728274    153.91581    459.77383    87.933318    25899.386 
158500        0.24691189822138764898 11.583847267061047503 0.28306878306878302531 23 141.82637751876333709
  158500    715.86045    10.110628    116.83352    466.17067   -111.04229    25899.386 
  158600    738.95918    1.5350476    153.91872     476.2168    1486.2574    25899.386 
  158700    682.30196    9.1795736    123.79533    426.56524    1444.3296    21846.801 
  158800    709.33627    4.1267021    142.53573    468.50148   -489.09855    21846.801 
  158900    629.42347    8.5406403    127.84663    394.18335    507.48321    21846.801 
159000        0.27002218828405910589 11.441062334656534105 0.30952380952380953438 30 117.40056813761528076
  159000    731.67414    3.1135599    117.69112    448.90977   -713.35925    21846.801 
  159100    713.06398    4.0375485    152.48898    470.02404    1071.8907    21846.801 
  159200    674.11455     3.015358    129.03732    400.09842   -878.98115    19028.138 
  159300    727.28399    6.6192525    141.55436    455.55096    720.75431    19028.138 
  159400    742.00877    6.2303655    139.02943    456.11149   -1487.6241    19028.138 
159500        0.24180624064487774016 11.394969848725841288 0.24867724867724866344 20 151.59557098135405795
  159500    670.52056    1.0859132    148.57271    455.39712   -849.32412    17381.341 
  159600     809.4433    1.1108901    151.41496    517.99637   -1561.6911    17381.341 
  159700    664.22591    4.0224425    158.54897    444.65999   -1573.6415    17381.341 
  159800     733.1627    4.6746707     123.5884    454.73774    309.32102    17381.341 
  159900     734.5838    16.518642    166.91462    516.25522    56.404707    15448.481 
160000        0.25880103440457191688 10.93703253369467987 0.26984126984126982629 23 127.1508828183603157
  160000    690.18117    4.5972463    125.45597    439.86033   -196.33983    15448.481 
  160100    738.34203    5.8521375     162.8109    479.15227    1300.8253    15448.481 
  160200     681.7134    7.4235414    141.65949    443.38976   -2399.5362    15448.481 
  160300    673.77167     5.618365    130.85349    438.56558     138.3095    15448.481 
  160400    709.34882    5.2575767     145.9394    468.63042   -476.54027    15448.481 
160500        0.24779002038810096775 10.894987114518448479 0.25396825396825395416 23 108.43225827030198616
  160500    724.11266     8.366591    126.64742    436.51549    2098.0842     14557.92 
  160600    618.03202    7.5659755    146.70442     425.3424   -1996.6923     14557.92 
  160700    694.90015     1.989967    150.45791     461.7964   -1065.5682     14557.92 
  160800    655.04308    1.7167974     132.1756    419.86988    463.52275     14557.92 
  160900    684.85221    11.444029    150.36111    455.23479   -1351.0228     14557.92 
161000        0.25345620464186097154 11.028293365464898912 0.26190476190476186247 25 143.96337859434584061
  161000    729.34696    2.2701798    137.37207    474.41818   -2039.4212     14557.92 
  161100    703.06544    4.7355408     139.1808    429.68418    818.71387    14531.802 
  161200     723.3446    6.5377278     149.6268    459.18274    -2533.745    14531.802 
  161300    735.75899    1.9738657    161.28334    493.45436   -3550.6539    14531.802 
  161400    644.13736    4.1542541    133.94721    424.15416    524.18783    14531.802 
161500        0.26289063953103669613 11.029825408348806093 0.28042328042328040771 24 134.53519199418647645
  161500    714.59244    3.4555173    132.56432    458.30497    126.69541    16301.811 
  161600    731.73934    4.6689983    139.55236    466.54972    289.70744    16301.811 
  161700    692.30278    5.2372381    134.97315    445.19025    350.09585    16301.811 
  161800    680.86776    1.5007928    131.36639    399.87974   -20.508921    16301.811 
  161900    747.91185     6.299941    135.24889    469.31053    1087.0924    16301.811 
162000        0.25666814557725808887 10.913774890240757642 0.29100529100529098914 30 139.98911578705877901
  162000    667.01189    11.543133    133.50711    442.20095    560.73898    17148.234 
  162100    779.38363    6.0634699    144.83678    501.33028    2363.9252    17148.234 
  162200    800.13441    5.2105182    134.39298    485.24842   -1643.9971    17148.234 
  162300    699.30333     5.383524    140.78243    438.17275   -751.45793    17148.234 
  162400    736.46456    1.4905416     151.0042    457.28752   -601.98668      19085.3 
162500        0.2556111417518776574 11.017906594895649164 0.28835978835978837154 27 93.026510970834095815
  162500    657.97891    7.2856186    120.65669    391.14565   -879.49006      19085.3 
  162600     736.4437    10.430009    148.68072    474.28479    1349.9319      19085.3 
  162700    693.48352   0.85987327    162.87091    489.77577   -1003.1165      19085.3 
  162800     709.1404    5.8607192    128.75823    455.04088   -327.08469     17502.21 
  162900    719.19311    13.453552    135.68443    482.77829    549.53138     17502.21 
163000        0.25834110091758605288 11.275658341929188921 0.29365079365079360674 24 159.09641860606524233
  163000      724.689    1.1227129    148.46145    487.44078   -458.01004     17502.21 
  163100    670.77168    3.6968937    128.16566    444.87834   -1771.2513     17502.21 
  163200     723.8951    3.5152763    166.93062    497.85997    1946.8723    19228.274 
  163300    715.22014    2.8826689    118.28004    431.00305   -2709.9179    19228.274 
  163400    755.72989    6.8227017    130.98348    459.78003    524.71918    21314.538 
163500        0.25060127161217538028 11.730411329183311864 0.26719576719576720869 19 135.42364354561914297
  163500     701.4132    1.9480199    139.66041    453.22213    505.20471    21314.538 
  163600    660.64455    1.4150806    147.26831    425.73459    899.19024    21314.538 
  163700    735.49713    5.2643491    150.04093    481.47056    656.90342    21314.538 
  163800    685.75905    5.3855196    151.02049    462.58524   -1365.6767    20672.494 
  163900    670.60742    1.3154546    125.40115    426.60822   -165.29128    20672.494 
164000        0.23769470053014651878 12.021886889109225649 0.24867724867724866344 27 155.21963633933688698
  164000    734.05892    5.2121669    144.93778    487.80935   -1402.4032    20672.494 
  164100    723.60485   0.85091835    148.00387     469.5919    -687.5931    20871.786 
  164200    634.20982    9.8243899    122.11527    421.79368    432.94674    20871.786 
  164300    782.43569    15.482503    124.68802    487.70169    1166.9386    20871.786 
  164400    700.61125    14.783258    141.80403    472.91577   -487.28478    21298.913 
164500        0.25957262165428923728 11.895990471367323238 0.28571428571428569843 26 103.18617050408685998
  164500    668.71311    3.6158068    110.37675     406.1688    81.274826    21298.913 
  164600    781.99625    5.5527429    105.26424    456.60567   -194.84288    21298.913 
  164700     721.8253    9.1720061    127.35452    464.00559     601.2253    22109.331 
  164800    873.48602    4.5084179    124.78379    504.52237   -482.63281    22109.331 
  164900    746.34967     3.106305    122.53364    440.01515    35.439971    22109.331 
165000        0.2742521776321494853 11.61793626186510231 0.31746031746031744269 28 97.048840317589053939
  165000    814.71985    1.9780622    123.96179    466.18466    575.08173    22109.331 
  165100    642.24894    11.689907    112.82887    404.51792    221.65899    19826.392 
  165200    728.73046    5.7331708    135.11767    464.05151     528.6348    19826.392 
  165300    705.67782    2.6045945    145.01492    451.51537    398.17626    19826.392 
  165400    644.67726    1.6744886    117.51404    385.42841    355.70285    19718.835 
165500        0.2841942936540367004 11.396071572628313717 0.33068783068783069723 28 124.59401176395492428
  165500    759.81662    5.0099106    150.82461     468.8541   -515.27756    19718.835 
  165600    667.25898    7.0370545    137.52396    455.36408    1017.6833    19718.835 
  165700    758.32804    3.9416945    143.02487    522.46794   -638.33925    19718.835 
  165800    759.12481    3.3494486    104.65631    443.97111   -254.16437    21563.936 
  165900    783.54883    2.0865303    133.24514    482.01766   -461.04144    21563.936 
166000        0.2662048834070252501 11.643672399187815714 0.26719576719576720869 17 157.37857284792394807
  166000    713.15671    6.2843957    134.61498    480.49784   -662.61764    21563.936 
  166100    683.76443    2.7915246    125.76377    430.71461    1813.5083    21563.936 
  166200    737.89881    7.1267209    136.26232    494.75858    648.51547    21563.936 
  166300    734.38975    1.3823465    136.13601    487.12509     122.0154    21563.936 
  166400    650.58686    7.7580159     127.1496    428.02454    1857.2408    22649.004 
166500        0.26702329068659041988 11.71084122831212504 0.24867724867724866344 21 147.14878764991644289
  166500     706.1907    1.2084198    146.65608    467.11188    1422.8559    22649.004 
  166600    713.95058     13.45608    129.31021    466.50241    137.77463    22649.004 
  166700    670.64495    3.3512785    121.12538     424.5476    -791.2804    22649.004 
  166800    751.16193    15.579494    140.24749    500.23918   -567.18043    22063.902 
  166900    765.23584    3.6856784    126.37565    467.06237   -1369.3372    22063.902 
167000        0.28931044358928342808 11.678290858592918156 0.29629629629629627985 26 120.43622197612509694
  167000    643.29929    3.9404841    122.46709    411.90428     397.3727    22063.902 
  167100    784.74757    1.0717585     124.7188    466.27512   -1448.5334    22063.902 
  167200    707.88243    9.1828622    133.19069    466.16159   -421.08511    20514.525 
  167300    646.95717    5.9767112    124.24212    404.37284    1017.4898    20514.525 
  167400    779.27838    5.0709591    122.70522    467.93707    556.91601    20514.525 
167500        0.29581916714231526466 11.235028302760264651 0.31216931216931215198 26 152.06626017289860897
  167500    693.14911    11.858506     132.5537    466.12043    65.834435    20514.525 
  167600    776.59188    6.7168136    133.39042    499.55401    76.112319     16043.68 
  167700    714.65623    7.0040632    152.32195    500.00879   -1568.7721     16043.68 
  167800    681.25629     5.910717    140.80623    431.52991   -80.262221     16043.68 
  167900    748.50999    9.8626728     133.0149     469.9109    -1867.683     16043.68 
168000        0.29104149016048669329 11.201750353379145153 0.32539682539682535101 21 141.00005426669056874
  168000    928.94532    3.8949742     152.2476    561.88951    1043.9627    15656.939 
  168100    725.83619    5.4927713    141.96823    464.27201    525.89142    15656.939 
  168200     699.6267    6.3205377    130.05635    462.30298   -1272.2696    15656.939 
  168300    804.18299    3.7630104    151.09108    510.14772   -482.26006    15656.939 
  168400    711.48279    3.3870568    117.68462    430.60644    -325.5292    15619.798 
168500        0.27196919448655298979 11.574895879273157107 0.275132275132275117 27 168.25639943737778026
  168500     712.5472    7.6964141    137.31688    491.09951   -2864.5115    15619.798 
  168600    748.07585    2.7365477    141.96163    497.87256   -3282.0281    15619.798 
  168700    769.45904    8.0541997    119.76757    467.07623   -233.48997    15619.798 
  168800    584.57669    2.6516774    118.63622    381.27171    137.47941    17079.718 
  168900    761.38871    3.8694551    126.26914    473.43636    277.17139    17079.718 
169000        0.28540421895360618132 11.335960952120650802 0.28042328042328040771 26 166.13885105581530865
  169000    739.73999    4.4583836      137.578    501.30256   -143.00133    17079.718 
  169100    730.82567    9.7393249    114.66138    446.54151   -700.32947    17079.718 
  169200    785.84293    6.9584662    151.77314     516.2579    1750.3849    15709.637 
  169300    706.47975     10.71719    151.85874    497.17567   -1490.6985    15709.637 
  169400    650.75314     16.44523    145.23436    455.79399    3838.7058    15709.637 
169500        0.29828635520104174184 11.227650374766065866 0.31481481481481476958 24 153.16677472191955189
  169500    802.26517    12.309741    156.79526    516.65959    424.47898    15709.637 
  169600    714.23407    7.6779859    135.38382    457.99225   -1808.5092    15709.637 
  169700    737.57689    4.8019632    141.87338    466.13677   -1817.7583    18660.231 
  169800    743.20353    5.4074285    175.23609    535.33777    534.95264    18660.231 
  169900    791.22716    4.6336837    161.88266    523.27069   -1361.5991    18660.231 
170000        0.25803040773071961311 11.746510949921809441 0.24867724867724866344 17 141.84362615838693955
  170000    721.32248    8.3110035    152.37064    468.66267    721.94264    21168.581 
  170100    743.00922    6.8505463    176.73311    538.28679    589.10185    21168.581 
  170200    719.88691    4.5571672    158.88291    532.96506   -1885.7453    21168.581 
  170300     686.9743    1.3948629    150.36226    480.74305    -511.2741    21168.581 
  170400    714.81745    2.3045508    145.93503    481.95515    228.75219    21168.581 
170500        0.24955723329382573095 12.052644646496617042 0.22222222222222220989 19 188.11943209905700769
  170500    755.96505    4.3661747    145.17914    530.63444    52.416652    21168.581 
  170600    817.29001    5.1309899     149.5059    555.87705    1236.6405    24719.144 
  170700    758.76341    5.2512514    131.13469    477.82565    537.71256    24719.144 
  170800    732.35539    15.789222    152.37916    504.17058    480.88423    24719.144 
  170900     753.5221     19.66474    143.73576    529.70068    563.49734    24719.144 
171000        0.24099305490530253948 12.237713517308529632 0.2037037037037036924 15 158.77656472413949018
  171000    770.68392    6.0359197    143.05756    507.96045    302.55268    24719.144 
  171100    737.68182    2.0190855    159.83788    515.05856    -1904.069    25740.958 
  171200     813.6057    5.6067689    169.57124    560.21715    324.57476    25740.958 
  171300    697.49515      3.67939     161.5223    486.80497    1155.4747    25740.958 
  171400    788.28761    3.9001494      140.949    525.11446    216.38044    25740.958 
171500        0.2526024080082127643 12.32403566346731516 0.23544973544973543667 15 195.37589410788524447
  171500    784.33124    6.8023345    162.55904    550.74315   -1244.9104    25740.958 
  171600    697.52873    6.3585569     171.6469    505.03575    -630.6952    23182.677 
  171700    787.08406    2.7092038    140.72954    498.87705   -1229.0288    23182.677 
  171800    835.41581    1.5197146    154.35318    556.36228    1474.7826    23182.677 
  171900     677.5335    1.2918265    150.89294    484.82677   -176.50929    23182.677 
172000        0.2472686213271804434 12.392746122428398792 0.25396825396825395416 18 148.33441180698864059
  172000    781.23021    5.5561951    136.91013    502.29664    32.792429    23182.677 
  172100    709.48043    1.9442172    128.85374    421.93628   -280.40766      22850.9 
  172200    714.30629    6.3753376    162.34788    484.17952    747.45161      22850.9 
  172300     796.2791    2.3597943    157.63582    498.02547    1018.9431      22850.9 
  172400    666.64311    7.2789458    143.22774    434.01535   -1352.1929      22850.9 
172500        0.2472307638009007269 12.24921095719794728 0.29629629629629627985 27 106.59797338500953856
  172500    760.29654    6.7378156    130.79325    451.07551   -237.07133      22850.9 
  172600    760.69567    6.1989119    147.21259     491.1468    -264.5649    21600.345 
  172700    792.93428    9.2858611    163.90519    552.15526   -381.34899    21600.345 
  172800     764.7284    9.2644373    167.54496    522.75186   -549.27066    21600.345 
  172900    680.34777    5.1363811    180.09916    492.15067   -1306.0349    21600.345 
173000        0.24637071267281868137 12.354159438101319779 0.26455026455026453558 16 185.35658384174141133
  173000    705.77293    2.6619347    170.05255    505.13039   -1031.4845    19806.441 
  173100     793.8771   0.73133504    142.65632    530.90158   -115.13177    19806.441 
  173200    803.21213    4.4142033     129.5425    500.60272    558.63367    19806.441 
  173300    778.01117    2.9724862    128.52352    487.07684    283.06571    19806.441 
  173400    706.94076   0.88504042    118.98384     430.9687   -92.925985    19806.441 
173500        0.24808341634102870632 12.498659251662829206 0.24338624338624337273 22 161.7374653522783774
  173500     760.8132    4.7618657    157.18856    506.44909    698.11233    19806.441 
  173600    734.71468    5.1366128    172.07379    514.63176   -351.28657    20424.524 
  173700    757.73048    2.6063114    116.06909    437.82983    1528.6197    20424.524 
  173800    720.17189    7.7028046    141.46863    477.21267    2299.6044    20424.524 
  173900    716.81367    5.0319715     150.9504    493.00284   -977.54197    20424.524 
174000        0.23940094344982554286 12.795683483345310805 0.21428571428571427382 11 127.71403759384811849
  174000    709.27901    7.6821326    136.64917    449.07639    1095.8954    19602.263 
  174100    755.98312    6.1424966    127.96362    464.86547   -362.85204    19602.263 
  174200    720.34664 0.0093557937    141.09097    487.14738   -837.15152    19602.263 
  174300     697.9904    9.8374746    131.38173    438.15219    953.57766    19602.263 
  174400    748.04599    4.7458663    157.61311    516.82092   -1871.0879    19602.263 
174500        0.22162739246312551655 13.007474859601485306 0.2037037037037036924 15 165.78097380059770671
  174500    775.64405    5.6611246    151.19274    517.21221    9.9771566     20251.23 
  174600     686.7038    7.2568108    139.99621    463.97074    -1123.788     20251.23 
  174700    732.34895    4.0439891     152.0179    482.77603    1086.5492     20251.23 
  174800    761.41367    8.6960451    151.04225    507.65806    177.80031     18784.56 
  174900    810.52517    13.074588    137.63773    511.41637    1556.8805     18784.56 
175000        0.2239099941854909015 12.602112438591397847 0.25661375661375662727 23 123.88090974936150701
  175000     736.4616    6.5464771     123.0924    457.55923    877.68823     18784.56 
  175100     787.9508    3.6634493    128.32895    507.05115   -922.31503     18784.56 
  175200    715.37287    7.2543327    137.07594    446.10597    1743.4488     18784.56 
  175300    726.52892    1.4536917    142.73681    474.74581    837.59568    16829.384 
  175400    770.47287     4.799527    142.37875    524.77419    1323.1842    16829.384 
175500        0.21912415498515069867 12.448497615291156393 0.23280423280423279131 15 177.12640550246402427
  175500    629.81961    15.277743    158.27394    462.48705   -1700.0797    16829.384 
  175600     828.5597    4.0222886    140.70875    494.33481   -576.49287    16829.384 
  175700    765.97314    3.5701078    138.85259    505.43228    309.67648    16829.384 
  175800    691.44471    6.5492229    149.21301     461.9285    217.76705    16829.384 
  175900     799.7844    5.8796168    153.33525    516.18251   -390.03346     17697.38 
176000        0.22520345383073672729 12.189405851535271452 0.23280423280423279131 32 168.42718183356234363
  176000    711.88911    4.7549975     152.7382    490.97213   -1162.4756     17697.38 
  176100    708.95558    9.6177405    127.41994    472.72492    -349.3813     17697.38 
  176200    764.01697    9.4424147    141.70675    512.95876    506.53832     17697.38 
  176300    821.58586    4.0838432    158.60847    539.66778   -595.60812     17697.38 
  176400    695.52167    5.8546324    140.62432    469.46448   -1784.4636    17175.733 
176500        0.21777320042801176503 12.07040757890134941 0.23544973544973543667 36 178.52605270763450562
  176500    760.42705    3.0631207    172.91263    523.06272   -478.25789    17175.733 
  176600    680.38394    11.700401    148.54679    438.69315    2017.4978    17175.733 
  176700    828.33982    6.8547513    133.04733    480.00758   -276.13276    17175.733 
  176800    793.94983    8.7886203    158.60919    527.25954   -1308.3059    18565.976 
  176900    859.77867    5.5829185    161.23098    549.18154    1082.7951    18565.976 
177000        0.20429379138197792387 12.635780398398093638 0.2037037037037036924 25 138.61991342280194317
  177000    719.95735    0.6140448    148.33516    464.82044   -264.21557    18565.976 
  177100    772.14995     4.919674    170.61614    527.06383   -474.60821    18565.976 
  177200    809.01606    2.1725919    149.94552     498.3588     16.50477    19699.192 
  177300     722.5519    1.6176469    164.37842    473.69969   -1884.9296    19699.192 
  177400    723.97354    1.7323541    147.35791    470.37412    211.47344    19699.192 
177500        0.19287719475293516047 12.970572335394187746 0.19576719576719575633 15 151.57852632606636689
  177500    844.50565    7.7349079    141.37232    534.20979    2203.3656    20507.766 
  177600     754.6893    9.2459369    144.52498    482.01394    1849.9722    20507.766 
  177700    722.54299    6.7020581    173.05632    507.24046    1118.1626    23535.892 
  177800    737.85538    5.3872791    171.97813    536.15164    941.91573    23535.892 
  177900    686.46888     4.907528    165.99129    497.97643   -662.68996    23535.892 
178000        0.18629742542848340414 13.155351447139771892 0.17195767195767194813 25 161.53307048106907473
  178000    744.27292     5.763942    149.99429    498.75057    325.95144    23535.892 
  178100    717.44002     2.929129    179.25514    520.99033    914.72627    23535.892 
  178200    806.73372   0.82350013    159.98358    555.92651   -2137.1359    24899.271 
  178300    763.77496    3.4173703     163.4431    544.26237   -799.11487    24899.271 
  178400     708.2015    11.170295    172.88983    511.23189    631.52287    24899.271 
178500        0.18231031552209472912 13.539044953204879107 0.15608465608465607599 21 208.83778063798527569
  178500    809.15327    1.4877825    171.07032    575.45147   -975.84125    26411.039 
  178600     689.1247    4.6586098     175.2283    515.65392   -688.01963    26411.039 
  178700    778.83669    1.4162338    182.97571    533.04808    348.90881    26411.039 
  178800    710.82265    7.9305236    155.02187    498.11864    138.15391    26411.039 
  178900    758.93489    2.1940351    171.09187    528.89902    -126.6186    26411.039 
179000        0.17237435982392770861 13.924114118679190355 0.15608465608465607599 16 229.23015214214802882
  179000    727.94034    5.2677885    175.02594    559.04764   -1587.9704    26411.039 
  179100    736.75634    3.7027378    169.73579    505.12509   -89.705651    29606.564 
  179200     746.4282    3.9272419    157.64882    487.17653    -343.8569    29606.564 
  179300     784.1586    6.7782664    148.20098    519.97438    50.316114    29606.564 
  179400    795.39592    12.766782    196.99399    599.55629    1538.3928    29606.564 
179500        0.17303574514648720206 14.084662914092392683 0.15608465608465607599 18 183.58675057049478596
  179500     746.6296    2.9009484    164.16224    521.87202    245.36608    29606.564 
  179600    749.09652   0.21556937    153.99468    499.36708   -744.58949    32190.645 
  179700    722.21628    6.2779266    154.73723    471.59817   -789.56188    32190.645 
  179800    820.39689    8.1951211    160.80132    541.08398    1370.0509    32190.645 
  179900    709.59109   0.76964999    161.04993    478.09426    160.94461    32190.645 
180000        0.18156397214588612665 14.242808171337321355 0.16931216931216930277 11 137.97378808873571643
  180000    823.02318    3.9220894    150.52783     510.8717    14.059004    34389.543 
  180100    741.86664    7.5858034    167.02816     498.0346    249.86642    34389.543 
  180200    644.61788    2.3002189     145.9221    416.30232   -2.3230929    34389.543 
  180300    731.56424    3.1957347    150.18796    484.07886   -658.36436    34389.543 
  180400     756.2501    4.4331739     179.5905     518.8258    -18.21428    37535.684 
180500        0.19969960566324826412 14.408051475112051421 0.17460317460317459348 13 153.87067890256815872
  180500    729.23006     1.661006    140.75582    484.27252    115.90006    37535.684 
  180600    792.44025    1.3155903    133.78263    481.85271   -540.42355    37535.684 
  180700    734.59196    2.3810408    193.24751    547.36306   -333.11109    37899.387 
  180800    735.52533     5.232109    149.74872     488.1428    160.70887    37899.387 
  180900     903.3569    1.7280357    139.65318    555.52747    157.83262    37899.387 
181000        0.19603292207912725864 14.631574278394566591 0.17460317460317459348 17 134.77537026606410109
  181000    853.03013     3.191056    124.99569    521.26893   -713.46264    37899.387 
  181100    755.80328    9.2752269    142.17404    499.58171    941.43849    35467.865 
  181200    794.58021    3.8706318    134.77802    521.03423   -674.81036    35467.865 
  181300    826.28063    7.2858668    192.26951    579.90364    154.04918    35467.865 
  181400    785.59408    5.6037097    142.29688    492.66098   -127.03224    32207.435 
181500        0.18906791311741810713 14.61842469219638474 0.17460317460317459348 15 167.00419300150102231
  181500    785.38008    4.2374224    171.17573    522.84666   -137.28697    32207.435 
  181600    803.13781     6.945339    176.66958    529.07782   -445.10711    32207.435 
  181700    794.96657    4.9193422    149.68646    490.21677    1142.7512    32207.435 
  181800    803.09688    6.0873291     186.1066    549.26895    1148.9754    32075.189 
  181900    726.16471    4.2876291    147.52655    489.89854    1551.1518    32075.189 
182000        0.20367619646956194868 14.701809720961593442 0.2037037037037036924 21 179.4861624374154303
  182000    767.74947    3.9480867    163.44684    527.34049    559.27483    31974.956 
  182100    774.74916    2.1445225    155.61328    516.29573    970.83969    31974.956 
  182200    722.80925    3.1571758    132.06132    455.69573    474.81362    31974.956 
  182300    752.47488   0.21102378    165.72269    502.42146   -119.47095    31974.956 
  182400    779.58795    7.0876957    151.66704    500.45236   -487.32319    30587.767 
182500        0.21338945250507010409 14.771794822121202984 0.20634920634920633775 15 142.60574887001808975
  182500    735.27944    2.6394588    145.83552    475.74846    574.14278    30587.767 
  182600     798.1925    6.6781652    156.87675    557.47224    1238.8517    30587.767 
  182700    721.56058    6.0616723    138.03441    489.10506    638.32807    30587.767 
  182800    716.15619     2.446562    155.46646    511.59311    755.97436    30587.767 
  182900    754.60573    4.6232837    174.96369    536.52386   -1319.7439    29304.546 
183000        0.19606349957644406135 14.734937424886259905 0.21164021164021162846 19 173.11680872712884138
  183000       687.15    2.5657364    161.30228    484.45288    161.39463    29304.546 
  183100    942.10539    3.7509825    125.97447    567.95678    675.34809    29304.546 
  183200    736.12506    14.989094      157.639    519.35998    523.98328    30286.578 
  183300    719.50796    5.4704898    165.30872     521.1251   -228.85438    30286.578 
  183400    832.36199    10.063799    169.66382     556.1411     735.0484    30286.578 
183500        0.18236783711295237453 14.767129215324855451 0.23280423280423279131 25 135.62977031732890509
  183500    735.70051    1.5967858    141.13309    468.96326    846.92463    30378.855 
  183600    811.08848    1.4215148    145.82697    523.88497   -38.935549    30378.855 
  183700    761.50383    5.7352355    162.01628    511.77796   -102.15235    30378.855 
  183800    797.18382    8.2789142    130.45367    510.16992   -344.90683    30378.855 
  183900    836.81089    3.8473707    157.30877    555.67116    507.13308    30378.855 
184000        0.15890608569003128459 15.00803418767567976 0.18783068783068782026 18 118.67852069504463941
  184000    823.69806    1.1823466    116.05371    491.88222    513.85241    32136.736 
  184100    805.26502    6.0747071    150.88852      534.854   -897.65166    32136.736 
  184200    812.36862    9.8314494    153.06433    557.78875     -588.684    32136.736 
  184300    754.37445    3.0048933    152.70138    503.52207    468.98219    36613.824 
  184400    804.20387    7.9956773     138.8051    508.71405    927.40583    36613.824 
184500        0.16014077222916492382 15.145599786808405796 0.20634920634920633775 25 180.39720851305395399
  184500    831.00931    3.3481609    151.66858     556.9135    814.61642    36613.824 
  184600    767.21083    5.6060004    132.21818    493.32196   -333.92158    36613.824 
  184700    762.68214    10.661462     160.6917    512.02672    1254.7391    36502.248 
  184800    931.65679    8.9111824    149.85209    564.87516     15.81078    36502.248 
  184900    807.09921    5.6298659    132.31087    483.33031    -760.1232    36502.248 
185000        0.14783154705455092692 15.614771437470265525 0.14814814814814813992 21 174.15446620689536417
  185000     775.6473    1.4545818    163.66538    525.58717    -102.2571    36502.248 
  185100    872.62056    2.1334763    161.13642    577.58114    710.08132    36502.248 
  185200    732.14454    3.1748601    143.20947    494.35346    23.365042    36984.816 
  185300     742.9896    1.0007686    182.33679    531.37235   -555.02182    36984.816 
  185400    851.05376    6.4363951    140.32206    542.58743   -248.79916    39443.186 
185500        0.14874654407001883238 15.866383501721488258 0.13492063492063491315 20 146.49547018511162833
  185500    746.90559    7.1196681    144.73818    484.90579    264.38242    39443.186 
  185600    830.49354    5.5911512    156.47485    531.23215    393.67949    39443.186 
  185700      705.585    4.4881854    151.14366    464.59626    744.71849    39443.186 
  185800    775.37241    6.6937205    149.87782    511.15943    281.86064    44889.991 
  185900     795.1467    8.5726855    149.12181    515.03687    368.80849    44889.991 
186000        0.13982453028014249496 16.2105084667202064 0.11640211640211639565 13 140.37034738254234867
  186000    777.16358    5.6280192    138.90127    492.49005    460.54775    44889.991 
  186100    832.84826    2.6357153    155.90781    564.13138   -881.69454     41425.08 
  186200    743.25839    1.7002597    139.45275    492.19812   -53.810164     41425.08 
  186300    757.64795     6.122207    162.13335    525.44894    1271.7684     41425.08 
  186400     696.9429    5.9596206    164.85935    526.57207   -934.12884     41035.73 
186500        0.14840822899768207899 16.346142016818387077 0.15343915343915343064 11 136.17122291122609568
  186500    764.87223    2.1483368    128.81002    482.72192    558.53731     41035.73 
  186600     794.4679    3.2064457     162.5835    547.31572   -146.45752     41035.73 
  186700    703.50814    7.0729079    156.26216    506.12125   -312.37653     41035.73 
  186800    799.38378    2.6840194     155.4514    554.22286   -84.109576    38267.423 
  186900    810.31846     1.152466    148.59842    544.69805    140.81123    38267.423 
187000        0.16598368306681540729 16.423709037251128962 0.17724867724867723884 19 159.41319652055642564
  187000    768.63604    8.9543391    138.53832    507.66922    589.18591    38267.423 
  187100    827.49064    5.6434226    172.04731     572.3231    1609.8476    38267.423 
  187200    831.71896     6.060814    139.73517     549.0539    24.660179    38267.423 
  187300    781.31566    3.3866186    150.00569    520.48697   -56.917171     34470.99 
  187400    742.43584    4.4336852    151.83005    512.06707   -10.455314     34470.99 
187500        0.17807640168978924877 16.706182064679147459 0.19576719576719575633 17 184.21901972323885843
  187500    841.21628    4.9682959    163.87738    565.35992    -955.4416     34470.99 
  187600    714.78179    3.3189949    152.91695    493.54568   -247.51031    34407.797 
  187700    759.94659    2.4549664    153.37102    518.91327    332.02206    34407.797 
  187800    791.74174    5.8471939    148.28686     523.9851   -514.17916    34407.797 
  187900    665.28823    4.6163963    147.08008    486.51903    -39.39791    34407.797 
188000        0.16886066641333211114 16.571613211835256152 0.2275132275132275006 17 182.81091079344531636
  188000    841.08899     10.47644    152.06252    563.89414   -787.75299     34761.19 
  188100    776.67538   0.22979443    155.40941    511.72323   -43.061758     34761.19 
  188200    758.62233    5.5018575     148.3417    495.33148    508.32941     34761.19 
  188300    908.90424    5.4157687    151.38773    572.18962   -59.654047     34761.19 
  188400    805.97194    10.680916    154.86002    529.61725     -229.241    31905.554 
188500        0.17139009681524053352 16.823758016951572358 0.23544973544973543667 20 165.78013961540625587
  188500    761.10382    2.1285291    136.55382    510.62344    43.824203    31905.554 
  188600    873.64318    12.262373    177.18096     590.4461    -324.0116    31905.554 
  188700    750.10272     5.688077     151.5958    517.60752    -900.8071    31905.554 
  188800    747.94757    4.9994469    134.85688    500.36111    -488.9985    31905.554 
  188900    868.90396    3.4958815    163.58486    575.77912   -194.33262     36309.57 
189000        0.1811996039496407418 17.005224444162511332 0.23015873015873014595 15 135.92393230899827472
  189000    816.50359    7.1736524    127.75413    505.86793   -34.487299     36309.57 
  189100    823.89325     8.115888     145.1613    525.84995   -518.08336     36309.57 
  189200    733.05944    8.1948954    157.12243    507.70675   -107.98032     36309.57 
  189300    780.48639    5.1521102     144.2372    504.21242   -606.31752     36309.57 
  189400    695.91126    6.7164119    149.60952    462.60877   -379.46963    36646.707 
189500        0.18134685288212987198 16.947582898979884902 0.24074074074074072738 18 172.72755986921035287
  189500    820.31922    6.2398853    141.11266    544.40036    1411.4732    36646.707 
  189600    749.66558    4.6431355    164.79775    518.32377   -200.82263    36646.707 
  189700    637.48746    16.856726    173.55056    493.43741     1153.926    36646.707 
  189800    892.22238    9.1859572    135.48655     553.7139    683.68358      31941.4 
  189900    682.09002    7.7497499    155.57063    477.04371   -127.66296      31941.4 
190000        0.18803832463107048034 16.813940638184259768 0.24338624338624337273 22 156.36268500431745565
  190000    780.97367     2.543704    150.01306    510.20868    1623.8946      31941.4 
  190100    811.95231    4.2214986    139.40876    511.46076   -384.52504      31941.4 
  190200    767.74332    3.5746364    170.96592    551.27004   -394.81282    34401.041 
  190300    912.29281    11.833135    169.60889    606.48342    704.17987    34401.041 
  190400    777.20459    3.0818889    161.18802    520.09689    499.82792    34401.041 
190500        0.20715340122935835265 16.648840348873466866 0.28571428571428569843 21 175.74695607619119642
  190500    762.48852    7.6635569    169.07573    521.21764    -981.1967    34401.041 
  190600    748.05639    3.3667841    203.60208    595.93628   -1413.4009    34401.041 
  190700    802.71568    4.1831423      143.755     514.3828    300.72989    33252.941 
  190800    719.80478    3.2223573    191.46019    543.70546    664.16274    33252.941 
  190900    830.41052    7.3981146     159.6181    554.72563   -376.75951    33252.941 
191000        0.20488446487803926854 16.349590008258015672 0.25925925925925924487 15 175.1421815436522138
  191000    706.62161    6.1281456    158.34104    495.30051   -106.49493    33252.941 
  191100    810.72186    5.5015519    174.81593    553.10969    927.96975    33885.858 
  191200     658.2347    1.8841003    151.83756    472.14902   -121.11676    33885.858 
  191300    783.04247     1.265555     132.3852    516.63117    599.55696    33885.858 
  191400    768.10686   0.86790105    175.56203    554.25265   -720.46848    33885.858 
191500        0.19776014029677493888 16.164730141278013775 0.2275132275132275006 22 135.38315103441550491
  191500    768.79394    3.5275858    150.80021    483.71072   -35.270477    34631.835 
  191600    784.68763    6.2461852    163.98792    539.93594    207.59501    34631.835 
  191700    819.35222    5.0566591    160.21304    541.80323   -620.65226    34631.835 
  191800    770.05985    5.7597188    148.88909    481.67435   -233.53677    34631.835 
  191900    838.84044    1.7389476    180.57217    555.84173   -384.82647    34631.835 
192000        0.17589177065939368139 15.655669730244648363 0.24338624338624337273 20 156.36594334135705253
  192000    828.23222    10.948635    129.23922    531.62399    887.99124    36469.749 
  192100    778.03626    10.875023     155.2902    500.88706    314.38288    36469.749 
  192200    710.02574     1.993161    146.69703    456.03634     1036.997    36469.749 
  192300    796.12361    2.9356832     146.3309    479.84892    744.36755    33786.769 
  192400    812.86952    6.4208524    149.76747    532.00434    9.0516502    33786.769 
192500        0.18281363773237455095 15.072438985081689111 0.26719576719576720869 30 138.50609271226753094
  192500    712.62296    1.8067245    140.69534    461.38353    604.37812    33786.769 
  192600    798.30047    5.3359171    136.84524    494.96061   -1026.6057    34318.005 
  192700    776.93752   0.44526135    162.29848    545.51513   -255.41019    34318.005 
  192800    755.87287    6.5718038    163.28885    544.59349   -588.34789    34318.005 
  192900    803.80223    4.9612633    184.67553    567.24248   -1046.1966    34318.005 
193000        0.18400125218737167776 14.554836162163320878 0.26190476190476186247 30 170.95093399898422604
  193000    755.72092    5.4356329    144.24365    513.35533   -1097.7179    34318.005 
  193100    773.17633    7.4928089    163.72352    516.83956   -1433.1924    32612.445 
  193200    935.66304    3.5378372    166.67127    597.32432    982.88044    32612.445 
  193300    765.40245    2.0888189     167.6732    510.17654   -21.862888    32612.445 
  193400    749.39043    4.9194692    172.46342    503.50254     1010.451    32612.445 
193500        0.20155424986392531106 13.847265302440652235 0.27248677248677244389 28 178.65241729925475056
  193500    855.14297    1.3785813    167.53137    566.10327   -442.20311    32612.445 
  193600    753.67124    2.3098133     166.7942    516.76675   -1407.9682    26394.258 
  193700    746.72259    9.6871217    155.32033    497.76645   -735.09712    26394.258 
  193800    890.76823    6.7842309    161.22681     577.9987   -66.305635    26394.258 
  193900    749.68395    8.9879663    155.69261    509.45905    940.13163    26394.258 
194000        0.22957037502105154259 13.314680928014716699 0.33862433862433860554 36 170.11537363475798657
  194000    797.63764    5.8940307    165.98608    531.51153    12.141402    26032.179 
  194100    731.16084    5.1119352      171.638    508.75175   -1075.9209    26032.179 
  194200    842.04706    3.5945875    151.97259    521.61894   -979.97361    26032.179 
  194300    817.53527    4.7541386    161.60413    545.79793   -1735.1593    24564.567 
  194400    725.85873    2.9928129     163.6123    505.99684    818.68927    24564.567 
194500        0.2563828933452153569 12.856134784212313704 0.3624338624338624415 31 202.72560380395341895
  194500    872.79555    12.092557    184.74605    598.17454   -152.78352    24564.567 
  194600     860.2335    10.902364    140.42913    530.47291    1390.0469    25075.043 
  194700    862.21212    5.0700421    123.30275    492.09424     2296.204    25075.043 
  194800    749.89493    12.809128    187.82424      566.737    1077.0713    25075.043 
  194900    813.50132    3.3753199    164.67377    551.94421     1533.026    25075.043 
195000        0.25120903698689583949 12.660023797002613932 0.32275132275132273341 33 136.18542040604512522
  195000    851.76768    0.9683753    139.87783    522.10699   -111.20219    21975.356 
  195100    805.37092    1.5025468    172.67715    568.47009   -71.627185    21975.356 
  195200    921.46656    6.8137969    135.95633    556.54277    562.49249    21975.356 
  195300    788.62326    2.1737327    169.12646    508.06462   -441.05697    21975.356 
  195400    853.83991    7.8934366    153.25236      567.778   -129.61721    22476.269 
195500        0.24575192352164931808 12.45654168345282109 0.30423280423280418816 28 156.77662514422669915
  195500    782.18723    4.1836274    163.42501    511.17246   -499.86146    22476.269 
  195600    777.86815    7.9635555    142.65271      515.034    361.87765    22476.269 
  195700    820.50115    2.6609614    164.59091    554.62406    99.524999    22476.269 
  195800    752.72728    4.6142622    150.91479    515.73977   -1844.5286    22476.269 
  195900    702.79147   0.68314363    158.43562    466.39587   -1683.1146    20828.743 
196000        0.26346846800657852672 12.310421072283741495 0.30423280423280418816 26 143.67520306339400804
  196000    869.94592    3.4143686    147.28448    537.83302   -531.66848    20828.743 
  196100    768.69653    2.8623399    148.47455    500.56969    1516.9984    20828.743 
  196200    695.26783    5.9252648    173.48986    476.62244    1207.8123    20828.743 
  196300     864.4627    3.4895935    171.59623    546.11688   -1250.2558    18662.421 
  196400    739.34244    3.3409482    154.42359    495.65285    927.29825    18662.421 
196500        0.27691105590471060127 12.053813364470927993 0.31746031746031744269 32 186.44832369865773103
  196500    848.65791    1.0511222    148.64042     570.9609   -555.48645    18662.421 
  196600    792.91695    9.2198151    162.29714     544.0329    255.30277    18662.421 
  196700    767.47911    5.9104601    132.44952    494.87368    26.149019    18662.421 
  196800    731.11964    2.8594218    134.74573    450.66895    233.23499    18662.421 
  196900    806.41046    7.3531374    137.13736    511.22938    195.98496    18662.421 
197000        0.28741244716523767222 11.731442328237731587 0.33862433862433860554 34 163.75591131288555857
  197000    796.71206    11.507927    157.75738    524.73271    686.53193    17453.823 
  197100     730.8636    4.9939313    139.15699    458.52866   -850.80576    17453.823 
  197200    763.58822    1.7108432    156.34803    511.85721   -483.45069    17453.823 
  197300    790.43663    6.0896514    166.32612    555.09176     2245.854    17453.823 
  197400    753.29253    2.3382757    149.48073    497.64922    1755.5732    17962.023 
197500        0.28253925386079664639 11.520088075586805587 0.33068783068783069723 37 134.18165610106916574
  197500    789.42574    7.6608431      139.508    491.85714    1738.0112    17962.023 
  197600     872.7858    17.765482    144.54566    545.56011    4228.1645    17962.023 
  197700    797.55457    5.5371915     160.9469    519.45482   -792.63637    17962.023 
  197800     741.3733    7.6222698     158.0842    505.32222    703.71665    19430.205 
  197900    825.56314    6.9964882    169.65266    572.98637    1536.2925    19430.205 
198000        0.27618530315991379753 11.361409192473058027 0.26984126984126982629 25 164.33416993038312626
  198000    739.60998     2.656379    166.21378    499.43897     279.6021    19430.205 
  198100    816.03004    7.8018881    147.97519    527.68882     35.90535    19430.205 
  198200    805.30389    8.9663598     148.3296    523.53532    2219.7448    19430.205 
  198300    686.22977    10.726948     128.9652    443.73796    1764.0696    17607.091 
  198400    765.34282    3.6242143    172.90837    513.82847   -340.86143    17607.091 
198500        0.25332602002273091335 11.293604125231855306 0.26190476190476186247 24 160.23861565031620557
  198500    819.53051     5.562619    163.97464    531.55406   -212.62202    17607.091 
  198600     711.2278    1.2387211    147.04968     460.1182   -617.84659    17607.091 
  198700     794.4382    6.1273401    137.97548    526.36932   -1401.2043    17607.091 
  198800    800.82198    12.402226    171.55284    547.02049   -516.35156    17656.348 
  198900    767.96853    5.2435821    157.55336    509.95639   -354.88593    17656.348 
199000        0.27134938458727891897 11.16386755982571799 0.30158730158730157056 29 146.73381424088009339
  199000    867.56432   0.76398778    145.35125    539.81257   -1074.9999    17656.348 
  199100    822.57756     5.336127    172.90737    558.64891    122.42844    17656.348 
  199200    747.91532    5.3049732    154.35072    485.93246    531.57718    16350.583 
  199300    776.03714    7.4576616     164.0409     546.7519    562.90619    16350.583 
  199400    839.97358    7.4487223    119.92009    532.40089    1069.7085    16350.583 
199500        0.28118733094323361543 11.058258064984062941 0.31216931216931215198 33 145.73577417833013214
  199500    739.40585    3.3875292    128.70772    480.74809    2203.7249    16350.583 
  199600    811.12718     8.054023    155.28079     545.7213    1499.7483    19079.048 
  199700    780.81127    6.2855306    126.74015    504.94943   -1476.6714    19079.048 
  199800    684.64809    3.7148281    135.00146    470.97353   -1103.7989    19079.048 
  199900    760.20141    5.5914651    162.63039    532.89134    491.09231    19079.048 
200000        0.25828992736988531931 11.344307960559614656 0.29894179894179895296 23 157.55385438562700529
  200000    808.54822     5.132431       155.18    523.89341    1349.9625    19079.048 
Loop time of 724.326 on 1 procs for 200000 steps with 153 atoms

Pair  time (%) = 28.2756 (3.90371)
Bond  time (%) = 2.44694 (0.337824)
Neigh time (%) = 0.252182 (0.0348161)
Comm  time (%) = 0.242703 (0.0335074)
Outpt time (%) = 7.4095 (1.02295)
Other time (%) = 685.699 (94.6672)

Nlocal:    153 ave 153 max 153 min
Histogram: 1 0 0 0 0 0 0 0 0 0
Nghost:    0 ave 0 max 0 min
Histogram: 1 0 0 0 0 0 0 0 0 0
Neighs:    5017 ave 5017 max 5017 min
Histogram: 1 0 0 0 0 0 0 0 0 0
FullNghs:  10034 ave 10034 max 10034 min
Histogram: 1 0 0 0 0 0 0 0 0 0

Total # of neighbors = 10034
Ave neighs/atom = 65.5817
Ave special neighs/atom = 2.64052
Neighbor list builds = 363
Dangerous builds = 0
