LAMMPS (9 Oct 2012)
# 3d protein simulation

units real

timestep 2

dimension	3

boundary s s s
#boundary p p p

neighbor	10 bin
neigh_modify	delay 5

atom_modify sort 0 0.0

special_bonds fene

atom_style	peptide

bond_style harmonic

pair_style vexcluded 2 3.5 3.5

read_data data.testeo
  3 = max bonds/atom
  orthogonal box = (-200 -200 -200) to (200 200 200)
  1 by 1 by 1 MPI processor grid
  153 atoms
  202 bonds
  5 = max # of 1-2 neighbors
  5 = max # of special neighbors

pair_coeff * * 0.0
pair_coeff 1 1 20.0 3.5 4.5
pair_coeff 1 4 20.0 3.5 4.5
pair_coeff 4 4 20.0 3.5 4.5
pair_coeff 3 3 20.0 3.5 3.5


velocity	all create 300.0 1997967

group		alpha_carbons id 1 4 7 10 13 16 19 22 25 28 31 34 37 40 43 46 49 52 55 58 61 64 67 70 73 76 79 82 85 88 91 94 97 100 103 106 109 112 115 118 121 124 127 130 133 136 139 142 145 148 151
51 atoms in group alpha_carbons

group		beta_atoms id 3 6 9 12 15 18 21 24 27 30 33 36 39 42 45 48 51 54 57 60 63 66 69 72 75 78 81 84 87 90 93 96 99 102 105 108 111 114 117 120 123 126 129 132 135 138 141 144 147 150 153
51 atoms in group beta_atoms

group		oxygens id 2 5 8 11 14 17 20 23 26 29 32 35 38 41 44 47 50 53 56 59 62 65 68 71 74 77 80 83 86 89 92 95 98 101 104 107 110 113 116 119 122 125 128 131 134 137 140 143 146 149 152
51 atoms in group oxygens


fix		  1 all nvt temp 300.0 300.0 100.0
fix		  2 alpha_carbons backbone beta_atoms oxygens fix_backbone_coeff.data testeo.seq
Chain flag on
Chi flag on
Rama flag on
Rama_P flag on
SSWeight flag on
ABC flag on
Dssp_Hdrgn flag on
P_AP flag on
Water flag on
Burial flag on
Helix flag on
Fragment_Memory_Table flag on
DebyeHuckel on

Reading fragments...
Computing FM table...

variable      biasinge equal f_qbias
# output wham.dat, a file with collective variables that can be used to compute pmfs
compute     qw alpha_carbons qwolynes rnative.dat 2 0.15
variable    qw equal c_qw
compute     rg alpha_carbons gyration
variable    rg equal c_rg
compute     qo alpha_carbons qonuchic cutoff 12.0 nativecoords.dat 1.2
variable    qo equal c_qo
compute     tc beta_atoms totalcontacts 6.5 2
variable    tc equal c_tc
variable    step equal step
variable    E_P equal pe

fix         wham all print 100 "${step}        ${qw} ${rg} ${qo} ${tc} ${E_P}"

thermo		10
dump		1 all atom 50 dump.lammpstrjPH


dump_modify	1 sort id

reset_timestep	0
run		50000
Memory usage per processor = 0.857471 Mbytes
Step Temp E_pair E_mol TotEng Press Volume 
       0          300    54.408864    955.49334    705.61333    -33253.58    10890.368 
      10    1234.3365    65.023433    314.91966    648.25074    7213.6345    10890.368 
      20    709.18173     26.01087    507.50541    557.05575    7011.0454    10890.368 
      30    974.42476     14.11229    369.89966    487.09301    29854.605    10890.368 
      40    784.15266    7.4091351    344.52254    395.32134   -31529.664    10890.368 
      50    728.65641    6.9959529    286.61655     326.6556   -6019.6406    10890.368 
      60    770.10933    5.1342402    230.09707    253.69444   -9462.3558    10890.368 
      70    633.64706    7.1640872     238.6332    195.91149    23885.503    10890.368 
      80    656.76752    16.805335    167.73431    147.18431    1462.0883    10890.368 
      90    433.17883    12.067671    202.09112    102.23951   -13938.388    10890.368 
100        0.99391973029248614768 10.04443392015327241 1 70 -159.79241001619706708
     100     493.6875     7.982887    176.68358    63.889068    3526.3738    10890.368 
     110     444.0606    4.8768307    173.07525    26.398603    8374.8429    10890.368 
     120    473.80153    7.8756595    144.93249   -5.2844324    407.08335    10890.368 
     130    434.55508    5.4843869    113.47767   -32.528563   -10261.658    10890.368 
     140    413.09064    6.2074854    117.27747   -56.744293   -11178.279    10890.368 
     150    405.16273    6.0337097    107.15445    -79.20347    13043.012    10890.368 
     160    372.81872    9.5826948    103.65107   -99.604712    7581.0481    10890.368 
     170    352.73689    9.1112685    98.466186   -116.29095    3860.0103    10890.368 
     180    336.25868    6.3321893    102.43023   -132.54547    -6202.913    10890.368 
     190    310.49271    5.9542498    92.861465    -146.0207   -3769.5632    10890.368 
200        0.99290768188879952039 10.086981393755745984 1 68 -281.01590738828690519
     200    269.65571    6.0380617    109.61548   -158.83945    -1871.783    10890.368 
     210    265.46871    6.6659576    94.582557   -169.31002    1354.8491    10890.368 
     220    291.16876     5.385391    85.591342   -178.76424   -4456.9784    10890.368 
     230    263.62738     7.071169    80.434885   -186.43406     2186.639    10890.368 
     240     293.6801    9.0201052    66.077322   -192.95929    1291.3954    10890.368 
     250    262.83218    9.9681138    80.291782   -198.32559    6446.0945    10890.368 
     260       291.64    11.406217      61.1148   -202.08692    -1682.467    10890.368 
     270    270.65584    11.630473    68.149211   -204.76475   -3841.2632    10890.368 
     280    257.79357     11.61119    71.834199   -205.89571   -492.23142    10890.368 
     290    271.53519    6.6702624     72.72553    -205.9169    -126.0281    10890.368 
300        0.99149750136891234842 10.069255161018626055 1 66 -315.8178648372513635
     300    244.95798    5.1568298    78.207898   -204.83154    5200.5091    10890.368 
     310    257.62924    4.8468839    73.988581   -202.08065    -3043.902    10890.368 
     320    242.21996    7.1767713      79.0858   -198.19416    -2292.755    10890.368 
     330    264.84451    8.0040065    75.145198   -193.01843   -2003.6225    10890.368 
     340    285.23261    8.3050358    67.432871   -186.41424     853.1075    10890.368 
     350    285.15231    5.5910708    83.147065   -179.53118    3885.1107    10890.368 
     360    314.15279    7.6761184    68.743041   -171.34183   -961.39801    10890.368 
     370      290.435    6.4649773    82.610777   -163.36668    49.530215    10890.368 
     380    336.20719    6.0764105    73.788103   -155.24956    759.77491    10890.368 
     390    304.96481    6.9633971    87.466302   -147.08666    1364.1829    10890.368 
400        0.98766835254378626541 10.094462800727672658 1 69 -295.59484437349675545
     400    344.63633     3.671988    86.322205   -139.44594    2467.4539    10890.368 
     410    316.35247    6.9030115    97.649236   -132.02368   -2044.5067    10890.368 
     420    341.21183    6.5308811    100.83496   -125.87051   -4073.2675    10890.368 
     430    346.88841    9.1912846    98.425181   -121.31844     7533.596    10890.368 
     440    336.90553    7.2548878    109.34986   -118.83354    1434.0406    10890.368 
     450    371.70927    7.1585366     93.91861   -118.10617    1405.5927    10890.368 
     460    330.48984    6.9542129    104.27307   -119.74751   -10545.837    10890.368 
     470    367.71591    7.3937927    92.605115    -123.3385   -864.88411    10890.368 
     480    339.05505    6.6696467    98.727782   -129.09945    1942.5253    10890.368 
     490     332.9574     6.207398    86.435701   -135.55423    1857.7278    10890.368 
500        0.98530050418117531841 10.133411238437176394 1 71 -282.79265436020500601
     500    308.91402    7.6596928    93.669088   -142.82893   -930.02346    10890.368 
     510    274.06493    6.3076855    99.778807    -149.4835   -182.82326    10890.368 
     520    318.50856    4.1732217    87.321453   -156.40121    3079.9081    10890.368 
     530    276.52485    3.2441285    92.959955   -163.40674    1716.3032    10890.368 
     540     302.3623    5.1227599    77.200071   -169.82019   -3467.5276    10890.368 
     550    248.97205    6.2166332    84.366445   -175.53796   -9313.9078    10890.368 
     560    276.87061    5.2456868    74.664687    -179.8453   -1112.3979    10890.368 
     570    267.67592    3.7740265    86.511191   -183.45704    4782.3539    10890.368 
     580    255.87285     4.693995    84.175965   -186.13413    6840.3569    10890.368 
     590    276.77772    5.8352083    72.373873   -187.97069   -1247.3023    10890.368 
600        0.9812181433636788519 10.135603803337554396 1 68 -300.66440180384762471
     600    247.02156    5.4691404    85.970217    -188.7431    -3551.162    10890.368 
     610    296.69937    5.6556817    67.340641   -188.21153   -371.37569    10890.368 
     620     254.3228      7.81909     85.36893   -186.76295    2757.5744    10890.368 
     630     307.1955    8.5324638    65.603718   -184.23692   -758.86483    10890.368 
     640     273.3264    8.2062929    82.317484   -180.67837   -838.80647    10890.368 
     650    307.45671     7.807069    72.497529   -176.62378   -1938.9423    10890.368 
     660    291.30523    6.2565897    79.697925   -171.67354    2978.3151    10890.368 
     670    294.82165    4.7862727    75.758056   -167.26022    1775.4691    10890.368 
     680    295.92867    4.6360902    88.721622   -161.93338   -554.32482    10890.368 
     690    315.59794    6.0518606    80.446651   -156.64708    -4150.611    10890.368 
700        0.97917848849752198159 10.140810320166998793 1 69 -282.45779637128367767
     700    288.52301    7.5673502    92.459462   -151.73289   -100.61317    10890.368 
     710    314.36137    8.9188409    84.328013   -147.21753    3963.1374    10890.368 
     720    311.41391    9.1121507    94.777574   -142.60219    4781.7049    10890.368 
     730    358.03511     6.274664    77.653134   -138.41888   -5474.8364    10890.368 
     740    332.56544    5.8664275    84.407234   -135.34462    -3480.751    10890.368 
     750    368.91624    4.6870142    80.981755   -133.62419   -2100.8727    10890.368 
     760    313.22952    6.1320325    103.44374   -133.49587    8257.6788    10890.368 
     770    328.43635    7.2318867    93.895672   -134.43672    1532.5801    10890.368 
     780    301.26343    10.755006    95.764127   -136.88778   -419.18313    10890.368 
     790    319.13749    9.8570728    88.446914   -140.18038   -3532.3287    10890.368 
800        0.97971318159785791835 10.161669981759226644 1 68 -288.49725853187334224
     800    318.19953    7.7153694    87.480896   -144.32642   -1524.5615    10890.368 
     810    307.59623    7.5326707    87.134996   -148.55865   -137.39918    10890.368 
     820    313.84102     8.286678    84.245829   -152.97086      2336.84    10890.368 
     830    297.40007     7.610515    83.406872    -157.2608   -3708.8471    10890.368 
     840    334.09012    5.7012992    75.095612   -161.47649    3026.0322    10890.368 
     850    306.04431     5.660001    81.149631   -166.21016   -127.16264    10890.368 
     860    290.00392    5.8830372    83.798845   -170.21766    1915.5093    10890.368 
     870    271.24804    4.8506321    82.997913   -174.03929   -2055.5745    10890.368 
     880    259.61479    4.7225951    80.107145   -176.82951   -1309.8603    10890.368 
     890    285.29639     5.067978    75.311452   -179.07575    3796.5408    10890.368 
900        0.97715508485533364436 10.167606942790131441 1 67 -314.66604825936838097
     900    295.80742    6.5749633    73.831886    -180.6407      1530.07    10890.368 
     910    289.86245    7.9382082    64.058922   -181.44844   -4022.5934    10890.368 
     920    269.56635    7.6185923    75.776102   -181.35721   -1552.0037    10890.368 
     930    278.65435    8.0424681    69.657532   -180.10027   -256.59827    10890.368 
     940     300.5909    6.6427876    74.044286   -177.82001    6347.0034    10890.368 
     950     303.8129    6.0893521    76.257162   -174.94751    2402.1484    10890.368 
     960    308.42015     7.619191    68.664245    -171.7533    810.33591    10890.368 
     970    291.45468    6.2012283    74.896267    -168.3622   -4569.9507    10890.368 
     980    312.71381    6.9339293    76.405272   -164.57651   -3618.4188    10890.368 
     990    293.50134    6.3571231     90.22214   -160.75742   -88.672956    10890.368 
1000        0.96992353806106768044 10.206627886975757846 1 66 -294.49987388800320787
    1000    302.70442    7.0829064    86.304365   -157.34961    996.09974    10890.368 
    1010    291.93651    7.1790886    85.926342   -153.96872   -3766.4213    10890.368 
    1020    301.95882    8.7578669    80.860642   -150.51251   -1539.9046    10890.368 
    1030    300.51044    5.2426469    94.996152   -147.16609    1008.6914    10890.368 
    1040    316.46035    4.4767426    87.631235   -144.47722    5755.2616    10890.368 
    1050     313.8432    3.1097243    80.411806   -142.56339    1059.3922    10890.368 
    1060    337.74605    3.2276559    84.796022   -141.00891   -2864.4482    10890.368 
    1070    290.55386    3.0212272    96.584108   -140.25607   -4266.1714    10890.368 
    1080    308.26131    3.4460088    85.344622   -139.78427    -2752.529    10890.368 
    1090    294.94094    5.1438261      92.3372   -139.70347    2204.0805    10890.368 
1100        0.97066417430588181059 10.184677818422247952 1 64 -287.79755534286488228
    1100     326.4006    5.8961584    87.872406   -139.91095    2468.2583    10890.368 
    1110    308.94416    6.5838062    90.795828    -140.9496    595.56791    10890.368 
    1120    324.66165    7.1876018    88.065671   -142.59814    2782.5135    10890.368 
    1130    312.26853    8.0526939    90.031391   -145.26093    1807.5245    10890.368 
    1140     304.8031    5.0156985    96.587925   -148.56165   -1387.4357    10890.368 
    1150    292.10954    4.7315878    83.636024    -152.7405   -8385.8923    10890.368 
    1160    302.58171    4.4243723      84.7974   -157.08059     -200.847    10890.368 
    1170    316.84357    5.2750808    76.731245   -161.31052    7236.2498    10890.368 
    1180    305.13915    6.8292765    81.185533    -165.2295    1226.0693    10890.368 
    1190     286.4573    9.8969728    83.018232    -169.0161   -3816.9813    10890.368 
1200        0.97373705784975905786 10.177068849923886162 1 67 -298.85826636285412405
    1200    279.00766    12.584517    73.487131   -172.44461   -4493.4755    10890.368 
    1210    294.62973    10.027602    79.542455   -175.44683    3738.5975    10890.368 
    1220    281.60124    6.7625738    81.199616   -177.87075    836.25479    10890.368 
    1230    266.41875    5.5753953     78.77846   -179.74229    -1266.792    10890.368 
    1240    256.59038    3.6854763    87.689559   -180.90422   -2314.8543    10890.368 
    1250    266.59739    4.5884331    74.889119   -181.34544    585.36359    10890.368 
    1260      280.104    6.4708726    79.678153   -181.17379    2948.7635    10890.368 
    1270    278.67195    6.5598873     77.38253   -180.36241    2899.2929    10890.368 
    1280    268.01161    8.8914892     80.16163   -178.80224   -1477.1786    10890.368 
    1290    246.58585    7.6491059    89.138566   -176.43383   -629.37469    10890.368 
1300        0.98138764752004792324 10.157510221420016805 1 66 -291.47090103004416051
    1300    260.53255    7.2345382    81.890664     -173.428   -592.64585    10890.368 
    1310    285.21175     6.532113     79.70253   -169.90852    3016.3977    10890.368 
    1320    315.86591    5.0713495    68.378661   -165.77923   -6352.2827    10890.368 
    1330    290.22892    7.1484548    77.333222   -161.33953    114.25609    10890.368 
    1340    285.43624    7.8977269    88.349201   -156.86523    3765.5361    10890.368 
    1350    290.68402    7.4134638    94.341189   -152.10559    2591.0193    10890.368 
    1360    302.57479    10.656956    86.537408   -147.88985   -2498.1995    10890.368 
    1370    320.50914    13.686276    73.100321   -144.33076   -5810.4895    10890.368 
    1380    329.96659    12.214175    86.890212   -140.96999    1421.6034    10890.368 
    1390    345.59092    10.818893    89.371389   -138.40297    2695.5657    10890.368 
1400        0.98799911799111239663 10.124811114495772202 1 68 -273.2149502338269258
    1400    300.10314     12.02423    96.778873   -137.24328   -2068.0914    10890.368 
    1410    327.17675    10.338068    89.413281   -137.07382   -2320.3946    10890.368 
    1420    326.67884    10.024124    90.192177   -138.25127    2573.8945    10890.368 
    1430    329.42889    7.2152866    80.015325   -140.54743    3116.0116    10890.368 
    1440    329.20661    5.7854065     79.40039   -143.78097    2754.5672    10890.368 
    1450    322.42729    5.5768517    79.640995   -147.83144   -4590.7537    10890.368 
    1460    307.87997    7.0615714     83.62488   -152.22911    2900.0305    10890.368 
    1470    306.74743    7.5079722    79.775385    -156.9138   -638.97742    10890.368 
    1480    300.04562     6.636831     74.26573   -161.48412     232.9367    10890.368 
    1490    284.89012    5.6433788    79.507594   -165.68265    -1879.855    10890.368 
1500        0.99075475579088656541 10.104441325263298523 1 67 -310.03302719148877031
    1500    311.15651    5.7466459    75.244213   -169.05326   -2737.9351    10890.368 
    1510    300.60069    5.2842324    79.794791   -172.75517    2280.1749    10890.368 
    1520    278.85992    4.9881416    74.585952   -176.09585   -1654.0771    10890.368 
    1530    269.67515    5.0872864    74.675177    -178.7714    3158.9998    10890.368 
    1540    290.04951    6.0996896    70.395031   -180.58063    1526.9413    10890.368 
    1550    295.42006    8.6155131    65.958433   -181.92173    3304.3784    10890.368 
    1560    284.37771    8.0815313    72.645696   -182.53255    1873.3961    10890.368 
    1570    270.14678    9.6764704    72.186356   -182.41237   -6999.5973    10890.368 
    1580    284.42223    10.101701    71.606074   -181.47966   -961.59117    10890.368 
    1590    299.16326     11.82086    65.534948   -179.71124     1968.069    10890.368 
1600        0.99039486496711548469 10.10928708071327442 1 70 -305.69220955974765275
    1600    283.01144     9.356746    72.152981    -177.4645    3212.7917    10890.368 
    1610    280.51968    8.1943849    71.822607   -174.31098   -636.20015    10890.368 
    1620    274.45126    6.4333065    71.309284   -170.54117   -3399.1227    10890.368 
    1630    283.77638    6.0552923    84.995696   -166.20629   -741.13158    10890.368 
    1640    275.50895    7.1503505    83.528421   -161.83919   -156.45931    10890.368 
    1650    291.74593    8.3362831    79.065905   -157.29357     101.1397    10890.368 
    1660    293.40744    9.0497882    79.426896   -152.59514   -51.343811    10890.368 
    1670     309.8931     8.008185    83.506207   -148.27671   -478.00109    10890.368 
    1680    328.75194    4.9510057    88.775237   -144.53038    871.48492    10890.368 
    1690    322.69879    5.6311953    78.740286   -141.81638   -1656.4589    10890.368 
1700        0.98887827175739262398 10.104802564746245608 1 70 -286.11272115129560234
    1700    323.13359    6.3153048    83.416014   -139.70634    286.40307    10890.368 
    1710    294.09996     8.288782    93.663551   -138.25329   -2682.2971    10890.368 
    1720    322.02088    9.7542621    85.378697   -137.30246    2402.4565    10890.368 
    1730    327.10495    9.2640473    78.406557   -137.23221    2880.1792    10890.368 
    1740    364.98996    7.8405984    70.732716   -138.22185    2208.2439    10890.368 
    1750    342.77486    6.7415284    78.032648   -140.23689    636.30472    10890.368 
    1760    324.80449    6.2386838    79.930882   -143.42368   -337.30831    10890.368 
    1770    307.07483    9.3138903    87.212167    -147.2479    817.11356    10890.368 
    1780    316.87115    6.9158743    85.197801   -151.92161   -2026.8852    10890.368 
    1790    309.03417    5.9471013    81.816918   -156.80728   -3969.6086    10890.368 
1800        0.98849840554167511808 10.116660236969563513 1 68 -299.19749349288940721
    1800    304.67172    6.2689638    76.362428   -161.15588   -100.61989    10890.368 
    1810      296.368    8.4027816    77.750375    -165.2205    244.46508    10890.368 
    1820    289.87578     8.163262    72.636119    -168.6489    3765.4772    10890.368 
    1830    302.50921    7.6195927    73.663029    -171.4648   -1149.5463    10890.368 
    1840    304.56231    7.7508603     69.23062   -173.89114   -596.05909    10890.368 
    1850    280.49119    9.0948382    73.751203   -175.67625   -1327.8333    10890.368 
    1860    276.05569    9.2667799    76.980562   -176.85894    2498.0051    10890.368 
    1870    261.59035     8.873618    81.256513   -177.17779    353.86113    10890.368 
    1880    289.79353    6.2902742    73.657313   -176.68681     404.0537    10890.368 
    1890    258.00768    5.5308847    85.472046   -175.74198   -1619.6867    10890.368 
1900        0.98872387843254427864 10.126151012317324174 1 68 -299.02144686379961058
    1900    275.97277    5.4228953    74.815354   -173.98284    63.371088    10890.368 
    1910    278.75125    6.9653603    87.518863   -171.62306   -3265.4385    10890.368 
    1920    277.03148    7.8325839    83.228236   -168.93622     4473.248    10890.368 
    1930     308.8411    6.3110183    75.323868   -165.65486   -3604.2231    10890.368 
    1940    292.56053    8.7568771     75.38132   -162.47369    1156.9987    10890.368 
    1950    328.72256    8.6517173    74.180346   -159.17765   -2252.8818    10890.368 
    1960    277.78534    10.220074    87.584574   -156.64129    2474.5816    10890.368 
    1970    313.88091    7.4382724    72.360342    -154.1543    1635.9158    10890.368 
    1980    293.51589    5.9734147    84.374597   -152.16172    2057.2262    10890.368 
    1990    300.03469    4.4809998    81.585562    -150.2824   -1441.8518    10890.368 
2000        0.98645698118960079004 10.128572707831240862 1 70 -289.02176510386556174
    2000    310.46167    4.1390238    76.192724   -148.35682   -4458.7749    10890.368 
    2010    320.40892    5.0497661    81.184886    -146.8378   -2521.5353    10890.368 
    2020    318.30877    7.8000137    83.369522   -145.70405    3692.8064    10890.368 
    2030    306.04124    10.453479    83.196159     -145.263   -754.97728    10890.368 
    2040    291.47792    13.382436    85.549834   -144.97583    2196.7858    10890.368 
    2050    299.43574    12.166424    88.244879   -144.57008    2091.5605    10890.368 
    2060    320.84602    8.6251146    80.083331   -144.09692    3596.7176    10890.368 
    2070    308.39571    8.8649335    82.924296   -143.80492   -1865.0198    10890.368 
    2080    316.00652    7.8741124    82.388567   -143.96675   -4014.3121    10890.368 
    2090    343.28953    6.0847537    76.010822    -144.9991   -605.37521    10890.368 
2100        0.98893091600234483973 10.118023844603079908 1 68 -303.71374367684893514
    2100    343.31684    9.2988181    77.635905   -148.16268   -519.03445    10890.368 
    2110    319.16276    10.881996    72.538202   -153.42757    3401.8954    10890.368 
    2120    300.55267    13.024665    71.766117   -159.11465    1405.9157    10890.368 
    2130    292.94575     8.814452    75.965866   -163.83809   -2446.2472    10890.368 
    2140    289.10622     8.470134    73.021428   -167.40479   -302.17864    10890.368 
    2150    301.29356    8.7863812     74.67355   -170.04068   -4533.6544    10890.368 
    2160    299.01885    7.0265318    74.377523   -172.21652    5377.8679    10890.368 
    2170     276.6413      7.31724    74.552991   -173.83589   -1850.7414    10890.368 
    2180    280.58221     10.19395    67.733082    -174.6162    3036.9326    10890.368 
    2190     275.6574    9.8705537    79.924854   -174.62651     98.50643    10890.368 
2200        0.98609102569768791735 10.151246948252758528 1 69 -302.69526750860194397
    2200    284.13633    9.3376114    71.432198   -173.95789    1465.2895    10890.368 
    2210    282.40143     8.091462     74.93697    -172.8648   -3697.7052    10890.368 
    2220    298.63459    9.6493758    67.224046   -171.52064   -3152.7159    10890.368 
    2230    310.42204    8.1172883    68.954259    -169.6371    959.24971    10890.368 
    2240    300.87871    5.3394779    74.947285   -167.15094    3676.2397    10890.368 
    2250    276.46348    6.3567512    87.567845   -164.38973    119.64941    10890.368 
    2260    275.46473    7.3817681    81.428441   -161.04249   -506.83149    10890.368 
    2270    296.53887    12.014714    82.871393   -157.18717   -2695.9359    10890.368 
    2280    299.35105    11.300417    81.459694   -152.72232   -102.70519    10890.368 
    2290    290.29885    8.7205449    87.192831   -147.92317   -1763.0919    10890.368 
2300        0.98192422201414841787 10.15506119303265109 1 67 -279.48798983014341957
    2300    300.37232    5.6922178    85.426039   -143.39436    2208.8843    10890.368 
    2310    313.56515    8.2092172    85.888505   -139.90334     1815.245    10890.368 
    2320    335.99734    8.0166681    80.014301   -137.89002    1690.7784    10890.368 
    2330    326.58197    8.3527842    87.583392   -137.38229    654.67958    10890.368 
    2340    319.55783    9.0026264    82.514567   -138.12848    514.34312    10890.368 
    2350     321.7409    7.6460464    89.262768   -139.59232   -2973.8816    10890.368 
    2360    313.31076    10.039533     84.70314   -141.21243   -1870.6103    10890.368 
    2370     331.7688    9.7576364    81.028722   -143.07333   -1895.9822    10890.368 
    2380    294.82252    10.966417     88.07716   -145.32159   -578.65352    10890.368 
    2390    308.81203    8.0757616    78.850012    -147.7924    108.80413    10890.368 
2400        0.98066626298901760084 10.141887503505216728 1 64 -285.56119772497697795
    2400    299.28825    6.5258313    82.224383   -149.95874    6189.2753    10890.368 
    2410    328.12379     5.047561    76.832741   -152.24496    1767.5633    10890.368 
    2420    319.10869    4.9541862    77.600784   -155.28742   -892.23846    10890.368 
    2430    281.52444    4.9490941    76.985339   -158.19023   -6518.3665    10890.368 
    2440     306.3088    3.7676786    69.488146   -160.51107    2303.4832    10890.368 
    2450    308.50442    3.6844504    79.170213   -162.70518    3385.6541    10890.368 
    2460    309.45129    5.9794114    65.564615   -165.27449    1227.2727    10890.368 
    2470    278.41328    5.8733471    75.631154   -167.14626   -1360.9478    10890.368 
    2480    296.04861    6.2016273    68.263686   -168.14764    852.17765    10890.368 
    2490    299.10214    5.3650223    76.301789   -168.56432   -608.54569    10890.368 
2500        0.97329882635337672259 10.197046329719521296 1 64 -292.74662988786224105
    2500    273.79161    6.5195856    77.133075   -168.69627   -5528.5498    10890.368 
    2510    294.60047    4.7322509    68.763286   -168.41996   -5229.9187    10890.368 
    2520    282.70845    5.5188992    81.503862   -167.67761    1725.0995    10890.368 
    2530    309.01511    5.1916874     71.98761   -166.59418    7617.6682    10890.368 
    2540    299.18725    4.9759956    79.754058   -165.10446    3583.9028    10890.368 
    2550    292.51244    6.0596962    80.219637   -163.12724    -713.9754    10890.368 
    2560    284.87972    6.3066546    84.920448   -160.31933   -6699.9317    10890.368 
    2570    287.50911    7.8932454    79.688102   -156.15042   -1855.3351    10890.368 
    2580    316.58293    7.8059188    77.414746   -150.20455   -730.18847    10890.368 
    2590    317.46321    9.1294894    80.754497   -143.97947    232.28832    10890.368 
2600        0.97794668352305180736 10.158606372713594013 1 64 -282.22271522019002532
    2600    316.65117    14.134219    82.771558   -138.75341     251.2443    10890.368 
    2610    341.67073     9.234017     73.03263   -135.46458    4543.7525    10890.368 
    2620    332.08758    10.485077    83.573588   -133.67085    5943.4677    10890.368 
    2630    332.38449    10.520747    81.430984   -133.06041    3371.8518    10890.368 
    2640    302.83366    9.3078724    87.281967   -133.18151   -4778.3078    10890.368 
    2650    328.12938    7.8593782    79.000933   -133.83423   -6552.8626    10890.368 
    2660    337.56868    7.5709016    82.995811   -135.44495   -1322.6781    10890.368 
    2670    332.55335     7.419621    76.563494   -138.23962    1754.6954    10890.368 
    2680     332.9205     7.075446    72.779754   -142.06147    1922.1273    10890.368 
    2690    308.19004    5.5872865    72.517643   -146.16326   -1836.4596    10890.368 
2700        0.98375566223679178357 10.124747408150337691 1 64 -294.75611209722086414
    2700    319.41421    6.1500834    73.844098   -150.03492   -35.918663    10890.368 
    2710    300.93192    6.3157533     79.92446   -153.44865     2948.088    10890.368 
    2720    296.66339     6.749339    74.839764   -156.36465   -886.69483    10890.368 
    2730    306.55768      7.21747    76.745852   -158.89255     621.3872    10890.368 
    2740    305.47897    5.7977704    73.570977   -160.97402   -1313.6341    10890.368 
    2750    320.27592     5.151532    70.248249   -162.55009   -567.30035    10890.368 
    2760    298.96689    6.6117583    68.212772   -163.57843    746.78055    10890.368 
    2770    286.72683    7.3870348    74.034279   -164.05381    58.853969    10890.368 
    2780    288.36495    6.6276119     76.57331   -164.09445   -1631.9368    10890.368 
    2790    272.88748    7.5114964    73.463177    -163.8752   -1355.2341    10890.368 
2800        0.97989795785547351148 10.138085439940329735 1 68 -290.69358825503314847
    2800    281.25812    8.9705566    77.580561   -163.26028    2212.5865    10890.368 
    2810    279.14226    6.1239857    83.961244    -162.1939    4502.0403    10890.368 
    2820    321.19784    6.1767633    74.513725   -161.06811   -2680.8907    10890.368 
    2830    296.92555    5.8733007    83.342157   -160.75143   -1354.2448    10890.368 
    2840     279.6069    6.6220492    76.828135   -160.97406   -406.26279    10890.368 
    2850      283.741    5.3327978     78.92446     -161.051    3734.4125    10890.368 
    2860    267.52552    4.5930232    85.817885   -160.77106   -197.33927    10890.368 
    2870    293.61392    7.1024084    76.854501   -160.08096    -462.9272    10890.368 
    2880     275.4919    5.3217202    81.209753   -159.03317    17.730808    10890.368 
    2890    308.63926    5.9020465    73.074302    -157.1688   -1153.4654    10890.368 
2900        0.97895394725033435535 10.156873217860058034 1 65 -291.423959331519427
    2900     302.5509     5.756093    75.770446   -154.34325    955.50845    10890.368 
    2910    292.61575    7.2647774    82.576881   -150.38447    1657.1186    10890.368 
    2920    329.39995     11.96526    64.841301   -145.23836   -23.665245    10890.368 
    2930     308.6439    10.932701    83.669999    -139.7852   -2094.9493    10890.368 
    2940    375.03288    9.3069038    65.210802    -134.9501     1489.808    10890.368 
    2950    343.62366    4.9735662    84.091793   -132.16141     1222.808    10890.368 
    2960    331.04432    6.0399585    72.810047   -131.03302   -2816.5013    10890.368 
    2970    319.78783    8.3800268    78.692531   -130.78997   -2335.1058    10890.368 
    2980    312.30032    8.2845211    87.982324   -131.07662    200.46817    10890.368 
    2990    328.76977    9.4262146    74.738285   -132.42612    2770.2787    10890.368 
3000        0.97885219088942920784 10.153966355387904485 1 68 -280.19173530094053604
    3000    320.70881    8.3639847    81.755842   -134.88398     1278.951    10890.368 
    3010    328.97662    10.591852    73.506951   -138.72732    2357.0221    10890.368 
    3020    311.05421    10.857161    75.722831   -143.62712   -478.16984    10890.368 
    3030    292.16676    12.107759    71.429773   -148.12825   -2801.4026    10890.368 
    3040    310.90279    12.133897    66.076205   -151.79314   -2047.5507    10890.368 
    3050    301.92255     7.840339     76.35216   -154.44215    2260.8554    10890.368 
    3060    309.42302    5.5353031    84.066846   -156.83596   -2862.7072    10890.368 
    3070    300.21715    5.0181859     73.29356   -158.93439    562.70813    10890.368 
    3080    303.88258    4.3531648    73.290464   -160.89051   -205.13708    10890.368 
    3090    319.93304    4.4749897    67.934359   -162.40989    5169.9803    10890.368 
3100        0.97286339715777070403 10.207057921206684981 1 68 -308.80709251103797897
    3100    320.25158    5.3365356    70.357729    -163.7065   -2176.4343    10890.368 
    3110    285.73096    7.4678629    72.611342   -164.78625   -3327.7861    10890.368 
    3120    276.15752    8.2018661    71.038875   -165.20986   -3784.9146    10890.368 
    3130    270.39174    5.2875692    81.792689   -165.02293   -179.87814    10890.368 
    3140    306.00411    6.2316198    64.508863   -164.48584    724.21901    10890.368 
    3150     280.7282    7.6019782    79.567055   -163.85301    3422.8322    10890.368 
    3160    295.82006    7.2113305    69.252162   -163.01139    783.13967    10890.368 
    3170    292.51581    5.0552577    66.987376   -161.82005    2472.3634    10890.368 
    3180    274.14046    4.2192834    79.385195   -160.25998   -1567.3967    10890.368 
    3190    310.73399    5.6716006    67.193309    -158.1566   -756.06889    10890.368 
3200        0.97764132843515938465 10.190199853904818639 1 69 -287.51489460172751933
    3200    290.84724    5.1781686    88.263546   -155.73692   -3870.4397    10890.368 
    3210    332.12458    5.8887199    68.656268   -153.57315   -1421.1572    10890.368 
    3220    290.83187    6.5617129    86.168415   -151.52026    1465.6894    10890.368 
    3230    324.29053    11.311628    68.755725   -149.27269    961.70608    10890.368 
    3240    304.18882    10.495998    82.881428   -146.79069   -232.26466    10890.368 
    3250    309.72133    8.4919066    82.030335   -144.09743   -2292.1499    10890.368 
    3260     325.9179    5.9605676    74.061907    -141.3783     757.2005    10890.368 
    3270    290.52648    7.5485158    89.877836   -138.41196    2001.7542    10890.368 
    3280    317.22281    8.3972927    76.672745   -134.71968    1794.1136    10890.368 
    3290    328.71431     6.817727    87.778447   -130.39599   -1143.7939    10890.368 
3300        0.9785593589246810442 10.160403800639262073 1 68 -279.31994020943761825
    3300    335.72655    6.6518529    84.457888   -127.20791   -1830.1211    10890.368 
    3310    314.37343     8.185322    88.221322   -125.98771   -740.11124    10890.368 
    3320    327.98885     5.816646     83.32773   -125.83716    1447.7901    10890.368 
    3330    341.29634    4.2441429    74.476904   -126.79291    546.38283    10890.368 
    3340     310.0693    5.0686257    88.727502   -129.05913    -2864.925    10890.368 
    3350    317.85508    8.0211502    79.632508   -133.05584    921.17088    10890.368 
    3360    306.86726    5.5719056    82.573261   -138.57938    2346.5389    10890.368 
    3370     300.1509    4.3494345    82.227658   -145.00492    1062.4834    10890.368 
    3380    314.63229    4.8721168    69.941331   -150.48159   -4558.5679    10890.368 
    3390    310.64013    6.1557968     66.42612   -154.59876    -2046.468    10890.368 
3400        0.97931876682567864378 10.140083584382169946 1 66 -293.9405648114906171
    3400    301.71119    9.2395047    69.049194   -157.24031    3225.3796    10890.368 
    3410    288.41664    8.0559792    80.479843   -158.81847    5212.4416    10890.368 
    3420    292.52602    8.1002387    72.963668   -160.13251    637.77258    10890.368 
    3430    302.32195    8.5007221    66.909304   -161.29567   -1815.2368    10890.368 
    3440    299.07556    9.7037272    65.677705    -162.0399    978.02265    10890.368 
    3450    326.13096     6.505238    61.967216   -162.34491   -589.21369    10890.368 
    3460     311.6844    6.0273238    63.076785   -162.48678    165.83527    10890.368 
    3470    310.77196    6.7893786      70.0105   -162.78634   -3887.3274    10890.368 
    3480    308.16792    8.4230328    63.872797    -163.1431   -3441.8563    10890.368 
    3490    313.25999    6.7520357    72.673912   -163.79363    524.40254    10890.368 
3500        0.98350182109190875668 10.132888830682334813 1 68 -298.01667330776348308
    3500    294.61351    8.2488217     62.57697   -164.53226    4158.6172    10890.368 
    3510    300.01587    9.0477707    65.965837   -164.74754    1806.8363    10890.368 
    3520    319.17004    8.1831486    60.471106   -164.48457   -1827.6613    10890.368 
    3530    305.60785    7.3799255    69.973303   -164.01432    571.32944    10890.368 
    3540    310.72866    8.5237551    69.234195   -163.65948    2283.5078    10890.368 
    3550     294.5891      7.62064    73.273057   -163.22667   -1376.7777    10890.368 
    3560    284.05226    7.0093218    75.425573   -162.31114   -302.62685    10890.368 
    3570    297.81418      8.08867    71.708361   -160.70715   -3537.0599    10890.368 
    3580    312.41216    7.1672952    71.088277   -158.45445   -217.19565    10890.368 
    3590    313.70568    6.8029568     72.48227   -156.14759    1296.4238    10890.368 
3600        0.98631153283314332292 10.132134428412744143 1 67 -290.97090954431047294
    3600    303.25591    7.1233478    74.814641   -153.57078   -439.99142    10890.368 
    3610      279.684    10.979758    84.234668    -150.7616    677.09949    10890.368 
    3620    304.24942    10.695049    78.075746   -147.88205    1951.0564    10890.368 
    3630    288.13169    9.7809234    86.182926   -145.14305    5104.4634    10890.368 
    3640    330.42352    8.8826823     67.61495   -142.90329   -129.60139    10890.368 
    3650     297.8254    6.9042895     77.98163   -140.62789   -2731.6817    10890.368 
    3660    324.80625    4.5003792    76.925115   -138.92756   -1981.8279    10890.368 
    3670     312.0244    3.4367906    78.230337   -137.85231   -2168.6106    10890.368 
    3680    330.09086    4.2752221    75.970322   -137.63649   -3611.8664    10890.368 
    3690    336.01167    7.4288041    76.083306    -138.3298    1090.8298    10890.368 
3700        0.98831599489485255638 10.11650090222576992 1 67 -282.30291436730050236
    3700    313.96544    7.4258495    79.010805   -140.05047    2354.9574    10890.368 
    3710    328.44339    8.1700302    67.074724   -142.86646    4509.7072    10890.368 
    3720    291.48656    6.7556966    81.122194   -146.72778    1655.0419    10890.368 
    3730    309.36443    6.1838256    75.577566   -151.69767    3655.5013    10890.368 
    3740    303.75251    7.9849483    73.452339   -157.70793   -4254.4913    10890.368 
    3750    310.14311    8.1080957    64.487734   -163.38384   -5042.6139    10890.368 
    3760    289.15457    9.2250092    67.784263   -167.54107   -302.82894    10890.368 
    3770    277.01876     11.38662    69.247882   -170.14093    2081.3421    10890.368 
    3780     272.4733     11.29136    70.084735   -171.76174    1193.0658    10890.368 
    3790    302.46862    8.7608152    61.139655    -172.4745    968.22149    10890.368 
3800        0.986553827358045754 10.135100866347118043 1 67 -311.09643808781305552
    3800     304.9817    5.8686904    63.498169   -172.91438   -2526.6868    10890.368 
    3810    292.55692    5.9897841    62.414495   -173.01449    289.59462    10890.368 
    3820    279.78256    6.5729204    61.224301   -172.61737   -3295.2703    10890.368 
    3830    277.90587    5.3076441    66.502922   -171.62492    708.28742    10890.368 
    3840    302.71603    6.4616258    57.518975   -169.69612    79.789798    10890.368 
    3850    296.10289    9.0052133    63.879882   -167.19593    3404.4495    10890.368 
    3860    301.21163    6.5894083    68.231762   -164.39756    1064.2552    10890.368 
    3870    300.75558     5.044905    75.275164   -161.77148    1603.0972    10890.368 
    3880    322.60817    4.1358467    57.843087   -159.12501   -2965.6042    10890.368 
    3890    284.76692    5.4221833    73.145601   -156.56276   -127.80373    10890.368 
3900        0.98522233613270737695 10.141862112683856623 1 67 -293.8931763244531794
    3900    309.43061    6.3886311    71.056104   -153.69539   -3463.1564    10890.368 
    3910     287.7318    4.7577698    77.096289   -150.75807    5660.8662    10890.368 
    3920     307.0886    5.2808186     74.18666   -148.13482   -412.98359    10890.368 
    3930     323.5642     6.306841    73.534842   -146.14854    170.60121    10890.368 
    3940    344.61089    8.7053698    67.015953   -145.16254   -850.45088    10890.368 
    3950    307.02686    11.314537    71.050887   -145.05348    884.10112    10890.368 
    3960    305.77112    8.7726249    69.688614   -144.93795   -39.105584    10890.368 
    3970     309.8815    8.9379898    71.849522   -144.87386   -1948.8184    10890.368 
    3980    314.83941    7.2720933     75.91256   -145.23793   -6640.6862    10890.368 
    3990    290.89123    8.1659501    76.722161   -145.93822    1092.9297    10890.368 
4000        0.98751783032439133247 10.101475337176086811 1 70 -294.80360455193226699
    4000    327.10162    8.4548207    68.404434   -146.59938    1966.5994    10890.368 
    4010    311.53018     9.092717    70.234918    -147.4046    6461.0209    10890.368 
    4020    321.38478     10.04653    66.072403    -148.1155    1318.5892    10890.368 
    4030     309.7053    7.9156724    69.485434   -148.78977   -1298.3665    10890.368 
    4040    324.89367    7.4360949    65.153619   -149.64994    558.22004    10890.368 
    4050    305.67524    8.9291328    67.758659   -150.43872   -387.72822    10890.368 
    4060    297.35358    11.063364    77.303236   -151.03293   -3638.7543    10890.368 
    4070    302.66407    9.0280561    76.646238   -151.78559   -949.84466    10890.368 
    4080    304.17196    9.1644694    72.088933   -152.93992   -647.13019    10890.368 
    4090    300.05634    10.962135    72.542474   -154.16639    3047.0272    10890.368 
4100        0.98707025968246042691 10.085752786703523043 1 69 -286.5811997875323982
    4100    289.82265    10.642772    78.566564   -155.26744    2492.5298    10890.368 
    4110    322.69055    8.8700784    64.400275   -156.42834    3290.8271    10890.368 
    4120    310.55516    7.1372922    66.530664   -157.93759   -2070.9194    10890.368 
    4130    315.56239    7.4963652    61.738054   -159.74537    -1828.801    10890.368 
    4140    285.16395    9.9878961    70.716754   -161.66178   -2616.9132    10890.368 
    4150    285.22187    13.700882    63.351413   -163.27457    1913.3977    10890.368 
    4160    283.44933    12.946725    68.247358   -164.14259   -871.77437    10890.368 
    4170    329.75049    12.321948    54.714415   -164.87608    469.83171    10890.368 
    4180    283.75266    8.5693029    71.406187   -166.04414   -970.83021    10890.368 
    4190    310.43018    5.5201127    53.119655   -167.00461    764.36964    10890.368 
4200        0.98510048708534747597 10.11854277735380947 1 70 -300.49866542542974912
    4200    293.13995    4.4053497    67.866893    -167.6819     350.1247    10890.368 
    4210    287.62647    4.7431961    71.240815   -168.39569    2077.5377    10890.368 
    4220    256.49518    5.4643168    75.670361   -169.08448   -2137.8202    10890.368 
    4230     291.6153    5.1934703     69.82806   -169.44499   -2824.1309    10890.368 
    4240    261.65004    5.0504582     72.54024   -169.70205       393.37    10890.368 
    4250    281.93151    6.0053211    68.781277   -169.42262    1105.3833    10890.368 
    4260    287.63384    6.5257079    71.182542   -168.34897   -1204.9844    10890.368 
    4270    329.52034    5.3648737    62.875771   -166.97291   -2783.7125    10890.368 
    4280    287.39257    4.7703085    73.559293   -165.87101    559.39696    10890.368 
    4290    298.39019    6.6308241    61.253851   -164.45404    2523.5112    10890.368 
4300        0.98760514466033200165 10.105555868922655449 1 73 -290.78505914418150269
    4300    283.94644    6.7417232    66.083711   -162.13372    861.06714    10890.368 
    4310    286.00283    7.0927657    69.214369   -158.67418    292.52631    10890.368 
    4320    290.77951    5.0690122    74.717983   -154.65238    3017.4844    10890.368 
    4330    288.99418    7.4995849    74.469386   -150.74792   -1375.7119    10890.368 
    4340    296.20162    5.7704386    77.852008   -147.42005    -5225.203    10890.368 
    4350    296.54583     7.134145    75.159463    -144.4533   -2653.9249    10890.368 
    4360    312.23836    6.6326377    74.294052   -142.13973    4569.9407    10890.368 
    4370      318.567    6.0720203    77.227949   -140.49588    6662.9641    10890.368 
    4380    304.58514    7.2365974    80.515209   -139.36081       3509.9    10890.368 
    4390    302.22065    8.5292653    77.037945   -138.87263   -4443.9184    10890.368 
4400        0.98293253616492270996 10.131781987968391689 0.99735449735449732689 71 -279.64987172902107204
    4400    310.65373    6.2263619    75.817499   -138.89791   -4279.4534    10890.368 
    4410    326.08621    6.2383959    67.717586   -139.63878   -2928.6298    10890.368 
    4420    319.68335    8.3189717    62.547988   -141.02422    629.39258    10890.368 
    4430    299.65551    7.5525999    75.297887   -143.03897    589.00861    10890.368 
    4440    312.62391    5.7579509    62.151905   -145.29988    912.64034    10890.368 
    4450    296.40634    5.4969723    78.476696   -148.27034    3464.9012    10890.368 
    4460    318.17115    6.6649929    61.308854   -151.96138    3024.3701    10890.368 
    4470    290.44628    8.5110691    70.608393   -156.58122   -967.33152    10890.368 
    4480    274.46078    8.3048097    73.106992   -161.46392    -2208.595    10890.368 
    4490    277.47132    8.1061041    69.679139   -166.10274   -3197.1868    10890.368 
4500        0.98033249737555039349 10.140953699360027329 0.99735449735449732689 67 -294.08420134803151313
    4500    273.19986    8.4904827    72.443707   -170.30195   -597.38434    10890.368 
    4510    279.18657    8.4945572    71.877284   -173.39536    811.45808    10890.368 
    4520    263.45261    7.1776678    68.856733   -175.59625    165.68659    10890.368 
    4530    268.39943    8.0880354    67.818232   -176.61315    527.82482    10890.368 
    4540     251.3347    8.9593835    72.281265   -176.60486    1390.7777    10890.368 
    4550     281.9452    9.5770946    65.041444   -175.86734    3486.2254    10890.368 
    4560    275.79761    7.0792417    64.732638     -174.579   -2243.5263    10890.368 
    4570    307.51887    7.6204591    61.776763   -172.86615   -629.34066    10890.368 
    4580    305.63092    7.8832431    60.487936   -170.98501   -2404.2327    10890.368 
    4590    306.82151    7.7832339    56.870027   -169.15513    574.85798    10890.368 
4600        0.97965766596985315307 10.169474196531339771 1 68 -310.2949055834791352
    4600    315.53664    7.7309871    60.529332   -167.33058    1036.0116    10890.368 
    4610    311.97933     7.352819    62.909741   -165.85671   -245.59842    10890.368 
    4620    275.64118    9.5115073    69.624071    -164.9421   -966.72402    10890.368 
    4630    272.27919    8.3316159    72.804138   -163.94852    60.070971    10890.368 
    4640    312.24566    5.9689202    61.922848   -162.57735   -23.323091    10890.368 
    4650    319.21819    4.4732538    62.241301   -161.23037    2338.9887    10890.368 
    4660    288.49676    7.5630642    66.286917   -160.03634    840.59711    10890.368 
    4670    297.40699    8.9589131    63.261251   -158.54481    2630.2293    10890.368 
    4680       317.57    7.4472174    69.120143   -157.34228   -1133.0787    10890.368 
    4690    319.15617    7.0671607    62.476364   -156.64421   -3268.9759    10890.368 
4700        0.97257912370985533101 10.217667672509907817 1 66 -299.06954563851058992
    4700    315.22628    11.041161    63.721381   -156.24584   -4099.4044    10890.368 
    4710    302.96516    9.9121489    68.995808   -155.97669   -4422.6852    10890.368 
    4720      293.688    8.7729239    68.817064   -155.66726   -766.33463    10890.368 
    4730    306.90944     7.064692    65.414956   -155.24946    4477.9703    10890.368 
    4740     306.4897    6.6843057    68.800949   -154.83874    2130.2319    10890.368 
    4750    319.69135    5.7706262    56.828448   -154.56193    2588.9906    10890.368 
    4760    301.65623    3.6250993    67.670519   -154.48325     -2690.59    10890.368 
    4770    332.38657    4.3908866    54.208212   -154.19796    1411.4029    10890.368 
    4780    315.74706    4.6147184    64.600282   -154.08772   -5393.4477    10890.368 
    4790    305.36931    6.3014732     68.91248   -154.23103    17.689481    10890.368 
4800        0.97756354679481438641 10.174277436433879274 1 67 -290.89221746958878612
    4800    301.29875    7.5547719    67.576028   -154.37884    323.51783    10890.368 
    4810      303.712    8.9475925    64.528764   -154.47146    1197.8673    10890.368 
    4820    303.20563    6.5495752    72.631631   -154.55165     971.9996    10890.368 
    4830    282.61057    5.9826478    72.337863   -154.81958    2717.5242    10890.368 
    4840    297.00619    7.2807871    68.156031   -155.38842    2851.6098    10890.368 
    4850    315.61971    8.6798129    61.769267   -156.25865   -553.68378    10890.368 
    4860    337.93453    6.7504349    56.214667   -157.61008   -3576.5875    10890.368 
    4870    313.63176     8.081152    60.880867   -159.41732    1199.3573    10890.368 
    4880    308.40845    9.4522839    70.064993   -161.55242   -2534.9744    10890.368 
    4890     297.2539    10.167958    66.578824   -163.96046   -2043.0054    10890.368 
4900        0.97502037784417971977 10.166815901989693316 1 69 -296.83829272207844951
    4900    288.07368    9.9419984    64.670286   -166.31697   -2415.9321    10890.368 
    4910    284.27262    10.196478    63.705607    -168.3141    2220.1364    10890.368 
    4920    284.50916    11.571272    61.627526    -169.4861    4368.0919    10890.368 
    4930    298.89291    8.2632057    58.121808   -170.07923    1145.2069    10890.368 
    4940    266.59629    8.0331083    74.446932   -170.22705    1964.4371    10890.368 
    4950    265.27843    8.7028684    65.023038   -169.85721     587.8689    10890.368 
    4960    240.37405    6.9864283    76.888926    -168.8596    50.214553    10890.368 
    4970    289.46698    7.0155193     64.41984   -166.63014   -1741.2666    10890.368 
    4980    299.51359    8.6418855    65.957186   -163.40612   -4317.1926    10890.368 
    4990    319.77475    6.3257897    62.766673    -159.8222   -2132.6721    10890.368 
5000        0.97234700578623045608 10.173219998540531606 1 69 -295.51832646344354316
    5000    307.51122    4.2461905    73.147304   -156.19018    733.23794    10890.368 
    5010    317.94532    4.7730716    66.546091   -152.85844    3447.1326    10890.368 
    5020      297.847    6.9681701    70.629953   -150.02882    758.39204    10890.368 
    5030    325.82175    6.7377572    63.903679   -147.45808   -1700.2691    10890.368 
    5040    312.70506    5.0736664    66.472625   -145.16569   -974.81152    10890.368 
    5050    317.95047    5.2111284    61.729393   -142.98111   -469.04961    10890.368 
    5060    322.87728    4.0329556    72.676844   -140.82058   -873.64421    10890.368 
    5070    326.27501    4.4382066    78.916864   -139.31352    1790.2182    10890.368 
    5080    322.20654    6.2317655    76.380085   -139.13678      553.767    10890.368 
    5090    305.57153    8.7466177    70.347395   -140.08564   -515.50942    10890.368 
5100        0.97300697712508621429 10.180940033538220746 1 69 -278.38488716754972074
    5100     302.0473    10.376305    73.677654   -141.53235   -926.93223    10890.368 
    5110    312.01395    10.884532    67.016624   -143.32259    1459.9439    10890.368 
    5120    300.94504    9.7106164    68.627626    -145.6224    1121.8284    10890.368 
    5130     315.2547     7.120736    70.194403   -148.85849   -532.76804    10890.368 
    5140    284.29976    5.8785463    72.586929   -153.96116   -1571.8543    10890.368 
    5150    295.32344    6.0315023    61.470573   -160.87299   -866.54338    10890.368 
    5160    277.15835    7.4422327    60.023802    -167.9587   -189.12798    10890.368 
    5170    299.85126    5.7801274    52.690717   -173.03307     1277.094    10890.368 
    5180    282.50813    8.2443538    64.088308   -176.21145    2338.9406    10890.368 
    5190    285.33919    8.0121936    60.539367   -177.81726    1400.4792    10890.368 
5200        0.97921085462211909789 10.152806264872905828 1 68 -301.20800468026300223
    5200    270.99203    8.3306251    66.180397   -178.42609      1519.98    10890.368 
    5210    293.50869    5.1357904    58.812629   -178.09141   -2224.3877    10890.368 
    5220    292.20581    4.4739631    60.249254    -177.1371   -1012.5807    10890.368 
    5230    280.96914    4.9866533      72.5973   -175.76211   -288.53535    10890.368 
    5240    284.75677    6.2369187    64.837997   -173.94043    1687.2251    10890.368 
    5250    279.17197    9.3253388    66.448264   -172.01776    255.40981    10890.368 
    5260    291.35577    8.0140479    67.626522   -169.78737   -418.85858    10890.368 
    5270    301.50733    7.5836785    62.802663   -167.41413   -1424.3132    10890.368 
    5280    294.96634    6.7331208    72.952089   -164.63755     2440.379    10890.368 
    5290    287.17348    5.7812641    71.704348   -162.09672   -4422.5046    10890.368 
5300        0.97927218761835044258 10.175223163323220632 1 69 -275.68953908991358048
    5300    256.55055     4.367438    82.875019   -159.45081   -2834.0307    10890.368 
    5310    273.85614    6.0926989    66.532694    -156.5535   -682.02047    10890.368 
    5320    285.87108    6.6988687    68.535588   -152.95988     3851.201    10890.368 
    5330    317.91098    8.7749897    69.434272    -149.1882    3007.4354    10890.368 
    5340    346.59948    9.7610023    65.688658   -145.89484   -1012.6988    10890.368 
    5350    331.07246    7.5809816    73.573306   -144.08457   -2258.1022    10890.368 
    5360    307.93899    7.2270137    76.454383   -143.70155   -1948.5765    10890.368 
    5370    292.93446    8.0244454    76.090773    -143.6362   -4168.3923    10890.368 
    5380    303.25287    7.4270348    75.178628   -143.73495    1933.5131    10890.368 
    5390    308.81973    7.2935664     80.90435   -144.21122    238.10157    10890.368 
5400        0.98555949549171195656 10.112834188665633661 1 69 -294.14716566168760892
    5400     328.3772    7.7569096    64.888572     -145.365    4944.6947    10890.368 
    5410    325.18826    8.8221534    70.499796   -147.05001    2898.1552    10890.368 
    5420    322.15133    11.959753    71.544371    -149.1691     649.3853    10890.368 
    5430    314.26396     9.733843    67.386892   -151.62383     -4608.74    10890.368 
    5440    289.49103    7.9387929    77.748435   -154.34742    1222.2338    10890.368 
    5450    308.38034    7.7336916    67.628104   -156.55672   -1127.5242    10890.368 
    5460    314.87616     9.275732    64.491984   -158.39603    2688.5689    10890.368 
    5470    314.90182    9.3157953    66.765655   -160.01758    332.37487    10890.368 
    5480    304.52048    6.2715688    66.875947   -161.72141   -436.96116    10890.368 
    5490    313.67203    7.0738276    66.847947     -163.447   -3185.4689    10890.368 
5500        0.98731350912966309163 10.132390992973178356 1 68 -306.73292411776492372
    5500    311.99231    7.1159788    62.429239   -165.37447   -113.18228    10890.368 
    5510    292.86068    7.8498593    63.477072   -166.81016    3099.4326    10890.368 
    5520    281.65879    6.6615862     71.69602   -167.48615   -442.05695    10890.368 
    5530    287.44196     7.663317    66.171559   -167.72509   -3748.5663    10890.368 
    5540    282.19609    6.9564227    70.106501    -167.6351   -1017.0568    10890.368 
    5550    297.47244    5.9583183    57.937214   -167.18048   -2456.6016    10890.368 
    5560    280.98218    5.6211506    61.943903   -166.25576    5249.0129    10890.368 
    5570    282.75719    5.3531182    54.573696   -164.43302    445.28929    10890.368 
    5580    282.93414    5.0757598    67.622966   -161.60793    3319.1813    10890.368 
    5590    301.25493    5.2530636    69.976242   -158.33108    814.46331    10890.368 
5600        0.98874873661760676047 10.098198605371786485 1 66 -290.65725074777816417
    5600    299.04534    7.2528579    72.156818   -155.16485    27.394956    10890.368 
    5610     317.7485    9.9481865    66.468158   -153.00074   -4.2109495    10890.368 
    5620    293.43116     9.758259    72.649052     -151.737   -4036.4024    10890.368 
    5630    318.42015     14.11363    63.675137   -151.02715   -2591.5901    10890.368 
    5640    295.17916    11.419978    74.960212   -151.08328    3961.6264    10890.368 
    5650    297.41337    10.117962    66.104177   -151.17876    127.62346    10890.368 
    5660    301.32848    9.6192419    68.690265   -151.07675    2223.6718    10890.368 
    5670    324.53277    9.6229109    56.750863   -150.96827   -4691.6495    10890.368 
    5680    325.21252    10.633421    63.184225   -151.25393    820.44603    10890.368 
    5690    297.03914    10.159867    66.463554   -151.79593    1460.8213    10890.368 
5700        0.98402853554394864588 10.11263422146795854 1 66 -294.75177314672487228
    5700    314.40844    7.3657424    67.445448   -152.29861    783.20997    10890.368 
    5710    302.65044    7.2773312    73.335484   -152.99118    1278.7736    10890.368 
    5720    323.22679    6.7813275    60.715452   -154.06185   -553.03505    10890.368 
    5730    293.30781    5.2241712     69.12442   -155.15246    3317.9273    10890.368 
    5740    312.01724    6.0740501    60.055683   -155.80579    2668.3695    10890.368 
    5750    306.87335    9.3291322    68.933366   -156.26223   -4198.5806    10890.368 
    5760    307.69239    10.782065    69.391782   -157.18148   -2838.5592    10890.368 
    5770    272.10967    10.567595    76.430071   -158.36339   -4789.0238    10890.368 
    5780    287.21143    10.686251    65.810396   -159.38433    3117.7528    10890.368 
    5790    303.87686    8.2329946    66.738874   -160.29557   -1015.1576    10890.368 
5800        0.98881386602549903309 10.112502422588447004 1 67 -298.00673724397393016
    5800    302.08657    5.8919838     65.43041   -161.13641    1743.2975    10890.368 
    5810    304.44283    5.7837532    66.780301   -161.88869    1523.0835    10890.368 
    5820    307.47695    8.0537042    62.941258   -162.59182   -450.76786    10890.368 
    5830    293.01169    7.0389748    65.839831   -163.51326   -2093.2275    10890.368 
    5840    302.32532    7.7412868    64.138509   -164.71264    -738.0121    10890.368 
    5850    289.63551    7.0152153    67.201196   -166.29179    -874.1687    10890.368 
    5860    300.84555    7.8391113    63.592705   -167.89101    1164.7804    10890.368 
    5870    277.63385    7.4888161    69.498722   -169.28432   -748.42069    10890.368 
    5880    280.39046    6.7776895     69.83936   -170.49545     2669.004    10890.368 
    5890    276.99365    7.7631227    63.614058   -171.42269   -1294.6322    10890.368 
5900        0.9911776452547742533 10.112236817931686161 1 67 -290.96562369796708936
    5900    263.12201     6.313372    69.580789   -171.74948    -1131.026    10890.368 
    5910    278.08879    5.7621174    67.023088   -171.34645    2932.4135    10890.368 
    5920    285.21235    5.6130671    60.613098   -170.18204    326.10658    10890.368 
    5930    308.71512    4.6425148    57.032026   -168.19344   -240.81765    10890.368 
    5940    301.21979    4.7915613    61.619931   -165.49122   -768.03554    10890.368 
    5950    303.42528    7.1184754     67.88325   -162.19893    209.69161    10890.368 
    5960    319.56303    10.266577    63.006801   -158.28068   -335.97201    10890.368 
    5970    300.79525    11.776286    67.140705   -154.71463   -12.716694    10890.368 
    5980    300.78001    13.206241    74.496997   -151.12528    2687.0412    10890.368 
    5990    311.49949    12.557873    69.523754   -147.61896    805.84488    10890.368 
6000        0.98814451885232457151 10.12836206479332013 1 67 -290.2908615218967725
    6000    321.59602    9.8407811    65.534494   -144.58113   -2841.4082    10890.368 
    6010    319.46439    5.8525762      68.4341   -142.53432   -1432.7409    10890.368 
    6020    324.29347     5.543591    68.922969    -140.9741    2749.2633    10890.368 
    6030    310.98004    5.9378065    72.215103   -139.75939   -1800.6279    10890.368 
    6040    304.22902    6.9892985    70.610531   -138.75118   -3102.7969    10890.368 
    6050    319.24291    8.1452084     72.82882    -138.0309   -248.13167    10890.368 
    6060    335.02562    8.7473663    69.409521   -138.07042      1627.06    10890.368 
    6070    303.93608    8.1395158    74.374967   -138.98329    282.04519    10890.368 
    6080    315.70195     5.961099    66.519792   -140.12744   -1322.5264    10890.368 
    6090    315.33619    4.4552057    75.798297   -141.98875    3409.4378    10890.368 
6100        0.98727827841689774768 10.1154055241516172 1 68 -285.05714323270683508
    6100     309.1812    5.4794667    68.308863   -144.97236    1526.1193    10890.368 
    6110    287.61063    5.4840208    66.209401   -149.51911   -767.84644    10890.368 
    6120    287.13995    6.3791711    66.115145   -155.04809   -3904.2802    10890.368 
    6130    301.25544    6.4568229     64.24066   -161.38394    -2247.482    10890.368 
    6140    301.60994    6.0287126    65.464671   -167.05447    324.30628    10890.368 
    6150    295.47942     6.006044    61.658863   -171.88854    4287.7197    10890.368 
    6160    277.50128    6.7694229    62.408521   -174.82551    1112.6858    10890.368 
    6170    309.69021    7.4439993    60.513824   -176.57468    4884.7117    10890.368 
    6180    282.01491    6.5135733    63.196777   -177.54337   -2348.5347    10890.368 
    6190    287.22609    6.1598874    61.031224   -177.64536    320.33162    10890.368 
6200        0.98615745880220129216 10.139067632324632484 1 66 -305.03875657228002183
    6200    282.32693    4.6437541    67.691898   -177.12119   -2433.2281    10890.368 
    6210    294.75903    6.5857851    61.949144   -176.19761   -863.51356    10890.368 
    6220     268.3671    5.7799121    70.655061   -174.92749    1043.3681    10890.368 
    6230    284.40703    7.9852055    64.562944   -172.89589    843.69513    10890.368 
    6240    276.61681    9.2376028    70.998586   -170.24345    3809.4736    10890.368 
    6250    283.40743    7.5474066    69.841796   -167.07843   -1190.5483    10890.368 
    6260    302.34878    7.9481888    60.733906   -163.63588   -1626.6971    10890.368 
    6270    304.41466    11.181641    63.067555   -160.14281   -665.10488    10890.368 
    6280    310.19263     12.28343     61.71038   -157.14827   -720.44771    10890.368 
    6290    308.32479    8.8921617     70.73246   -154.56574   -954.28187    10890.368 
6300        0.98146597672360247344 10.153044445242633387 1 67 -287.63879606673617673
    6300    298.15768      9.08912    71.931177   -152.54858   -271.91228    10890.368 
    6310    303.41454    8.9864717    69.412547   -150.99807   -1318.9609    10890.368 
    6320    314.62828     12.23334    70.806236   -149.88975    3909.8879    10890.368 
    6330    323.62902    10.948203    66.979453   -149.53093     829.2213    10890.368 
    6340    311.42659    8.8804489    69.500814   -149.75514    813.22061    10890.368 
    6350    305.96858    6.9101662    67.770867   -150.35419   -3829.4537    10890.368 
    6360    300.38934    5.9778173    67.599393   -150.80145   -3660.0111    10890.368 
    6370    298.81554    4.1295429    72.227322   -151.15015   -129.24962    10890.368 
    6380    309.15104    2.9535377    69.652724   -151.55083   -397.00765    10890.368 
    6390    306.73046    3.1471391    65.837197   -152.22099    1410.8366    10890.368 
6400        0.97285649757272529836 10.188840781442795702 1 66 -295.41119104073646895
    6400    314.52717    3.1739894     61.63566   -152.90424   -1083.3979    10890.368 
    6410    318.42221    5.4677813    58.152896   -153.56875    1405.1471    10890.368 
    6420     322.1654    4.8558537    60.287506   -154.48452   -759.21946    10890.368 
    6430     307.2417    6.2545889    62.750356   -155.57389   -1601.3739    10890.368 
    6440    309.79826    5.2746494    60.828074    -156.4988    755.20343    10890.368 
    6450    321.07102    6.2414733    56.682588   -157.44086     2963.174    10890.368 
    6460    298.94627    6.1388577    61.894964   -158.39606    558.16925    10890.368 
    6470     307.6975    6.1414532    54.733269   -159.05863    3197.6494    10890.368 
    6480    271.23273    6.8693701    69.145987   -159.28921   -2650.9721    10890.368 
    6490    287.96674    6.3330574    70.528232   -158.67789    2448.3465    10890.368 
6500        0.96650722295793201067 10.206775348264802261 1 67 -293.25868578716301727
    6500    300.72911    5.7477829      68.4207    -157.0034   -379.54312    10890.368 
    6510    294.04488    6.5820549    74.131944   -153.93747   -594.12842    10890.368 
    6520    285.75868    5.9982859    78.239731   -149.41969   -2233.4974    10890.368 
    6530    275.11827    4.9267705    79.400348    -143.6645   -2240.3203    10890.368 
    6540    303.18279    4.2747669       86.042   -137.92741   -883.58556    10890.368 
    6550    321.70104    6.9318272     77.40292   -133.05169    -2184.448    10890.368 
    6560    317.19129    6.6895819    79.477722   -129.88377   -4322.9171    10890.368 
    6570    320.46856     6.003739    75.290703   -128.50428    3957.1821    10890.368 
    6580     291.8971    6.2535014    85.825237   -128.53384    2117.8736    10890.368 
    6590     335.0083    8.3141455    64.260087   -129.29894    5173.9719    10890.368 
6600        0.97436084574576253825 10.163435990992274682 1 66 -271.44970766124856709
    6600    309.84465    7.0345879    81.144633   -131.06432   -1571.4289    10890.368 
    6610    344.21462    5.8856037    70.665632   -133.89452    1099.3336    10890.368 
    6620    328.71143    5.0007111    77.330758    -138.4893    1830.3564    10890.368 
    6630    311.24425    5.8014035    72.942276   -144.04764   -469.89906    10890.368 
    6640    292.74808    4.1788487    72.481117   -149.04242   -5285.2035    10890.368 
    6650    296.48967    3.9743672    67.955072   -152.88818   -850.79649    10890.368 
    6660    311.67304    3.9909959    63.611686   -156.16719    341.32023    10890.368 
    6670    287.95971    6.7928116    70.065657   -158.70655     4833.712    10890.368 
    6680    289.62275     8.485327    64.612754   -160.65764    155.81312    10890.368 
    6690    271.88856    8.4697934    70.211223   -161.92578    1267.7936    10890.368 
6700        0.97595763924335776629 10.164201421568689554 1 64 -282.32312608566707013
    6700    264.05779    7.6261657    74.341713   -162.68299    1270.5094    10890.368 
    6710    278.07544    7.0079718    73.968734   -163.02353   -1228.0958    10890.368 
    6720    261.95026    10.188494    75.170316   -163.17669   -1662.9596    10890.368 
    6730    276.55291    9.9973503    69.886338   -162.96151   -2973.4861    10890.368 
    6740    278.37043    10.766035    69.840196   -162.04968   -55.581835    10890.368 
    6750     301.1967    11.643327    69.013554   -160.66457    3333.8529    10890.368 
    6760    303.32097    10.746623    72.223296   -159.04461   -530.12128    10890.368 
    6770    328.55483    9.5224157    60.185146   -157.56567    1568.7702    10890.368 
    6780    300.63283    7.1539205    61.978633   -156.49579   -1687.2519    10890.368 
    6790    285.37741    6.7334943    76.072408   -155.26833   -729.06541    10890.368 
6800        0.97200723215203532757 10.18733768970586695 1 64 -287.92780082551985288
    6800    297.27606    5.0592757    69.787809   -153.23703   -1996.6747    10890.368 
    6810     287.8102    6.6113106    71.673632   -150.46765   -1489.8169    10890.368 
    6820    298.09468    6.6335601    77.629892   -146.72209    220.08995    10890.368 
    6830    284.98663    8.8570759      72.7475   -142.29014    5096.3448    10890.368 
    6840     303.4094    6.8419666    78.720373   -137.39722   -95.081883    10890.368 
    6850    334.69717    4.8522532    70.545127   -132.68931   -588.87259    10890.368 
    6860     333.3746    2.9909187    73.792361   -129.30716   -2360.8536    10890.368 
    6870    322.25063    4.8840183    66.141266    -127.2306    2261.6021    10890.368 
    6880    311.22609    5.4326368    76.455263   -125.83472    2564.7788    10890.368 
    6890    326.23198    7.2139942    69.101218   -124.86786   -1833.4893    10890.368 
6900        0.96892133701980487359 10.212018315697813264 1 67 -268.1371489193085722
    6900    316.41528    7.4427187    77.435261   -124.77472   -1766.6439    10890.368 
    6910    326.12158    9.2822562    66.895013   -125.31345    -3393.792    10890.368 
    6920    343.17155    9.0487102    65.550611   -126.74047    870.22318    10890.368 
    6930    326.59337    6.6216578    75.522751   -129.66086       2510.3    10890.368 
    6940    322.13989    6.1585781    64.887763   -134.38227   -1303.9365    10890.368 
    6950    306.66628      4.68392    69.731115   -139.97172    60.491204    10890.368 
    6960    309.47676    6.2640882    63.446944   -146.02874   -3711.4814    10890.368 
    6970    294.00947    5.7407801    66.967462   -151.10955    1988.7006    10890.368 
    6980     295.7016    6.1181537    65.815291   -154.63728    914.11678    10890.368 
    6990    316.25322    7.2245825    64.316946   -156.88717    868.41051    10890.368 
7000        0.9738931087936359976 10.199532980708768903 1 69 -297.74999002752940669
    7000    307.28197    7.7890151    63.440974   -158.52571    -38.05901    10890.368 
    7010    278.43714    7.9094385    70.834858   -159.67065   -2717.4315    10890.368 
    7020    267.50378    9.1555641    72.831314   -160.18814   -3480.2599    10890.368 
    7030      270.588    11.318731    71.692557   -160.10768   -827.19454    10890.368 
    7040    306.98823    10.202911    60.705006   -159.56306    559.46367    10890.368 
    7050     327.1945    8.8084789    58.132099   -159.05234     2241.229    10890.368 
    7060     288.7963     9.714175    61.905928   -158.67413   -2984.1252    10890.368 
    7070    301.19308    8.5735246    60.918342   -158.04573    5126.6923    10890.368 
    7080    281.77919    8.5737187    68.996361   -157.13436    4586.4077    10890.368 
    7090    323.15394    6.3893358    58.460566   -156.02285    226.80229    10890.368 
7100        0.97335008608863926582 10.193694980313194876 1 72 -292.05713833358140619
    7100    301.79304    7.8618796    70.073825    -155.3198   -1277.4087    10890.368 
    7110    293.79926    8.8462944    65.843821   -154.84676    -5392.758    10890.368 
    7120    278.09523    10.548494    69.812754   -154.30086     325.3872    10890.368 
    7130    293.60333    7.6927579    69.042586   -153.42542     912.9007    10890.368 
    7140    289.09258    5.1334654    69.763813   -152.51212    2104.2582    10890.368 
    7150    300.36868    6.1304214    73.208053   -151.35406   -777.12142    10890.368 
    7160    301.57422     5.121564    68.690472   -150.02454   -1762.7421    10890.368 
    7170    305.14972    4.1844383    76.783207   -149.11234   -977.37533    10890.368 
    7180    317.75614    3.4582809    60.301179    -148.4934    1466.7792    10890.368 
    7190    317.53217    4.7074555     57.78825   -147.87826   -2237.1759    10890.368 
7200        0.98081177180898648782 10.14111664654813616 1 69 -284.41139218041774939
    7200    303.33719    6.3933621    71.805539   -146.97443   -2918.4963    10890.368 
    7210    312.54043    6.3049443    75.183073   -146.38578   -175.28335    10890.368 
    7220    333.37668    5.7647657    64.354039   -146.40687     3652.142    10890.368 
    7230    319.45125    7.4188634    66.141804   -147.27605   -994.73688    10890.368 
    7240    309.15584    6.7609624    63.934753   -148.54197   -1330.5783    10890.368 
    7250    299.83471    7.0981453    65.066332   -149.95848    697.11327    10890.368 
    7260    305.09218     7.967311    62.238179   -151.63825    2498.6329    10890.368 
    7270    302.76228    8.8669262    65.729682   -153.37205    3028.0671    10890.368 
    7280    312.01406     8.077805    63.818401   -155.32845    523.47012    10890.368 
    7290    288.83441    9.9629032    68.435205   -157.72168   -1373.4738    10890.368 
7300        0.9872262575841103116 10.094773608845164503 1 72 -294.8484701979178908
    7300    296.64938    10.723524    62.228427   -160.44164    1544.5303    10890.368 
    7310    284.25931     9.981714    66.156571   -162.87155    1982.0266    10890.368 
    7320    336.97995    11.115579    48.756929   -165.15213    1951.8422    10890.368 
    7330    272.21706    10.679643    70.851428   -167.93125   -2968.0733    10890.368 
    7340    299.08717    8.4864749    62.987553   -170.97445    316.75247    10890.368 
    7350    276.82785    7.7539459    72.429802   -174.81551    1382.9345    10890.368 
    7360    297.37035    9.0064773    50.953473   -178.52705    1982.9575    10890.368 
    7370    271.84278    7.9274645    58.139806   -181.42079   -3616.8723    10890.368 
    7380    257.76138    6.7673707    63.983112   -182.93933    365.76309    10890.368 
    7390    248.17332    6.1105753    67.576005   -183.32256   -1335.4694    10890.368 
7400        0.98842880911383679265 10.111394425538101416 1 67 -295.2609360941844443
    7400    248.37158    5.9995775    62.048238   -182.72796    2082.2578    10890.368 
    7410    267.17381    5.9674589    56.074486   -180.88713   -2506.2976    10890.368 
    7420    275.02238    5.5877791    52.029921   -177.54745   -1451.0404    10890.368 
    7430      278.923    5.6942879    63.815707   -172.79925    3039.5176    10890.368 
    7440    278.22499    5.4665025    66.766465   -167.85246    1958.4596    10890.368 
    7450    305.29756    5.5898072    61.873016   -163.93146    1585.9758    10890.368 
    7460    288.66887    4.9841681    61.702733   -161.58897   -1419.9299    10890.368 
    7470    306.35815    5.4597495     52.00105   -159.81403   -4946.4221    10890.368 
    7480    280.72096    8.8755806     68.52284   -158.31829    2600.2582    10890.368 
    7490    304.26585    7.5411959    66.580062   -156.65957    680.83515    10890.368 
7500        0.98449143955476892121 10.14487191414179712 1 70 -298.83533410782393958
    7500     317.4524    6.2306981    59.666074   -155.00301    2061.1227    10890.368 
    7510    292.04482    8.3945545    64.470638   -153.38245   -2960.6268    10890.368 
    7520    306.85804    10.314679    62.050678   -151.52711    -3510.538    10890.368 
    7530    313.64534    9.1771183      67.8942   -149.51616   -916.47916    10890.368 
    7540    314.84401    7.3744263    67.558789    -147.6647    2194.4135    10890.368 
    7550    310.49085    6.2172451    73.239137   -146.52855    -761.9008    10890.368 
    7560    310.42963    7.6889066    67.369397   -146.16755    528.70266    10890.368 
    7570    312.93086    8.4306339    67.211308   -146.44659   -1109.9872    10890.368 
    7580    313.07585    10.197776    69.524451   -146.99176    5795.2287    10890.368 
    7590     320.9791    7.6113506    65.573141   -148.26665    962.56733    10890.368 
7600        0.98769040850635947404 10.118110058795018347 1 66 -287.08026952728494052
    7600     302.3096    8.8179643    70.237693   -150.10889   -613.29341    10890.368 
    7610    309.12287    5.0863507    61.321435   -152.48452   -5402.1536    10890.368 
    7620    289.79748    4.5900134     68.39276   -155.18041   -2443.2731    10890.368 
    7630    293.29682    2.3688054    72.990099    -158.2089    761.93371    10890.368 
    7640    277.63842    3.8629495    54.984721   -161.15201     93.44952    10890.368 
    7650    303.57849    4.0886931    61.465716   -163.60666   -1074.1077    10890.368 
    7660    288.21867    5.6491754    59.412814   -165.98039    2772.6436    10890.368 
    7670    284.02038    6.4981353    66.996448   -168.07138   -66.369221    10890.368 
    7680    283.93499    9.0618566    62.073629   -170.05353    1533.6333    10890.368 
    7690    290.97178    8.5120526    62.117652   -171.94303   -1246.8608    10890.368 
7700        0.98852954333561038336 10.102240449258944821 1 71 -304.51377288919468356
    7700    288.43966    9.7555734    62.967179   -173.82663     1300.464    10890.368 
    7710     275.1126    9.6771011    66.602925   -175.64108    -1010.588    10890.368 
    7720    276.63237    13.752203    64.398885   -177.45952   -1187.8222    10890.368 
    7730    272.53214    12.427306    63.602354   -179.30392    2780.4086    10890.368 
    7740     271.0571    9.9435801    63.214274   -180.92168   -2072.6876    10890.368 
    7750    271.43234    8.3679869    64.792747   -182.13083   -520.03237    10890.368 
    7760    272.74217    8.8245062    67.494136   -182.98219   -669.76849    10890.368 
    7770    286.63467     8.224992    57.923879     -183.332    680.62325    10890.368 
    7780    282.69023    9.5010237    57.580431   -183.15168      3248.35    10890.368 
    7790    276.20783     8.760508    55.021364   -182.26706    406.17701    10890.368 
7800        0.98769558911362331788 10.10059106200078638 1 69 -305.08347572906751566
    7800    275.98031    6.6506274     57.04599   -180.04145    589.34592    10890.368 
    7810    285.93271     5.340203    59.554593   -176.29555   -2173.9604    10890.368 
    7820    287.20094    3.9399297    58.966386   -171.54978   -948.73789    10890.368 
    7830    300.80632    4.9659704    58.314967   -166.33562    1978.8011    10890.368 
    7840    291.08508    5.8339141    61.772772   -161.47949   -1901.9609    10890.368 
    7850    296.55467    5.5168802    64.433107   -157.18729   -1661.0482    10890.368 
    7860    296.07696    5.8146946    69.525407   -153.59751    2562.8485    10890.368 
    7870    303.82866    7.5353071    70.431199   -150.75678    2929.7897    10890.368 
    7880    319.39834    7.5352055    61.838488   -148.80587   -112.08496    10890.368 
    7890    296.55693    6.3880245    69.606305   -147.46463   -2986.2454    10890.368 
7900        0.98591270681346876437 10.104411535406599754 1 68 -293.4370464906272673
    7900     324.5452    4.8728889    63.889986   -146.39109    1813.4033    10890.368 
    7910    286.01843    6.5400336    75.970077   -145.68615    11.046072    10890.368 
    7920    309.94332    9.8155384    68.035898   -145.24573   -250.78644    10890.368 
    7930    294.97754    10.346273    73.340228     -145.235    1297.1632    10890.368 
    7940    311.03543     9.682453    70.123846   -145.56029   -2367.0027    10890.368 
    7950    328.15505    8.9534054    62.357981   -146.32515    1362.5436    10890.368 
    7960    295.91774    9.2568374     68.38664   -147.58335    78.014401    10890.368 
    7970    309.41283    9.9313929    59.939461   -148.96223    2523.7286    10890.368 
    7980     278.9274    7.2602799     74.28085   -150.42433   -1791.1037    10890.368 
    7990    323.72259    8.5998704    61.289845   -152.45776    473.94687    10890.368 
8000        0.98348421424046283956 10.137702807299064034 1 68 -292.71163418702496983
    8000    301.94825    6.4713192     72.23969   -155.90398    1132.9676    10890.368 
    8010    307.85475    7.3098986    63.089474   -160.33105   -387.10596    10890.368 
    8020    280.48025    7.2430877    64.043128   -165.04212   -3419.8168    10890.368 
    8030    290.95328    6.7062593    64.893009   -169.34941     1059.366    10890.368 
    8040    298.84626    7.6225038    60.272538   -172.89921   -211.53529    10890.368 
    8050    287.23256    7.0649207    59.072664    -175.6458   -600.19383    10890.368 
    8060    277.26899    8.1951789    64.625299   -177.44447   -375.97784    10890.368 
    8070    252.79661    9.7255492    68.661127   -178.24749    420.39823    10890.368 
    8080    281.54221    10.866818    62.968256   -178.14908    361.79131    10890.368 
    8090     279.3058    7.1683277    67.338598   -177.47056    1146.2885    10890.368 
8100        0.98353290818908756243 10.15236957590529876 1 70 -311.51931509131486564
    8100    298.49275    6.9109333    57.501213   -176.27729   -3324.1881    10890.368 
    8110    310.31606    7.1430283    59.508067   -174.84475   -790.24072    10890.368 
    8120    286.11831    9.9570166     62.03366   -173.45215   -3906.5534    10890.368 
    8130     276.8763    10.905093    67.347758   -171.71705    1957.1678    10890.368 
    8140    266.13309    8.8635222    73.006184   -169.54875    3190.0283    10890.368 
    8150    265.71616    7.4784887    74.952411   -167.23326    2178.7082    10890.368 
    8160     289.7225    6.2351229    65.933524     -164.967    329.71535    10890.368 
    8170     306.7122    5.8789052    57.372801   -162.77149   -1336.5313    10890.368 
    8180    286.66952    5.7381237    65.201169   -160.98137   -324.03971    10890.368 
    8190    279.46605    4.8218539    73.136166   -159.48237   -326.58094    10890.368 
8200        0.98357972230117884926 10.149049369483780225 1 67 -290.30415197885059797
    8200    291.59071    7.8418047     64.08868   -158.18932   -1441.2299    10890.368 
    8210    292.94635    10.399244    62.990164   -157.10904    2243.5085    10890.368 
    8220    308.07536    10.080001    63.644998   -156.02621   -1807.6668    10890.368 
    8230    276.73138     11.27688    77.436286   -155.15881    1532.2657    10890.368 
    8240    302.95296    10.926131    64.960789   -154.37702   -2915.3723    10890.368 
    8250    298.79053    8.6546918    73.175767    -153.7448     2602.305    10890.368 
    8260    366.80337    6.8706519    53.465381   -153.46238   -2099.4322    10890.368 
    8270    322.30113    6.4215087    65.667378   -154.26564    711.23191    10890.368 
    8280    321.01437    9.1606225    63.670739   -155.77546    185.08496    10890.368 
    8290    289.29516    9.2263348    66.858231   -157.56914    664.93079    10890.368 
8300        0.97915359008557811826 10.167552199628550724 1 68 -296.53768541803833614
    8300    302.66003    6.8112272    65.970781   -159.40753   -1312.4623    10890.368 
    8310    289.93384    7.9483783    61.836546    -161.1821   -269.80515    10890.368 
    8320    296.79923    7.3395226     60.28086   -162.63742     1877.356    10890.368 
    8330    305.75454    6.0891969    60.270692   -163.87319    4577.5229    10890.368 
    8340    303.18334    6.1070029    58.973166   -165.03633   -2515.1486    10890.368 
    8350      285.696    7.1147365    63.182387    -166.1355   -1815.7107    10890.368 
    8360    280.85459    7.9697059    67.015125   -167.04856   -2916.2355    10890.368 
    8370    270.41651    7.0317998    70.949708   -167.71526    590.88491    10890.368 
    8380    288.43024    5.1846012    64.795191   -168.00423    591.39296    10890.368 
    8390    277.70616    5.7313058    64.578233   -167.85491   -335.80703    10890.368 
8400        0.97936956304943434404 10.160319761862433907 1 67 -295.75758314687175243
    8400    284.07835    6.4300816    60.722952   -167.04648   -75.743762    10890.368 
    8410    286.81412    7.5500864    62.486477   -165.04011    2496.0626    10890.368 
    8420    325.32855    8.3400153    58.060771    -161.5914    4094.2888    10890.368 
    8430     307.8877    8.6746468     67.70926   -157.62502    2075.5189    10890.368 
    8440    295.63739    7.8802831    70.151888   -153.45122   -5087.6376    10890.368 
    8450    281.26662    8.5492086    74.079912   -149.57886   -2611.5697    10890.368 
    8460    289.34904    8.5821114    72.337494   -146.08764   -91.050459    10890.368 
    8470    297.59198    12.000224    76.099112   -142.99468    1888.0298    10890.368 
    8480    339.49383    11.057673    58.101763   -139.91827   -998.12124    10890.368 
    8490    352.35083    10.451029    63.312671   -137.70545     935.7195    10890.368 
8500        0.98085441747508983479 10.157985004199945323 1 68 -284.70916116649539163
    8500    325.97905    10.088757    75.881002   -137.01355    735.72804    10890.368 
    8510    304.27706    9.7482438    77.805347   -137.53693   -823.06423    10890.368 
    8520    311.49096    7.9973488    80.258602   -139.10985   -1438.0654    10890.368 
    8530    307.63742     7.348963    77.072491   -142.24754   -1866.3466    10890.368 
    8540    325.43331    6.6400679    63.111422   -145.95282   -566.63297    10890.368 
    8550    330.42379    7.9904042    60.445326   -150.06711    2179.5164    10890.368 
    8560    284.21842    9.7060954    71.709501   -153.93178    307.90604    10890.368 
    8570     296.5063    8.8428255    62.119494   -157.03872     988.6752    10890.368 
    8580    281.70018    5.9460495    63.088061   -159.09964    -364.7119    10890.368 
    8590    323.32912    3.7149168    52.664399   -160.22744    417.22815    10890.368 
8600        0.97812393342138392871 10.15853415848588881 1 68 -286.60315185316818543
    8600    277.33338    4.0941031     71.09664   -160.94808     4075.561    10890.368 
    8610    283.04101    2.9371039    68.750528   -161.02617   -2690.8477    10890.368 
    8620    300.11949    4.6701096    62.693889   -160.56108    180.28897    10890.368 
    8630    304.50348    3.6820321    63.318865   -160.05898   -4603.2381    10890.368 
    8640    314.55095    5.2324149    58.616891   -159.75777   -1087.4174    10890.368 
    8650    279.75751    6.4168425    70.746329   -159.63241   -2643.3648    10890.368 
    8660    298.40243    8.8211403    62.515257   -159.24171    2866.1628    10890.368 
    8670    272.33846    7.9629267    69.403157   -158.73277    3540.8989    10890.368 
    8680    286.41055    8.6861689    63.867468   -158.05635    4782.0092    10890.368 
    8690    287.58422    8.1953299    65.893876   -156.91036    315.66394    10890.368 
8700        0.96670079290041954767 10.176051369491496246 1 65 -291.2719386743024188
    8700    300.00411    8.7262173    60.791415   -155.34514    1041.1378    10890.368 
    8710    299.92104    6.8452442    68.369594   -153.55466   -2486.0065    10890.368 
    8720    267.73864    9.4833529    74.133978   -151.96616    -2605.385    10890.368 
    8730    286.44585    7.5839533    66.573726   -150.14849   -4556.7072    10890.368 
    8740    286.67262    6.5686026    70.284475   -147.96911   -571.45464    10890.368 
    8750    307.94637    6.5391286    66.637728   -145.35681   -188.79366    10890.368 
    8760    302.63363    6.0791446    75.253423   -142.51296    3207.1826    10890.368 
    8770     324.7271    5.3809912    69.013096   -139.78024     3545.901    10890.368 
    8780     304.2847    5.9787418     74.90151   -137.94713    970.56095    10890.368 
    8790    306.36404     5.016241    78.058194   -136.82195   -1027.0893    10890.368 
8800        0.96364838973879995976 10.204191544515831325 0.99735449735449732689 67 -269.07143126135019884
    8800    293.81474    5.1304286    76.130529   -135.94893   -2181.3875    10890.368 
    8810     307.9231    4.4794302    69.518697   -134.65539   -3466.7321    10890.368 
    8820    278.15723    2.3383733    81.301402   -132.88201   -369.85795    10890.368 
    8830    315.40702    2.4236917    76.045605   -129.66355    507.53113    10890.368 
    8840     315.6549    3.4420151    83.206582   -125.66687    2559.3698    10890.368 
    8850    328.41786    3.6597153    78.276336   -122.36778   -1449.2906    10890.368 
    8860    318.45489    6.1888404    74.862159    -120.0526   -2668.9428    10890.368 
    8870    344.44459     6.579522    68.827609   -118.74699   -16.063978    10890.368 
    8880    342.61097    5.8928317    76.876457   -118.80277    584.72357    10890.368 
    8890    336.34939    4.9737453    74.172939    -120.7601    1352.5892    10890.368 
8900        0.96499697784370341846 10.186102937821781111 1 65 -272.24118297506970521
    8900    326.28669     5.030059     71.72949   -124.40619    1851.4883    10890.368 
    8910      313.001    8.8717177    69.634474   -129.10571   -1330.9132    10890.368 
    8920    310.10065    9.3068049    63.881489   -133.48295    992.01586    10890.368 
    8930    319.39754    7.7351396    63.622258    -137.5601    1362.7237    10890.368 
    8940    303.92986      5.38713    68.845217   -141.65904    3285.8339    10890.368 
    8950    307.38454    6.1840749    66.721943   -145.23823      944.616    10890.368 
    8960    302.63867    4.0275004    61.945131   -148.49493   -4479.1294    10890.368 
    8970    300.84878    2.1815815    58.602066   -150.97052   -3676.8424    10890.368 
    8980    276.04528    3.2623983    64.995854   -152.75235   -124.05797    10890.368 
    8990    285.78403    5.2361273     69.75864    -153.9376    3933.4466    10890.368 
9000        0.96865490078827887199 10.197323627104395882 1 64 -277.54620819511382024
    9000    270.45591    7.7015024    74.477742    -155.0072   -1146.1175    10890.368 
    9010    307.06585    5.6586956    61.765664   -155.93354   -676.67124    10890.368 
    9020    282.24716    6.1343336    66.097715   -156.88726    1640.3634    10890.368 
    9030    279.43744    6.4772098     63.79835   -157.55797   -2301.2345    10890.368 
    9040    278.93213    6.8317381    62.634953   -157.64806    -3192.306    10890.368 
    9050     278.9796    6.8668871    67.664176   -157.36243   -746.17465    10890.368 
    9060    287.47409    7.2949048    64.911581    -156.5777    1898.5253    10890.368 
    9070     291.8488    11.135529    61.945179   -155.10972    1809.4471    10890.368 
    9080    309.09767    12.486026    63.054725   -153.03666   -344.28131    10890.368 
    9090    290.54398    12.583651    70.484442   -150.38208    2270.0321    10890.368 
9100        0.97108170744966126886 10.199979274387674266 1 66 -282.03034546918195247
    9100    297.69628    11.406021    66.977825   -147.14918   -3387.3758    10890.368 
    9110    304.79886    9.2591808    69.599211   -143.37977    2364.4714    10890.368 
    9120    318.00075     9.122663    70.297145   -139.26356    131.03112    10890.368 
    9130    323.92538    7.6882147    65.677881   -135.30893    891.37113    10890.368 
    9140     341.4252    5.6575284     65.41388   -131.65579   -5167.1791    10890.368 
    9150    332.05107    7.3822462    69.926284   -129.20972   -3362.5531    10890.368 
    9160    352.35777    8.6617072    69.481912   -128.05272    273.32416    10890.368 
    9170    328.41562    9.8883339    70.520622   -128.33961    2781.8323    10890.368 
    9180    312.78447    7.6536144    72.280451   -129.74174    4738.7949    10890.368 
    9190    315.12797    4.5004212    70.947266   -132.00344    526.15818    10890.368 
9200        0.97482218835771694554 10.16678989564365132 1 66 -282.28011897734899094
    9200    323.22055    5.1242732    69.728609   -135.83434   -530.58571    10890.368 
    9210    325.62296    3.5544327    66.000027   -141.22411   -1608.3037    10890.368 
    9220    290.54357    4.6507482    69.530943   -147.84146   -470.88491    10890.368 
    9230    280.16061    4.0754948    74.297732   -153.03936    217.82319    10890.368 
    9240    268.49855    5.2146305    65.702902   -156.73803   -1190.1767    10890.368 
    9250    258.97564    4.8937501    71.516215    -158.5872   -1103.2355    10890.368 
    9260    271.83661    7.7164071    67.793522   -159.19272    1440.0755    10890.368 
    9270    298.69636    7.6353116    60.223438   -159.25729    1676.3417    10890.368 
    9280    296.49411    8.7358277    65.619198      -159.18    -1077.557    10890.368 
    9290    311.53906    5.9693149    61.052114   -158.97222    1725.2974    10890.368 
9300        0.98044265550109943597 10.162504038921225558 1 64 -296.7148113834916785
    9300    303.99635     6.860103    67.796605   -158.97919    -2726.103    10890.368 
    9310    294.53906    6.9743019    67.841607   -159.43139   -1917.9771    10890.368 
    9320    276.01676    5.5428938    70.839128   -159.98538   -3044.7831    10890.368 
    9330    282.64264    5.7749951    63.233478   -160.29774    2368.2607    10890.368 
    9340    276.08392     6.437744    69.945833   -160.33334    3175.7147    10890.368 
    9350    290.29478    8.0063862    57.486275   -159.93319    2849.0615    10890.368 
    9360    279.34645    8.5301186     68.62334    -158.9197    -2111.981    10890.368 
    9370    295.70015    10.311997    57.820217   -156.99051    338.82939    10890.368 
    9380    309.77516    10.880147    64.664858   -153.89749   -2660.8474    10890.368 
    9390    333.33853    11.369857    56.597857   -150.13633    2667.7471    10890.368 
9400        0.9853191113535454404 10.132619955513710863 1 64 -290.77857253220849998
    9400    318.94588    12.022271    59.854387   -146.26957   -329.84455    10890.368 
    9410    331.73588    11.947448      57.6095   -141.90777   -130.79921    10890.368 
    9420     311.7297    11.097675    69.572629    -137.5411    2539.8278    10890.368 
    9430    319.61771    7.5981581     74.31746    -133.3656    852.73984    10890.368 
    9440    322.24851    6.9648903    74.227821   -130.12959   -875.33272    10890.368 
    9450    323.02325    7.4495397    76.950979   -128.17004    -3481.115    10890.368 
    9460     333.8114    8.7394672    67.865123   -127.61901    425.23819    10890.368 
    9470    341.74542    6.4001877    72.456505   -128.53047    634.25832    10890.368 
    9480    353.83697    6.3190937    63.302662   -131.06462     1371.955    10890.368 
    9490    325.42813    6.0448046    63.746014   -135.10138   -2467.9235    10890.368 
9500        0.98590944371082978037 10.123651849651329471 1 65 -275.77386923689380183
    9500    300.97769    5.5401864    66.638153   -139.40596    1979.9468    10890.368 
    9510    286.27269    5.6382749    68.163803   -142.61888    3240.5826    10890.368 
    9520    293.79249    5.1828612    72.254686   -144.81066   -1885.7321    10890.368 
    9530    294.10573    6.2301577    58.831553   -145.98437   -4726.5706    10890.368 
    9540    291.46303    9.0048494    67.696203   -146.62379   -4276.4847    10890.368 
    9550    296.57456    6.0261546    67.728524   -146.89085    2689.3217    10890.368 
    9560    287.42139    5.6512256    70.204497   -147.03845    1036.2629    10890.368 
    9570    279.40577    8.2474676    78.228796   -147.07868    2718.4703    10890.368 
    9580    307.24319    8.9746165    66.063871   -147.14672    1889.3015    10890.368 
    9590    320.02983    9.3355565    68.382131   -147.62639   -722.87795    10890.368 
9600        0.98933787025129393822 10.120029867710744753 1 66 -295.76245590021562748
    9600       324.59    8.3915973    59.033396    -148.6962   -4435.4901    10890.368 
    9610    312.47026    6.9930884     64.24616   -150.29458   -817.53536    10890.368 
    9620    296.30464    5.7312853    67.891654   -152.08607    1923.4103    10890.368 
    9630     298.6177     5.329803    62.545597   -153.82184    2201.0776    10890.368 
    9640    279.15482    6.3628485    70.236294   -155.53214   -1207.5329    10890.368 
    9650    289.06945    7.4990117    73.085869   -157.48224   -1749.7585    10890.368 
    9660    281.84416    7.4584069    74.431827   -159.61675    3093.2574    10890.368 
    9670    300.06861    6.6395814     59.52681   -161.81835    1645.2384    10890.368 
    9680    273.67151    6.1835361    67.651061    -163.9946    480.02171    10890.368 
    9690    266.94475    5.6448243    68.419617    -165.9235   -3029.3193    10890.368 
9700        0.98987940677034413905 10.095922840063259684 0.99735449735449732689 65 -292.09436254731076588
    9700    275.32001    5.4462021     62.00427   -167.35151   -1213.2742    10890.368 
    9710     292.9809    5.0523805     56.05784   -168.62978    2396.1965    10890.368 
    9720    275.84975    5.0776986    59.999924   -169.59207   -190.69224    10890.368 
    9730    270.10196    5.0061896    63.606202    -169.9696   -409.80069    10890.368 
    9740    260.90735    7.0592128    62.148992   -169.37001     -1789.82    10890.368 
    9750    275.01959    8.3636066    66.211165   -167.26935    1420.4263    10890.368 
    9760    268.24332     9.622521    68.035043   -163.73475    2897.3693    10890.368 
    9770    304.88685    7.3978304    63.026409   -158.18657    -3558.117    10890.368 
    9780    300.06098    8.8219455     64.42953   -152.03523   -4540.9049    10890.368 
    9790    311.24183    8.1694465    71.646823    -146.8647    1451.2784    10890.368 
9800        0.98854755174874409107 10.076874242094426393 1 66 -287.572526123410114
    9800    318.64409    7.5804663    67.227534   -143.20026    5484.3185    10890.368 
    9810    304.47039    9.8542305    72.040964   -141.02713    1328.8076    10890.368 
    9820    323.49616      14.2251    58.900502   -139.59898   -3845.5366    10890.368 
    9830    312.20124    11.840157    64.679736   -138.67982    2054.7396    10890.368 
    9840    326.48196    10.425207     67.54813   -138.08771    4433.5098    10890.368 
    9850    323.40464    8.5698943    67.161164   -138.08961    3803.8954    10890.368 
    9860    335.34634     7.661387    63.706518   -139.02033   -3814.4883    10890.368 
    9870    348.33696    8.9819131    59.125203    -141.4653   -4825.5465    10890.368 
    9880    318.92283    8.3717303    64.915797   -144.76614    -1214.958    10890.368 
    9890    313.92858    7.5346397    61.443838   -148.30998    1410.7164    10890.368 
9900        0.98953237994155984758 10.078072005895139185 1 66 -284.79294067554417325
    9900    293.36411    7.8470223    67.782941   -151.87461    1156.2444    10890.368 
    9910    293.01763    9.7802557     58.05554   -155.24175    1063.3414    10890.368 
    9920     286.3404    8.4432277    58.180849   -157.74473   -669.96304    10890.368 
    9930    293.18684    5.5775174    61.942608    -159.3627    2648.3228    10890.368 
    9940    317.85156    3.3466881    60.434187   -160.51712   -3922.1614    10890.368 
    9950    302.63121    6.0676055    61.721043   -162.14667   -4570.8177    10890.368 
    9960    288.62679    8.3428076    63.017498   -163.81857   -715.36357    10890.368 
    9970    263.01182     11.38287    58.450809   -164.84848    4375.1248    10890.368 
    9980    264.18216    12.782927    65.930595   -164.73285    6483.4998    10890.368 
    9990    294.82835    10.480876    56.882676   -163.48368    123.30784    10890.368 
10000        0.99116915080131207105 10.086587865868482439 1 66 -290.63379183265988104
   10000    284.56467    9.4910916    60.997272   -161.70234   -1673.4011    10890.368 
   10010    288.33129    6.7618335    65.814868   -159.57596   -2949.6346    10890.368 
   10020    271.39236     5.025498     62.68047   -157.26618   -1859.6836    10890.368 
   10030    275.12396    4.6255705    67.555516   -154.85394   -2236.6919    10890.368 
   10040    295.29491    4.4291165    62.368368   -152.37029      939.357    10890.368 
   10050    283.00644    6.4426292     72.69782   -150.60884    1312.4101    10890.368 
   10060     292.6917    6.3576462    66.339992   -149.39077    1427.8329    10890.368 
   10070    302.87835    5.9323815     59.04723   -148.54559    1905.7534    10890.368 
   10080    300.86523    5.9964351    69.495673    -147.9888    2903.3845    10890.368 
   10090     307.9025    6.0162845     67.53309   -147.64053   -249.37104    10890.368 
10100        0.99053003544073725539 10.107559037988542272 1 68 -275.62721136027516877
   10100    282.64005    5.5220215    66.637348   -147.56777   -4455.7854    10890.368 
   10110    303.14024    6.5061488    61.717383   -147.37467   -2226.7664    10890.368 
   10120    281.41561    6.8528762    79.978931   -147.18008    2155.3481    10890.368 
   10130    320.95196    12.018271    61.630118   -147.34957    1562.0855    10890.368 
   10140    276.66257    11.163416    69.000156   -148.06133   -1436.9632    10890.368 
   10150    284.80747    10.239605    64.401264   -148.58373    802.12961    10890.368 
   10160    292.27168    10.097652     67.32052   -148.87035     2277.013    10890.368 
   10170    289.39459    7.8761036    64.992007   -149.21027   -2302.9266    10890.368 
   10180    300.73068    7.7778113    62.847462   -149.26848   -1109.3079    10890.368 
   10190    308.28831     4.267836    62.925711   -149.10441    655.65982    10890.368 
10200        0.98840487798033616063 10.112459835205060088 1 69 -289.92116706561080264
   10200    311.54015    4.4238583    59.492339   -148.76758    38.254432    10890.368 
   10210     313.9851    4.5923096    61.700045   -148.11667   -390.15072    10890.368 
   10220    301.68557    9.2983131    63.561695   -147.25223    2035.5298    10890.368 
   10230    328.09912    9.8575158    62.313178    -146.2328   -273.12646    10890.368 
   10240    273.86138    9.9980781    69.791999    -145.5121   -3459.1125    10890.368 
   10250    301.98689     6.466251    63.115643   -144.42602   -2852.2213    10890.368 
   10260    299.08329    6.1443331    67.695351   -142.73274    3523.3006    10890.368 
   10270    290.99471    7.2558854    73.937611   -140.74608     1564.108    10890.368 
   10280    319.64693    6.6267794    66.914857   -138.38042    1050.7552    10890.368 
   10290    323.14538    5.3845321    70.564818   -136.36242   -573.42286    10890.368 
10300        0.98414689942785005261 10.118188533613738045 1 66 -290.24739133133363111
   10300    341.99982    7.1810445    57.122749   -135.29304     1619.473    10890.368 
   10310    286.06762    8.7290816    76.145646   -134.88048    131.10914    10890.368 
   10320    339.65811    9.5524845    59.055587   -134.54036    2770.1787    10890.368 
   10330     315.6462    8.3259239    70.541217   -134.92403   -760.97317    10890.368 
   10340    350.66644    8.5790003    61.212473   -136.66773    1433.5207    10890.368 
   10350    315.35578    7.3258278    63.472548   -140.20345   -767.60947    10890.368 
   10360    304.43168    7.0917625    70.747197    -145.0578    1081.7937    10890.368 
   10370    287.64912    7.7842808     68.23096   -150.03038   -3861.4075    10890.368 
   10380    318.72379    7.3934778    57.112877    -154.9409   -1689.3081    10890.368 
   10390    297.04707    5.7848602    64.340322   -159.28107    1527.6587    10890.368 
10400        0.97472221535868885933 10.172482885063205416 1 67 -303.86609574821846991
   10400    311.49231    5.8267039    57.306693   -162.73419    6056.3814    10890.368 
   10410    288.31161    6.9929457    66.054387   -165.46163    456.89112    10890.368 
   10420    277.07768    8.4723998    57.769636   -167.12411   -3225.7584    10890.368 
   10430    275.73299    5.5682307    59.929961   -167.70125   -6286.6533    10890.368 
   10440    271.27475     6.664853    67.198417   -167.53045    990.85479    10890.368 
   10450    292.82489    6.2051478    60.292675   -166.89117   -2467.9283    10890.368 
   10460    286.99825    7.8462343    62.074879   -166.03352    -384.0545    10890.368 
   10470    300.76577    7.0590078    59.008949   -164.96797    -584.8743    10890.368 
   10480     276.2205    8.4693481    65.580986   -163.65326    4743.3159    10890.368 
   10490    265.74304    7.2777292    69.056991   -161.91447    2870.8015    10890.368 
10500        0.96286932106841205403 10.198948422258133917 1 65 -285.78087502501244899
   10500    278.97564    6.0850986    63.540111   -159.38172    2938.9653    10890.368 
   10510     265.8959    4.1395065    68.596424     -156.332   -1000.4028    10890.368 
   10520    273.92305    4.8314519     68.09382   -152.61946   -3019.9742    10890.368 
   10530    293.53223    6.6681035     64.00092   -147.45973   -4753.6145    10890.368 
   10540     309.7384    6.1055639    65.300698   -142.68691   -1348.8193    10890.368 
   10550    319.60995    6.8193322    67.657997   -139.37648   -1039.9931    10890.368 
   10560    312.66875    8.1846978    69.639291   -137.92421    1153.1304    10890.368 
   10570    310.56351    9.3798559     66.73897   -137.56196    2391.8674    10890.368 
   10580    292.53084    9.4933166    70.566285   -137.76711    3197.1215    10890.368 
   10590     308.8925    7.9032016    63.916456   -137.70769    1402.4693    10890.368 
10600        0.96227843934306034335 10.208008211089012462 1 64 -289.40397319249524344
   10600     335.3158    6.9127002    59.255279   -137.47804   -1527.6288    10890.368 
   10610    322.49341    5.9378875    71.179608   -137.84672   -2418.7233    10890.368 
   10620    311.39817    5.5479789    75.012981   -139.14531   -1270.4762    10890.368 
   10630    284.36473    6.0602585    71.059134   -141.03857   -3773.7518    10890.368 
   10640    317.97555     5.193003    68.633434   -142.98636    946.89431    10890.368 
   10650    322.84859     5.676581    60.779299   -145.11716   -1680.5572    10890.368 
   10660      343.397    5.6003142    58.112401    -147.9805    358.79569    10890.368 
   10670    286.91342    6.1762147    72.941862   -151.65336    2017.8376    10890.368 
   10680    305.70712    7.6834121    66.596422   -155.44976    2866.7113    10890.368 
   10690    265.75124    6.9466642    74.721525   -159.28202     2523.472    10890.368 
10700        0.96524582468615904851 10.199311334548701424 1 62 -292.64529195537397754
   10700    287.85355     6.056175    63.533442   -162.22371   -2924.4716    10890.368 
   10710    270.22107    5.3265101    58.351465   -164.26848   -3789.9381    10890.368 
   10720    260.75723    5.3125689    64.466522   -165.10194    -2010.752    10890.368 
   10730     277.2441    7.2975322    54.848493   -164.80435   -90.240114    10890.368 
   10740    287.66153    8.4437698    68.760431   -163.91871    1101.9592    10890.368 
   10750    302.98763    6.8998147    54.794372   -163.06809    183.97229    10890.368 
   10760    281.21239    5.5784564     59.39863   -162.47275    782.94997    10890.368 
   10770    286.98793    3.9906424    61.322402   -161.57266    4067.8664    10890.368 
   10780    297.17304     2.298455    57.920026   -160.33435    2029.2077    10890.368 
   10790    269.98675    2.7436256    65.519288   -158.95883   -1212.7832    10890.368 
10800        0.96824686081177846475 10.182833086583668702 1 62 -289.88509540375378037
   10800     292.6645    4.0716175    58.447331   -157.28375    -3610.076    10890.368 
   10810     264.9453    5.3554899    72.465342   -155.66235    1361.9935    10890.368 
   10820     285.8678    8.3556867    59.583148   -154.07177    963.80597    10890.368 
   10830    283.22609    8.7713045    72.970996    -152.5105    1899.9396    10890.368 
   10840    312.85067    8.0488348    63.346643   -150.94301   -1492.5547    10890.368 
   10850    318.84727    5.1251166     62.09916   -150.06652   -771.26407    10890.368 
   10860    312.65961    5.1332162    68.947224   -150.12984    1180.8324    10890.368 
   10870    313.42086    6.9781811    62.192058   -150.76384    1700.4168    10890.368 
   10880    327.74243    8.2102367    59.839521   -151.79837    1017.1492    10890.368 
   10890    299.80507    8.9998055    65.177242   -153.24286   -114.30442    10890.368 
10900        0.97223269073232942983 10.181572697086078705 1 61 -288.88232163651571227
   10900     296.5196    8.5369276    63.932474   -154.53429   -89.544362    10890.368 
   10910    276.06195    7.3052015    68.227558   -155.61427   -1611.3598    10890.368 
   10920    287.59083    6.6305191    57.662458   -156.26915   -3515.0715    10890.368 
   10930    301.27079    5.2742771    56.833738   -156.34551     -357.589    10890.368 
   10940    321.18505    7.0129037     53.84948   -156.13203    406.95472    10890.368 
   10950    310.07242     8.662447    59.907327   -155.89386    1252.3638    10890.368 
   10960    280.14135    6.5793902    65.605538   -155.48701    1243.7988    10890.368 
   10970    327.18787    7.0172479    56.937831   -154.75212   -1725.3034    10890.368 
   10980     308.3196    7.5984362    65.149689   -154.20923   -2318.5399    10890.368 
   10990    340.58196    9.2967936    49.106211   -154.01103   -1149.9156    10890.368 
11000        0.97372358416586068941 10.192030913547926119 1 64 -293.69114056657781475
   11000    307.61052    10.940804      65.7478     -154.318    2496.7745    10890.368 
   11010    314.65263    11.019308    58.708201   -155.29408    2485.9323    10890.368 
   11020    295.44158    8.4290525     61.27445   -157.08447   -2292.1419    10890.368 
   11030    305.38485    6.7766827    61.211678    -159.3964    1105.8664    10890.368 
   11040     323.3551    7.4426152    54.266355   -162.57212   -619.53013    10890.368 
   11050    306.48984    7.7515719    57.301145   -166.30184    1091.3143    10890.368 
   11060    283.71418     7.612146    59.861529   -169.98026    1017.0038    10890.368 
   11070    283.82925    9.2263854    57.427178   -172.47702    2297.4496    10890.368 
   11080    267.29556    8.2048158    55.845242   -174.08046   -1016.4735    10890.368 
   11090    248.48918    10.742641    59.981216    -174.4698   -3319.2283    10890.368 
11100        0.97578886818003385262 10.188227327071516015 1 64 -297.28435020935478406
   11100    273.40564    7.7285907     61.34247   -173.40887   -1223.1739    10890.368 
   11110    288.92706    7.2000366    62.510651   -171.28866    -294.2238    10890.368 
   11120    300.09516    6.0486944    64.822475   -168.46638   -1197.2456    10890.368 
   11130    305.12613    4.4773144    59.036953   -165.10371    256.31155    10890.368 
   11140    288.68552    3.4966089    67.743804   -161.64513    -1513.445    10890.368 
   11150    282.55688    4.4469544    71.994393   -157.97369    696.58367    10890.368 
   11160    317.02757    6.1120025    62.440097   -154.09214    204.64361    10890.368 
   11170    300.97783    6.5885698    68.247809   -150.95026    3160.0931    10890.368 
   11180    299.60159    6.2999968    60.494791   -148.56016    1478.2152    10890.368 
   11190    282.37627     9.356475    68.114181    -146.5892   -907.69876    10890.368 
11200        0.97896629779339083832 10.159431248898192379 1 63 -272.60859639926604814
   11200    282.45096    8.3462454    71.424976   -144.63483   -1544.5636    10890.368 
   11210    321.27256    6.2620802    58.777559   -142.69195   -4711.4929    10890.368 
   11220    303.89998    5.3051782    73.500724   -141.20168   -2170.3917    10890.368 
   11230    343.88136    6.2229625    52.855039   -140.19961    2854.7292    10890.368 
   11240    287.62772    4.5908567    66.849438   -139.99384    3222.1601    10890.368 
   11250    293.10392    3.8266065    69.472654   -139.82703    6497.0938    10890.368 
   11260    301.10383     4.342771    66.531917   -139.56479    1863.2423    10890.368 
   11270    326.65448     4.719223    65.614603   -139.72435    1473.9302    10890.368 
   11280    315.69124    6.0086976    67.526793   -140.70027   -6419.1891    10890.368 
   11290     329.4859    6.4305365    58.207853   -142.17549   -5675.8093    10890.368 
11300        0.97958793429718737933 10.166978001994706915 1 69 -281.09471533236853702
   11300    301.69317    4.6988933    77.276633   -144.40263    -1363.033    10890.368 
   11310    319.87539    6.7190815    64.749033   -146.93086   -67.129664    10890.368 
   11320    297.25953    6.3813236    68.899842   -149.82996    -238.6296    10890.368 
   11330    308.02204    8.7510223    57.972945   -152.14338    227.67831    10890.368 
   11340    297.56253    10.806167    58.970851   -153.71296    3457.5922    10890.368 
   11350    296.66475    7.5636277    60.271802   -154.53879    6865.1417    10890.368 
   11360    293.70297    5.8530907    65.067814   -154.74348   -1054.3794    10890.368 
   11370    293.83868    4.8443771     61.72812   -154.78128   -3599.4411    10890.368 
   11380    285.96816    5.1391695    61.007815   -154.45717   -6125.3761    10890.368 
   11390    332.04635    6.6551402    56.771417   -153.95324    2677.2805    10890.368 
11400        0.98469356868470436783 10.131454448349449748 1 68 -292.25232485046410602
   11400    305.68448    5.8343676    65.335064   -153.75184     4393.165    10890.368 
   11410    316.63638    7.5213451    55.301001   -153.72348   -1362.9252    10890.368 
   11420    284.44014    6.5556125    72.389647   -153.91319    1409.2326    10890.368 
   11430    314.44849    7.1973773    58.321316   -154.08335   -3113.8854    10890.368 
   11440    302.68338    8.7829621    61.025604   -154.65231   -1606.7335    10890.368 
   11450    295.44037    8.3299668    68.151005   -155.12624   -244.48935    10890.368 
   11460    306.70146    8.6076805      63.2047   -155.35384   -189.15675    10890.368 
   11470    302.15888    6.3757378    72.236057   -155.66317    652.94979    10890.368 
   11480    304.75904    6.5421035    62.683069   -156.03274    1714.7916    10890.368 
   11490    311.00895    8.1806382    57.156854   -156.66258    2987.4664    10890.368 
11500        0.98859027451940517661 10.080474415795821486 1 67 -282.86775519695680714
   11500    277.46186    9.1425618    67.778583   -157.15447   -1631.5928    10890.368 
   11510    319.16727    9.5522278    52.004608   -157.62238   -2349.2398    10890.368 
   11520    276.69769    9.6061246     66.70148   -158.62685   -466.46048    10890.368 
   11530    304.01538    9.8679063    62.245431   -159.80489    3064.4335    10890.368 
   11540    286.50484     10.66195    65.639563   -160.82729    1422.2765    10890.368 
   11550    302.18056    9.8466957    58.084464   -161.44905   -1357.3227    10890.368 
   11560    290.14113    7.5039946    63.062892   -161.84864   -2273.7344    10890.368 
   11570    299.11077    8.8244064    60.620361   -162.09464   -327.01044    10890.368 
   11580     296.0458    8.3360898    54.357156   -162.19779    1509.5619    10890.368 
   11590    293.98085    10.917486    58.334401   -161.96284    3845.7928    10890.368 
11600        0.98991327960999264679 10.05098363616559709 1 72 -288.14889706282588122
   11600    279.92292    6.1571934    58.621436   -161.32054     2597.872    10890.368 
   11610    268.19308    3.7448669    65.990558   -159.90065    383.28418    10890.368 
   11620    271.60434    5.2281177    55.238404   -157.11836   -686.66335    10890.368 
   11630    286.11182    4.4026123    58.395951    -153.0318   -3414.2034    10890.368 
   11640    316.12506    3.3921447    59.096791   -147.61066   -289.00618    10890.368 
   11650    329.12228    4.0723533    59.366394   -142.88807   -3052.8897    10890.368 
   11660    330.02262    6.1325143    61.816804   -139.71512   -248.88621    10890.368 
   11670    330.64368    5.7035775     67.60357   -138.17276    2844.6966    10890.368 
   11680    333.96354    6.6322632    68.920749   -137.89071    4336.1061    10890.368 
   11690    322.08669    9.0077322    62.944794   -138.80278   -367.60312    10890.368 
11700        0.98864114890651988432 10.077984689687950137 1 70 -274.90594557084045846
   11700    297.60864    11.491088    67.111421   -140.06449   -1271.9943    10890.368 
   11710    287.88902     12.26193    67.153838   -141.02029   -2801.7609    10890.368 
   11720    272.02526    10.078444    74.583792   -141.63892    716.66865    10890.368 
   11730    258.84478    8.5871923    81.641652   -141.93842   -2414.5614    10890.368 
   11740    307.81547    7.4797187    66.500654   -141.98844    2622.5753    10890.368 
   11750    309.34418    5.0973159    66.934548   -142.59932    415.12368    10890.368 
   11760    311.21368    4.2646694    71.990424   -144.16337     2569.799    10890.368 
   11770     274.1102    6.0811409    70.888949    -146.7291    -207.2104    10890.368 
   11780    279.98719    5.7773446    69.627996    -149.8507   -306.90901    10890.368 
   11790    281.66909    8.7871687    63.679035   -153.32203    -207.0489    10890.368 
11800        0.98915609398115067474 10.089814678210597521 1 68 -288.31463348195791241
   11800    290.03459    9.3832559    57.135845   -156.90486   -3391.8575    10890.368 
   11810    286.13604    8.5001462    59.978053   -160.51506   -862.31431    10890.368 
   11820    276.92263    8.4513286    66.843299   -164.11517    759.92529    10890.368 
   11830    283.76206    7.5167513    57.090997   -167.48128   -1175.1075    10890.368 
   11840    266.09402    7.0116393    68.250333    -170.5455    843.38152    10890.368 
   11850    276.56163    7.2051087    61.226318   -172.98492     2277.331    10890.368 
   11860    285.97424    7.8003297    56.669599   -175.00663    1551.9481    10890.368 
   11870    275.99077     7.380775    58.377797   -176.31437   -178.65229    10890.368 
   11880    273.50681    6.3457571    57.003962   -176.80674   -2255.8322    10890.368 
   11890    266.52158    7.3884107    65.714893   -176.62761    1790.6984    10890.368 
11900        0.98910527181310103906 10.061368465484932244 1 70 -297.27591853556788237
   11900    268.65998    10.761651    57.074138   -175.55061    1722.7049    10890.368 
   11910    276.63541    12.132187     58.66404   -172.98835    1219.2906    10890.368 
   11920     272.1461    12.550104    64.298181   -168.22989    954.16606    10890.368 
   11930    278.09673    12.945753    64.009535   -160.88063    -5146.201    10890.368 
   11940    296.28023    10.384081    59.802544   -153.36851   -980.03924    10890.368 
   11950    301.63446    6.3124046    69.075883   -147.94583    1706.8073    10890.368 
   11960    327.45653    4.6232478    61.378508   -144.99296    297.18021    10890.368 
   11970    334.68163    3.6317467    61.549266   -143.94486     721.3209    10890.368 
   11980    285.23041    5.7468116    72.592542   -144.22854   -2764.5169    10890.368 
   11990    274.98111    7.8043755    65.563382   -144.50513    1456.5969    10890.368 
12000        0.98574623868067579036 10.123556054909618851 1 73 -277.37087779032827939
   12000    293.52788    10.503843    67.467231   -144.37835    994.37309    10890.368 
   12010    299.21063    11.588584    62.557197   -144.02981    756.55967    10890.368 
   12020     287.3235    8.1965922    71.678575   -143.37124   -2942.8272    10890.368 
   12030    290.88648    8.1897065    66.422879   -142.44961    79.509012    10890.368 
   12040    306.29193    6.9550093    66.017109   -141.30279    547.19117    10890.368 
   12050    312.06848    8.7884889    58.186017   -140.03256     3142.128    10890.368 
   12060    291.04483     7.309905    73.386383   -138.85451   -576.57081    10890.368 
   12070    282.77555    6.8830876    69.822073   -137.75088   -1470.9414    10890.368 
   12080    283.03012    8.1425788    73.701272   -136.66706   -4173.4219    10890.368 
   12090    321.57554    5.5389289    61.540645   -135.33886    1698.1549    10890.368 
12100        0.98293790326764829413 10.156875398231882457 1 69 -285.93561034215093741
   12100     334.9812    5.5457317    62.504083   -134.16128    1343.8244    10890.368 
   12110    330.87913    5.6526977    63.405458   -133.66064   -273.98958    10890.368 
   12120    306.34176     6.071791    72.717693   -133.97803   -2345.5188    10890.368 
   12130    314.60138    7.2601668    65.764207   -135.41662   -1360.0298    10890.368 
   12140    292.28851    7.8615361    77.851085   -138.10334    1005.9882    10890.368 
   12150    318.00063    8.1025139    57.690273    -142.0524   -1420.4933    10890.368 
   12160    308.70193     8.596782    56.226006   -146.46884    907.76904    10890.368 
   12170     309.2077    9.0532899    58.517835   -151.10696    2859.4592    10890.368 
   12180    294.83689     9.903057    64.382884   -155.48847    1372.8896    10890.368 
   12190    295.36314    7.7904307     57.64957   -159.57398   -3767.6927    10890.368 
12200        0.98321078430167507811 10.14543410965892356 1 65 -296.75516751139059579
   12200    295.24643    7.5476383    57.884771   -162.98399    -1930.525    10890.368 
   12210    303.83384    6.4186554    55.381501   -165.65255   -1797.8918    10890.368 
   12220    281.79246    8.1201341    59.687964   -167.48168   -662.65919    10890.368 
   12230    277.83537    9.5651382    58.657569    -168.3795    42.320154    10890.368 
   12240     267.9821    10.176585    62.520254   -168.51955    2194.6201    10890.368 
   12250    283.20696    7.8861937    57.429021   -167.91463    2476.1968    10890.368 
   12260    296.66014    6.6574654    52.449799    -166.6327    2188.7543    10890.368 
   12270    322.23925    7.0598413    49.952452   -164.97353    1915.6583    10890.368 
   12280    302.74727    7.6390275    60.570598   -163.43757    2354.4764    10890.368 
   12290    278.80566    9.7227788    64.711452   -162.09184   -4524.5415    10890.368 
12300        0.97681294373280980192 10.171866676021808829 1 66 -279.40944664566626443
   12300    262.98668    14.730132    59.610608   -160.25462   -1938.9012    10890.368 
   12310    295.16925    13.583773    58.884753   -157.46496   -1695.8942    10890.368 
   12320    310.34958    11.160584    57.588501   -154.18368    1819.7976    10890.368 
   12330    321.76286    8.6975787    50.239998   -150.90263    156.79156    10890.368 
   12340    321.92832    7.0165361    63.542647   -148.08299    2956.6337    10890.368 
   12350    318.74528    5.7226447     66.40794   -146.36936   -1470.6467    10890.368 
   12360    304.39724     5.181079    60.351415   -145.73141   -2804.1391    10890.368 
   12370    298.66553    5.1466928    62.988569   -145.52703    -2546.252    10890.368 
   12380    294.87611    7.0867044    61.783719   -145.10254    2154.1105    10890.368 
   12390    312.30511    7.2342924    55.899857   -144.75179    1208.0166    10890.368 
12400        0.98060655111376116011 10.141745549527989567 1 67 -281.23310993252482604
   12400    301.28813    8.1580502    64.212493   -144.72454    21.456365    10890.368 
   12410    302.84401    8.2128945    60.428529   -144.75303    266.62282    10890.368 
   12420    317.26077    8.4406781    57.266373    -144.6369     1320.871    10890.368 
   12430    320.69828    8.8878005    63.358122   -144.74607    728.91365    10890.368 
   12440    298.35464    7.4679616    67.270571   -145.34606   -817.88055    10890.368 
   12450    301.97293    7.3235402    60.974963   -145.97377    -425.4285    10890.368 
   12460    315.97051    6.6739739    63.525395   -146.61023    1894.6488    10890.368 
   12470    305.13856    8.2679725    64.659789    -147.5743   -246.35306    10890.368 
   12480    317.72012    11.521619    58.699483   -148.94323    2143.7184    10890.368 
   12490    310.53316    9.9440483    64.123397   -150.97717   -2031.6849    10890.368 
12500        0.97830717255267474197 10.157762948145350634 1 64 -294.81487894269343997
   12500    311.86633    10.550115    58.503124    -153.5135    511.47028    10890.368 
   12510    302.58159    8.5921959    58.178098   -156.52025    34.506824    10890.368 
   12520    278.60522    5.9471038    59.049897   -159.37911   -691.65622    10890.368 
   12530     270.6575    5.0557977    59.293508   -161.54363   -2452.6002    10890.368 
   12540    260.31891    5.7920916    56.999858   -162.45519    542.98914    10890.368 
   12550    298.52242    7.6370626    53.443323   -162.15916    1493.3447    10890.368 
   12560    301.12403    9.2560214    56.362813   -161.09883    2697.2642    10890.368 
   12570    294.35192    10.323539    52.220333    -159.3971   -2182.3745    10890.368 
   12580    290.77233    8.6005184    61.556547   -156.65925   -784.50067    10890.368 
   12590    336.64035    5.4583006    56.499421   -151.92813    2157.1798    10890.368 
12600        0.96985652605643268842 10.192167955120167377 1 65 -292.24758113883012811
   12600    322.20716    5.8394459    64.305317   -146.26095    2176.4245    10890.368 
   12610    312.08698    4.8211421    62.195052   -140.45531   -227.48186    10890.368 
   12620    302.95672    3.0737155    63.427276   -134.76234   -6538.6593    10890.368 
   12630    333.76641    4.7562235     60.56013   -129.95752   -2049.5182    10890.368 
   12640    334.82087    6.5970158    64.485932   -127.01831    570.09982    10890.368 
   12650    326.56008    10.352841    59.708396   -125.52471    3186.1487    10890.368 
   12660    307.83819    9.1715189    64.191316   -124.61798    3610.0906    10890.368 
   12670    310.24854     9.039281    67.649989   -123.86897    673.47422    10890.368 
   12680    331.18149     7.154745    62.572895   -123.65724   -682.59557    10890.368 
   12690    327.83644    6.2308772    70.671248   -124.43461   -1283.2046    10890.368 
12700        0.96358886389917364212 10.221989360858344753 1 68 -271.87566855265390586
   12700     321.3668    7.6389495    66.593477   -126.26979   -3804.3431    10890.368 
   12710    326.94306     7.284019    63.396266   -128.92045   -1221.8418    10890.368 
   12720    308.19056     9.681523    67.694616   -132.09517   -2277.7369    10890.368 
   12730    314.86056    9.8881999    65.706013   -135.76075    2326.7368    10890.368 
   12740    288.80415    12.818442    65.646509   -139.14395    1550.6228    10890.368 
   12750    292.45345    12.498691    62.142944    -141.9403   -750.81795    10890.368 
   12760     311.9846    9.4269181    58.763844   -143.94847    2591.2779    10890.368 
   12770     310.9769    7.0936621    62.932897   -145.70215    2903.6008    10890.368 
   12780    295.34714    5.5182655    67.809246   -147.26201    4021.6584    10890.368 
   12790    297.26486    5.4495977    62.137551   -148.43635   -1210.4887    10890.368 
12800        0.95852462625716927658 10.249205906383510367 0.99735449735449732689 69 -281.69044334899558635
   12800     291.7354    5.5418299    67.163268   -149.51006   -7034.5149    10890.368 
   12810    309.28413    4.9935975    60.713764   -150.35554   -3680.5847    10890.368 
   12820    300.75518    5.3678808    64.140369   -150.99839   -1524.8032    10890.368 
   12830    302.31058    6.1753417    63.258843   -151.46983    1528.5809    10890.368 
   12840    293.61637    7.4843482    63.908471   -152.00299    3212.6734    10890.368 
   12850    318.13809    7.6142625    54.701084   -152.85309    2240.5863    10890.368 
   12860    300.76469    6.5990494    59.756872   -153.94213    304.57894    10890.368 
   12870    305.93465    4.0045041    51.715266   -154.83279     -862.172    10890.368 
   12880    279.68113    5.7127088    59.263594   -155.44457   -521.67557    10890.368 
   12890    278.79592     4.920977    61.803346    -155.5516    686.38009    10890.368 
12900        0.95907228422533774559 10.237827381308273189 1 70 -279.59355444238963173
   12900    275.00436    3.8152748    61.488984   -154.99372   -1541.3019    10890.368 
   12910    281.86441    3.5053469    68.680991   -153.49415   -618.93615    10890.368 
   12920     306.2705    6.1482666    54.101451   -150.74065   -2178.1505    10890.368 
   12930    309.59264    7.3055916    54.387147   -147.03168   -1030.4457    10890.368 
   12940    333.50291     6.974639    53.953066   -141.99418    2336.4294    10890.368 
   12950    305.43085    7.6529348    63.127125   -136.43936   -224.50298    10890.368 
   12960    334.70575    6.3316792    61.952703   -130.63451    1717.0863    10890.368 
   12970     329.7212    6.2567797    55.822609     -125.806   -1094.8871    10890.368 
   12980    350.97944    6.3591414    61.271262   -122.50718   -1084.1467    10890.368 
   12990    340.96149    9.2437763    67.069301   -120.89501    453.75583    10890.368 
13000        0.96280993776542156404 10.216977228158098612 1 69 -270.99208175993476289
   13000    331.36481    9.2598707    64.311974   -120.85628   -1404.2613    10890.368 
   13010    295.55086    8.4763603    78.697256   -121.91238    1573.1169    10890.368 
   13020    322.09461    7.7889443    65.441349    -123.3409   -1885.8347    10890.368 
   13030    317.19283    7.4630573    60.696454   -125.11733   -3456.8647    10890.368 
   13040    332.17729    7.3580771     66.30911   -126.90576   -466.22668    10890.368 
   13050    336.14112    6.7375093    61.432672   -129.11068    2219.6109    10865.607 
   13060    326.65325     7.507033    77.048884   -132.02395     6466.548    10865.607 
   13070    348.19478    10.118432    57.503151   -135.65851    1650.7454    10865.607 
   13080    332.00459    12.267547    55.701456   -139.60938   -2075.0586    10865.607 
   13090    315.39563    10.904711    65.562597     -142.995   -168.38372    10865.607 
13100        0.97576142598497406233 10.159616715769457684 1 66 -278.90026885077782026
   13100    294.13429    9.6687502    61.374246   -145.63298   -1695.9506    10865.607 
   13110    312.27308    7.5484558    63.445044   -147.75041    141.49886    10865.607 
   13120    327.04529    5.4925176    56.368937   -149.86969   -2026.0786    10865.607 
   13130    314.87438    7.4326247    52.989462   -151.96123    616.70716    10865.607 
   13140    291.67668    7.0698224    57.165972   -153.67454    957.99621    10865.607 
   13150    298.84577    7.4663737     64.31631   -154.96302    1299.4143    10865.607 
   13160    292.49368    6.6691166    67.642532   -156.24389    2182.9321    10865.607 
   13170    286.64009    8.8480308    59.547326   -157.50333    673.01638    10865.607 
   13180    294.65539    8.2997903    59.545205   -158.25623   -168.53488    10865.607 
   13190    306.95836    8.9784472    55.638417   -158.88148    1067.5926    10865.607 
13200        0.98016739883588688276 10.152890064536101988 1 66 -288.08360040932677748
   13200    283.71646    9.6650656    66.915713   -159.53646   -3450.7238    10865.607 
   13210     305.6514    8.9058052    59.296173    -160.0544    -1526.803    10865.607 
   13220    326.83968    7.8588343     46.65708   -160.83918   -1019.5973    10865.607 
   13230    307.89351    8.8119523    58.693221   -161.92196      4356.82    10865.607 
   13240    289.15722    10.016957    58.694237   -162.92013    3778.6679    10865.607 
   13250    297.14223    9.9502533    52.858807   -163.59676   -1617.8935    10865.607 
   13260    292.89152    8.9456755    60.661368    -164.2476   -683.85512    10865.607 
   13270    300.41956    7.8209275    54.613602   -165.05986   -2954.3948    10865.607 
   13280    274.70296    8.5623662    61.177582   -165.60491    1717.0443    10865.607 
   13290    269.49813    5.9895216    59.342281   -165.31867   -2421.4529    10865.607 
13300        0.97758873641868937465 10.190664833675388223 1 68 -292.48499096650562024
   13300    284.20195    5.2430299    60.541854   -163.71788   -545.88377    10865.607 
   13310    301.65161    4.8339059    62.513924   -160.91261   -3332.9499    10865.607 
   13320    338.79358    8.9049889     54.98649   -158.07675   -12.001511    10865.607 
   13330    312.23736     12.49236    61.267914   -156.02011    1354.0164    10865.607 
   13340    310.39938     10.24738    58.249754   -154.46446    3882.5121    10865.607 
   13350    299.60162    8.4434728    62.248222   -152.63188    2382.5598    10865.607 
   13360    284.52509    9.0510324    68.315611   -150.59749   -845.33379    10865.607 
   13370    297.07208     8.271776    65.549326   -148.43655   -3215.0487    10865.607 
   13380    295.25776    7.0599767    67.268974   -146.32229   -3579.2585    10865.607 
   13390    309.78852    5.3892045    66.180362   -144.02958   -1071.3933    10865.607 
13400        0.98000807152080748885 10.172360983041969007 1 67 -283.11305390685527072
   13400    311.95426    5.3190367    60.196083   -141.77184   -1656.8918    10865.607 
   13410    322.45635    4.9279221    59.327461    -139.6371    1001.2798    10865.607 
   13420    332.06097    5.7913748    62.115801   -137.58768    4124.7868    10865.607 
   13430    315.79497    6.3525733    63.764713   -136.19202    3673.6165    10865.607 
   13440    319.60853    5.2159058    59.407364   -135.38368    1919.2615    10865.607 
   13450    314.65501    2.5862713    60.097593   -134.93087   -1573.4624    10865.607 
   13460    316.43205     3.138624    60.997019   -134.76005   -363.60681    10865.607 
   13470    322.73003    4.3681684    67.741705    -134.8103   -153.13917    10865.607 
   13480    294.54031    6.5998761      65.4271   -135.53987   -2428.3849    10865.607 
   13490    297.32349    5.7864266    64.525017   -136.72575    881.59862    10865.607 
13500        0.98132219022177680223 10.167328870360114124 1 67 -269.56891710333979972
   13500    290.85943    6.4320318     63.69529   -137.78542    897.87764    10865.607 
   13510    297.28977    5.8421156    64.105545   -138.83133    1271.5218    10865.607 
   13520     295.9159    5.9838785    67.335262   -140.24447   -1562.6806    10865.607 
   13530    291.54383     6.560023    67.569647    -142.0573   -1848.1062    10865.607 
   13540    324.78558    7.4197032     56.79452   -144.20931   -1671.2575    10865.607 
   13550    303.21835    8.7649924     62.38039   -146.99307   -703.08922    10865.607 
   13560    294.03867    6.7422525    65.983698   -150.03885    580.51446    10865.607 
   13570    287.84488     5.426433    62.166801   -153.14627    2867.4233    10865.607 
   13580    306.19717    5.1582716    61.697035   -156.37319    1106.3508    10865.607 
   13590    316.50076    6.4737847    56.044477   -160.03636   -521.81539    10865.607 
13600        0.9880465067777146615 10.139141835608649345 1 66 -303.59362137781727142
   13600    308.08504    7.3896344    57.599869   -164.00549    157.45923    10865.607 
   13610    288.37526     8.047208    63.863112   -167.77592   -2854.5425    10865.607 
   13620    304.55536     7.719198    53.722374   -171.32364   -44.789518    10865.607 
   13630    291.32365    8.2579798    59.747638   -174.53578   -2160.2658    10865.607 
   13640    288.72339    8.8786345    58.608772   -176.98193    5552.6128    10865.607 
   13650     261.3135     9.515639    56.921767   -178.36409   -1192.2652    10865.607 
   13660    256.84602    8.7407024    60.609048   -178.43958    171.25852    10865.607 
   13670    259.02636    6.9738418    62.268489   -177.42412   -1658.3754    10865.607 
   13680    276.14521    6.8339442    53.143774   -175.62429   -724.11508    10865.607 
   13690    278.81404    7.9246511    56.369184    -173.2176   -2494.6706    10865.607 
13700        0.99141880028172901795 10.095292403716841889 1 64 -298.0726268255958189
   13700    281.57446    9.9092049    53.401502   -170.49599    2487.3768    10865.607 
   13710    285.20542    11.875849    55.533935    -167.5438    2346.8279    10865.607 
   13720    283.49443    9.9316633    58.171994   -164.22571    844.49044    10865.607 
   13730    287.41009     8.537352      59.0663   -161.20192   -4592.8884    10865.607 
   13740    299.21519    10.225769    59.612215   -158.81627    654.52801    10865.607 
   13750    311.02809    11.187811    59.498759   -157.38851   -222.26427    10865.607 
   13760    301.58344    12.235123    64.226246   -156.69188    763.91178    10865.607 
   13770    320.07933    12.210765    58.351233   -156.30159   -316.11668    10865.607 
   13780    303.55807    10.899074    54.728357   -156.26608    2266.6827    10865.607 
   13790    278.81638    10.034371    59.450613   -156.10965      2451.51    10865.607 
13800        0.99021203389722123323 10.075227512546238273 1 67 -287.27717725531186943
   13800    291.22037    8.6804437    61.919628   -155.33014    1775.5133    10865.607 
   13810    296.71672    8.9040339    65.149772   -154.32972   -2218.7494    10865.607 
   13820     327.6568    9.1645159    55.469764   -153.52877    519.08625    10865.607 
   13830    311.17549     9.008763    59.122952   -153.03112   -439.02898    10865.607 
   13840    293.80657    10.625704    53.001583   -152.52071    2948.9083    10865.607 
   13850    294.30616    9.6958106    66.303706   -151.54009   -16.139762    10865.607 
   13860    306.17635    8.5629524    55.526817   -150.32076   -996.41506    10865.607 
   13870    326.43784    6.3166782    56.755751   -148.95947    666.31784    10865.607 
   13880    334.51404    6.9563889    54.182952   -147.49846    65.706415    10865.607 
   13890    341.10019    6.6149959    53.812644   -146.16627     109.8168    10865.607 
13900        0.98621113895584466835 10.099554809067129213 1 68 -301.0978363674225875
   13900     343.3834    7.1650805    60.338421   -145.51661    -579.8963    10865.607 
   13910    313.95829    7.0255135    60.781012   -146.42899    -3678.741    10865.607 
   13920    284.49367    10.673723     63.75051   -148.18606    2221.6987    10865.607 
   13930    305.70721    7.8401918    51.695474   -149.77766    3352.2331    10865.607 
   13940    290.18659    4.8906863    62.569729   -151.30025   -875.69241    10865.607 
   13950    285.49847    4.9064378      66.4694   -152.65141    1164.2528    10865.607 
   13960    296.33002    5.0187324    53.374125   -153.87493   -3445.6292    10865.607 
   13970    285.22747    5.3126223    63.925006   -155.10321     3911.077    10865.607 
   13980    283.34954    6.4263564    54.655462   -155.86678   -2745.6545    10865.607 
   13990    273.84983    6.3476715    57.406941   -155.71845   -687.08187    10865.607 
14000        0.98115792871565676858 10.127923268172080995 1 68 -290.50001318578546261
   14000    299.84609     6.195062    57.650225   -154.64481    379.73672    10865.607 
   14010    288.16945    5.5498747    62.977733   -152.93476   -1162.1871    10865.607 
   14020    306.98918    6.9714349    61.783292   -150.88721   -1011.3184    10865.607 
   14030     295.6838    7.0569496    62.733072   -149.15323   -2566.3211    10865.607 
   14040    302.61284    6.0722796    58.362103   -147.33668   -70.769635    10865.607 
   14050    278.43011    6.4719571    67.582188   -144.97137   -233.29571    10865.607 
   14060    314.90625    5.2604709    59.075595   -141.68891   -2459.0857    10865.607 
   14070    324.50961     4.769853    64.512315   -138.40686    3538.3591    10865.607 
   14080    334.67076    6.0010706    63.693865   -136.05698   -218.85818    10865.607 
   14090      328.242    7.4504318    68.836771   -134.80444    1675.6639    10865.607 
14100        0.97954845830904757609 10.127298184451529295 0.99735449735449732689 68 -276.44849564464686864
   14100    312.69354    7.4970776    70.531117   -134.77233   -1457.5041    10865.607 
   14110    299.07811    9.1344118    68.542092   -135.46029   -7.6890333    10865.607 
   14120     287.7398    13.939169    72.764542   -136.64075    1450.4053    10865.607 
   14130    295.68238    14.632348    64.457068   -138.10552    402.07288    10865.607 
   14140    301.06835    9.2641502    62.711937   -140.02191    1095.2734    10865.607 
   14150    285.69117    6.2581298    73.660531   -142.49821    313.60126    10865.607 
   14160    275.44661    5.8936415    69.612764   -145.69985   -2929.2934    10865.607 
   14170    290.80997     5.184012    66.763979   -149.60565    3439.3719    10865.607 
   14180    292.10308    6.7820466    62.639296   -154.19531   -2596.6413    10865.607 
   14190    291.74799    8.5688177    52.187064   -158.24667    1525.9247    10865.607 
14200        0.98094767813578853666 10.132592759488762368 0.99735449735449732689 69 -295.01605678785040254
   14200    293.83096    7.2432884    57.284503   -161.88621   -3124.1495    10865.607 
   14210    302.88391    5.9706326    52.904408   -165.08432   -954.92339    10865.607 
   14220    285.82528    5.1095827    63.273704   -168.00817   -691.39016    10865.607 
   14230    272.53774    5.4701074    64.052711   -170.48359    313.18487    10865.607 
   14240    235.64527    5.5887158    67.254686   -171.91513    665.92875    10865.607 
   14250    270.57411    4.9739468    54.276091   -171.91196    1710.0722    10865.607 
   14260    283.58829    4.5030874    53.524724   -170.79485    857.13705    10865.607 
   14270    293.17831    5.5382396    53.814383    -168.9279   -661.08733    10865.607 
   14280     291.3279    3.9636869    56.602568   -166.54724    -4223.418    10865.607 
   14290     290.0033    3.2887041    58.361489   -164.12721    693.81638    10865.607 
14300        0.98193805196761096976 10.109954553189799853 1 66 -287.35062788803338663
   14300    277.27857    5.0257998    61.439688   -161.72039    1253.2051    10865.607 
   14310    300.33729     6.100834    55.102126   -158.89571   -1309.9961    10865.607 
   14320    317.92853    6.9373789    63.779102   -156.27641   -699.41813    10865.607 
   14330    317.81887    8.1574093    58.840473   -154.70434   -1063.2399    10865.607 
   14340    325.04596     8.272997    58.981542   -154.07994     2940.577    10865.607 
   14350    304.33093     10.99384     57.69112   -153.90205    1303.5095    10865.607 
   14360    310.18254    10.291491    58.990481   -153.81408     1198.782    10865.607 
   14370    279.24069    8.5787555    73.283739   -154.12755    2888.3656    10865.607 
   14380    277.09983    10.513148    58.279726   -154.47859    252.64011    10865.607 
   14390    296.38914     11.61746      60.6087   -154.46697    35.341394    10865.607 
14400        0.98759655730618300939 10.084382534185618141 1 66 -301.13646707098575916
   14400    324.54592    11.504991     46.89027   -154.09019     1567.726    10865.607 
   14410    297.50692    10.681515    55.737765   -153.49561   -2313.6807    10865.607 
   14420    307.46802    7.2319206     62.63735   -153.04457    995.56686    10865.607 
   14430    296.81387    7.8002743    65.949344   -153.14994   -4232.5467    10865.607 
   14440    329.25146     7.392435     52.88269   -153.59075     197.4221    10865.607 
   14450    327.56595    5.9365208    56.762929   -154.41057    305.37326    10865.607 
   14460    311.03797    6.3786832    55.942895   -155.50704   -648.56765    10865.607 
   14470    294.95758    6.8332502      61.9204    -156.8032    1785.0839    10865.607 
   14480    275.13916    8.0013095    61.105384   -158.33065    1314.7849    10865.607 
   14490     275.6415    7.1916764    59.002564    -159.5676    2509.4104    10865.607 
14500        0.98725129402324507399 10.108338970990024208 1 73 -304.45351223581980094
   14500      317.908    7.4384293    54.004792   -160.41476    2054.3442    10865.607 
   14510    338.34154    8.1528212    48.005212   -161.57264   -3858.2319    10865.607 
   14520    296.22433    8.2223459     57.37639   -163.75767    -246.2421    10865.607 
   14530    285.67619    10.060845     58.74506   -166.43169   -3399.6479    10865.607 
   14540    287.14243    10.859657    55.106323   -169.29868    1398.2721    10865.607 
   14550    308.68084    10.381219     46.54094   -172.19646    2537.0883    10865.607 
   14560    313.35765    8.9822018    53.019397   -175.18888    2657.1195    10865.607 
   14570     291.7019    9.4219686    52.938088   -178.27087    2300.0036    10865.607 
   14580    279.80617     12.54369    52.908823   -180.99094   -2023.0274    10865.607 
   14590     262.1753    12.539255    57.106632   -182.99482   -3358.7048    10865.607 
14600        0.98122064424073784927 10.163436469921512284 1 69 -304.79415728912016448
   14600    267.08317    13.239868    53.412592   -183.78328   -859.47142    10865.607 
   14610    257.99357    11.648393    61.277811   -183.39075   -1554.1953    10865.607 
   14620    270.21875    10.466268    57.000985    -181.8267    3822.6508    10865.607 
   14630     267.9467    8.8603498    56.624139   -178.96499    319.06838    10865.607 
   14640    282.46931    6.5128964    56.573885   -174.98941    220.92439    10865.607 
   14650    288.56478    7.6531845    61.149575   -170.02114    -2101.962    10865.607 
   14660    310.13662    5.0680652      57.2245    -165.2722    -179.0776    10865.607 
   14670    321.01266    6.1799211    59.645133    -160.9862    363.56371    10865.607 
   14680    312.78476    5.2788321    61.153716   -158.30476   -2951.8816    10865.607 
   14690    290.08387    6.1702931    61.606561   -157.06228   -2300.7409    10865.607 
14700        0.97255009730556385428 10.192100398664841521 1 70 -286.68483384248258972
   14700    287.84474     7.095406    59.937018   -156.26724    235.70876    10865.607 
   14710    285.78165    8.8210075    63.064369   -155.18857    3685.5274    10865.607 
   14720    310.47215    7.0338785    57.342587    -153.6766    2859.3428    10865.607 
   14730      303.566    8.2466259    62.499767     -152.176    2007.3337    10865.607 
   14740     290.2816    6.5276061    67.002498   -151.04578   -149.96881    10865.607 
   14750    288.83509    8.8882697    65.935666   -150.21295   -2369.8625    10865.607 
   14760    309.33054    7.9453685    58.409882   -149.48767   -2632.2853    10865.607 
   14770    303.81833    5.6718959    59.919383   -148.90648   -339.52989    10865.607 
   14780    304.36966    4.8604355    59.321364   -148.22343    -26.92675    10865.607 
   14790     305.2858     3.311879    61.717915   -147.64558    -451.3731    10865.607 
14800        0.96057478986002264865 10.228846770498606134 1 69 -285.28734665193269393
   14800    304.34901    3.7067476    57.588322   -147.39195   -180.77127    10865.607 
   14810    310.84846    4.2813449    59.922491   -147.39273    1614.5922    10865.607 
   14820    298.71158    6.3443267    65.621584   -147.40099   -1444.4308    10865.607 
   14830    300.27201    9.2713263    60.181989   -147.37705   -4644.3505    10865.607 
   14840    297.97983    9.0421347    61.264821   -147.51804   -720.22473    10865.607 
   14850    305.34467    6.7779482    56.514884   -147.61629    3810.1964    10865.607 
   14860    314.39012    5.9377253    60.297941   -147.36628    1696.1288    10865.607 
   14870    312.86698    5.6672635     60.47382   -147.20793   -2521.5897    10865.607 
   14880    313.30617     4.339824    66.570346   -147.70136   -1766.3866    10865.607 
   14890    333.78564    4.4695418     57.73934    -149.3634    3157.6853    10865.607 
14900        0.95284315428881016796 10.217492337102253686 1 67 -299.05276015193658168
   14900    323.48529    4.5359676    59.926591   -152.48703    2661.7321    10865.607 
   14910    317.86363    3.8496446    51.373068    -156.2685    2859.6605    10865.607 
   14920    291.31084    4.7454418    62.307743    -159.9749   -912.17055    10865.607 
   14930    295.33226    5.4245835    57.046456   -163.29499   -1390.3445    10865.607 
   14940    278.28228    5.2435427    65.155163   -166.20832    126.01196    10865.607 
   14950    249.07871    6.3800154    66.985195   -168.14176   -1646.3916    10865.607 
   14960    273.79482    6.4107521    54.124223   -168.83021   -914.92185    10865.607 
   14970     273.1005    6.3647664     59.16076   -168.56337   -2994.7962    10865.607 
   14980    296.45667    5.6545554    52.406556   -167.51129    2099.4414    10865.607 
   14990    266.06909    8.5240722    60.039518   -165.71588    2307.1097    10865.607 
15000        0.95813768838161850194 10.186771295343335808 1 68 -292.67668102522634399
   15000    286.53021    7.7540008    58.406187   -162.85468   -610.60979    10865.607 
   15010    301.59982    6.8902157    63.776643   -158.95886    2558.4499    10865.607 
   15020    301.54141    6.4300094    63.349111   -154.86588    2231.0447    10865.607 
   15030    331.54705    6.2171485    66.302004    -151.4276    2883.3399    10865.607 
   15040    325.22984    9.4785768    60.153565   -149.33444   -4447.5243    10865.607 
   15050    331.78661    8.3295645    59.287803    -148.6596   -4538.6946    10865.607 
   15060    305.81852    9.2331614    68.107173   -148.94817    2089.2456    10865.607 
   15070    310.95015    9.9205175    60.612219   -149.63355     705.8729    10865.607 
   15080    289.09275     9.370672    73.222023   -150.69756     3927.806    10865.607 
   15090    290.92463    8.2633624     64.45483   -151.87427    -1687.386    10865.607 
15100        0.95888531858164371968 10.217661176296507719 1 68 -286.02214589066767303
   15100    293.74269    5.8580716     64.19047   -152.93229    198.67841    10865.607 
   15110    279.46994    6.5844035    66.060879    -153.9101   -1246.9075    10865.607 
   15120    297.30426    7.4489644    62.645378   -154.97774   -2337.9042    10865.607 
   15130    294.55138    8.4560403    65.278799   -156.60728   -5636.5804    10865.607 
   15140    312.54919    6.7327075    56.166272   -159.30996   -3656.0832    10865.607 
   15150    285.68764    6.6475564    68.235057   -163.39434    2776.2731    10865.607 
   15160     267.8371    7.4717323    56.950418   -167.98155    4928.6528    10865.607 
   15170    241.87966     7.357968    64.766931   -172.08635   -731.45204    10865.607 
   15180    257.22667    6.0070235    56.367422    -174.8869    178.30374    10865.607 
   15190    268.58704    5.6677244    62.409837   -176.83737    2563.0554    10865.607 
15200        0.96785170925976649059 10.197147485177726622 1 66 -307.03405711680034074
   15200    284.43451    4.6816685    57.650738   -178.16158    2330.2744    10865.607 
   15210     266.1936    6.2465886    61.459255   -179.12775   -5565.0701    10865.607 
   15220    272.08281    5.5324455    54.779547   -179.43824   -2480.7326    10865.607 
   15230    265.98032    7.7952423    53.520888   -178.83048    215.00407    10865.607 
   15240    260.08289    5.0876715    54.729031   -177.11438     3855.788    10865.607 
   15250    268.74317    2.8967359    61.216997   -173.84312    1185.1304    10865.607 
   15260    301.88648    3.6568121    53.736647   -169.09983    474.40076    10865.607 
   15270    287.01485    4.4157391    61.585495   -164.21671   -1540.4958    10865.607 
   15280    304.57487    6.0253051    51.424034   -159.55158   -2792.1229    10865.607 
   15290    291.33601    5.7273354    63.714241   -155.69427   -504.81517    10865.607 
15300        0.97655568518461322025 10.168731916879689692 1 64 -287.37047152733634903
   15300    296.75023    4.8783312    61.969017   -152.91795   -1637.7207    10865.607 
   15310    312.67713    4.9862959    62.812507   -150.94195   -1130.8531    10865.607 
   15320    330.54998    4.9507919    61.118054   -149.74393   -4.6955208    10865.607 
   15330    328.41173    6.1180506    58.127096   -149.39311   -1309.9735    10865.607 
   15340    302.69188    7.0533971    67.507737   -149.93398    3870.3968    10865.607 
   15350    306.53705     8.639899    63.784639   -150.69361    2072.9452    10865.607 
   15360    291.50193    8.2756786    64.521911   -151.38644    3664.7654    10865.607 
   15370    308.17836    9.3680463     66.32792   -152.10678    3188.3261    10865.607 
   15380    290.86388     8.749221    62.895923   -153.05218   -2096.2887    10865.607 
   15390    286.55224    8.2402134    64.149594   -154.01696   -1334.7425    10865.607 
15400        0.98157327517213899259 10.138946260457830206 1 67 -286.03880062889976443
   15400     290.1063    6.7210993    59.293794   -154.59653   -5145.2847    10865.607 
   15410    290.23647    7.2039018    64.106201   -154.70032   -857.31048    10865.607 
   15420    291.38221    6.0518015    67.713662   -154.35643    4606.0835    10865.607 
   15430    290.34771    7.0340861    67.440128   -153.52345    1321.7922    10865.607 
   15440    311.83977    6.5336572    60.019554   -152.01257   -1228.3397    10865.607 
   15450    295.84766      8.42703    62.138067   -149.91258   -4191.7871    10865.607 
   15460    305.86673    9.2438169    63.822486   -147.11704    -2122.139    10865.607 
   15470    317.71534     7.778141     66.61184   -143.32818    2507.0032    10865.607 
   15480    303.78471    9.0090849    70.833265   -139.50258   -1209.3396    10865.607 
   15490    331.29915    10.005502    64.288173   -135.67637    733.66537    10865.607 
15500        0.97974119560576389265 10.143426905122920445 1 68 -275.99672808785385314
   15500    316.34773    13.187324    61.227659   -132.66491   -2133.2601    10865.607 
   15510    309.82777    13.071917    72.977131   -130.26662    4307.7639    10865.607 
   15520     307.0921    11.890778    71.111934   -128.22517    3987.2261    10865.607 
   15530    324.89603     10.37146    67.348054   -126.73207     964.5402    10865.607 
   15540    326.72889    7.8836784    66.988594   -126.10826   -1388.3587    10865.607 
   15550    334.72414    5.5498908    73.094277    -126.7809   -103.05248    10865.607 
   15560    329.95266    5.7882911     69.07099   -129.41629    152.49941    10865.607 
   15570    294.80858    7.1133035    62.186317   -133.72139   -1699.0156    10865.607 
   15580      287.938    6.7613194    66.800595   -138.39614   -2940.8301    10865.607 
   15590    300.51849    4.7997081    59.765037   -142.94356    841.35321    10865.607 
15600        0.97770107152263419081 10.162420165425753993 0.99206349206349198067 67 -272.04911852725416566
   15600    274.85059     3.742928    77.669847   -147.51895   -207.13371    10865.607 
   15610    284.72128    4.2395227    64.793453   -151.23968   -45.557271    10865.607 
   15620      283.923    5.3553096    65.828304   -154.06991   -3059.8232    10865.607 
   15630    279.94871    5.9737381    61.889486   -155.88391   -3256.2613    10865.607 
   15640    282.97258    5.5449083    60.300374   -156.95627    1224.4444    10865.607 
   15650    265.58151    5.8635524    62.764157   -157.21925    3514.1422    10865.607 
   15660    304.36303    6.1122886    56.976867   -156.88937    2076.3073    10865.607 
   15670    301.04173    5.6556293    61.732681   -156.56086    2091.4189    10865.607 
   15680    321.45199    5.7508671     52.42054    -156.3702   -1684.5448    10865.607 
   15690    301.75586    5.9950115    60.400157   -156.59418   -2285.8921    10865.607 
15700        0.98267680076639196685 10.147596943780730072 0.99206349206349198067 69 -290.07589985850353287
   15700    294.24084     9.421542    58.390308   -156.76034   -3163.5024    10865.607 
   15710    300.96905    9.6665517    58.569631   -156.64849    689.91538    10865.607 
   15720    308.39138    8.0384464    59.989857    -156.5461    2366.2772    10865.607 
   15730    303.61623    8.0237753    57.190711   -156.53785    445.91013    10865.607 
   15740    296.04246    8.6778832    59.677403    -156.7713    204.15982    10865.607 
   15750    319.13762    9.7974506    53.027587   -157.12769    1058.9743    10865.607 
   15760    310.48499    9.8087636    52.866306   -157.74137   -38.955365    10865.607 
   15770    295.70111     7.856665    56.828962   -158.44638   -407.59496    10865.607 
   15780    303.17814     6.928221    57.983773   -159.10507    60.011466    10865.607 
   15790    293.10847    5.1417081     57.78135   -160.13258     328.8878    10865.607 
15800        0.98584110704249217072 10.111197346737224478 1 68 -296.95114715236172742
   15800    299.05132     6.107541    54.195967   -161.45604    1758.2695    10865.607 
   15810    285.96855    6.1962918    57.815339   -162.91411    77.824859    10865.607 
   15820    296.52429    5.1382064    53.175414   -164.13824    -486.3445    10865.607 
   15830    287.77019    6.5605004    57.766641    -165.0733   -1778.7112    10865.607 
   15840    283.82642    7.0803174    59.569435   -165.58971   -163.75854    10865.607 
   15850    273.43862    9.8736261    59.577619   -165.41528   -3731.3954    10865.607 
   15860    281.01964    11.565506    60.532563   -164.46344   -85.250211    10865.607 
   15870    304.69422    10.576663    62.747099   -162.86924    415.86475    10865.607 
   15880    317.77763    10.530836    59.583008   -161.10979    3834.6883    10865.607 
   15890    309.57259    11.475758    51.491031   -159.49297    995.32289    10865.607 
15900        0.98268385149838011206 10.123130665176809373 1 71 -292.15263112312163685
   15900    296.26415    11.079577    59.250127   -157.92034    908.28216    10865.607 
   15910    301.40853    7.8816064     66.06521   -156.30337    1888.6213    10865.607 
   15920    300.53343    5.1219496    60.253996   -154.89648    602.78956    10865.607 
   15930    312.50831    4.8357783    61.331063   -153.71327   -722.48263    10865.607 
   15940    311.27737    3.7888144    64.717824   -152.85563   -422.69842    10865.607 
   15950    311.22553     5.800556    59.463747    -152.5121   -4107.2578    10865.607 
   15960    284.01224    7.8066344    66.028224   -152.61214   -2999.2842    10865.607 
   15970    301.61272    8.7571474    62.558457   -152.56864    880.62809    10865.607 
   15980    284.37772     7.963828    65.388973   -152.16353    6481.8838    10865.607 
   15990    284.80673    9.0215515    63.289712   -151.05778    1393.7837    10865.607 
16000        0.9743001883772631766 10.125207295721335043 1 72 -293.22603116447419325
   16000    317.91904    8.1242603    58.047018   -149.18228   -466.93132    10865.607 
   16010    301.52004    8.2709105    58.272549   -147.30571   -1030.7845    10865.607 
   16020    282.58681    7.1629747    62.287253   -145.21966   -192.90292    10865.607 
   16030    294.77161    6.9620906    62.277201    -142.0456   -3177.5698    10865.607 
   16040    323.30689    8.6971191     55.38975   -137.96334    781.79719    10865.607 
   16050    297.72577    9.3109805    70.848228   -133.72131    2053.6095    10865.607 
   16060    319.75528    10.551602    61.069966   -129.69593    2893.8605    10865.607 
   16070    322.94426    10.049031    66.046149   -126.17734    929.86909    10865.607 
   16080    320.02135    11.101797    71.264793     -123.437   -1797.0545    10865.607 
   16090    331.07205    9.8619015    71.689911    -121.4286   -4535.1358    10865.607 
16100        0.97538755674621802072 10.140648949636851484 1 67 -277.98711974042799966
   16100    346.55538    9.5893697    66.328537   -120.96873   -2234.0591    10865.607 
   16110    343.33945    8.6153119    62.538674   -122.53483    1153.9614    10865.607 
   16120    332.99477    12.287149    61.034205   -125.06204    1711.5294    10865.607 
   16130     305.7169    11.481441    60.592821    -128.1357   -3444.9326    10865.607 
   16140    291.42411    10.902733    71.102881   -131.21853   -239.20466    10865.607 
   16150     314.5798    9.6963261    65.089034   -134.36339     4622.579    10865.607 
   16160    329.87353    6.9527336    62.686241   -137.60874    5485.0119    10865.607 
   16170     314.4359    5.2545282    71.185397   -141.26764   -1617.6673    10865.607 
   16180    285.51797    4.4603344    67.528477   -144.32179    -5076.185    10865.607 
   16190    298.10963    5.6275905    61.396699   -146.39076   -507.84944    10865.607 
16200        0.98213365963641352518 10.130816547490253399 1 66 -288.09085242771203639
   16200    309.59892    6.7918561    60.715902   -147.81681    2118.4746    10865.607 
   16210    325.26173    6.8240817    55.992424    -149.0823    1137.5647    10865.607 
   16220    312.80385      9.05235    56.861352   -150.45443    2462.6347    10865.607 
   16230    305.07932    6.2699526    61.521435   -151.73553   -2228.2159    10865.607 
   16240    291.55444    6.5579745    63.240231   -152.83155    3410.3771    10865.607 
   16250    293.21122    7.5995866    64.188222   -153.77532   -4639.9807    10865.607 
   16260    284.55576    10.630474    61.539826   -154.38388   -1520.2352    10865.607 
   16270    298.27865    12.027058     54.89288   -154.45763   -3596.4439    10865.607 
   16280    300.46749     14.79844    54.985349   -154.04966    2587.5615    10865.607 
   16290     290.8138    13.019828    70.043514   -153.34632    3364.0537    10865.607 
16300        0.98702536738836965657 10.131835460441122265 1 67 -285.98409079303240787
   16300    294.63954    12.807294    59.898553   -152.48789    652.83075    10865.607 
   16310    302.11999    10.797737    57.687035   -151.64762   -3568.3918    10865.607 
   16320    307.04682    11.727616    58.340997   -150.85771   -1356.3954    10865.607 
   16330    301.44197    11.814839    65.669732    -150.0597    1298.1116    10865.607 
   16340    292.03729     10.82449    56.544791   -149.05481    3307.4074    10865.607 
   16350    309.90014    6.9108172    63.337411   -147.61789   -2502.1312    10865.607 
   16360    310.37294     6.600652       61.951   -145.98031   -1034.5009    10865.607 
   16370    328.50639    6.7434264    62.269171   -144.51164    1011.7091    10865.607 
   16380    298.82876    6.1312229    74.370723   -144.04715    1726.7264    10865.607 
   16390    288.26453    7.0007122    64.567536   -144.50585   -852.25612    10865.607 
16400        0.98543203086077080233 10.138220011686973621 1 65 -270.40332359411507923
   16400    276.27859    9.1128611     61.62693   -145.22616   -1301.9521    10865.607 
   16410    271.89005    10.123809    62.868924   -145.56959    579.28278    10865.607 
   16420    276.40602    8.6578971    66.672215   -145.22847   -109.16471    10865.607 
   16430    282.26774    6.4052129    71.721623   -144.21191    642.65022    10865.607 
   16440    294.76898    4.3335648    66.815017    -142.7257   -1096.0906    10865.607 
   16450    294.82013    7.0030114    62.189665   -140.97667   -1445.6192    10865.607 
   16460    311.17572    9.3825477     58.39264   -138.95557   -2334.8754    10865.607 
   16470    309.25276    8.1890409    73.119311   -136.74136    1279.6911    10865.607 
   16480    316.26452    7.3395502    62.461768   -134.62246    1446.7728    10865.607 
   16490    329.12832    6.6367568     64.44744   -133.05275   -507.83259    10865.607 
16500        0.98396756617566494274 10.145873015930458649 1 67 -288.62114758651682678
   16500    344.30037     7.508321    62.959328   -132.62446    2184.8562    10865.607 
   16510    316.82915    7.9500516    65.743396   -133.56708   -1598.7589    10865.607 
   16520    318.05742    7.9087376    56.554846   -135.48721   -514.69518    10865.607 
   16530    314.13122    9.6889872     61.02089   -138.41497    32.173227    10865.607 
   16540    321.39861    11.125997    56.090329   -142.16077    411.81376    10865.607 
   16550    294.44907    14.345855    64.311321   -146.07678    1857.5586    10865.607 
   16560    296.75251     12.71635    50.405945   -149.51144   -2695.4191    10865.607 
   16570    283.40208    9.3371798    59.666085   -152.24431    1202.0156    10865.607 
   16580    300.27794    7.8354639     54.59878   -154.37874   -2760.6121    10865.607 
   16590    333.98499    6.4349613    50.903375   -156.31576   -228.82829    10865.607 
16600        0.98786497380471283147 10.10759700001980832 0.99206349206349198067 64 -309.16140742666857477
   16600    331.47126    6.0704491    49.504615   -158.97737   -1044.3344    10865.607 
   16610    286.55379    5.6867377    55.477104    -162.0097    1780.2571    10865.607 
   16620    276.16798    6.3202998      61.6195   -164.87133    2312.9132    10865.607 
   16630    261.67439    7.1005528    54.165674   -166.50803    1765.2895    10865.607 
   16640    268.98165    5.7990694    56.658274   -166.68908   -736.35166    10865.607 
   16650    272.06287    6.8316149    60.585914   -165.77174    2713.8315    10865.607 
   16660     302.9789    5.3463574    53.210206   -163.88072   -856.15221    10865.607 
   16670    304.01389    5.4628886    58.660369   -161.63125   -163.38881    10865.607 
   16680    330.66816    8.4872772    50.871193    -158.8787   -2160.6919    10865.607 
   16690    321.08591    12.515409    54.371186   -155.71226    2510.8305    10865.607 
16700        0.98769149785661336516 10.110864995293585622 0.99735449735449732689 63 -294.81711692903996891
   16700    316.19256    15.457602    53.915863    -151.5556   -243.71738    10865.607 
   16710    283.12738     15.37231    58.481898   -145.65947   -2937.9417    10865.607 
   16720    303.54232    13.144654    62.617418   -137.25399   -2853.6847    10865.607 
   16730    312.21866    12.740588    65.330338   -129.49891    1107.9812    10865.607 
   16740    363.23578    10.549046    59.302419   -124.65253    184.80534    10865.607 
   16750    350.66653    8.4503141    65.822341   -122.91824    1032.9077    10865.607 
   16760    337.69807    7.0539359    66.743477   -123.23385    3144.1552    10865.607 
   16770    320.28723     7.500624     65.40229   -124.98955   -970.70977    10865.607 
   16780    307.08518    7.2295923    65.601151   -127.33501    137.16738    10865.607 
   16790    316.20198    5.9532256    63.110466   -130.25788   -3131.3788    10865.607 
16800        0.98295258885177250185 10.096073335302678586 1 62 -266.94200499663838855
   16800    294.24857    6.0263052    70.714097   -133.62294    4074.7221    10865.607 
   16810    308.41152    7.8760741    59.330007   -137.01098    578.24629    10865.607 
   16820    309.08821     7.813889    55.242969   -140.15231    332.49332    10865.607 
   16830    282.81772    5.0323736    61.095495   -142.79601   -2603.3558    10865.607 
   16840    296.02645    6.4250228     59.98811   -144.84836   -1641.4088    10865.607 
   16850    295.55074      7.68681    62.799139   -146.50536    2580.8092    10865.607 
   16860    320.28614    8.4478305    51.929275   -148.02314    1420.8162    10865.607 
   16870    312.05559    7.1820995    63.113856   -149.93318     2396.688    10865.607 
   16880    292.67291    5.1765517     64.63246   -152.27291   -1814.5702    10865.607 
   16890    286.31153    5.0817378    56.985067   -154.89765   -2868.9017    10865.607 
16900        0.97618960111757102638 10.135640569875464578 1 67 -284.99205781577165908
   16900    281.98559    5.3177875    58.550494   -157.22915     1345.084    10865.607 
   16910    293.11883    7.4038795    50.182778   -159.13114    1396.0116    10865.607 
   16920    251.47483    6.5411711     59.39666   -160.25678   -496.71651    10865.607 
   16930    254.76117    6.0359095    59.855078   -159.99503    -1468.594    10865.607 
   16940    268.49408    5.9235147    61.314852   -158.33685    167.59693    10865.607 
   16950    287.72156    4.6353386    57.854045    -155.3666    2676.2744    10865.607 
   16960    309.47611    4.8944366     54.48773   -150.66177   -3317.0744    10865.607 
   16970    325.62998    5.1749613     61.02207   -144.79066   -1951.9259    10865.607 
   16980    326.76408    5.7277617    61.894157   -139.09139    2874.2008    10865.607 
   16990    327.79998    4.0038232    66.523986   -134.73239    2554.9452    10865.607 
17000        0.96974970327676601745 10.173317026528909679 0.99735449735449732689 62 -276.82163046352081892
   17000    319.45959    3.2243042    64.146275   -132.07988   -2580.2413    10865.607 
   17010    298.32835    3.7523835    58.913897   -130.79328   -4391.7017    10865.607 
   17020    299.08569    4.0721216    61.484264   -129.81668    468.41377    10865.607 
   17030    286.05844    3.9921672    66.057102   -128.67298    961.41884    10865.607 
   17040    316.31621    4.5243993    59.978554   -127.53321     2987.048    10865.607 
   17050    312.69676    7.5821644    68.928884   -126.93072   -256.46958    10865.607 
   17060    324.91696    8.4228124    58.003185   -127.01287     742.3564    10865.607 
   17070    305.98192    6.9829615     60.02918   -127.55975     -532.238    10865.607 
   17080    301.36793    7.9206645     71.16409    -128.4337     2431.837    10865.607 
   17090    294.48845    6.9101036    67.205809   -129.30455    1924.1535    10865.607 
17100        0.97336982731068255603 10.169604528695719736 1 65 -269.92999460427409986
   17100    308.72305    5.0895376    67.428268   -130.05279   -476.97109    10865.607 
   17110    318.40644    4.2677079    59.021648   -130.84703   -5241.6984    10865.607 
   17120    316.94876    4.4705888    64.765408   -131.75938   -3095.9803    10865.607 
   17130    344.24186     4.747738    62.992578   -133.50129   -276.91528    10865.607 
   17140    328.55079    6.1931349    60.441186   -136.62364    561.36157    10865.607 
   17150    308.27513    6.5318301     64.68684   -140.63288    2595.9625    10865.607 
   17160    296.71854    7.5728262    60.074255   -144.07601    440.40407    10865.607 
   17170    320.61256    8.1576666    52.503884   -147.00289   -1169.3871    10865.607 
   17180    309.41329    8.1233003    57.966946   -149.45314   -1163.4385    10865.607 
   17190    301.97904    8.6054645    57.004405    -151.4177   -3168.4892    10865.607 
17200        0.9727425791480122097 10.165061754091047064 1 69 -271.11461980200618882
   17200    261.61512    11.802073     62.42633   -152.58122     2771.898    10865.607 
   17210    262.83754    11.427796    52.784171   -152.52816    451.96215    10865.607 
   17220      288.316    9.9168737    56.681643   -151.42591    4474.5643    10865.607 
   17230    300.45188    7.2917209     59.86027   -149.78285    2816.7147    10865.607 
   17240    295.48465    7.4152637    56.708973   -148.16711   -3550.6567    10865.607 
   17250     308.7925    5.5119733    63.091996   -146.85744   -3036.6659    10865.607 
   17260    323.93543    8.2896296    54.408918   -145.92875    49.413412    10865.607 
   17270    316.84683    9.2032957    57.988134   -145.43834   -459.52867    10865.607 
   17280    313.15316    9.5702708    57.979445   -145.23343     1635.088    10865.607 
   17290    321.26796    11.168939    60.152973   -145.59594   -3052.3123    10865.607 
17300        0.97650807328481059599 10.146186662147401947 1 69 -282.02589412031773008
   17300    298.77443    10.002574    61.423591   -146.65624    1710.4137    10865.607 
   17310    307.44206    11.312428    54.288022   -147.66244    2296.5509    10865.607 
   17320    299.59051    11.360096    56.921765   -148.33419    2624.7995    10865.607 
   17330    294.01436    11.458514     61.15154   -148.37685    892.82085    10865.607 
   17340    308.07452    8.3916217    58.216435   -147.96629   -1537.1629    10865.607 
   17350    287.50681    5.3712703     72.21687   -147.72208   -3834.8575    10865.607 
   17360    302.44996    3.8314913    61.562138   -147.41781    -2904.816    10865.607 
   17370    294.74627     3.475687    65.706776   -146.92023   -129.74891    10865.607 
   17380    316.92663    4.6771062    61.551974   -146.08343    4580.9452    10865.607 
   17390     289.8805     5.931571    66.872225    -144.9691    2444.6773    10865.607 
17400        0.97758270720859219427 10.171756276561934484 1 65 -291.39244387219139298
   17400    326.93567    7.7397302     49.63029   -143.26341    3132.2103    10865.607 
   17410     309.9038    5.8708146    70.591717   -141.11996    539.33199    10865.607 
   17420    329.22114    6.6891814    60.380806   -139.17612   -3156.3335    10865.607 
   17430    312.46329    6.0237997    67.172476   -137.79096   -4114.5233    10865.607 
   17440    320.87427    4.8224276    64.748839   -137.12187    -549.4382    10865.607 
   17450    324.82161    7.0390234    63.790811   -137.19604    1075.4898    10865.607 
   17460    296.52053    9.5256695    66.568031   -137.71663   -88.235055    10865.607 
   17470    330.32583    9.1245623    56.563524   -138.50819   -2097.3381    10865.607 
   17480    296.49731     6.932098    72.161015   -139.95296    3354.2564    10865.607 
   17490     315.2141    5.1697392    58.306456   -141.92882   -995.54732    10865.607 
17500        0.96780549085206879489 10.199818772967516267 1 67 -276.63315516069872047
   17500    292.52808    5.9142418    69.299643   -144.09362   -640.05869    10865.607 
   17510    324.06834    6.5064321    56.148871    -146.5381   -473.73462    10865.607 
   17520     270.7113    7.5977802    66.287053   -149.12169    2011.7871    10865.607 
   17530    284.33936     6.583326    61.994087   -151.28228    -804.2683    10865.607 
   17540    267.94081     7.946201    58.437208    -152.7664   -2069.8671    10865.607 
   17550    288.18534    7.0087023    60.529482    -153.3961   -216.07795    10865.607 
   17560     297.1394     6.484597    61.224738   -153.47169    2724.6783    10865.607 
   17570    297.07523    6.9315392    60.462524   -153.64192    1239.3317    10865.607 
   17580    266.35699    8.6552876    63.025214   -153.73384   -793.17785    10865.607 
   17590     276.6295    8.1852275    64.859104   -152.91348    1032.6145    10865.607 
17600        0.96885897420505429078 10.203615209712625145 1 67 -287.10501211197828297
   17600    300.21139    7.8543653    62.087088    -151.0843    -887.9388    10865.607 
   17610    308.95133    6.0868874    58.235088   -148.58165   -2815.2566    10865.607 
   17620    328.24742    6.4211212    58.213764    -145.5684    -874.1812    10865.607 
   17630    299.79225    6.0737626     64.84153   -142.34677   -1282.4592    10865.607 
   17640    326.75749    4.4142286    57.813869   -138.86576    1004.0296    10865.607 
   17650    318.73288    2.0894979    65.500955   -135.30263    1363.2532    10865.607 
   17660     305.1534    1.8661682    71.316695   -131.76145    1126.2726    10865.607 
   17670    300.13103    3.4751251    71.096036   -128.43689   -627.58784    10865.607 
   17680    329.68979    3.9018354     62.14846   -125.36219   -4133.6844    10865.607 
   17690    347.80994    3.6752858    67.835806   -123.08812    1693.5562    10865.607 
17700        0.96490429243621977928 10.215567373246717153 0.99470899470899465378 67 -273.00611377718871609
   17700    332.42652    7.8591589    65.257136   -122.38927    622.36986    10865.607 
   17710    310.64388    11.671361    66.678661   -122.87776   -2180.8278    10865.607 
   17720    333.24536    11.312695    62.141059   -123.92399     4372.923    10865.607 
   17730    313.52467    8.3029781    70.212272   -126.24033    4032.7336    10865.607 
   17740    300.28732    8.9294893    71.616554   -129.81399    1804.8607    10865.607 
   17750    313.84273     6.035531    61.313397   -134.85408   -3203.6453    10865.607 
   17760    321.86317    4.7432686     63.32686   -141.16718   -3596.2232    10865.607 
   17770     326.6015    6.1611846     54.33206   -147.89864   -878.40266    10865.607 
   17780      305.764    9.2650027    58.074325   -153.49737    -1402.373    10865.607 
   17790     295.0612    9.0799557    64.362049   -157.10908    372.58089    10865.607 
17800        0.97293862736508873734 10.174169543371187174 0.99470899470899465378 67 -297.83720470176331219
   17800    305.63101    9.9909374    55.094336   -159.36095    1813.0625    10865.607 
   17810    298.12755     8.729828    59.296611   -160.71635    -793.2476    10865.607 
   17820    287.30541    7.4803369    56.275319   -161.48215    196.52723    10865.607 
   17830     276.2506    7.2883077    61.179207   -161.74692   -70.737029    10865.607 
   17840    287.60336    7.5739091    58.868341    -161.3459    1360.1279    10865.607 
   17850    306.08054    8.9014317    54.978158   -160.48967   -2914.6159    10865.607 
   17860    295.97961    9.4829452    53.960427   -159.22656   -1696.5566    10865.607 
   17870    293.70844    9.2616273    60.634225    -157.3886    313.08125    10865.607 
   17880    297.96875    9.8845805    59.357423   -155.32959    1062.1228    10865.607 
   17890    290.03518    7.4895615    62.444404   -153.16609    3526.2184    10865.607 
17900        0.97523995539656183063 10.121108519330318742 0.99206349206349198067 68 -301.25102448521386123
   17900    332.32881    8.9090441    47.917363   -150.67845    369.31979    10865.607 
   17910    306.32752    11.187285    59.791855   -148.13608   -1515.6206    10865.607 
   17920    303.08359    12.548998    59.868475   -145.54387    2299.7624    10865.607 
   17930    303.93748    9.1030813     60.49395   -142.32036   -279.21086    10865.607 
   17940    297.47276      6.01347    64.394801   -139.28072    1393.0352    10865.607 
   17950    326.92237    5.3474477    58.170374   -136.07548   -1182.6465    10865.607 
   17960    296.07803    4.1870718    72.242106   -133.02361    -945.2967    10865.607 
   17970    316.75193    3.2605545    61.829115   -130.13328    3970.6033    10865.607 
   17980    285.54743    6.4916723    71.503931   -127.64933   -732.91519    10865.607 
   17990     319.2728    5.6861999    60.353562   -125.24065    130.74867    10865.607 
18000        0.9732322543671961812 10.157414590592269477 0.99206349206349198067 69 -272.0541516152592294
   18000     328.3642    6.6191867    70.096772   -123.27787    16.383312    10865.607 
   18010    325.16274    7.2326396      66.9663   -122.43682   -1660.8544    10865.607 
   18020    310.43384    7.7062155    68.509129   -122.34627   -993.96978    10865.607 
   18030    303.12659    7.8674073    73.957841   -122.89057   -1772.7704    10865.607 
   18040    320.70529    6.5634707    69.308435   -123.96827    2236.1744    10865.607 
   18050    334.88476    6.2887317    63.806768   -126.20267    485.80618    10865.607 
   18060    308.03734     7.160796    70.850647   -129.44162    181.13353    10865.607 
   18070    302.63815    8.0323227     67.24848   -133.66326    1449.5942    10865.607 
   18080    278.51607    7.5788731    67.560595   -138.26775    234.57934    10865.607 
   18090    291.07675    6.7344702    58.554486   -142.80928    452.39312    10865.607 
18100        0.9730893949873770099 10.155873940910625564 0.99206349206349198067 65 -270.6246697035163038
   18100    272.53571    5.3664558    69.441288   -147.14334   -2776.6765    10865.607 
   18110    279.38652    2.6382737    73.280237   -151.10401   -1681.3648    10865.607 
   18120    298.92229    5.0282678    63.115996   -154.51142    699.63121    10865.607 
   18130    306.01274    6.0941564    57.408267   -156.85709    -260.1038    10865.607 
   18140    301.63747    7.0712447    53.535838   -158.16322   -27.448112    10865.607 
   18150    269.70631    8.9912684    64.620582   -158.50841   -1706.0133    10865.607 
   18160      281.861    6.5419643    69.187162   -158.44918   -17.045207    10865.607 
   18170    274.38038    4.8885413    68.587489   -158.15225    1866.9286    10865.607 
   18180    285.39641      6.18061     59.42392   -157.50548    1465.9335    10865.607 
   18190    294.99043    6.7462884    58.604544   -156.68217      -517.21    10865.607 
18200        0.97428865362808436679 10.160578966093883224 0.99206349206349198067 69 -281.57656137367331439
   18200      278.192    5.8331008    56.619068   -155.53246    891.49317    10865.607 
   18210    282.04016    4.3437447    57.095276   -153.70252     1087.208    10865.607 
   18220    291.60064      4.97054    65.475944   -150.88963     2771.328    10865.607 
   18230    277.81076    7.0083574    68.158098   -147.72143   -1466.8915    10865.607 
   18240    309.61887     7.408735    63.035465   -144.26545   -1530.4609    10865.607 
   18250    287.61654    6.7876666    73.523236   -140.97811    237.92005    10865.607 
   18260    334.82397    7.3354715    59.541211    -137.9726   -426.59576    10865.607 
   18270    323.43103     8.313685       65.648   -135.78363   -1966.9722    10865.607 
   18280    351.55731    6.0583064    57.742125   -134.86405   -206.08748    10865.607 
   18290    302.26262    5.4094688    65.514565   -135.07881    2739.9206    10865.607 
18300        0.97382459107693220002 10.175537437089536397 0.99206349206349198067 68 -269.7985196145343707
   18300    296.00242    8.3545654    68.348579   -135.68482     2319.988    10865.607 
   18310    304.17809    10.580797    61.103386   -136.58719   -531.35289    10865.607 
   18320    305.95812    9.7979522    70.675454   -137.94426   -2858.9076    10865.607 
   18330    325.96207    9.0783731    62.864869   -139.82453   -4.8248907    10865.607 
   18340     309.9756    9.8864162    59.224379    -142.4754   -303.16081    10865.607 
   18350    314.15829    12.288042    61.899606   -145.73457    -639.0141    10865.607 
   18360    294.18062    7.7694911    63.629199   -149.30623   -2888.6477    10865.607 
   18370    295.83708    4.1355567    61.476044   -153.01595   -2695.7811    10865.607 
   18380    286.96279    3.7472381    65.472675   -156.90565   -503.09122    10865.607 
   18390    280.00314    6.0690704    65.795417   -160.33046    3237.7114    10865.607 
18400        0.98035892577192829123 10.143912077099347613 0.99206349206349198067 67 -297.10783864507038743
   18400    295.39868    6.6538576    58.817369   -163.26768   -160.09452    10865.607 
   18410    277.91808    7.3808327    64.000121   -165.50684    475.43943    10865.607 
   18420    281.88034    8.7658995    54.955498   -166.88084    1954.6437    10865.607 
   18430    252.67933    10.047958    66.290252   -167.28007    3157.3988    10865.607 
   18440    277.45525    9.9378263    59.524262   -166.55869   -1172.1072    10865.607 
   18450    271.74082    7.2442489    61.994884   -165.27066   -3233.8547    10865.607 
   18460    280.62256     5.997439    60.990038   -163.60719   -4139.8053    10865.607 
   18470    261.97898    6.3148092    64.902114    -161.3927   -1245.7498    10865.607 
   18480    278.93104    7.6235046    66.173525   -158.87478     1952.504    10865.607 
   18490    294.88399    9.9186889    71.249617   -156.32475    4332.1046    10865.607 
18500        0.98806652530803784629 10.114304241180134269 1 64 -301.95205713951236248
   18500    324.66624    9.7942538    57.790354   -154.85126    2140.1072    10865.607 
   18510    318.20313    9.4364274    60.067952   -154.30022    -615.4117    10865.607 
   18520    308.66171    7.8244724    55.868548    -154.3251   -3954.9834    10865.607 
   18530    282.38008    7.6014402    64.406958    -154.5446   -2070.7644    10865.607 
   18540    294.09219    8.4385513    63.051524    -154.6169    -1663.031    10865.607 
   18550     303.3699    9.9090804    54.329848   -154.43104    617.59691    10865.607 
   18560    275.53513    10.082725    65.691872   -153.89382    3434.4676    10865.607 
   18570     269.3121    11.073423    66.121903   -152.73003    1236.8109    10865.607 
   18580    277.05834    10.761825    66.777984   -150.81468    4735.6485    10865.607 
   18590    323.72819    10.119151    52.483224   -148.26406    215.48012    10865.607 
18600        0.98797579127051371461 10.108272885588107215 1 69 -285.99443342882773322
   18600    309.54869    8.8880485    59.712082   -145.74314    797.01874    10865.607 
   18610    299.74978     7.569238    57.354287   -142.98142   -3449.0004    10865.607 
   18620    304.77209    8.7204331    65.841106    -140.2788   -2498.9634    10865.607 
   18630    312.64975    10.907409    68.817091   -137.81644    3176.7767    10865.607 
   18640    313.10284    10.451842    57.959327   -136.16123    -1163.603    10865.607 
   18650     318.4541    8.3463571    61.705017    -134.8083    2546.9946    10865.607 
   18660    317.79078    8.3478077    69.079547   -134.41885    600.26218    10865.607 
   18670    325.61297    10.483967    65.957153   -135.00711   -981.87191    10865.607 
   18680    305.50279    10.265127    71.532968    -136.7633    591.25268    10865.607 
   18690    331.85063    9.5723494    54.850729   -139.76604    -4878.882    10865.607 
18700        0.98931162597596211672 10.124160105144978772 1 67 -284.06272181589673664
   18700    307.61557    6.6690381    70.171818    -144.6873    676.57677    10865.607 
   18710    309.75983    7.3584648     54.04752   -151.15357   -792.08477    10865.607 
   18720    295.25086    7.7486172    57.096803   -157.60969   -1029.8782    10865.607 
   18730    295.53427    8.2101904    54.121669   -162.92641    4106.0159    10865.607 
   18740    293.94728     6.433877      52.7574   -165.87916    297.49049    10865.607 
   18750    282.23967    6.6775846    58.134049   -167.18414    1753.1826    10865.607 
   18760    278.82257    8.3631178    61.773729   -167.50394   -4032.5422    10865.607 
   18770     301.8353    11.356277     58.43881   -167.36272   -2136.1271    10865.607 
   18780    287.53361    12.333857    59.430267   -167.31431   -650.14116    10865.607 
   18790    309.25436    12.300927    52.037126   -167.04481   -1300.4861    10865.607 
18800        0.98604187452168445827 10.129332961010161895 1 65 -307.04585987669088354
   18800    310.08893    13.023636    55.835795    -166.5498    -70.37236    10865.607 
   18810    321.19904    9.9245219    54.054691   -166.11455    1078.4296    10865.607 
   18820    299.49038    8.3073544     56.92574   -165.91122    565.09649    10865.607 
   18830    301.78233    7.8031338    58.588469   -165.92034    4518.2265    10865.607 
   18840    310.11806    7.1124408    52.543763   -166.08048    2564.2689    10865.607 
   18850    278.56981    5.5710944    57.787995   -166.20251    1222.3829    10865.607 
   18860    279.55942    4.4663469    53.705255   -165.50258   -2427.2501    10865.607 
   18870    277.18652     3.881559    61.854754   -163.76438   -1599.6467    10865.607 
   18880    294.45659    4.9340752    63.555495   -161.21439    371.41765    10865.607 
   18890    308.53502    5.9061032    56.158673   -157.91426    1369.8491    10865.607 
18900        0.97503857498370072321 10.139160838691616107 1 66 -284.59481694581211286
   18900    287.75035    6.7327436    59.967951   -154.21999   -940.71468    10865.607 
   18910    304.75164    6.2453116    60.690617   -149.57892    29.621623    10865.607 
   18920    300.60791    5.3003389    67.087335   -144.47706   -589.26311    10865.607 
   18930    305.67096    4.1574687    64.761872   -140.30757    70.194332    10865.607 
   18940    319.77948    5.8418543    63.907561   -136.97736   -3591.3924    10865.607 
   18950    324.33452    5.8393122    61.297589   -134.98801    373.11875    10865.607 
   18960    331.89053     7.522683    62.710582   -134.16669     739.3458    10865.607 
   18970    274.53439    12.017223    68.556816   -134.27356    1046.2718    10865.607 
   18980    283.87801    13.691896    72.670124   -134.39173    1265.3326    10865.607 
   18990    285.97178    12.209585    75.560382   -134.63129    1423.6081    10865.607 
19000        0.9677655460707506041 10.177912544474377654 0.99470899470899465378 63 -280.65802843429071345
   19000    320.92508    9.3907216    66.335522   -135.25229   -3723.0338    10865.607 
   19010    309.18204    6.7223115    63.222975   -136.28375   -1005.6944    10865.607 
   19020    293.96284    4.5063248    65.313525    -137.1523   -1292.2937    10865.607 
   19030    293.36562    4.7810378    64.344674   -137.63248    1698.5647    10865.607 
   19040    317.21966    6.9115986    60.055858   -138.15159   -824.42748    10865.607 
   19050    318.77568     8.313196    60.184682   -139.18789    430.29606    10865.607 
   19060     316.8794    8.9082208    67.299598   -140.66802    704.19241    10865.607 
   19070    328.54443     7.892858    57.722466    -142.8081     400.6314    10865.607 
   19080    325.38927    5.6063129    68.386408    -145.8696   -2326.2214    10865.607 
   19090    339.87457    3.4768361    53.306544   -150.18241   -1507.0572    10865.607 
19100        0.9674703176998572518 10.171335007648480087 1 65 -296.90821297358723996
   19100    312.04909    4.0462242    56.363652   -155.52404   -1091.2269    10865.607 
   19110     296.9263    3.7695593    51.752605    -160.4693   -191.70078    10865.607 
   19120    268.38907    4.2646924    59.260005    -163.8279    3056.8254    10865.607 
   19130    265.40434     4.007272     60.23245   -165.10701    2160.2268    10865.607 
   19140    281.21978    4.7074721    58.308525   -165.19497    1579.5154    10865.607 
   19150    288.61336    4.2597832    52.362961   -164.75677   -463.63185    10865.607 
   19160    292.59074    4.3400942    61.207375   -163.99081    476.62315    10865.607 
   19170    300.81862    4.5434104    53.942295    -163.0176   -1206.7407    10865.607 
   19180    301.21122    5.4443916    61.443596   -161.94521   -3234.2574    10865.607 
   19190    305.22932    4.1605959    57.898598   -160.90463    632.83478    10865.607 
19200        0.97799770534486862861 10.16033356052808756 1 66 -292.39247449583842808
   19200     292.5228    3.9496008    69.428236   -159.85533   -475.56183    10865.607 
   19210    314.15143    4.2923951    58.402003   -158.94409    893.72537    10865.607 
   19220    308.69435    4.4576948    55.840229   -158.38592   -1670.2739    10865.607 
   19230    289.87732    4.7766873    57.396227   -158.04718   -485.64053    10865.607 
   19240    269.51174    5.7809921    64.499116   -157.17187    2175.4999    10865.607 
   19250    277.36423    9.6148301    61.709956   -155.26664   -478.79874    10865.607 
   19260    289.13097    12.500689    64.925354   -152.55371     1841.686    10865.607 
   19270    300.16879    10.076795    72.636949   -149.51981    81.311418    10865.607 
   19280    300.04862    10.665364    62.931598   -146.56072    193.02531    10865.607 
   19290    305.79467    6.8091271    60.256852   -143.55795    -1805.698    10865.607 
19300        0.97843578096872219074 10.150640271022330907 1 67 -283.74541314389750823
   19300    315.92384    5.6937809    65.305544   -140.60565    2165.7506    10865.607 
   19310    319.37837    7.1263515    62.438932    -138.2907    -270.9492    10865.607 
   19320    334.24109    7.4323286    55.945475   -136.57911       -16.59    10865.607 
   19330    306.42772    7.6949033    68.037419   -135.71912   -443.22743    10865.607 
   19340    334.94378    8.3145722    69.304276   -135.63518    1061.4416    10865.607 
   19350    316.39371    11.164187    70.236028   -137.47133    348.22601    10865.607 
   19360    322.13245    10.806069    55.838022   -140.96514   -1377.8913    10865.607 
   19370    313.79184    8.8609631    62.150891   -145.30174    1943.3189    10865.607 
   19380    309.70312     7.843522    52.999704   -150.08887    378.34996    10865.607 
   19390    269.37156    8.3045721    61.960287   -154.65158   -3470.8894    10865.607 
19400        0.97156675673680137351 10.158893046886767308 0.99206349206349198067 64 -277.387217705332489
   19400    262.89305    6.4143422    65.657721   -158.27481   -1916.6254    10865.607 
   19410     274.9795    4.7667602    60.297869   -160.69168    1303.5754    10865.607 
   19420    299.54615    3.8451543    57.669854   -162.10652    2440.5241    10865.607 
   19430    278.38989     5.067557    59.505639   -162.69613   -1083.1868    10865.607 
   19440    268.60723    5.0247207    62.250786   -162.49898     1475.164    10865.607 
   19450    262.29344    5.2280836    65.241866   -161.69977     1807.001    10865.607 
   19460    294.90824     7.774042    51.361918   -160.45142   -449.23404    10865.607 
   19470    310.52067    10.147892    51.294976   -158.98879   -886.92835    10865.607 
   19480    294.23163    11.729851    52.662743    -157.5075   -1793.4118    10865.607 
   19490    286.47121     11.63645     58.48925   -155.94142   -445.98706    10865.607 
19500        0.96890825203194597126 10.166982808668821647 0.99206349206349198067 65 -290.08382116642087567
   19500    299.14551    9.5463458    63.426776   -154.54604   -2388.3721    10865.607 
   19510    312.58009    7.0915976    59.506925   -153.68474   -1455.6893    10865.607 
   19520    295.62844    6.8063446    59.563704   -153.16655    26.769417    10865.607 
   19530    276.64975    8.1989089    59.713048   -152.47648    546.00786    10865.607 
   19540    271.91411    8.3107341    66.133981   -151.19493    2317.7604    10865.607 
   19550    295.54505    8.1384846    64.289735    -149.5069    1565.0315    10865.607 
   19560    303.01348    8.0897411     62.24776    -147.8464    1263.3207    10865.607 
   19570    303.58921    8.6348613    60.731303   -146.40707    1383.5137    10865.607 
   19580    303.33184    9.2784493    60.699704   -144.99377    869.63958    10865.607 
   19590    309.29178    9.4925405    69.965105   -143.77208    1528.4754    10865.607 
19600        0.97190744596410627576 10.185788133102278152 1 66 -276.38385684623824545
   19600    294.00466    11.147399    70.459187   -143.17531   -3146.6147    10865.607 
   19610    300.50814    9.5393497    63.117165   -142.90247    -1439.109    10865.607 
   19620     320.6422    8.0436479    63.371742   -142.65312    -934.0112    10865.607 
   19630    321.07189    7.0791641    59.519167   -142.68825    297.75998    10865.607 
   19640    316.61805    7.7457429    60.825468   -143.74405    1250.6503    10865.607 
   19650    303.72636    9.6930446    60.118446   -146.02353    2529.1155    10865.607 
   19660    309.95491    8.2363784    60.180824   -149.58457     2050.895    10865.607 
   19670    311.06555    7.4482883    53.586929   -153.96283    2456.4775    10865.607 
   19680    292.23371    7.4564442    59.385694   -158.98468   -3037.3212    10865.607 
   19690    286.21511    5.0784446     56.34334   -163.42774    817.95392    10865.607 
19700        0.96487410840572018778 10.227138787325175784 1 67 -291.00494051771977411
   19700    272.95918    6.1852556    62.237434   -167.33174   -1267.0515    10865.607 
   19710    263.91997    5.5001415    56.864241   -169.84138   -631.86801    10865.607 
   19720    274.79363    6.1172067    54.682076   -171.01724   -2446.3784    10865.607 
   19730    254.68014    5.6459393    65.040455   -171.14742   -2021.8008    10865.607 
   19740    275.82178    4.1816961    60.145633    -170.2704   -469.05516    10865.607 
   19750    269.99609    4.7159418    60.852806   -168.86171   -1858.2303    10865.607 
   19760    269.28007    4.7069682    61.914455   -167.09553   -397.39207    10865.607 
   19770    262.95496    5.2593631    59.853246    -164.4028    2812.2734    10865.607 
   19780    285.09034    6.7337632    58.579643   -160.50105    1696.0856    10865.607 
   19790    323.59902    8.4817819    54.746705   -155.74241     2680.133    10865.607 
19800        0.96501084808353232436 10.226064711039374089 1 69 -280.13316244055079096
   19800    283.03808    5.7676363    67.466238   -151.89338   -4083.9267    10865.607 
   19810    319.22422    4.2733759    59.674021   -148.92817   -261.57647    10865.607 
   19820    292.45644    4.9106987    66.444227   -147.21709   -2378.0688    10865.607 
   19830    303.57061    4.9034731     58.49182   -146.18976    255.98387    10865.607 
   19840    286.69773    7.0946307    65.036623   -145.25368    -1908.056    10865.607 
   19850    307.38754    8.9736387    59.439394   -144.22387   -1986.7381    10865.607 
   19860    301.54038    9.2656117    63.429751   -143.59133   -853.12668    10865.607 
   19870     318.3629    9.5941281    62.722648   -143.47298    1894.8015    10865.607 
   19880    323.37533    9.0926715    63.425932   -143.66087   -1236.2955    10865.607 
   19890    325.75143    7.6031022    59.826743    -144.7096   -232.24247    10865.607 
19900        0.96906118011801156698 10.182156041607607122 1 66 -288.39727161146674916
   19900    312.95541    8.2261785    65.413174   -146.60246    250.42159    10865.607 
   19910    274.55188    8.7103747    70.128434   -148.83162    5093.5144    10865.607 
   19920    289.75613    9.9298948    60.649762   -150.71693    598.91257    10865.607 
   19930    267.11608    12.467403    69.250819   -152.26773    1890.6848    10865.607 
   19940    301.83542    13.591889    62.442285   -153.53747   -1306.4646    10865.607 
   19950    293.89811    9.4755635    57.781037   -154.75774   -1019.4699    10865.607 
   19960    271.96107    7.4049389    60.132238   -155.65898   -3510.2984    10865.607 
   19970    281.68109     6.273224    59.575033    -155.7866   -3373.9131    10865.607 
   19980    299.98626     4.069668    58.852819   -155.18027   -1700.2003    10865.607 
   19990    294.30396    5.4097937    65.345578   -154.27526    316.13245    10865.607 
20000        0.97447631260072853365 10.145393728920064191 0.99735449735449732689 65 -291.86812547428019116
   20000     306.0143    7.8360157    62.082613   -153.21821    4062.7939    10865.607 
   20010     298.2877    7.3650039    65.705353   -151.80807    7104.2085    10865.607 
   20020    314.19598    4.9504305    64.663656   -149.32734    3450.0687    10865.607 
   20030    328.27887    4.3548909    55.063891   -145.04202   -1606.4903    10865.607 
   20040    316.07136    6.6044234    63.829615   -139.49705    -3290.233    10865.607 
   20050    343.58326    7.0843177    62.906758   -133.78294   -2262.2674    10865.607 
   20060    322.95995    6.2929998    71.387301    -129.1977   -4228.3004    10865.607 
   20070    345.95865    6.6588688    62.682737   -126.41747   -1077.9327    10865.607 
   20080    300.27129    8.4982561    74.359336   -125.24032    966.08032    10865.607 
   20090    323.87008    7.3205327    63.840453   -124.80805     3021.727    10865.607 
20100        0.98326011959257486605 10.127181254617383388 0.99206349206349198067 67 -274.29847038395155323
   20100    329.37395    7.2412834    62.186309   -125.06469    2427.9358    10865.607 
   20110    325.46553    6.0457843    65.320781   -125.98679   -3532.5214    10865.607 
   20120    318.51893    5.4826853    62.511118   -127.41218   -1108.3652    10865.607 
   20130    314.82185    6.4153799     71.58596   -129.80421   -3974.7344    10865.607 
   20140    318.18701    9.9935304    66.379795    -133.2327    3394.3243    10865.607 
   20150    294.82287    10.208375    68.738449   -137.14791    619.72007    10865.607 
   20160    319.38176    8.0089953    60.279259   -141.23279    2958.5258    10865.607 
   20170    290.33845    7.1909694    61.938826    -145.2883   -512.18067    10865.607 
   20180    301.89288     9.352335    56.819969   -148.82913    33.088464    10865.607 
   20190    310.04439    8.9639955    58.338503   -151.70562    697.58744    10865.607 
20200        0.98995275566808538237 10.073978418178905159 1 68 -288.47537073916561212
   20200    296.22829    8.6694298    60.500781   -154.25933   -1679.8241    10865.607 
   20210    305.58863     7.310433    67.929401   -156.54169   -392.01258    10865.607 
   20220    297.91405    8.2930837    61.964114    -158.7866    1427.2666    10865.607 
   20230    296.95235    11.517321    54.325129   -160.75522    -24.03505    10865.607 
   20240    280.66662    10.034092     61.97125   -161.97268    130.48294    10865.607 
   20250    296.22192     9.633255     47.13101   -162.20692   -1130.3879    10865.607 
   20260    278.34564    11.562412    58.789078   -161.73432   -43.529574    10865.607 
   20270    294.37762    12.025355    53.715635     -160.788     -1010.65    10865.607 
   20280    291.91515    12.132889    57.657751   -159.37603    1237.3389    10865.607 
   20290    322.41683     9.287546     57.97501   -157.96361    1083.0169    10865.607 
20300        0.99025173828788826125 10.030436111964165846 1 65 -288.38444216544507981
   20300    290.11869     8.772987    61.262475   -156.93656    157.73324    10865.607 
   20310    277.48377    6.6782204    65.457208   -155.84375   -1011.6881    10865.607 
   20320    283.67614    6.6729944    52.592167    -154.5201    532.92584    10865.607 
   20330    285.98992     7.555821    62.248523   -152.48492    1410.1505    10865.607 
   20340    306.57342    7.5601317    55.105445   -150.02779    1084.1925    10865.607 
   20350    279.21327    9.1203942     61.67382   -147.52141   -111.68077    10865.607 
   20360    268.61969    11.913677    67.077721   -144.93919   -1891.3818    10865.607 
   20370    287.87447    10.881546    63.141757   -142.21155    1167.7637    10865.607 
   20380     296.0277    9.9036559    65.681509    -139.6927    1556.4651    10865.607 
   20390    285.35092    10.556098    65.788754   -137.98217   -364.59699    10865.607 
20400        0.98823228060854273469 10.047566619317437997 1 71 -273.64277231631643872
   20400    302.04694    11.608695    61.466492    -136.7904    2076.7861    10865.607 
   20410    314.96201     9.148462    62.018353   -136.18673    1739.6794    10865.607 
   20420    320.70558    7.5866646    59.091994   -136.18829   -695.39095    10865.607 
   20430    279.98009    6.8921325    60.319305   -136.51127    209.10901    10865.607 
   20440    290.66126    6.7504204    67.729228   -136.71725   -2368.5898    10865.607 
   20450    292.89338    7.8420199     72.28539   -137.09445    3466.6276    10865.607 
   20460     312.7122    7.6639756    62.351895   -138.03876   -3900.8263    10865.607 
   20470    328.30734    7.6652516    54.535792   -139.27203   -3079.5704    10865.607 
   20480    297.07188    7.8313949    68.569979   -141.09186   -1279.4498    10865.607 
   20490    289.45339    8.6995885    67.270762   -143.11428    2189.8954    10865.607 
20500        0.98425980436631255177 10.091918743461116392 0.99735449735449732689 71 -273.38345639003978249
   20500    282.89473    9.6751036    68.146495   -145.20863    2771.0706    10865.607 
   20510     307.1735    6.5308389    61.395875    -147.2774    2282.9321    10865.607 
   20520    315.64009    4.5524183    62.634732   -149.59415    256.36365    10865.607 
   20530    299.12047    4.3585181    61.838114   -152.53395    197.82523    10865.607 
   20540    279.64829    5.4892919    66.273861   -155.58382   -5983.9167    10865.607 
   20550    260.25057    6.3549173    64.206009   -158.61388   -264.15586    10865.607 
   20560     284.8107    5.2826366    54.994761   -160.83313    735.48986    10865.607 
   20570    268.05985    5.6800849     60.44936    -162.5195    2092.6381    10865.607 
   20580    308.41679    6.5858757    51.798517   -163.80283   -158.42026    10865.607 
   20590    263.85848    5.8873315    62.355879   -164.76044   -1245.5857    10865.607 
20600        0.98324306022916641012 10.138897532165447757 1 70 -291.85647254562979924
   20600    279.78268    6.9985159    61.343207   -165.09166   -961.86917    10865.607 
   20610    294.05198    6.7334549    59.841615   -164.78398    1394.5404    10865.607 
   20620    304.64538    7.7421121    62.259004   -164.37867    788.44395    10865.607 
   20630    288.66037    7.8997393    62.423962   -164.12065   -803.47782    10865.607 
   20640    289.79557    6.9996366    56.377848   -163.65608   -3696.1055    10865.607 
   20650    281.03581    8.4491552     55.30071   -162.50972    1061.1166    10865.607 
   20660    293.51692    10.299123    61.445127   -160.32827   -170.88278    10865.607 
   20670    302.37259    11.341656    61.001414   -157.44067   -402.66407    10865.607 
   20680     321.0231    12.018495    56.448743   -154.53307   -625.81487    10865.607 
   20690    325.02802    9.8066779    61.907603   -152.17322    4779.8131    10865.607 
20700        0.98877165937768607407 10.110581363416528689 1 70 -292.33034732781595721
   20700    312.96396    10.296859    60.842692   -150.53166    4463.3008    10865.607 
   20710    295.15838      13.1541    56.596289   -149.17587   -1316.8853    10865.607 
   20720    310.07262    12.033122    59.985594   -147.73369   -1002.8644    10865.607 
   20730     373.5266    8.4286771    48.750569   -146.43387   -3482.2156    10865.607 
   20740    329.71987     7.762768    57.508794   -146.56676   -302.67604    10865.607 
   20750    302.62358    7.5370535    57.358701   -147.55131   -2204.6869    10865.607 
   20760    260.25113    5.8301581    70.221852   -148.41005    874.89182    10865.607 
   20770    274.64564    4.8270635    73.200319    -148.8539    967.84002    10865.607 
   20780    313.77712    6.5282904    58.611377   -149.43799    2558.5686    10865.607 
   20790    317.66264    7.1106374    60.466137   -150.69554   -1410.2639    10865.607 
20800        0.98389143423002989319 10.127463713577105509 1 67 -289.78686134413607078
   20800    303.11689    7.5637811    60.446726   -152.44971   -969.24633    10865.607 
   20810     294.3829     7.345571    66.151473   -154.51934   -1634.0278    10865.607 
   20820    273.08607    11.485364    62.620432   -156.80927    3978.8755    10865.607 
   20830    265.61008    12.341847    65.034103   -159.24383   -449.73154    10865.607 
   20840    270.38303     13.11131    59.820589   -161.24251   -27.006829    10865.607 
   20850    291.71984    11.122641    57.574664   -162.86938   -12.759415    10865.607 
   20860    291.96638    8.3806419    60.843186   -164.40315    1313.5847    10865.607 
   20870    277.39905    5.8839036    57.020015   -165.82963   -2214.7048    10865.607 
   20880    273.78065    4.6258877     57.16642   -166.90259   -658.31907    10865.607 
   20890    291.49466      2.82831    56.565439   -167.64037     316.6164    10865.607 
20900        0.97671714863900449544 10.146770050132403185 1 67 -298.38110795769966899
   20900    287.75189    4.3001743    53.076993   -168.00558      3277.07    10865.607 
   20910    290.88453    3.8304319    58.831591    -167.8774   -798.81144    10865.607 
   20920     287.3172    6.1390586    52.450067   -167.10233   -1562.0566    10865.607 
   20930    283.62575    8.8777636    50.770477   -165.13185   -2852.5101    10865.607 
   20940    304.48363    10.624427    52.396963   -161.61579    1967.5163    10865.607 
   20950    289.64452    11.219834    62.742248    -157.1517   -2589.2322    10865.607 
   20960    307.05867    6.7136149    51.793477   -152.12705   -1184.9715    10865.607 
   20970    300.05705    5.0053285    66.097121   -147.42349    1449.2083    10865.607 
   20980    316.60903    6.2599158    56.609097   -142.99377    4077.6461    10865.607 
   20990    313.96646    5.5934448    61.313538    -139.6153    1589.2602    10865.607 
21000        0.97811960235478490056 10.146270937696350245 1 68 -287.92695767947918739
   21000    333.21276    8.9606601    57.224766   -136.95388    1149.2953    10865.607 
   21010    319.03765    9.1028275    64.205786   -135.65539   -2476.3841    10865.607 
   21020    331.08724     8.125292     66.27927   -135.65103   -284.13579    10865.607 
   21030    315.50921    7.8795016    64.121827   -136.70115    407.81748    10865.607 
   21040    327.51014    8.8400247    61.140242    -138.4397    446.31559    10865.607 
   21050    311.68762    8.7801731    64.561128   -140.40621   -2330.2647    10865.607 
   21060    320.33169    7.7228978    55.890423   -142.84011   -1843.6142    10865.607 
   21070    302.85856    9.0518161    62.630559   -145.38577    627.88998    10865.607 
   21080     301.0581    8.9064459    65.176301    -148.4962     3973.077    10865.607 
   21090    292.39185    7.3803919    62.683992   -151.49226    1716.7383    10865.607 
21100        0.96960127144826246948 10.190148608151210041 0.99735449735449732689 70 -284.15958181845206809
   21100    286.64418     6.490763    57.501538   -154.28594   -2349.8349    10865.607 
   21110    291.81297    5.5272757    56.295694   -156.30022   -1032.8357    10865.607 
   21120    282.18358    4.9041861    64.886342   -157.62603   -28.931629    10865.607 
   21130    282.90015    4.1748052     62.81181   -158.35636   -482.65964    10865.607 
   21140    272.99562    2.9729403    69.834155   -158.65278   -516.75694    10865.607 
   21150    299.34281     4.078316    57.682253   -158.87134   -911.48009    10865.607 
   21160    278.36127    5.3075791    65.791488   -159.12158    817.93495    10865.607 
   21170    261.81641    6.4466847    64.996772   -158.88627    748.25812    10865.607 
   21180    284.00075    7.6365666    58.982195   -157.69334     132.0209    10865.607 
   21190    284.88898    8.3286825     58.04708   -155.25569    850.43342    10865.607 
21200        0.96493655502911335198 10.211577771867876407 1 67 -289.86449653194733855
   21200    306.58861    7.2797539    61.876537   -150.95437    3254.1252    10865.607 
   21210    316.47627    5.6923666    64.687919   -144.16224    1542.4526    10865.607 
   21220    336.00313    5.5405128    64.302522   -135.65191   -4636.8523    10865.607 
   21230    339.41126    6.3950396    63.039649   -128.43937   -2413.2045    10865.607 
   21240    343.66127    5.0794291    63.515752   -123.90177   -2121.9984    10865.607 
   21250    350.71837    4.2499992    62.176376   -121.67575    -1063.692    10865.607 
   21260    333.69318    5.3601484    67.348204   -121.68129   -674.23422    10865.607 
   21270    317.57332     9.021803    71.005949   -122.88074    2177.5399    10865.607 
   21280    324.53715    10.616778    66.783661   -124.59021    3328.7249    10865.607 
   21290    336.47427    8.1542752    58.209593   -126.70705   -222.08102    10865.607 
21300        0.9612666379510097503 10.211986189394490765 0.99735449735449732689 68 -275.81172566072643804
   21300     322.9638    5.4733298    63.781728   -129.48228   -336.07646    10865.607 
   21310    299.35546    5.4424837     73.82223   -132.18369    -1282.288    10865.607 
   21320    302.32743    4.6445427    65.908234   -134.92069   -1283.9573    10865.607 
   21330    283.29721    5.3628591    71.043378   -137.38307    83.750298    10865.607 
   21340    277.73156    6.8300228    66.019198   -139.28267    1569.9278    10865.607 
   21350    295.80444    6.9689003    69.212021   -140.70699    675.23765    10865.607 
   21360    293.29846    6.2928529    67.968045   -142.09991    1699.3714    10865.607 
   21370    277.59609    6.9701411    73.744761   -143.76508   -5197.3121    10865.607 
   21380    309.19579    7.0022812    60.883912   -145.36765    342.05196    10865.607 
   21390    303.62774        7.597    62.026184   -147.36417    581.65207    10865.607 
21400        0.95907492371342228932 10.215606823752574783 0.99735449735449732689 69 -283.46985541657596741
   21400    295.82862    7.6942355    62.732329    -149.4349    1162.1148    10865.607 
   21410    317.52963    7.1671462    58.719503   -151.36107   -157.91513    10865.607 
   21420    302.57312     4.965011    66.627936   -153.55387   -2361.2923    10865.607 
   21430    312.24012    5.6819361    58.668833   -156.19585   -2546.4294    10865.607 
   21440    269.19489    7.4561391    69.230222   -159.00792    435.49451    10865.607 
   21450    295.41389    5.5310871    57.497404   -161.63811    10.738916    10865.607 
   21460    259.29146    3.4541962    68.320563   -164.12903    4171.0818    10865.607 
   21470    261.27678    4.8642113    58.489913   -165.70944   -3831.3891    10865.607 
   21480    257.26759    8.2331411    55.352449   -166.24691     1767.511    10865.607 
   21490    278.13196    6.6806624    63.921354   -165.65402    1329.6819    10865.607 
21500        0.96015253590525695415 10.210303359301422077 0.99735449735449732689 67 -293.40793923880255534
   21500    286.46856    7.2017151    62.112193   -163.61387    4715.1071    10865.607 
   21510    296.54504     7.724952    64.917799   -159.78724   -3349.5228    10865.607 
   21520    297.55183     9.182675    59.634546   -153.84281    -1753.951    10865.607 
   21530    304.34577    7.8862118    68.787491   -146.71891    -210.0936    10865.607 
   21540    344.45386    10.198914    54.835386   -140.41293    1729.3804    10865.607 
   21550    328.79699     10.53622    60.611247    -136.0139   -3449.4914    10865.607 
   21560    325.89848    7.2743201    64.386011   -133.38833    3069.3091    10865.607 
   21570    327.52379    6.2007934    63.501206   -131.82733    699.34148    10865.607 
   21580    320.60924     5.276846    71.861296   -131.34928    575.26605    10865.607 
   21590    309.01243    7.9755638    71.850404   -132.11467   -1036.5974    10865.607 
21600        0.960522195447907845 10.21155158197129964 0.99735449735449732689 68 -271.35242162734704152
   21600       304.21    8.3538309    66.025509   -133.52001   -104.39812    10865.607 
   21610    327.26643    7.3893374    59.398814   -135.31079    434.10093    10865.607 
   21620    319.31382    7.9286681    59.878889    -137.6418    424.90926    10865.607 
   21630    302.38982    7.3211724    63.174936   -140.45044    169.47352    10865.607 
   21640    275.17216    8.5508577    66.859131   -143.20617    311.80203    10865.607 
   21650     305.2213    8.5828662    64.174312   -145.69643   -887.30812    10865.607 
   21660    292.33943    7.7496787    68.312462   -148.33021    981.56439    10865.607 
   21670    297.89866    8.2822111    61.659866   -151.19748   -3321.1643    10865.607 
   21680    290.43349    8.8603013     55.79976   -154.04471      2812.44    10865.607 
   21690    294.58311     9.155831    62.362424   -156.44406    997.26552    10865.607 
21700        0.9600841569752313065 10.223211465291063504 1 66 -288.2177689549500883
   21700    286.07142    6.9263266    59.219581   -158.60364   -1701.5617    10865.607 
   21710    291.54094    7.3436547    65.406828   -160.31337   -2966.4772    10865.607 
   21720    293.55242    6.8962824    59.024756   -161.86289    -1618.733    10865.607 
   21730    310.24357    6.6512531    58.143225   -163.40528    1738.2711    10865.607 
   21740    303.16792    5.7270887    58.399001   -165.39978   -1455.7169    10865.607 
   21750    292.33453     6.927749     59.42819   -168.11415   -193.50457    10865.607 
   21760    275.82267    7.3031536    59.846464   -171.31052   -1094.1752    10865.607 
   21770    257.75718    8.3260236     54.24173   -174.53987    149.82368    10865.607 
   21780    251.87368    6.1331165    58.910349   -177.50982    2243.4112    10865.607 
   21790    262.55079    6.1141256    55.635152   -180.01807   -713.01172    10865.607 
21800        0.96812935313917258817 10.196700676874185021 1 68 -305.0767811617819234
   21800    271.20186    3.7135661    53.011617   -182.19979   -571.39183    10865.607 
   21810    264.10177    4.9888602    56.973193   -184.12114   -230.77661    10865.607 
   21820    270.52011     5.283219    52.721373   -185.14855    1727.3851    10865.607 
   21830    280.00086    6.6557517    52.393036   -184.96217   -73.301552    10865.607 
   21840    264.82348    8.6238336    54.738471   -183.44455   -1350.1233    10865.607 
   21850      271.503     7.816538    50.394505   -180.21528    675.35433    10865.607 
   21860    274.85755    5.2721478    65.035519   -175.24061    2082.0028    10865.607 
   21870    288.64164    5.4570238    57.522703    -169.7521    2611.5001    10865.607 
   21880    279.47041    6.7780916    60.266764   -164.55922   -2044.9883    10865.607 
   21890    287.33606    5.9446723    63.179302   -159.98923   -833.07843    10865.607 
21900        0.97454110598061571835 10.184674105028943103 1 70 -292.94773202639487408
   21900    301.95596    3.7693469    59.779768   -156.13658   -1338.2452    10865.607 
   21910    311.32484    5.3354593    60.511108   -153.32524   -622.33483    10865.607 
   21920    326.12165    5.9821102     59.37002   -151.48145   -2404.5442    10865.607 
   21930     321.2359    5.4274525    54.295936   -150.58986   -2874.2843    10865.607 
   21940    316.76576    3.9188592    62.304249   -150.31768    3179.0228    10865.607 
   21950    292.08917    5.4238234    63.058394   -150.39521     1778.235    10865.607 
   21960    298.67905    6.1277833    68.517242    -150.4828    1867.9874    10865.607 
   21970    299.79979    6.9776924    65.573961   -150.87494    883.16684    10865.607 
   21980     307.7538     6.753678    58.121522   -151.63205   -414.95777    10865.607 
   21990    292.74496    7.3252586    60.341788   -152.52721    177.74352    10865.607 
22000        0.97930389566298459147 10.163213740243607575 1 69 -276.58913307210991661
   22000    272.17357    6.2833455    67.909932   -153.27188   -3558.9674    10865.607 
   22010    278.56982    7.0958342    61.864741   -153.49269    305.03513    10865.607 
   22020    294.12491    7.3329627    63.668048   -153.17327   -790.91156    10865.607 
   22030    318.29876    8.4595134    48.448196   -152.57114    1820.3853    10865.607 
   22040     309.2374    6.9158526    57.520192   -151.88712    275.74636    10865.607 
   22050    318.96795    7.2160158    53.544082   -151.10894    942.49252    10865.607 
   22060    324.02207    6.8099524    55.088023   -150.62328   -1552.6082    10865.607 
   22070    315.69733    9.6070469    56.970771   -150.67828    1544.8282    10865.607 
   22080    311.38191    9.8658321    59.445971   -151.01812   -1808.1349    10865.607 
   22090    314.16941    7.8918691    59.321945   -151.59213     1289.393    10865.607 
22100        0.98806247482293352302 10.111627100915338673 1 72 -278.19852734424267737
   22100    277.34152    9.0589101    67.478052   -152.53977   -1292.2965    10865.607 
   22110    292.28807    8.6573079    62.192185   -153.63438    3371.6472    10865.607 
   22120    288.23766    8.5300232    60.300336   -154.76121   -438.25493    10865.607 
   22130    302.04973    8.2217636    55.337459   -155.67703    856.96039    10865.607 
   22140    299.64542    6.7898266    64.873897   -156.52137    -2484.142    10865.607 
   22150      297.131    6.6063246    62.387124   -157.65694    1992.4081    10865.607 
   22160    278.17595    6.4520143    64.163955   -159.13774   -2991.5566    10865.607 
   22170    295.35606    9.8740291     54.79384   -160.54282    413.04375    10865.607 
   22180    275.76791    7.8922648    65.144821   -161.91101    -1622.627    10865.607 
   22190    286.67929    9.5998392    58.561713   -163.09195    2985.5128    10865.607 
22200        0.99146119143283895081 10.096233414926317096 1 72 -293.88027279717414331
   22200    286.72264    11.480477    60.451398   -163.97108    392.51166    10865.607 
   22210    285.41151    11.673943    58.433959   -164.67019    1016.1546    10865.607 
   22220    263.88822    9.8921974    62.268659   -164.99807   -1684.6274    10865.607 
   22230    295.60311    9.3816152    55.811606    -164.6494    1466.9677    10865.607 
   22240    300.13445    7.7557347     61.85896   -163.90485    889.60171    10865.607 
   22250    297.99002    8.0964165    59.240671   -162.92137   -953.78528    10865.607 
   22260    293.35827    9.4252767    59.631254   -161.55429   -2237.5933    10865.607 
   22270    290.47055    10.452154    63.927008   -159.58058    37.521433    10865.607 
   22280    301.77026    11.264644    59.640447   -156.80301    427.08502    10865.607 
   22290    302.86587    12.266688    62.347802   -153.31734    9382.6892    10865.607 
22300        0.99144797614129187568 10.091221161691693808 1 71 -306.1650942313261794
   22300    345.82538    8.7173614     57.59028   -149.47745    1650.1329    10865.607 
   22310    325.62287    5.8640086    62.892213   -146.66837    545.10102    10865.607 
   22320    312.61053    2.6498497    57.332045   -144.95593   -4345.9927    10865.607 
   22330    283.83509    3.3140514    66.710588    -143.4817   -5476.7948    10865.607 
   22340    286.64931    3.2822614    73.125391   -141.62784   -2240.3029    10865.607 
   22350    288.08228    4.8851603    67.972971   -139.46622    -1582.595    10865.607 
   22360    315.28611    6.6607589    59.882296   -137.13474    1183.4642    10865.607 
   22370    274.32023     8.828975    66.622207   -134.76866     2450.184    10865.607 
   22380    299.02533    7.9142909    58.208966   -131.28805   -1619.9042    10865.607 
   22390    307.57988    6.4166657    73.811913   -126.44266    690.65603    10865.607 
22400        0.98678997257623302097 10.098125527744695518 1 69 -282.59329967174312515
   22400    354.74239      5.54027    61.486762   -121.86551   -2998.7689    10865.607 
   22410    359.46616     5.405912    66.438762   -118.71419   -2442.0606    10865.607 
   22420    332.32154    7.1693156    72.326163   -117.80581    1165.8953    10865.607 
   22430    339.80883    7.7259139    65.167414   -118.67813    1149.0739    10865.607 
   22440    336.32702    10.727633    64.654333    -121.3476     4308.159    10865.607 
   22450    333.94787    6.9813992    66.857465   -126.02109    982.31681    10865.607 
   22460     305.8178    4.6952837    66.667889   -131.95823    245.92053    10865.607 
   22470    290.85977    7.7013659    67.152458   -137.78146   -1836.1802    10865.607 
   22480    297.55525    8.6130759    59.502833   -141.79622    -3405.415    10865.607 
   22490    301.98023    9.1761478    54.655399   -143.94102    -1402.591    10865.607 
22500        0.98878610502433639251 10.069391466060300999 1 69 -278.76056028953786381
   22500    295.70594    10.091761     65.49382   -144.78119    1207.7626    10865.607 
   22510    331.50807     10.83513    58.173392   -145.32095    1013.5093    10865.607 
   22520    312.13672    9.7223491    62.620885   -146.29202     1047.858    10865.607 
   22530    315.33173    11.522475    50.177214   -147.29964    343.79339    10865.607 
   22540    307.48011     9.735946    62.229116   -148.08094    2143.2933    10865.607 
   22550     321.6071     9.685918    54.532712   -148.73998    930.51582    10865.607 
   22560    322.44201    9.8495462     55.61934   -149.87342   -1603.1202    10865.607 
   22570    310.66198    9.2328239    61.060737   -151.22116   -488.25899    10865.607 
   22580     301.3963    7.6097869    58.557558   -152.80754   -681.56764    10865.607 
   22590      287.689    6.1903904    69.453657   -154.74475    2897.8038    10865.607 
22600        0.99048979693348404574 10.0465358303603427 1 71 -294.69651696831095933
   22600    304.24567    7.2237755    55.090867   -156.84794    981.77226    10865.607 
   22610    282.81265    8.6148549    58.406729   -158.78762   -2822.0172    10865.607 
   22620    305.97167    6.3799953    54.478071   -160.19858    1958.1983    10865.607 
   22630    255.10204    5.1705998     67.93988   -161.54819   -2603.6188    10865.607 
   22640    251.70619    5.7011726     65.84571   -162.21614    3516.4339    10865.607 
   22650    254.77937    6.2474219    62.550479   -161.76441   -3517.0409    10865.607 
   22660     284.2272    6.8600228    57.508172   -160.08582    58.636806    10865.607 
   22670    301.21496    7.2439032    64.979259   -157.21012    421.49412    10865.607 
   22680    297.34909     9.781731    66.333918   -153.68497    2266.4577    10865.607 
   22690    321.86686    8.8703649    55.331944   -149.50692    -2115.366    10865.607 
22700        0.99001612463679677933 10.038258130939103907 1 71 -283.74410678332458247
   22700    306.07831     7.642151    65.143726   -145.06519   -695.15514    10865.607 
   22710    319.39688    6.3693453    60.617809   -140.93397    214.34594    10865.607 
   22720    327.29259     6.502604    60.751493   -137.54387    3582.2847    10865.607 
   22730    334.26244    7.0935061     53.65126   -134.90656    521.11648    10865.607 
   22740     335.3272    8.9468997    59.998393   -132.85509    2594.6524    10865.607 
   22750    312.16755    10.819854    69.197234   -131.38368   -1732.7965    10865.607 
   22760    318.89959    9.9127992    67.979303   -130.68987   -890.18002    10865.607 
   22770    284.79364    9.7664549    64.843188   -130.37347    -749.1669    10865.607 
   22780    299.10794    10.079096    68.850491   -129.47082   -2210.0092    10865.607 
   22790    323.06038     12.33789    64.214816   -127.88091    105.21829    10865.607 
22800        0.99006276895718026143 10.093537123109546982 1 70 -289.08207102936529509
   22800    359.01128    9.5364499    63.546086   -126.42012   -672.56437    10865.607 
   22810    336.27154    10.177075    66.907249   -126.33392    685.84251    10865.607 
   22820    347.22538    10.224274    64.707542   -128.59731    665.73634    10865.607 
   22830    325.97492    10.010497    70.041772   -133.74015    891.47843    10865.607 
   22840    338.52024    12.768653    58.988977   -142.00037    888.52415    10865.607 
   22850    291.72877     11.33357    70.090678   -150.20112     120.3772    10865.607 
   22860     289.8881    9.3590091    61.086179   -155.81847    2273.7413    10865.607 
   22870    271.26836    7.0520172     65.49128    -159.6449   -958.77777    10865.607 
   22880    287.12509    5.2400486    56.392824   -161.92371   -2531.3573    10865.607 
   22890    287.15729     4.707449    52.404792   -163.11417    156.99509    10865.607 
22900        0.98724780779460985514 10.101162801159752291 1 67 -287.42410610342454902
   22900    273.79295    4.2550355    65.130204   -163.37314    4076.7702    10865.607 
   22910    289.89138    5.0540752     60.34415   -162.97511     4138.329    10865.607 
   22920    288.96704    6.8815435    61.146328   -162.06805   -1156.3255    10865.607 
   22930     310.5936    4.5173246    56.677099   -160.70464     -8487.81    10865.607 
   22940    318.84139    4.8363792     62.19474   -159.29293    -3386.793    10865.607 
   22950    322.43492    7.8658257    60.980407   -158.02486    2786.5747    10865.607 
   22960    294.36939    7.7967582    65.064718   -157.44768    2130.2523    10865.607 
   22970    285.65586    6.7858855    66.892599   -157.05265    1739.6579    10865.607 
   22980    273.45982    6.6412827    63.812384   -156.40463     443.1225    10865.607 
   22990      290.185    7.5569144    60.025324   -154.98662    468.09855    10865.607 
23000        0.97942976518382884876 10.157926597534382651 1 65 -288.47780200426655028
   23000    299.93807    9.9177082    66.985137   -152.58092    3458.7347    10865.607 
   23010    313.63093    12.720487    61.497347   -149.85327   -3007.0469    10865.607 
   23020    280.04541    12.630878    73.527092    -147.3398   -4007.2395    10865.607 
   23030    309.81082    8.2927948    70.586275   -144.66408   -3935.8855    10865.607 
   23040    333.41882    5.7917907    63.139456   -142.52601     3518.378    10865.607 
   23050    291.27206    5.2190573    73.315982   -141.07511     2705.709    10865.607 
   23060    338.80044    3.1793999    53.464913   -139.82887   -238.63496    10865.607 
   23070    327.90604    2.6883692      68.8905   -139.29399   -2366.9937    10865.607 
   23080     328.4015    4.0029029    66.977986   -140.17336     2352.892    10865.607 
   23090    289.72779    4.1615539    73.685428   -142.76227    443.61159    10865.607 
23100        0.97093512084997435352 10.183148605723181035 1 65 -286.53854830121503028
   23100    310.04888    4.0481862    57.365953   -146.06063    -3895.191    10865.607 
   23110    301.08145    2.3207539    63.732077   -150.42359   -3005.8163    10865.607 
   23120    271.46649    2.2225273    67.070345   -154.69845   -17.042865    10865.607 
   23130    275.18953    4.1978981    61.608287   -158.47831    4306.4047    10865.607 
   23140    261.20543    3.8556389    67.179237   -161.21687    2982.3482    10865.607 
   23150    286.58763     2.744297    53.472864   -163.05612   -765.45294    10865.607 
   23160    272.39856    3.9177341    62.661414   -164.16874   -2113.6262    10865.607 
   23170    291.85991    6.8354841    57.424347   -164.45261   -1540.3619    10865.607 
   23180    290.69053    9.1029445    62.495438   -164.13081    5498.8585    10865.607 
   23190    281.56432    8.2959708    70.547658   -163.69858    2000.4735    10865.607 
23200        0.96347502385913652567 10.202441854572638746 1 66 -295.7020624051048685
   23200    292.38703    9.0207877     58.42172   -163.22643   -1570.5899    10865.607 
   23210    298.57879    7.4287185    58.783494    -162.1465   -4224.0252    10865.607 
   23220    304.61569    8.5272204    63.379892   -160.04877   -1659.6566    10865.607 
   23230    312.67227     8.913898    64.846953   -156.75837   -3212.4259    10865.607 
   23240    288.93114    10.850427    67.244527   -152.24724   -631.20371    10865.607 
   23250    304.82303    12.289494    65.954002   -147.37003    1841.6659    10865.607 
   23260    304.41346    13.142641    58.909806   -142.31126    4879.8745    10865.607 
   23270    296.80811    11.227585    67.534513   -137.26137    1299.0193    10865.607 
   23280    326.93132    9.7744918    63.618785   -132.77227    2160.5001    10865.607 
   23290    313.55886    9.1999851    69.269725   -129.24767   -624.99885    10865.607 
23300        0.95396354064992305855 10.224700135852918592 0.99735449735449732689 68 -274.86801805219499784
   23300     326.2603    7.7530806    67.051484   -127.04498   -1622.5059    10865.607 
   23310    320.89301    5.1073711    67.279844   -125.96404   -3216.6205    10865.607 
   23320    312.18919    3.2055585    73.971826   -126.05706   -634.41536    10865.607 
   23330    320.06042    3.1355118     70.30952   -127.01696   -2889.6198    10865.607 
   23340    315.45506    3.4409033    65.176481   -128.75618     911.2906    10865.607 
   23350     313.0483    4.4506264    67.315861   -131.10045    3164.9141    10865.607 
   23360    289.45695    5.8464701    72.243461   -133.82957    3361.6701    10865.607 
   23370    287.19074    5.3767722    68.285585    -136.4598    1444.0931    10865.607 
   23380    309.01613    6.3871923    64.078141   -139.06098    284.03335    10865.607 
   23390    290.28345    5.1558574    66.626235   -142.18055   -1547.4711    10865.607 
23400        0.95059154608460327829 10.249615142058825512 0.99735449735449732689 64 -276.50761139715024228
   23400    290.38485    6.1387381    62.962952   -144.93914   -3114.6335    10865.607 
   23410    299.65678    5.9006538     52.65799   -147.21028   -3753.2444    10865.607 
   23420    284.42815    4.4108889    64.755642   -148.90811     2717.443    10865.607 
   23430    302.58549    5.3775882    65.164966    -150.3162    3402.8805    10865.607 
   23440    316.93231    6.4429659    63.540884   -152.09716   -885.49191    10865.607 
   23450    303.93325    9.3559139    58.701012   -154.18118   -2214.8455    10865.607 
   23460    312.15937    9.1863782       56.941   -156.08504    1595.4054    10865.607 
   23470    290.17905    5.5497428    61.383896   -157.62956    1405.5924    10865.607 
   23480    280.12601    7.2769903    59.500954   -158.48711   -1884.0036    10865.607 
   23490    262.45262    8.7396974    62.500124   -158.32818   -3174.0034    10865.607 
23500        0.94029383317973813661 10.286423558883800666 0.99206349206349198067 65 -280.89503854842570263
   23500    272.93802    11.493504    64.598315   -157.23143    1031.0603    10865.607 
   23510    299.08418    7.1863822    59.533059   -155.91222   -2166.3009    10865.607 
   23520    296.58557    5.6306929    56.430218   -154.93283   -1790.4585    10865.607 
   23530    296.65223    6.5595562    59.312555   -154.06025     150.2705    10865.607 
   23540    316.08711    6.5864848    59.832111    -153.2525    5377.8664    10865.607 
   23550    290.77583    3.4064588    63.744596   -152.76971    252.45935    10865.607 
   23560    305.13954    3.3354797    53.397446   -152.24418    646.48914    10865.607 
   23570     287.6137    3.3448669    57.959103   -151.39757   -1556.7158    10865.607 
   23580    278.62744    3.9272364    62.029372   -149.93782   -2178.5291    10865.607 
   23590    288.79343    2.7168458    55.758551   -147.57799   -1990.6332    10865.607 
23600        0.93940956342365633525 10.272244979118926977 0.99735449735449732689 68 -266.82957793152979775
   23600    269.75841    4.1924699    72.412145   -144.60659   -1992.8353    10865.607 
   23610    305.65046    5.3853277    56.008474   -140.98653     532.8076    10865.607 
   23620    316.81315     3.818858    59.994237   -136.85207   -442.66438    10865.607 
   23630    329.23008    2.5229599    58.918017   -133.46082     3180.905    10865.607 
   23640    299.71437    3.2816182    62.015546   -130.94955    2527.8974    10865.607 
   23650    291.42346    4.4483865    62.636478   -128.82611    825.76201    10865.607 
   23660    328.51602    3.7850462    65.012613    -126.5573    1198.0559    10865.607 
   23670    312.35677    3.9681334    73.927775   -125.19982    203.76835    10865.607 
   23680    298.99353    3.8130749    69.691184   -124.65016   -747.70119    10865.607 
   23690    282.70283    4.9030689    70.134308   -124.39345    -4914.972    10865.607 
23700        0.94310679827834709155 10.266487296363461468 0.99735449735449732689 62 -270.55214297436111792
   23700    323.04176    6.6099751    66.162212   -124.18737   -54.519229    10865.607 
   23710    300.45918    8.9938351    75.261332   -124.50593    905.52794    10865.607 
   23720    323.34416     7.859254    67.592169    -125.5558     -1016.83    10865.607 
   23730     302.4236     8.205276    76.143028   -127.73038   -424.48175    10865.607 
   23740    328.44174     7.652367     58.68054   -131.11426   -1129.8144    10865.607 
   23750    300.11345     5.990673    69.927072   -135.80381    4483.5866    10865.607 
   23760    301.07616    4.8898367    67.844792   -140.79422    3569.8309    10865.607 
   23770    305.70212    6.9193227    56.256434   -145.72894    -1750.473    10865.607 
   23780    284.29609    9.0562757    65.318896   -149.79172    6.9330752    10865.607 
   23790    297.61416    11.857404    60.754076   -152.45332    567.97974    10865.607 
23800        0.95103525908785524479 10.240735931318992513 0.99735449735449732689 64 -289.02865367761671678
   23800    297.89796    8.9222032    57.198196   -154.05611   -30.322149    10865.607 
   23810    298.24097    7.1358688    52.429639   -155.01314   -3100.3448    10865.607 
   23820    267.68861    6.6108241    53.183035   -155.14886    -3928.039    10865.607 
   23830     245.9449     4.665554    73.006309   -154.29149    330.74512    10865.607 
   23840    295.10627    3.2162503    65.264194   -152.62166    2666.8533    10865.607 
   23850     317.6079    2.4842316    58.266993   -150.92648    3686.7747    10865.607 
   23860    317.63466     2.972653    53.832642   -149.75785    -1267.452    10865.607 
   23870    289.35272    3.0903128    61.990793   -148.72897   -2875.3924    10865.607 
   23880    305.50909    2.2055944    56.453249   -147.60218   -1200.6532    10865.607 
   23890    309.98209    2.2870436    59.320419   -146.24012    239.57194    10865.607 
23900        0.95978934806831495141 10.217269500972093965 1 66 -287.36528374124134189
   23900    314.42736    3.1389412    59.739705   -144.90355    1920.6838    10865.607 
   23910    311.98497    5.3619695    58.326247   -143.94294   -3441.2956    10865.607 
   23920    304.46629    6.1779536    58.204063   -143.04313   -2171.2989    10865.607 
   23930     303.8724    5.1384833    68.273788   -142.12323    3885.7739    10865.607 
   23940    315.04101    9.2130605    65.071356   -141.15212    1555.9064    10865.607 
   23950    326.46013    8.3573223    57.030546   -140.68122   -2427.7482    10865.607 
   23960    287.07941    8.2683432    59.457593   -140.72506   -3630.8722    10865.607 
   23970    293.01093    6.1348004    67.542071   -140.52019    97.402268    10865.607 
   23980    310.04641    6.3983262    66.605624   -140.10727    1291.4076    10865.607 
   23990    302.15317    7.4477768    58.386407   -140.30102   -831.31159    10865.607 
24000        0.96948186967750482612 10.160706567939129741 1 68 -292.35745027984268063
   24000    334.18685     10.62454    53.293609   -140.94303    5456.9839    10865.607 
   24010    297.09594    13.187328    67.480618    -142.0495    5095.4106    10865.607 
   24020    298.80923    13.178289    56.870249   -143.86677    607.58814    10865.607 
   24030    275.57407     11.70778    66.358254     -145.979   -1660.4384    10865.607 
   24040    295.16362    10.707589     62.75841   -148.41294    -2850.964    10865.607 
   24050    301.39322    9.0484254    57.345845   -151.10757   -1191.9367    10865.607 
   24060    282.11538    8.2913147    64.233506   -153.90576   -1480.3482    10865.607 
   24070    302.08718    7.0306642    55.764984    -156.7428     418.1725    10865.607 
   24080    278.82652    8.2275548    65.351613   -159.55105   -2261.8024    10865.607 
   24090    299.47527    7.2718611    54.307424   -161.99577    385.34926    10865.607 
24100        0.9794288548457318333 10.17495599029002129 1 71 -298.62784056409918776
   24100     296.7318    9.0317872    57.606448   -164.18367    927.66303    10865.607 
   24110    289.28607      9.79711    59.606346   -166.22619    1999.9915    10865.607 
   24120    296.06799    6.9618251    57.691683   -167.98637   -2297.4567    10865.607 
   24130    290.45555    4.6512367    61.013651   -170.04479   -1139.3182    10865.607 
   24140    311.45242     5.617324    58.777223   -172.86498    -283.0893    10865.607 
   24150    289.73096    8.7014934    56.462339   -176.31297    1931.1817    10865.607 
   24160    299.07421     7.771899     48.01884   -179.49596    1856.1025    10865.607 
   24170    276.53571    4.7683826    47.375386   -182.11608    1547.9405    10865.607 
   24180    251.65496    7.2872342    59.673647   -183.77705   -1434.3423    10865.607 
   24190    282.09357    5.4272164    50.127204   -184.58159   -2300.2448    10865.607 
24200        0.98803920980068893343 10.138272347874671908 1 70 -310.33468911758336617
   24200    277.36588    6.2814869    50.866278   -184.66489   -764.53174    10865.607 
   24210    277.12138    5.8120637     44.93703   -183.65226    2765.1293    10865.607 
   24220    266.82591    5.1440877    54.013489   -180.79725    2143.6249    10865.607 
   24230    275.29495    5.2927134    56.351861   -174.99168   -2888.6491    10865.607 
   24240    290.21506    6.4321143    59.423628   -166.90388   -1238.1183    10865.607 
   24250    270.00386    8.3171549    69.545014   -160.11274   -1055.8622    10865.607 
   24260    302.42659    9.4454061    61.411504   -155.38096    1770.6801    10865.607 
   24270    314.88066    9.7266966    56.246034   -152.05863   -2403.9247    10865.607 
   24280    329.38708    13.564208    57.889317   -150.05125    1230.6523    10865.607 
   24290     329.7401    12.446023    64.206298   -149.19234    3021.9788    10865.607 
24300        0.98849524528892407371 10.117695486818647055 1 68 -294.31639592224917124
   24300    319.33052    8.8192032    59.434413   -149.63313     1876.863    10865.607 
   24310    292.06045       5.5127    61.374567   -150.86712   -2929.8532    10865.607 
   24320    321.07547    6.5411651    56.721804   -152.22147   -3487.6785    10865.607 
   24330    334.42467    6.0648344    54.333238   -153.80764   -886.46425    10865.607 
   24340    284.43637    6.4126999    65.048192   -155.71452    2844.6519    10865.607 
   24350    283.47521    7.3232673    55.626564   -157.47421    1298.7029    10865.607 
   24360    270.57027    9.5548002    66.492766    -158.7625    1926.8799    10865.607 
   24370    318.07645    11.109733    50.412928   -159.41119   -1856.8711    10865.607 
   24380    327.76477    11.170348    49.437341   -159.98718   -361.36549    10865.607 
   24390    310.82917    9.7306569    62.218388   -160.98458   -1323.7256    10865.607 
24400        0.98745175612332325432 10.100531369658533265 1 67 -297.30363966994508473
   24400     297.8241    11.865535    61.605942   -162.36457   -2264.9365    10865.607 
   24410    285.11373    11.340117    67.264255     -163.992   -2397.0746    10865.607 
   24420    305.73878    12.856357    56.412655   -166.12123    3522.8069    10865.607 
   24430    262.05051    12.112804    66.856898   -167.90748    4158.7814    10865.607 
   24440    281.70792    11.949694    54.842001   -168.91708    3665.3515    10865.607 
   24450    262.84068    11.457478    63.100232   -169.15171   -1789.4772    10865.607 
   24460    262.79848    8.9469295    62.528658   -168.26476    746.77811    10865.607 
   24470    307.69245     6.123893    55.722547    -166.1806   -3965.9273    10865.607 
   24480    292.27466    5.3268689    57.752187    -163.1806   -1682.0214    10865.607 
   24490    313.53902    4.1525501    57.191207   -159.33483   -1632.8532    10865.607 
24500        0.98654843032448302775 10.047270026678472021 1 69 -287.64156323961782391
   24500    293.13105    5.0088016    64.182701   -154.82883    2116.3873    10865.607 
   24510    301.93222     4.679565    62.915273   -150.42748    4351.2093    10865.607 
   24520    299.81115    4.4672778    58.276061   -146.44937   -953.34053    10865.607 
   24530    319.12432    4.5666418    64.603742   -142.91186   -984.07291    10865.607 
   24540    309.31401    4.6876421    64.912619   -140.14452   -1532.1177    10865.607 
   24550    291.76553    7.0655752    68.225733   -138.07584   -1092.0359    10865.607 
   24560    302.67863    7.4319273    66.751524   -136.06494    4540.4241    10865.607 
   24570    293.82996    8.2504519    66.505185   -134.71698   -908.41234    10865.607 
   24580    306.26283      9.08848    59.022107   -133.74809    2220.6089    10865.607 
   24590    319.18482    6.3987604    65.246737   -132.86925   -51.617752    10865.607 
24600        0.98455646756478742976 10.051303929198057929 0.99735449735449732689 69 -273.45103919299958761
   24600    311.19572    5.1508163    65.641463   -132.45351    -1289.683    10865.607 
   24610    297.32765    4.7860405    71.830533   -132.71532    888.15729    10865.607 
   24620    292.60197    6.1173555     74.51977   -133.19408   -712.02869    10865.607 
   24630    322.58437    10.193889    58.620499   -133.77751   -1267.3415    10865.607 
   24640    289.71269    10.342147    63.673696   -134.30646   -2507.7733    10865.607 
   24650    302.01188    8.8170883    67.299813   -134.70437   -401.30787    10865.607 
   24660    313.42175    8.0891087    62.862337   -135.45976    -843.3945    10865.607 
   24670    320.40805    6.6280553    63.409208   -137.26427   -592.84094    10865.607 
   24680    298.64798    6.1712142    62.400106   -140.56604    4007.5125    10865.607 
   24690    306.81182    5.3934608    58.189997   -146.02975    1852.7599    10865.607 
24700        0.98290999564953862588 10.034554471069423442 1 67 -281.9832597799787095
   24700    284.40749    5.7487399    59.890826   -153.12302    -53.90904    10865.607 
   24710    279.12066    5.6131354    53.619726   -159.76666   -222.18502    10865.607 
   24720    274.42133    7.8584478     52.85339   -164.08482   -1445.0789    10865.607 
   24730    278.94075    8.8988127    60.040382   -166.51412   -1197.2305    10865.607 
   24740     296.4385    7.9416983    57.282429   -167.89953    506.31442    10865.607 
   24750    282.85933    6.6953416    58.523588    -168.8525    4429.5192    10865.607 
   24760    262.74649    6.8211733    62.020921   -169.34071    1727.9293    10865.607 
   24770    266.48348    7.9959429    55.964024   -168.77251   -1476.1933    10865.607 
   24780    268.41072    7.4861019     61.58602    -166.9843   -3236.1197    10865.607 
   24790    296.79099    7.2024966    54.237371   -164.30668   -1827.7074    10865.607 
24800        0.98527106362815164431 10.043691505855781188 1 67 -295.91528719707866912
   24800    297.68453    7.7207459    63.653226   -161.03945   -1853.6802    10865.607 
   24810    311.02019    8.5070949    60.641476   -157.79332   -171.32489    10865.607 
   24820    297.45896    11.954122    62.046895   -154.84136    1061.9048    10865.607 
   24830    297.89645    11.213874    61.534251   -152.30008    4310.8852    10865.607 
   24840    301.60116     10.27384    60.814573    -149.6185    928.91783    10865.607 
   24850    329.06732    10.295626    56.976345   -146.80967    3846.9202    10865.607 
   24860    318.40806    12.030359    63.282014   -144.76749    815.81008    10865.607 
   24870    324.21616    10.078103    52.594973   -143.50991   -819.61698    10865.607 
   24880    279.16463     8.101705     65.65271    -142.7677   -4080.8984    10865.607 
   24890    308.40631    9.2944558    67.500466   -141.94618   -417.18319    10865.607 
24900        0.98739621788388642898 10.049119563114748743 1 70 -282.10236267386954978
   24900    310.48455    8.9327626    64.760075   -141.42705   -1877.9913    10865.607 
   24910    329.30551    6.6151935    59.900172   -141.36561    -2132.877    10865.607 
   24920    314.77977    6.2829903    62.093907   -141.97913    -1005.221    10865.607 
   24930    301.80037    8.9279239    67.696363    -143.4714    4106.6588    10865.607 
   24940    304.20918    8.8731998    60.847755   -145.77307    1790.5351    10865.607 
   24950    311.34879    7.6328777    56.581545   -148.94304    2152.0065    10865.607 
   24960    295.89914    7.4545822    59.142591   -153.49729    -121.0905    10865.607 
   24970    250.68091     7.790647    70.257003   -159.30894   -392.38532    10865.607 
   24980    240.51623    6.3792378    62.832538   -165.12036   -3542.9065    10865.607 
   24990    258.33739     6.433523    63.067301   -169.82846    570.13431    10865.607 
25000        0.98510603754467240822 10.102698240681963426 1 67 -304.81120675354793548
   25000    289.83946      7.46771    52.869473   -173.48984   -4883.2454    10865.607 
   25010     280.0313    6.8236882    51.009124   -175.99479    2885.4151    10865.607 
   25020    263.87062    5.9326795    54.228751   -177.22864   -195.00175    10865.607 
   25030    262.40709    7.3552696    53.379772   -177.08611     4839.681    10865.607 
   25040     283.8816    7.9837537    58.430235   -176.00902   -849.85546    10865.607 
   25050    289.08144    11.766907    48.185181   -174.69022   -2915.2976    10865.607 
   25060     288.9324    11.111371    55.790018   -173.09748   -2955.8663    10865.607 
   25070    296.67881    12.102724     50.11769   -171.03416    1454.7956    10865.607 
   25080    296.42372    10.553052    52.503134   -168.86167     -1649.62    10865.607 
   25090    294.04231    10.415535    56.012537   -166.89679   -51.546784    10865.607 
25100        0.98867404714632567408 10.09034572439311539 1 68 -301.33206089262512251
   25100    300.55273    10.947683    61.166532   -165.15669    33.345824    10865.607 
   25110    321.52133    10.512912    51.129913   -163.73547    3174.3797    10865.607 
   25120    312.94847    7.8264377     56.73905   -162.73025    1357.4766    10865.607 
   25130    290.60566    5.4096241    65.298475   -161.85009    1375.5875    10865.607 
   25140     277.8835    6.6028795    65.630464   -160.86594   -1849.9596    10865.607 
   25150    295.78311    4.7386475    62.538564   -159.70286    459.46224    10865.607 
   25160    309.63659    6.3575534    57.073719   -158.90383   -1531.2573    10865.607 
   25170    311.67879    6.6622302    54.536754   -158.36363    1030.5329    10865.607 
   25180    289.13263    5.3559679    65.282006   -157.87879   -178.53185    10865.607 
   25190    278.59464     4.392365    66.604967   -157.14173    674.91066    10865.607 
25200        0.98520266658328503606 10.131535192595277906 1 66 -278.61461336232355279
   25200    270.10253    4.8592993     73.31546   -156.23571   -249.92483    10865.607 
   25210      305.693     5.333091    57.533446   -154.97674    828.33331    10865.607 
   25220    323.24891    4.5882553    57.095056    -153.1207   -814.95434    10865.607 
   25230    311.88593    4.0600615      64.8428   -150.63359    93.115032    10865.607 
   25240    308.33152    3.5755586    63.617991    -147.4837   -3172.0529    10865.607 
   25250    310.17991    2.9590806    67.546933   -143.43299    1026.4032    10865.607 
   25260    322.73494    3.0541233    61.518072   -139.08724     1399.428    10865.607 
   25270    326.11315    4.3295063    62.653921   -135.06166   -135.60849    10865.607 
   25280    342.02625    6.1037354    59.605657   -131.62685    838.19753    10865.607 
   25290     329.1556    9.8538765    63.756684   -129.01891    984.57353    10865.607 
25300        0.97305551920548427614 10.159227023297937365 1 75 -269.22811322324912453
   25300    312.80869     12.81826    74.171871   -127.49977    -267.2632    10865.607 
   25310    329.63662    10.752925    71.191163   -127.07451    1302.0683    10865.607 
   25320    351.11726    9.3132883    58.886123   -128.64352    -1344.343    10865.607 
   25330    335.45428    7.6953874    64.382715   -132.19514   -1470.9823    10865.607 
   25340    329.74818    8.4674712    66.934308   -137.53833   -758.22787    10865.607 
   25350    299.52831    9.1665747    66.704869   -143.75046     3150.804    10865.607 
   25360     286.1191     10.22585    63.772936   -148.88954    3495.9936    10865.607 
   25370    297.12107    8.8918736    60.878849   -152.73165    2199.7883    10865.607 
   25380     302.5435    7.4513736    55.236881    -155.3636   -260.48604    10865.607 
   25390    300.30947    6.5050878    54.815795   -157.27966    -5222.191    10865.607 
25400        0.96796434396233677067 10.181288922477337522 1 73 -297.21748140275281003
   25400     305.8604    7.3814249    54.868751    -158.6373   -3747.4162    10865.607 
   25410    281.92056    7.6472654    64.547692   -159.59521   -2524.8902    10865.607 
   25420    290.76138    7.6758631    61.415441    -160.2427    1057.4958    10865.607 
   25430    282.06028    7.2027691    64.176066   -160.46969    5088.7973    10865.607 
   25440    297.01993    7.6478982    59.106934   -160.18298    152.64484    10865.607 
   25450    310.91793    7.2887057    56.116898   -159.53699     324.6599    10865.607 
   25460    308.03187    7.2526783     58.70442   -158.92475   -2537.8972    10865.607 
   25470    299.05821    4.8525583     62.34775   -158.61255   -368.49942    10865.607 
   25480    278.76914    4.1501392    58.538323    -158.2578   -412.07832    10865.607 
   25490    295.20409    5.5612323    57.280582   -157.33692   -4578.6093    10865.607 
25500        0.96550733164851987311 10.177525350397315762 1 70 -298.56520146931364934
   25500    315.13073    7.4709765    55.137148   -155.78479   -454.28709    10865.607 
   25510    324.72065    8.7984354    59.836645   -153.96322     2773.991    10865.607 
   25520    315.12835    9.2886409    64.524375   -152.10787    7010.5064    10865.607 
   25530    302.67927    8.6268222     65.37029   -150.23319    1657.7581    10865.607 
   25540    325.55605    8.9598356    59.734503   -148.35492     1024.723    10865.607 
   25550    289.42193    6.8136935    70.782428   -146.90637   -2823.9968    10865.607 
   25560    292.65833    6.1583256     61.73646    -145.0133   -963.10257    10865.607 
   25570    295.11121    5.1149867    65.457845   -142.19146   -4766.1811    10865.607 
   25580     336.6372    6.9548891    59.927855   -138.61938   -3425.3222    10865.607 
   25590    337.97412    7.7206018    59.652875    -135.7289   -2370.0829    10865.607 
25600        0.95922305066056390288 10.189944147959197451 1 70 -279.37601740140001993
   25600    321.23394    5.2792684    66.331672   -133.83034    5259.5463    10865.607 
   25610     334.1742    4.3525158    59.925327   -132.42578    7842.7858    10865.607 
   25620    309.98369    4.5189888    72.153856    -132.0868    3402.4781    10865.607 
   25630    324.49629    5.1671718    59.748559   -132.68327    -770.1581    10865.607 
   25640    312.91461    3.7540621    62.589546   -134.11163    -1104.623    10865.607 
   25650    310.26673    3.6588938    66.423886    -136.2114    246.60231    10865.607 
   25660    289.32606    5.6639615     67.77116    -138.7472   -3471.0236    10865.607 
   25670    286.40843    7.4404373    65.737178   -141.41735   -4714.9662    10865.607 
   25680     287.0899    4.1477651    64.857461   -144.41161    1045.2115    10865.607 
   25690    276.51262    3.8712659    69.652249   -147.41539    3465.4753    10865.607 
25700        0.94734891780202190592 10.247174278071392806 0.99470899470899465378 67 -282.79026016804613164
   25700    292.07461     5.183739    58.491544   -150.45618    4519.8772    10865.607 
   25710    261.23212    7.4854124    56.133185   -153.18586    -3378.739    10865.607 
   25720    282.80897    5.5039817    60.813027    -155.1332   -2484.0069    10865.607 
   25730    291.46716    4.5684846    61.260687   -156.66758   -1079.2967    10865.607 
   25740    301.48355    5.6148507    61.084052   -158.12274    86.892471    10865.607 
   25750    277.98205    6.4112358    67.521987   -159.96623   -1070.6023    10865.607 
   25760    275.01494    4.9435053    59.713174    -161.7957   -1464.8712    10865.607 
   25770    283.55391    3.2941501    60.664134   -163.61198    333.47504    10865.607 
   25780    297.44816    5.4589429    56.220555   -165.51803     2977.524    10865.607 
   25790    294.09782    7.1060407      61.7564   -167.63767    2610.9136    10865.607 
25800        0.93920685680151883012 10.277805797517499897 0.99470899470899465378 66 -302.02188150064728234
   25800     290.9082     6.459049     53.37025   -170.21629    993.29804    10865.607 
   25810    269.26984    4.9036387    58.606527   -172.88151   -3113.9572    10865.607 
   25820    269.19086    4.5503042    60.166406    -175.2285   -817.30571    10865.607 
   25830    259.83693    5.7679134    60.679545   -177.17241    804.83111    10865.607 
   25840    252.97326    4.8295415    60.769678   -178.33228   -26.952521    10865.607 
   25850    254.02267    4.9304206    55.086404   -178.32262   -4885.0217    10865.607 
   25860    277.11194    5.8960438    53.309335   -176.79563   -2116.5624    10865.607 
   25870    254.21196    7.0906413    58.028413   -173.63177    2488.7366    10865.607 
   25880    258.53914    6.9757068     61.12579    -168.9659    2682.3594    10865.607 
   25890    269.96349    6.6206031    62.382896     -163.192    856.26962    10865.607 
25900        0.93249441347946626646 10.304997325952649945 0.99470899470899465378 64 -295.30597921744526957
   25900    303.77081     6.726768    50.587087   -157.67255   -4023.8881    10865.607 
   25910    296.25991    8.1591631    60.409714   -153.16918   -377.31488    10865.607 
   25920    312.97803    6.0627754    60.744272   -149.94753    511.29944    10865.607 
   25930    299.16486    3.7208045    63.013843   -147.67079    2195.6569    10865.607 
   25940    318.07219     3.337832    55.024386     -146.002    191.43663    10865.607 
   25950    307.05686    3.1871566    54.363499   -144.46616   -1163.1841    10865.607 
   25960    302.90406    4.3441366    61.126388   -143.03536   -1080.7304    10865.607 
   25970    347.27683    3.0764982    53.887733   -141.50426   -660.63181    10865.607 
   25980    321.00453    2.1992363    59.682931    -140.7654    583.23327    10865.607 
   25990    305.84826    2.8840162    59.199824   -140.48488    524.02375    10865.607 
26000        0.92526353918785064767 10.304907833863980571 0.99206349206349198067 66 -275.23197763654638948
   26000    297.68444    4.2899948    65.296058   -140.35618   -1878.0753    10865.607 
   26010    323.97395    4.9629715    55.197013   -140.46492   -163.35605    10865.607 
   26020    306.65709    4.4588117    57.411702   -140.79843    2778.7032    10865.607 
   26030    285.58039    5.4504381    67.474537   -140.97599     3776.009    10865.607 
   26040    283.46433     7.089021    63.064575   -140.87249   -1221.8946    10865.607 
   26050    289.42254    6.6695083    71.636888   -140.53487   -97.841917    10865.607 
   26060    303.20534    3.7080891    64.883434   -140.21208   -4205.9181    10865.607 
   26070    292.36362    3.8351449    64.210657   -140.05102   -3411.1698    10865.607 
   26080    303.07614    4.4051146    63.314707   -140.03281   -2962.9026    10865.607 
   26090    306.47059    4.3641879    65.273628   -140.42644    884.59594    10865.607 
26100        0.94238661574650972597 10.267463964317322223 0.99470899470899465378 69 -289.29411410414411421
   26100    326.22362    5.0643196    57.421622    -141.4877    1302.0216    10865.607 
   26110    281.14932     6.799416    70.490795   -143.70345    2494.5123    10865.607 
   26120    286.34843    5.5915147    64.665724   -146.65806    2451.7737    10865.607 
   26130    278.17785    3.3433923    63.048864   -149.78124    653.49351    10865.607 
   26140     274.3633    2.8266875    67.620676   -153.05422   -2075.4966    10865.607 
   26150    277.10306    5.7933718    58.458299   -155.96629   -3748.5394    10865.607 
   26160    301.58053    4.2320967    58.130887   -158.48372    39.507918    10865.607 
   26170    301.93874     4.704962    56.914238   -160.94564    2290.3569    10865.607 
   26180    267.79718     6.832278    63.575985   -163.17498   -5547.3365    10865.607 
   26190    271.25953    8.3941944    59.140837   -164.99405   -45.841435    10865.607 
26200        0.9687051159596973271 10.184433523899892649 1 66 -289.79518129381790459
   26200    273.15926    8.2275056    57.000757   -166.03133    597.81008    10865.607 
   26210    271.79798    6.2013362    58.487282   -166.26129     5459.945    10865.607 
   26220    275.20032    4.2698291    61.665163   -165.61138    2994.4792    10865.607 
   26230    304.98816    4.4297901    48.901283   -163.72666   -951.98368    10865.607 
   26240     298.9682    4.0160128    60.291109    -160.6947   -3671.1004    10865.607 
   26250    319.80109    5.0190442    57.705625   -156.58191   -2660.3123    10865.607 
   26260    323.11655    5.8460341    64.232769   -151.68706   -46.524202    10865.607 
   26270    329.78873    8.3732865    60.650202   -146.66885    -631.3203    10865.607 
   26280    337.53167    9.5818101    55.856135   -142.61262   -120.23988    10865.607 
   26290    325.08843    12.563603    60.881843   -139.91998    2832.4568    10865.607 
26300        0.98114543191393099875 10.139036058535269902 1 64 -286.36705929156516959
   26300    327.51724    11.820608    57.310356   -137.97453    3548.0865    10865.607 
   26310    329.85737    10.135066    67.838141   -136.55531    3315.8475    10865.607 
   26320    336.92221    9.2554172    60.829381   -136.51012    -223.9248    10865.607 
   26330    328.33677    9.8816793    58.398882   -137.80114   -5061.2532    10865.607 
   26340     328.2026    7.5266521    60.563812   -139.82854   -2167.6766    10865.607 
   26350    313.63144    7.4406828    65.501464   -143.57034   -2881.6647    10865.607 
   26360     305.3574    7.1203749    63.303016   -149.53042   -1851.8556    10865.607 
   26370    287.75773    6.6755601     56.61741   -156.99327   -2051.4565    10865.607 
   26380    284.85037    5.5354742    48.829638   -163.20497    2026.6203    10865.607 
   26390    286.45391    5.8437579     57.13767   -166.92628    6679.7415    10865.607 
26400        0.99059090133820915103 10.079954112134013045 1 64 -295.99453029881510702
   26400    281.21867    6.8055713    58.344695   -168.57909    3214.8586    10865.607 
   26410    304.36051    6.2721608    55.943789   -169.37721   -1300.5325    10865.607 
   26420    287.73332    5.5631162    62.232874   -170.01279   -3271.4422    10865.607 
   26430    290.72971    6.7300849    53.777852   -170.33319   -3599.6709    10865.607 
   26440    311.45067    8.6719625    52.909787   -170.22864      2776.33    10865.607 
   26450    294.86848    12.146935    56.785851   -169.83587    194.27741    10865.607 
   26460    306.45255    11.207247    46.387179    -169.2089     3127.257    10865.607 
   26470    278.81168    9.1624079    52.116516   -168.16499    635.98013    10865.607 
   26480    299.82372    10.353697    52.826987   -166.32516    1941.5943    10865.607 
   26490    285.46837    9.9731243    57.058711   -163.88241   -501.65176    10865.607 
26500        0.99339978112826765599 10.046480442353157514 1 64 -293.54209530758305391
   26500    292.45873    9.4457797    57.222889   -161.03398   -2070.7734    10865.607 
   26510      297.153    8.9284738    52.720773   -157.78175   -1192.8032    10865.607 
   26520     279.3813    10.369201    62.636375   -154.31847    1289.1578    10865.607 
   26530    318.52691    11.960244    57.151508   -150.13159    732.92007    10865.607 
   26540    294.33715    12.478513    71.510478   -146.58922    2692.3864    10865.607 
   26550    315.99688     10.22234    64.735145   -143.87192   -887.55859    10865.607 
   26560    323.08876    8.7891745    56.265792   -141.95817   -164.59815    10865.607 
   26570    336.33096    7.6752979    65.716564   -141.08331   -480.71031    10865.607 
   26580    313.82073     7.699497    67.177903   -141.61961    1800.1693    10865.607 
   26590    303.92169    6.9918731    66.219277   -142.93998    1641.3656    10865.607 
26600        0.99069719508767872806 10.063073998745824866 1 67 -287.141404607486038
   26600    314.30816    7.4104394    59.427673   -144.73368   -2379.2332    10865.607 
   26610    306.31933    8.9584543    63.408727   -146.49454   -1523.9003    10865.607 
   26620    310.63753    6.8116789    60.392631   -147.99169    1656.3052    10865.607 
   26630    290.54927    7.1536086     66.53147    -149.2256    72.775418    10865.607 
   26640    311.39795     6.307175    67.056339   -150.55941   -291.61697    10865.607 
   26650    288.90088    5.9032596     66.86349   -152.50408    -218.5045    10865.607 
   26660    290.97817    7.0540865    58.636153   -154.06329   -2359.2095    10865.607 
   26670    278.75463    7.1266844    58.326865   -154.84797    361.19545    10865.607 
   26680    277.21961    8.0963752    66.559504   -154.81788   -624.26111    10865.607 
   26690    304.13119    5.3897991    58.062461   -154.35691     4746.065    10865.607 
26700        0.98757404070176924016 10.073485523666510844 1 67 -282.96683606101328223
   26700    284.59659    5.2625318     69.88321   -154.02092    355.41883    10865.607 
   26710    306.02229    7.7879802    49.552421   -153.79821   -2029.5706    10865.607 
   26720    267.42445     8.091558    67.983899   -153.68921   -2096.3483    10865.607 
   26730    293.16012    8.4106477    58.873691   -153.08005   -1744.2481    10865.607 
   26740    294.14929    8.5568161    60.483548   -152.02609   -2482.4803    10865.607 
   26750     302.8064    7.0661945    59.644869   -151.04207    3586.0686    10865.607 
   26760    290.27102    6.3813103     65.60096   -150.18255    3441.9959    10865.607 
   26770    303.87418    5.8720839    56.529104   -149.12989    2805.6154    10865.607 
   26780    292.97139    4.5725532    60.999767   -148.00981   -711.19739    10865.607 
   26790    290.42513    3.1602728    65.508032   -146.93291   -696.93872    10865.607 
26800        0.98463646493202305887 10.090852662311601051 1 69 -285.02809460604527203
   26800    306.91246    3.8004378     63.30286   -145.97124   -2968.9797    10865.607 
   26810    335.52985     4.936819    56.236049   -145.31124    729.49722    10865.607 
   26820    317.59301    7.7914326    69.459862   -145.39288    572.18084    10865.607 
   26830    287.37072    11.533568    69.759403   -145.93142    4379.8114    10865.607 
   26840    285.16812    12.149444    66.819834   -146.43046   -4388.1831    10865.607 
   26850    281.13288    14.497732    57.121644   -146.54013    -584.5245    10865.607 
   26860    291.71707    10.046274    60.450034   -146.14783   -547.11536    10865.607 
   26870    294.91726    9.1322348    62.400507   -145.57454   -43.510826    10865.607 
   26880     300.3345    8.7232557     60.78281   -144.96907   -3447.6786    10865.607 
   26890    306.21874    8.9763541    60.195874   -144.66434   -543.98492    10865.607 
26900        0.97910478264981481988 10.099992159935773373 1 70 -277.10599732985133414
   26900    291.81463    10.689749    64.546024   -144.88971    235.07247    10865.607 
   26910    299.21996    9.4245455    64.528931   -145.19644    3537.1917    10865.607 
   26920    324.49802    9.2095796    55.627532   -145.27739   -515.07739    10865.607 
   26930    323.98784    7.8281747    62.515273   -145.59204    1389.0698    10865.607 
   26940    324.01411      7.84918    57.337379   -146.38743   -845.15221    10865.607 
   26950    308.51235    7.7279223    55.716538   -147.50767   -950.09025    10865.607 
   26960    306.55031    6.8742849    55.047072   -148.52914   -830.51292    10865.607 
   26970    278.71392    7.0191251    59.361083   -149.37128   -672.75099    10865.607 
   26980    298.02943    7.4948164    54.261219   -149.54264    139.84773    10865.607 
   26990    309.60104    8.9053377    49.447814   -148.88131   -1248.4865    10865.607 
27000        0.98054522606671479235 10.07128733757513217 0.99735449735449732689 71 -281.91928129395211045
   27000    295.94954    6.5518628    61.986978   -147.82954    2722.8189    10865.607 
   27010    303.85061     6.130996     57.40861   -146.43588    1042.2509    10865.607 
   27020    292.60946    5.3756632    56.739176   -144.68685   -699.38478    10865.607 
   27030    311.05308    4.5318356    58.347826   -142.23485    403.73568    10865.607 
   27040     307.5724    5.2885094    65.417593       -138.5    802.96013    10865.607 
   27050    319.04134    6.6644124    71.076801   -134.05755    2586.3632    10865.607 
   27060    317.74897    7.3277032    62.658562   -129.74867   -4044.6767    10865.607 
   27070    323.82678    10.756623    67.460901   -126.07482   -1504.7268    10865.607 
   27080    330.24928    12.033025    65.147093   -122.99534    1942.5929    10865.607 
   27090    318.23483    14.130849    65.757703   -120.95109    1863.0189    10865.607 
27100        0.98413967622544495928 10.06991761287304854 1 76 -274.84121436485344248
   27100    343.04861    11.490728    62.181493   -119.41168    538.18986    10865.607 
   27110    325.58251    12.757973    70.676361   -118.75512   -4264.8044    10865.607 
   27120    322.03935    8.2703006    68.798027    -119.4647    2173.2379    10865.607 
   27130    319.20301    7.6369572    68.021481   -121.86405   -1143.4367    10865.607 
   27140    302.75801    7.6337298    67.466963   -125.62376    4241.7559    10865.607 
   27150    303.35679    8.8910901     61.57203   -130.62778    1781.7288    10865.607 
   27160    303.97758    8.9055449    66.733958   -136.18604    -11.89912    10865.607 
   27170    327.43956    9.6213837    56.850687   -142.41246   -1035.5941    10865.607 
   27180    312.81134    8.8531909    63.932755   -148.48033   -1114.1497    10865.607 
   27190      309.982    10.309257    62.816836    -152.9734   -152.33528    10865.607 
27200        0.98859944870049809573 10.064496775966762954 1 71 -293.01763973139685504
   27200    302.58097    7.2924727    53.959436   -155.92331   -3362.3184    10865.607 
   27210    302.05654    6.4268317    57.089281   -157.86072   -2405.9464    10865.607 
   27220    283.94041    4.5150028    64.631439   -159.26221    3229.8634    10865.607 
   27230    275.98806     4.941967    59.570164   -159.95844    2355.3318    10865.607 
   27240    285.55575    3.4097586     57.90599   -159.82556   -1127.3955    10865.607 
   27250    301.79635    4.5363528    56.888584   -159.16819   -320.22929    10865.607 
   27260    302.66204    4.3581814    57.030347   -158.38737    777.54936    10865.607 
   27270     284.1015    6.5265876    58.631723   -157.73416    3539.6437    10865.607 
   27280     261.0751    5.9752218    64.777382   -156.72406   -1977.7893    10865.607 
   27290    291.92752    6.4866259    52.897184   -154.69976    940.05958    10865.607 
27300        0.98851836625361366728 10.08054547798518108 1 70 -281.21383202765969145
   27300    285.51342    7.3052972    64.187442   -151.85252    2341.1217    10865.607 
   27310    282.01263    6.9176298    64.024873   -148.20201    933.43871    10865.607 
   27320    309.45091    7.9030765    64.411316   -144.24315   -825.72351    10865.607 
   27330    294.36027    5.3441566    75.586094   -140.86223   -1859.1403    10865.607 
   27340    315.51625     7.542661    61.642985     -138.548   -385.18379    10865.607 
   27350    295.96772    8.9798977    65.649597   -136.87641   -1275.5279    10865.607 
   27360    323.02077    8.2415719    62.916722   -135.95931   -1463.6908    10865.607 
   27370    292.70414    7.5456287    72.978248    -135.7085    1226.5029    10865.607 
   27380    310.10079    6.4304572    63.277677   -135.90222   -451.10955    10865.607 
   27390    324.61549    7.8635339    59.315774   -136.64624    1182.9966    10865.607 
27400        0.9862203145897844303 10.128529154674286161 1 70 -291.84305099161861108
   27400     338.4188    12.752116    60.312053    -138.5112   -1316.3406    10865.607 
   27410    316.18074    13.165012    57.031723   -142.14371   -2147.5986    10865.607 
   27420    293.90185     14.53377    63.135421   -147.57734   -373.15157    10865.607 
   27430    289.23678    15.819167     56.05774    -154.2589    2732.5369    10865.607 
   27440    292.08947    14.021609    64.610963   -160.94796    2664.6957    10865.607 
   27450    297.37566    10.630103     52.81276   -166.62853    -1448.148    10865.607 
   27460    279.52644    7.2259355    54.200541   -170.31018   -3244.0966    10865.607 
   27470    265.84617    5.1341426    56.953522   -171.92984    1924.0708    10865.607 
   27480    268.85659    4.4062063    52.040658   -172.09055    915.49887    10865.607 
   27490    263.80192    3.5871157    58.481821   -171.28564   -1134.1393    10865.607 
27500        0.98441261599950102834 10.13429838155880347 1 67 -297.99254715625841072
   27500    282.75023    3.3870195    58.989947   -169.88319   -1427.0276    10865.607 
   27510    270.50771    3.7255592    60.727424   -168.05472    2382.8553    10865.607 
   27520     297.3898    5.3899653    52.110925   -165.63283    2878.9905    10865.607 
   27530    277.89778    6.9175544    58.930433   -162.80184   -4620.6721    10865.607 
   27540    304.78287    7.5825363     53.50035   -159.76493   -2628.2504    10865.607 
   27550    290.71595    6.1945657    63.210348   -156.94267   -2265.9667    10865.607 
   27560    292.73487    5.6294774    51.019321   -154.24778   -42.807824    10865.607 
   27570    289.06779    5.9380775    63.450284   -151.36228    2670.2466    10865.607 
   27580    311.09171    8.5231324     58.05812   -148.59509    5236.7696    10865.607 
   27590    321.90719    7.4322044    63.158624   -146.46502    3245.1956    10865.607 
27600        0.97679444482291255536 10.17476312824734741 1 67 -284.46921010806579488
   27600    306.77369    6.7333662    57.433217   -145.47523   -795.32137    10865.607 
   27610    307.31868    4.8306855    55.580735   -144.92941   -2175.3013    10865.607 
   27620     326.8873    2.6010996    61.051486   -144.57485    888.92253    10865.607 
   27630    316.87418    3.4308583    58.738194     -144.746   -4473.7799    10865.607 
   27640    292.91603    4.8532458    60.353476   -145.50173   -1490.1962    10865.607 
   27650    307.61711    5.0206774    55.001054   -146.39343   -2139.0795    10865.607 
   27660    326.72458     4.239163    53.274051   -147.59438    450.89983    10865.607 
   27670    302.60689      6.44979    52.791099   -149.57021    1221.0599    10865.607 
   27680    277.55425    7.1967157    58.048027   -151.94676    314.37038    10865.607 
   27690    296.39477     6.198614    57.564273    -155.0514    3640.9641    10865.607 
27700        0.96374586170276876906 10.217916304010151052 1 65 -291.60632087924233247
   27700    291.88015    5.9468637    53.802901   -159.36035   -1305.9474    10865.607 
   27710    276.65058    6.7779337     56.51322   -164.45315    391.13529    10865.607 
   27720    251.84249    6.6358227    58.871423   -168.79058   -1106.8006    10865.607 
   27730    282.86798    4.7037999    51.453799   -171.92337   -1459.0399    10865.607 
   27740    256.52973     4.355858    57.235253    -173.8267    19.531756    10865.607 
   27750    284.75194    5.9824112    52.061142   -174.51861   -1379.0467    10865.607 
   27760    273.81981    6.5629225    57.723041   -174.47337    3325.7074    10865.607 
   27770    271.03751    7.6166912    62.073375   -173.75853   -1541.3511    10865.607 
   27780    279.43991    8.0059464    51.477771   -172.31648    1085.5697    10865.607 
   27790    269.37063    8.8599186    62.831047   -170.14589   -49.857337    10865.607 
27800        0.95820819358698161583 10.217305106730062647 1 65 -293.5029141615244157
   27800    279.71417    7.4446401    56.246698   -166.76914   -569.96893    10865.607 
   27810    291.61448    5.7288723    58.337475   -162.30588    -3341.732    10865.607 
   27820    301.50404    5.8083779    57.340085   -157.29725   -2694.9857    10865.607 
   27830    261.47939    4.8552023    71.776156   -153.10223     1078.336    10865.607 
   27840     280.9653    3.5590641    65.777978   -149.71661    2991.3409    10865.607 
   27850    307.65235    5.6229766     61.85472   -147.04014    3659.4003    10865.607 
   27860    309.18974    7.2463296    62.432273   -145.51848   -481.28452    10865.607 
   27870    330.41256     10.24674    65.650071   -145.07884    133.72621    10865.607 
   27880     291.4408      10.9806    68.065002   -145.53281   -2778.3942    10865.607 
   27890     296.4097    14.825729    60.499878   -146.17307   -2418.4998    10865.607 
27900        0.96267474874906933113 10.214793499021448397 1 66 -275.31592409033260083
   27900    283.79606    12.629816    60.907344   -146.73272    -2180.696    10865.607 
   27910     309.9503    8.2936016    58.716167   -146.98429   -13.867469    10865.607 
   27920     295.3043    7.6058941    60.951552   -147.21524    3666.7976    10865.607 
   27930    298.90377     5.344566    61.744548   -147.63924    1900.7001    10865.607 
   27940    304.62881    4.0080203    58.891291   -148.27574   -363.23264    10865.607 
   27950    304.71107    6.1975467     56.02335   -149.11108   -2959.4539    10865.607 
   27960    314.73085    9.0678155    52.248445   -150.23334    482.24563    10865.607 
   27970    300.47205    9.1544375    55.624346   -151.50117    1473.7702    10865.607 
   27980    309.98084    9.3249806    51.320503   -152.75951   -1691.3043    10865.607 
   27990    311.08381    7.4095961     56.50147   -154.51358   -679.72622    10865.607 
28000        0.95467433485914721114 10.235424506371753495 0.99735449735449732689 68 -292.50984491378329722
   28000    298.93882      6.08456    53.018893   -157.06571      76.9759    10865.607 
   28010    269.32991    8.4877719    60.544134   -159.62637    2514.5922    10865.607 
   28020    270.20904    8.7446056    59.116507   -161.72476    23.491446    10865.607 
   28030    269.62509    7.7937644    59.698278   -163.27969    1393.2655    10865.607 
   28040    279.18562    5.5857043    50.154165   -164.20618   -2564.4804    10865.607 
   28050    279.15944     5.881928    53.949999   -164.34381    738.97339    10865.607 
   28060    298.30267    4.0645367    57.259255   -163.51863   -290.70624    10865.607 
   28070    294.66489    1.7481783     58.46005   -162.11484    1098.0215    10865.607 
   28080    290.04585   0.98916608     59.56616   -160.32009   -1422.5939    10865.607 
   28090    318.81202    2.2441322    49.440855   -157.69469   -696.06637    10865.607 
28100        0.95606893610411181061 10.224829936921915774 0.99735449735449732689 66 -294.73812436593181019
   28100    309.21838    2.7119551    54.842545   -154.63649   -1556.6545    10865.607 
   28110    286.12871    4.3901166    56.638341   -151.37711   -759.66203    10865.607 
   28120    297.24608    5.3040238    59.366956   -147.51086   -1166.4471    10865.607 
   28130     309.8432    7.4610796    60.710747   -143.43352    1785.9742    10865.607 
   28140    307.97999    5.5526713    66.265876   -139.95058    2966.5868    10865.607 
   28150    316.40194    4.9034126    67.148767   -137.38608    2957.3338    10865.607 
   28160    294.23718    4.0380531    69.715014   -135.53508   -4316.4169    10865.607 
   28170    305.40814     3.040796    67.302103   -134.12027   -702.28064    10865.607 
   28180    290.97067    3.2773022    71.809008   -133.07269   -721.25723    10865.607 
   28190    312.29312    4.7722593    62.854767   -132.19033    400.81133    10865.607 
28200        0.96163934408617879335 10.196151750537913117 0.99735449735449732689 67 -272.28435701347103759
   28200    309.85152     4.938297    73.572802   -131.89586    35.781684    10865.607 
   28210    303.77125    6.1398097    72.374177   -132.62745   -90.067808    10865.607 
   28220    300.90326    8.4245344    64.241714   -134.02489   -938.09564    10865.607 
   28230    315.46066    11.481436    60.348274   -136.17682    1642.7847    10865.607 
   28240     315.6125    12.240864    59.940351   -139.60108   -242.08328    10865.607 
   28250    295.86862     11.56282    61.616363   -144.92241    1392.2461    10865.607 
   28260    291.43182    9.2666246    67.472052   -151.36786   -1918.7504    10865.607 
   28270     275.8268    7.3590523    60.025609   -157.60478    971.56961    10865.607 
   28280     274.0037    4.6707709    54.924607   -161.93312   -1359.1312    10865.607 
   28290    291.16546    4.2493674    51.451229   -164.09432    2315.7381    10865.607 
28300        0.96433649635519835819 10.185034937897896157 0.99735449735449732689 68 -297.02643260924480728
   28300    291.36471    2.5463192    54.933107     -165.014    1603.5627    10865.607 
   28310    286.04535    3.0051224    54.459321    -165.0618     -778.633    10865.607 
   28320    279.86612    3.4937887    55.264842   -164.30797    43.067284    10865.607 
   28330    301.20983    5.5076578    50.912579   -162.93062   -1763.9791    10865.607 
   28340    275.62231    7.7087815    58.017785   -161.22353    989.25097    10865.607 
   28350    302.48056    8.3092661    46.990099    -159.0748    1341.0009    10865.607 
   28360    283.12286    6.6552374    65.519338   -156.43892    2965.6325    10865.607 
   28370    308.08744    4.8272167    57.535468   -153.63036    1832.0865    10865.607 
   28380    306.70715    4.8134175    63.818049    -150.8235   -5727.2523    10865.607 
   28390    311.14724    5.8097961    57.679787   -148.59755   -2887.1911    10865.607 
28400        0.97112354433116243602 10.183242372012141885 1 67 -287.95841217491937414
   28400    311.57757     5.136629    60.158853   -146.78787    54.930344    10865.607 
   28410    294.50226    6.3902881    69.591558   -145.52761   -888.09682    10865.607 
   28420    304.02386    7.2958456    60.699033   -144.81859    2053.1859    10865.607 
   28430    301.26621    8.1909943    61.498751   -144.66076    1671.5119    10865.607 
   28440    317.14316    8.9729435    59.791656   -144.71426     2906.119    10865.607 
   28450    313.10284    6.2289101    60.771169    -144.9375    1104.7927    10865.607 
   28460    303.11282    4.8875276    57.283646   -145.55535   -3379.4359    10865.607 
   28470    284.62837    2.8738058    65.692813   -146.27384   -3602.8424    10865.607 
   28480    311.42824     4.777306    54.833649   -146.66022   -3477.6955    10865.607 
   28490    323.90974    3.8901295    56.362379   -147.16685    1939.7224    10865.607 
28500        0.97417763221813036267 10.165602243702551277 1 68 -289.1480153124333583
   28500    309.52729    4.2870591    61.795715   -148.90642    3515.6334    10865.607 
   28510    306.81619    4.4606564    58.781795   -152.46086   -622.00207    10865.607 
   28520    307.29191    6.3228685    51.973861   -157.64708    2252.3973    10865.607 
   28530    288.60814    7.9011893    55.134523   -162.90314   -453.58865    10865.607 
   28540    271.57476    9.0029112    56.229239   -167.32914    3141.7319    10865.607 
   28550    275.67217    8.1726926     56.54367   -170.40546   -1138.3506    10865.607 
   28560    283.28031    5.5730509    59.152371   -172.80062    785.15439    10865.607 
   28570    298.18338    5.3083642    50.853708   -174.54241   -1468.0519    10865.607 
   28580    285.88709    5.4491082    52.983555   -176.00107    1790.2892    10865.607 
   28590    289.81469     5.380425     57.92766   -176.94987    467.08454    10865.607 
28600        0.97727194647932369431 10.180737578058597137 1 69 -300.09250920743812685
   28600    270.80504     6.383935    60.471923   -177.39532    318.60733    10865.607 
   28610    283.56286    7.9096955    53.103408   -177.20483   -3760.8319    10865.607 
   28620    269.60185    9.4847462    56.414311    -176.1346   -2103.7167    10865.607 
   28630    287.23672    7.2517772     51.30887    -174.0597   -2228.0154    10865.607 
   28640    263.33659    6.4958777    62.270539   -170.88649    1812.4872    10865.607 
   28650    267.87844    6.3128036    57.497691   -166.65724   -611.83272    10865.607 
   28660    269.77876    6.5157258    61.585086   -161.54289    1259.1728    10865.607 
   28670    288.70043    7.4107358    58.081627   -156.15447    661.58414    10865.607 
   28680    305.43032    8.5147621    58.934846   -151.83262    1774.7254    10865.607 
   28690    306.23416    8.8184045    56.492281   -148.82551   -3136.4992    10865.607 
28700        0.98292960099478143832 10.164557274135058051 1 76 -281.40594477058340317
   28700    297.00479    12.417682    58.497608   -146.83808   -2392.4916    10865.607 
   28710    306.85257     11.31191    61.556327   -145.11947   -18.994872    10865.607 
   28720    308.41749    12.386864    61.377478   -143.93991     852.3845    10865.607 
   28730    323.19436    12.277282    64.409469   -143.27175    2358.3503    10865.607 
   28740    330.34006    9.4833432    57.564707   -143.47679    1255.9844    10865.607 
   28750    316.49366    9.0435441    56.449455   -144.32915    1423.7128    10865.607 
   28760    300.79966    10.272799    59.732192   -145.45042    -1754.903    10865.607 
   28770    304.74229    10.778691    54.768896   -146.44593   -365.39755    10865.607 
   28780    288.35869    7.9781224    66.289336   -147.19149   -628.20007    10865.607 
   28790    306.64228    7.2117799    52.263133   -147.54988   -979.19194    10865.607 
28800        0.9891118710355144561 10.102976619461177421 1 70 -285.3439225642101178
   28800    303.53913    8.4297368    60.985554   -147.81546   -783.49364    10865.607 
   28810    308.96509    8.4085447    60.320473   -148.21511   -494.91555    10865.607 
   28820    314.02671    6.9454436    58.470021   -148.86404    2448.7487    10865.607 
   28830    311.62802    6.3255747    58.291246   -150.12024    639.34512    10865.607 
   28840    295.38611    5.4028939    57.445775   -152.00662    531.77422    10865.607 
   28850    293.60768    4.3177592    55.155443   -154.22651    2243.5261    10865.607 
   28860     271.3751    6.6756092    61.036268   -156.25292   -1006.5162    10865.607 
   28870    276.29554    8.5178757    56.312154   -157.60824    1026.3568    10692.153 
   28880    292.47897    8.6541281    51.759871   -158.43334   -1378.5601    10692.153 
   28890    294.58165    8.3567951    54.084793   -158.87434   -750.15532    10692.153 
28900        0.99146118996137899693 10.056993565316124872 1 72 -293.03636307602818079
   28900    296.12139    8.6700725    58.733024   -158.86876    -598.4783    10692.153 
   28910     285.4273    9.1524023    55.686718   -158.12694    633.16078    10692.153 
   28920    280.02329    10.059689    66.077591   -156.51117    2289.3126    10692.153 
   28930    286.86381    9.0086587    56.674743   -154.07795   -2332.5998    10692.153 
   28940    297.79249    9.6537624    57.235777   -150.38886   -974.96683    10692.153 
   28950    317.73015    10.179353    57.826779   -146.02054     2831.563    10692.153 
   28960    316.65158    10.669316    69.784391   -141.44826    2377.7897    10692.153 
   28970    287.21107    13.514046    70.796024   -138.25051    305.21885    10692.153 
   28980    297.86847     14.94747    70.707304   -135.86861    -3212.161    10692.153 
   28990    303.55376    12.891763    69.731466   -133.91304    3104.3183    10692.153 
29000        0.99024815255708353856 10.074717195994560726 1 69 -269.13806529511595045
   29000    301.76371    10.731486    65.978433   -132.41402    -717.4222    10692.153 
   29010    293.92999    9.3715594    76.794465   -131.35809   -773.56745    10692.153 
   29020    307.91096    9.3098076    63.650231   -130.57245   -4252.9179    10692.153 
   29030    306.02131    10.898658    64.437864   -130.12406   -1482.8124    10692.153 
   29040    325.68231    10.862627    61.157064   -130.18739    3850.9815    10692.153 
   29050    314.37748    9.0016385    60.390026   -131.05513       2964.3    10692.153 
   29060    282.86961    11.360589    66.347508   -132.45126    646.23175    10692.153 
   29070     317.3152    10.004603    53.365515   -134.15328   -1904.0122    10692.153 
   29080    321.72015    8.6241618    66.597076   -137.17712     1567.729    10692.153 
   29090    333.23699    8.2946518    56.336089   -142.74129   -2399.5531    10692.153 
29100        0.9887312995010096861 10.055187961112110884 1 73 -289.44871245680883476
   29100    308.08358    9.1372453    54.734677   -149.86124   -1931.6438    10692.153 
   29110    288.70497    8.6157732    55.694398   -155.99947    -2150.905    10692.153 
   29120    280.55526    11.335277    56.048224   -160.19276    2293.5043    10692.153 
   29130     283.8331    10.720788    54.718274    -162.6563    3390.6574    10692.153 
   29140    268.32908    10.559093    52.020254   -163.98726    4069.2103    10692.153 
   29150    282.09515    6.7877215    53.677097   -164.14001    -1937.888    10692.153 
   29160    294.82752    5.9672401     59.62737   -163.41259   -897.09466    10692.153 
   29170    309.99122    6.7527401    57.802681   -162.43335     955.9112    10692.153 
   29180    286.89919    7.1420364    64.674297   -161.63332   -2039.1044    10692.153 
   29190    306.30917    6.7015654    52.471893   -161.01654   -3469.8975    10692.153 
29200        0.9882755683470624275 10.079011683844703029 1 71 -286.59283595401274169
   29200    278.43481     8.814613     63.80714   -160.43872   -1134.8052    10692.153 
   29210    275.01241    7.9365748    56.761657   -159.42496    -1334.383    10692.153 
   29220    282.98459    6.6679857    59.743331   -157.54866    2292.5967    10692.153 
   29230    277.05865    5.3653504     68.39145   -154.87037    4959.3404    10692.153 
   29240    279.14958    5.2134303    65.453792   -151.21476    828.47001    10692.153 
   29250    264.23891    7.5029434    66.489471   -146.81307   -2082.7279    10692.153 
   29260    269.70135    5.3849599    66.088226   -141.92347   -4208.5663    10692.153 
   29270    313.28757    6.3172611    58.343728   -137.01708     543.0561    10692.153 
   29280    288.10824    7.9185196    75.575025    -133.1597    3606.2851    10692.153 
   29290    298.41171    7.6144605    60.693175   -130.62995    1550.4534    10692.153 
29300        0.98668199390524369274 10.075174737784667656 1 66 -257.38255542449928726
   29300    283.38469    8.3181498    77.283485   -128.98573    3018.6578    10692.153 
   29310    315.51907    7.2803595    67.950037   -127.91609   -897.18345    10692.153 
   29320    310.66358    6.2914994    79.006534   -127.67927   -2092.5972    10692.153 
   29330     331.0008    5.4624926    63.844331   -128.77216   -4228.3008    10692.153 
   29340     322.8279    5.0409435    62.317226   -131.02872   -2965.6846    10692.153 
   29350    314.84185    5.8382028    66.439098   -134.08765    90.164001    10692.153 
   29360    311.87576    7.6863479      63.5915   -137.54489    1819.6941    10692.153 
   29370    287.13453    8.7659595    68.914393   -141.03875   -1763.8886    10692.153 
   29380    292.85894    7.2563517    61.956282   -144.07802    2676.8292    10692.153 
   29390    291.59881    6.9405291    56.079279   -146.26732    1095.0712    10692.153 
29400        0.98701929662379572772 10.078351591238380536 1 64 -279.6212522266087035
   29400    290.93582    5.2303362    60.237531   -147.80314    1424.5966    10692.153 
   29410    297.79487    4.9292158    57.101335   -148.72855   -1448.6757    10692.153 
   29420    290.61159     5.162873    60.391782   -149.33418   -1900.1136    10692.153 
   29430    309.18644    6.1890014    57.840483   -149.76814    2577.0212    10692.153 
   29440    321.88562    10.185844    52.658953   -150.15923    2270.2902    10692.153 
   29450    298.20323    11.624032     59.44696   -150.49015     -1519.53    10692.153 
   29460     285.1095    10.931892     58.96894   -150.63549   -2355.8109    10692.153 
   29470    287.87312    6.9127648    65.388223   -150.56916    142.41968    10692.153 
   29480    311.00648    7.1369746     55.83284   -150.39528    2182.3362    10692.153 
   29490    335.42512    7.7982587    45.700276   -150.43094    2310.4819    10692.153 
29500        0.98439007571746794945 10.109828304201082361 1 64 -285.33462282232051166
   29500    296.61567    7.0453424    61.611783   -150.94307    -532.7159    10692.153 
   29510    284.34112    6.4937435    55.437967   -151.72256   -1098.2711    10692.153 
   29520    250.95964    4.9105135    67.619756   -152.13318   -741.05186    10692.153 
   29530    278.34289    6.5916405    58.614866   -151.57151   -476.75807    10692.153 
   29540    282.49755    9.2622429    62.571969   -149.84015   -476.21048    10692.153 
   29550    310.59663    6.6597827    54.084555    -146.9827   -3439.7068    10692.153 
   29560    308.29549     5.502165    60.859502   -143.65762   -826.18197    10692.153 
   29570     307.1561    7.9832578    62.849118   -140.44792    169.28156    10692.153 
   29580    318.22107    9.7678628    57.288553   -137.41558    3.9986554    10692.153 
   29590    325.68887    10.340374    57.767845    -135.0241     1796.951    10692.153 
29600        0.9858469342842859362 10.116103456961653251 1 66 -292.64080993166368216
   29600    351.66656    8.3911722    55.583438   -133.30662    1189.6428    10692.153 
   29610    316.92565     5.927159    64.004962   -132.81732    1557.3427    10692.153 
   29620    310.85911    5.8154982    60.734015   -133.25879   -1501.1924    10692.153 
   29630    289.88786    5.2939867    67.441715   -134.02956   -2100.7533    10692.153 
   29640    329.77665    5.4014452    58.408285   -135.12861     3171.586    10692.153 
   29650    309.30695    7.1471361     61.05254   -137.14706    2988.2941    10692.153 
   29660    308.38037    6.6711637    53.328891   -139.64496     499.6504    10692.153 
   29670    292.26044    8.2716402    57.477249   -142.40917   -1892.6249    10692.153 
   29680    300.58869     6.775434    55.420409    -144.9442    -2646.828    10692.153 
   29690    326.44431    6.3205903    56.850801   -147.98106    3267.2852    10692.153 
29700        0.98366660019804685877 10.133795349005429998 1 65 -296.67562272535923285
   29700    319.36371    7.0159409    54.281207   -151.97731    -1659.235    10692.153 
   29710    290.69141    5.9871252    59.530147   -156.28422    92.831747    10692.153 
   29720    303.51115    4.9670435    52.896248   -160.13407   -733.08623    10692.153 
   29730    281.65924    5.8047586    55.873989   -163.13059    1936.5884    10692.153 
   29740    291.62967    6.7644666    49.273943   -165.42089   -1772.4485    10692.153 
   29750     261.3808     7.794369    59.102235   -166.60787   -879.16651    10692.153 
   29760    272.01157    8.0393804    56.576336   -166.60196    1196.9699    10692.153 
   29770    262.87864    7.9498724    59.931122   -165.75767    1501.9058    10692.153 
   29780    275.40721    9.5124724    56.654124   -164.06015   -1683.2379    10692.153 
   29790    288.35441    9.3583749     52.91238   -161.75735   -1467.8347    10692.153 
29800        0.97909546321777229938 10.158524755193154121 1 67 -285.66720343339750343
   29800    279.09236    9.3129437    62.071002   -159.21516    457.93809    10692.153 
   29810     299.7415    7.1506652    55.119069   -156.43222    1382.7457    10692.153 
   29820    289.64906     5.633007    60.906082   -154.38905    428.56753    10692.153 
   29830    304.01601     7.647232    60.457294   -153.04457     785.5927    10692.153 
   29840     295.6805    7.8349668    57.699523   -152.26726    380.15964    10692.153 
   29850    320.34446    7.3383314    52.425358   -151.28282   -768.14438    10692.153 
   29860    315.94743    6.1434234    60.413006   -150.44741   -583.27852    10692.153 
   29870    308.83559    7.0288187    57.404316   -150.16064   -1662.1746    10692.153 
   29880      299.257    9.1161563    59.449452   -150.32792    1507.1553    10692.153 
   29890    296.73391    7.9181445    55.453634   -150.45252   -893.91542    10692.153 
29900        0.96611833901631771759 10.211699868473090191 1 68 -280.63894246819853606
   29900    287.89924    6.9293243    50.934288   -150.19665   -766.99328    10692.153 
   29910    283.51445    5.6500888    58.038211   -149.31923   -1299.8474    10692.153 
   29920    305.17182    5.2061694    54.104377   -147.61844    209.29382    10692.153 
   29930    300.98693    3.0045848    58.802545   -145.61953    2248.1673    10692.153 
   29940    295.71085    2.0725581    57.382757   -143.17472    1350.8317    10692.153 
   29950    290.69922    3.2304437    54.301072   -140.04105   -2941.2385    10692.153 
   29960    320.52764    6.4145393    57.499572    -136.0428    75.020309    10692.153 
   29970    322.69766     7.558341     62.04325    -131.9769   -665.33766    10692.153 
   29980    327.95638     8.678879    62.096896   -128.49182    86.249668    10692.153 
   29990    300.60963    10.540533    70.682147   -126.07744   -1793.6969    10692.153 
30000        0.96191552003513669522 10.198657419849583405 1 63 -271.16376781145174846
   30000     324.1674     9.634176     62.10785   -124.28899    1175.4319    10692.153 
   30010    325.31323    8.7952644     67.13189   -123.35606    4191.0782    10692.153 
   30020    321.48767    7.4833756    71.767176   -123.54473   -416.58193    10692.153 
   30030    303.27082    9.0636654    66.420396   -124.87881   -437.22264    10692.153 
   30040    306.97797    10.037908    64.742776   -126.64374    3381.4057    10692.153 
   30050    306.94284    7.8588467    69.382811   -128.45433    1529.5888    10692.153 
   30060    331.20406    7.9182726    59.127138   -130.72412   -775.11933    10692.153 
   30070    294.37977    10.037359    71.014287    -133.8493   -7037.8456    10692.153 
   30080    330.82995    9.1449718    60.373254   -137.08175   -1475.7684    10692.153 
   30090    329.45853     8.033364    60.591348    -140.4709    1573.4786    10692.153 
30100        0.95906755793745535055 10.22116376312309427 1 64 -298.0615071153840745
   30100    341.91589    6.5234096    53.022353   -143.14519    3401.5794    10692.153 
   30110     294.2342    4.6735428     62.80249   -144.93761    1098.7909    10692.153 
   30120    283.27482    4.2657281    65.911543   -146.09214    -2520.557    10692.153 
   30130    287.92377    3.4741823    71.847504   -146.98171   -2694.7745    10692.153 
   30140    299.17151    3.9144513    66.449019   -148.02126   -1600.4737    10692.153 
   30150    301.56212    4.1425122    63.662096   -149.25302   -378.36194    10692.153 
   30160    274.77151    3.7978394    64.166472   -150.60336   -943.70989    10692.153 
   30170    284.65727    3.2033107    58.225269   -151.66018    1301.9146    10692.153 
   30180    263.08875     4.000596    66.948949   -152.00355    5671.6173    10692.153 
   30190    278.52401    3.8553355    61.014818   -151.50134     1738.464    10692.153 
30200        0.95233971990524735052 10.21679556960423696 0.99735449735449732689 66 -279.99133285735911159
   30200    286.07784    4.4426372    61.739707   -150.37429   -1605.5887    10692.153 
   30210    316.62722    4.1650528    56.595064   -149.17405   -2778.6524    10692.153 
   30220    303.17495    4.7071675    58.844112   -148.23796   -559.66809    10692.153 
   30230    308.49281    7.8993901    53.107868   -146.93338    913.62165    10692.153 
   30240    290.84464     8.607187     62.60626   -145.11958   -1848.6759    10692.153 
   30250    312.01567    7.5923887    56.499495   -142.77002   -538.27309    10692.153 
   30260    296.94777    7.9064237     65.19648   -140.25776    2124.3096    10692.153 
   30270    312.76194    8.7512061    54.558739    -137.7201    1580.9791    10692.153 
   30280    284.04026    8.5880106    70.044094   -134.81417    687.27574    10692.153 
   30290    305.43106    8.3235429    65.555042   -131.59431    1053.2191    10692.153 
30300        0.95644344583881168997 10.208221214694415124 0.99735449735449732689 64 -266.19462619764857436
   30300    304.69962    7.3635913    70.392251   -128.14037   -855.43097    10692.153 
   30310    319.85887    5.7017308    67.208245   -125.23001   -1466.0262    10692.153 
   30320    312.10622    6.9409408    63.800287   -122.69126   -4448.6571    10692.153 
   30330    313.61589    7.3955384    75.658655   -120.95952    3241.6036    10692.153 
   30340    339.90835    6.2106615    62.868888   -120.32083    1333.8903    10692.153 
   30350    334.65843    4.9972153      65.0146   -121.15364    25.548191    10692.153 
   30360    317.36575    5.0703597    71.610127   -123.87458   -2348.4515    10692.153 
   30370    309.85255    6.3154703    64.884961   -128.42774    371.15395    10692.153 
   30380    285.89097    6.5875653    71.318913   -134.70666    2844.2841    10692.153 
   30390    288.11451    4.4386686     63.07107   -140.70832   -979.35747    10692.153 
30400        0.94762711721351133853 10.248363962023699258 0.99735449735449732689 68 -275.64281393959305433
   30400    286.80458    5.1362426    57.581221    -145.6965   -1351.6675    10692.153 
   30410    292.46061    5.1081177    57.020581   -148.67703   -536.11566    10692.153 
   30420    296.17833    5.2377401    54.642646   -150.27498   -1090.5433    10692.153 
   30430    323.69568    5.7091373    56.584768   -151.33714    2359.4167    10692.153 
   30440    301.00046    7.7726955    61.683964   -152.43593   -2421.4283    10692.153 
   30450    309.00077    7.0252199    61.298467   -153.59916   -872.20163    10692.153 
   30460    311.08516    5.3832126    59.189431   -154.92504   -449.52566    10692.153 
   30470    285.17853    4.7092917    57.376511   -156.18531    1594.4175    10692.153 
   30480    295.54389    4.9685524    50.638462   -156.90808    1809.8244    10692.153 
   30490    249.79457    6.9980864    61.664622   -156.82377    1315.7057    10692.153 
30500        0.94488604124999708844 10.259933320768778842 0.99470899470899465378 67 -285.38308298973453248
   30500    286.38819    5.8668538    53.127366   -155.62543    2647.5541    10692.153 
   30510    275.00557    4.1708083    62.858286    -153.4588    2590.7292    10692.153 
   30520    298.87209    4.4974802    57.218456   -150.50843   -4952.7381    10692.153 
   30530    289.10384    5.6590206    60.689828   -147.21563   -5190.4593    10692.153 
   30540    316.76432    5.2664583    56.619483   -143.75574   -3147.2202    10692.153 
   30550    324.61084    3.3542687    59.652335   -140.71729    4715.7881    10692.153 
   30560    319.72459     4.486522    59.405213   -138.07341    442.28712    10692.153 
   30570    311.84422    5.7852278    60.219008   -135.93441   -1830.7427    10692.153 
   30580    313.17518    5.6759538     64.26403   -134.46847   -2851.9703    10692.153 
   30590    330.83607    3.7044922    63.445285   -133.93977   -446.69178    10692.153 
30600        0.95382174126173158157 10.250361496224527968 0.99735449735449732689 67 -279.46880670561870375
   30600    319.76005    2.7545212    60.786055   -134.59092   -1264.6325    10692.153 
   30610    308.47989    3.0856581    60.708218   -136.01977    1341.2422    10692.153 
   30620     287.9066    3.6947666    66.265488   -137.80448    1520.6985    10692.153 
   30630    279.02492    4.4818207    70.549207   -139.99009       5411.4    10692.153 
   30640    304.83682    7.9123714    57.486352   -142.80651   -912.04938    10692.153 
   30650    292.55154    10.007844    59.687572   -146.58835   -2594.9253    10692.153 
   30660    296.24907    9.4759708    65.226972   -151.79732   -3131.5201    10692.153 
   30670    299.65125     6.860463    53.458116   -159.27025   -863.56979    10692.153 
   30680    260.96456    5.3975467    62.378422    -166.2866   -188.29235    10692.153 
   30690    279.01734    5.8582651    47.696669   -170.60389    3485.0868    10692.153 
30700        0.97581082242625960532 10.182536837382620831 1 66 -296.12452459339885991
   30700    272.26395    6.0426995    53.860491   -172.76632   -725.79103    10692.153 
   30710    269.94388    6.4017718    55.609896    -173.4337    937.79465    10692.153 
   30720    264.84108    7.7377234    52.783707   -173.09625    -4356.736    10692.153 
   30730    268.10685    8.8582485    56.966927    -172.0061    99.028024    10692.153 
   30740    295.13647     10.62044    44.273806   -170.13214   -257.23009    10692.153 
   30750    282.82256    11.050523    53.451154   -167.58753    2564.9575    10692.153 
   30760     298.0198    9.3179802    50.450373   -164.67159    1104.1732    10692.153 
   30770    291.45844    7.0295699    61.675599   -161.60159    71.152166    10692.153 
   30780    308.82056    5.8093916     59.13105   -159.10123    706.10344    10692.153 
   30790    317.33613    5.9189304    53.064409   -157.04272    3132.2795    10692.153 
30800        0.98240064389543113599 10.1252075179433767 1 70 -296.46562805854244971
   30800    311.48665    5.0725441    51.439514   -155.33628    -932.9842    10692.153 
   30810    281.73634    6.8997831    64.625325   -153.92994    641.48804    10692.153 
   30820    297.47253    7.7525312    55.410013   -152.64449   -2940.2699    10692.153 
   30830    299.90954    7.9794584    64.462621   -151.74651    3496.7359    10692.153 
   30840    316.34229    10.291083    53.808994   -150.97219   -205.56638    10692.153 
   30850    301.92322    9.7520661    60.321094    -150.3124   -3950.9678    10692.153 
   30860    305.69149    10.211789    65.955033   -149.82783    1557.5253    10692.153 
   30870    284.43875    8.3857217    70.679377    -149.6298     1391.125    10692.153 
   30880    300.94027    11.137534    50.859671   -149.51572    1545.9594    10692.153 
   30890    291.92095    11.917828    55.708144   -148.88615   -3420.3229    10692.153 
30900        0.9838011790379235233 10.116088581600580554 1 66 -289.12633437447414053
   30900    312.96143     10.50083    53.118773   -147.32879   -1658.0584    10692.153 
   30910    315.19561    7.9865443    63.156761   -145.06627    1135.5999    10692.153 
   30920    329.81722    8.6516578    58.130822   -142.31538    464.67618    10692.153 
   30930    314.28849    9.5897998    61.618028   -139.92686    1845.5318    10692.153 
   30940    293.24686    10.160314    65.745489   -137.73976   -854.31823    10692.153 
   30950    317.95834    11.138297     60.94518   -135.38725   -1941.1394    10692.153 
   30960    316.52041    9.4716534    65.595956    -133.1054    1385.6913    10692.153 
   30970    336.81731    8.6891924    54.890642   -131.55973   -1280.8637    10692.153 
   30980    308.03513    8.5348372    60.181372   -130.92117    1737.9197    10692.153 
   30990    309.41349    7.5840966    63.655386   -130.87622    1271.6497    10692.153 
31000        0.98436846750670603523 10.087272624619981087 1 66 -267.549487986796521
   31000    301.57913    7.0446424    65.522439   -130.90907    2030.3717    10692.153 
   31010    301.65053    7.1013946    68.898627   -131.06766   -1070.2655    10692.153 
   31020    285.69577    11.033126    59.108698   -131.35601   -3136.2737    10692.153 
   31030    291.29187    12.161487    68.929991   -131.49583     -1783.13    10692.153 
   31040    308.02195    11.077174    56.449539   -131.58065    5410.9135    10692.153 
   31050    301.75087    9.4479821    68.309362   -131.73519    1390.6853    10692.153 
   31060    324.93356    7.5780706    56.261972   -132.17761    984.43286    10692.153 
   31070    288.17746    8.3517236    61.685644   -133.10228   -2993.0906    10692.153 
   31080    283.00941    9.5507469    66.032339   -134.02882    -2253.071    10692.153 
   31090    275.39267    8.3893366    70.994017   -134.81554    -694.9216    10692.153 
31100        0.98626218623907413452 10.108312220423870897 1 69 -274.31280066696069753
   31100    305.70718    6.8533311    66.836829   -135.80203    415.42016    10692.153 
   31110    332.70927    6.6028444    56.503644   -137.98355     999.9041    10692.153 
   31120    294.15832    10.633928    62.338892   -141.14486    1216.2431    10692.153 
   31130    307.36912    8.1488202    53.775921   -144.55971   -1898.3939    10692.153 
   31140    266.19963    6.4172038    66.419835   -148.01363    1088.7258    10692.153 
   31150    275.28995    6.0084542    63.065723   -151.27462   -1544.0516    10692.153 
   31160    265.20702    6.4092606    55.613821   -153.96773    188.04695    10692.153 
   31170    280.47855    5.5841445    55.433078   -155.91448    520.38657    10692.153 
   31180    284.92431    5.8483774    51.213171   -157.10197    3583.1927    10692.153 
   31190    263.89934    5.5898822    59.171316   -157.51036    1266.8343    10692.153 
31200        0.98587074528398010997 10.100639342942521637 1 65 -282.7557316537290717
   31200    277.82625      7.41466    54.253594   -156.87734   -257.51713    10692.153 
   31210    301.41489    6.6862123    63.398995   -155.35229   -1414.3696    10692.153 
   31220    301.54267     5.558463    57.640429   -153.59686    338.56113    10692.153 
   31230    294.52242     4.992796    63.713257   -151.41742   -1864.2536    10692.153 
   31240     298.5731    5.2958498    64.023455   -148.66257   -2289.4623    10692.153 
   31250    304.72753     4.177373    61.646995   -145.49994     -1869.98    10692.153 
   31260    307.37633    4.4170305    56.565899   -141.39547    2435.3318    10692.153 
   31270    280.91337    5.4330923    64.024185   -136.66507    914.00498    10692.153 
   31280    314.26299     9.856416     61.15014   -130.65853     3297.671    10692.153 
   31290    317.19304    12.547723    68.427436    -125.2458    392.82871    10692.153 
31300        0.98391826779199242914 10.127112237795568461 1 63 -267.5844284277626457
   31300    322.55484    15.214739    65.915375   -121.44027   -1375.2915    10692.153 
   31310       300.83      12.9601    76.052219   -119.36767    838.25299    10692.153 
   31320    328.95151     11.87932    63.544924   -118.36475   -2284.4996    10692.153 
   31330     337.8432    9.7833539    69.692641   -118.44733   -5985.9159    10692.153 
   31340    360.01609    8.7524922    60.027864   -120.08779   -2868.5374    10692.153 
   31350    336.10528    6.2518164    67.631663   -123.41246   -50.857606    10692.153 
   31360    332.85127    4.4315553    64.116958   -127.47829    1974.6818    10692.153 
   31370    314.15794    4.5844708    65.624465   -131.88584    3648.6301    10692.153 
   31380    319.09173    7.5345681    61.367223   -135.82693    1576.7544    10692.153 
   31390    316.92507    8.4581224    57.021806   -138.81631    935.67096    10692.153 
31400        0.98500103668941807467 10.097033941948094338 1 64 -282.6540058234480739
   31400    312.66804    8.6822752    53.981826   -140.98939    1234.4512    10692.153 
   31410    290.98209    9.6832118    63.128064   -142.67105   -876.00746    10692.153 
   31420     304.0398    8.4397342    57.308499   -144.01342    414.51142    10692.153 
   31430    295.27488    5.8145096    63.235781   -145.34566   -442.25063    10692.153 
   31440    302.92419    5.1973651    54.475477   -146.58767    202.38406    10692.153 
   31450    283.20944    5.5834336    62.427711   -147.43059    3335.8182    10692.153 
   31460    294.32339    6.7633141    60.410551   -147.50954   -1827.3839    10692.153 
   31470    294.87832    7.0690998    62.787218   -147.18269   -3759.7913    10692.153 
   31480    308.49646    8.8386707    56.195234    -146.9892   -3551.6875    10692.153 
   31490    329.83639    13.014586    52.397164   -147.16223   -442.21414    10692.153 
31500        0.9830330433326449624 10.112826266505171802 1 65 -285.47676550494043113
   31500    303.81193    12.617357    65.898882   -147.82471    1389.5061    10692.153 
   31510    319.21229    9.3456743    56.251904   -149.02282   -1747.7175    10692.153 
   31520    286.71275    9.6688454    64.030277    -150.8465    217.03418    10692.153 
   31530    311.28475    9.7951575    52.450937   -153.09058    3115.6491    10692.153 
   31540    277.92901    9.0437866    59.122912   -155.90712     2977.025    10692.153 
   31550     300.9504    8.6418173     49.38142   -159.16299    3810.2153    10692.153 
   31560    284.95395     6.441435    54.738025   -162.53493    2002.1625    10692.153 
   31570    288.70711    6.0751485    56.592772   -166.03256    -503.1621    10692.153 
   31580    270.14546    6.7370716    57.597775   -169.35287   -2530.0803    10692.153 
   31590    267.94993    6.5374493    58.315995   -172.04347   -2747.9058    10692.153 
31600        0.98020761086166552367 10.150321442943829098 1 65 -301.20129706239549705
   31600     280.0674    6.2887822    60.748771   -174.30748    -2368.743    10692.153 
   31610    271.89428    5.3000374    61.666606   -176.26918   -1.4106666    10692.153 
   31620    260.15891    5.0965078    52.067545   -177.81167    695.11171    10692.153 
   31630    246.86729    5.8126632     58.30305   -178.33851   -869.57418    10692.153 
   31640    270.32439    5.5265397     56.63098   -177.60382    2347.6173    10692.153 
   31650    268.24426    4.1996369    56.022538   -175.62815    167.25216    10692.153 
   31660    272.40423    4.7071976     57.15627   -171.93792    1842.6228    10692.153 
   31670      271.458    9.7175259    49.664752   -166.43857   -2093.1612    10692.153 
   31680    284.52703    12.316612      51.9507     -159.652   -2109.8323    10692.153 
   31690    295.75954    11.494091    54.700551   -153.63149    931.46647    10692.153 
31700        0.98191328169015745786 10.140384402339149617 1 66 -280.71025599006566154
   31700    290.36215    9.3139492    58.815796   -149.15207    2188.5935    10692.153 
   31710    300.97352    7.7160801     57.95756    -146.1976    3598.7834    10692.153 
   31720    305.03583    7.7215364    57.257482   -144.08474   -2641.6239    10692.153 
   31730    311.68491    7.2959624    63.598945   -142.73921   -1500.7861    10692.153 
   31740    336.20795    7.0822685      51.5936    -142.0932   -1233.3759    10692.153 
   31750    307.16655    6.4689856     60.32148   -142.19705   -2526.6312    10692.153 
   31760    332.64034    6.9849952    50.628084   -142.76923   -449.41844    10692.153 
   31770    307.15864    8.2771869     56.77273   -143.54203   -773.90557    10692.153 
   31780    304.28374    7.8005939    54.971513   -144.26661    1724.4792    10692.153 
   31790    281.93869    6.4921189    58.530641   -144.70486   -834.62051    10692.153 
31800        0.98298189275501191009 10.115027486292065717 1 71 -280.39428669903713853
   31800    300.21945     4.167719    56.120711   -144.36992   -536.23091    10692.153 
   31810    315.35824    5.2460138    53.341379   -143.59587    -2409.829    10692.153 
   31820    307.83769    7.7219067    56.358967   -142.65897    2654.4877    10692.153 
   31830    297.26334    6.7090058    60.377763   -141.57421    3507.5097    10692.153 
   31840    313.07302    6.6849019    51.405188   -140.61397    2535.5986    10692.153 
   31850    302.64299    10.794183    61.093364   -139.74208   -1786.1012    10692.153 
   31860    318.78497    12.535587    60.568987   -138.75127     -2977.89    10692.153 
   31870    307.71275    10.309718    67.181316   -138.00027    1114.5981    10692.153 
   31880    307.85569    7.3995151    65.566956   -137.79718    2963.0251    10692.153 
   31890    320.35053    9.4855863    57.885182   -138.09541    872.78869    10692.153 
31900        0.98305851742676109151 10.125266694520579591 1 67 -283.08756696448688217
   31900     317.7056    7.9945108    61.490595   -139.14052   -542.76303    10692.153 
   31910    313.96196    6.1488438    63.459105   -141.44358   -204.31156    10692.153 
   31920    308.45617    5.5462363    56.416221   -144.88754    1494.9515    10692.153 
   31930    301.24893    6.5170813    62.345243   -149.12951    143.37743    10692.153 
   31940    317.14897    5.7229691    50.271053   -153.81149    -6284.956    10692.153 
   31950    301.24706    7.1409289    53.574126   -158.84242   -3469.4166    10692.153 
   31960    309.95165    5.2269833    50.929984   -163.20194     2099.387    10692.153 
   31970    294.92987    6.2095557    46.018613   -166.41844    2917.4583    10692.153 
   31980    291.69467    6.3616113    44.390859   -168.39545    1484.8832    10692.153 
   31990    260.90169    9.8910325    54.892166   -169.05277   -1567.9396    10692.153 
32000        0.98207233280694372635 10.115940925221204694 1 69 -291.72760505992778235
   32000    271.96904    10.202188     50.27857   -168.50302    1009.8748    10692.153 
   32010     258.5255    8.0479353    60.604513   -167.05533     8.011877    10692.153 
   32020     284.5716    8.7811827    48.541981   -164.66039   -887.22386    10692.153 
   32030    280.62064    7.2653179    61.710903   -161.56629    407.55227    10692.153 
   32040    292.41035    8.4187159    53.702657   -158.47437   -1296.6658    10692.153 
   32050    288.07754    8.5091595    59.371898   -155.85117    3035.1195    10692.153 
   32060    305.91683    10.685509    54.343924    -153.7893    1742.5685    10692.153 
   32070    301.90674     9.687492    59.291606   -152.15867    5.0679544    10692.153 
   32080    298.05748    7.8552506    59.808402   -151.12289   -789.75828    10692.153 
   32090    285.12116    7.3351626    57.752976   -150.41136   -242.08998    10692.153 
32100        0.98419449180050866399 10.128192588605330116 1 70 -285.21096705435508056
   32100     299.1454     6.782927    56.189018   -149.67323    660.61097    10692.153 
   32110    310.80443    7.4183878    60.674076   -149.15582   -2176.6763    10692.153 
   32120    313.71643    7.3156548    58.726177   -149.17748   -2235.9899    11381.208 
   32130    305.22999    8.6856774    56.088024   -149.85972     3913.734    11381.208 
   32140    293.37998    10.318742    54.507348   -150.59853    2668.4921    11381.208 
   32150    281.49642    7.7853571    51.625654   -150.98054   -366.84611    11381.208 
   32160    272.69107    6.9698808    52.043046   -150.74713   -1291.9336    11381.208 
   32170    276.34145    5.5782845    59.203336   -149.58298   -109.55241    11381.208 
   32180    315.59393    6.4201108    54.096484   -147.74596    314.81319    11381.208 
   32190    311.06305    5.9192797    58.114414    -146.2822   -506.07265    11381.208 
32200        0.9756185599110852591 10.156917002878529388 1 71 -287.30084378783203647
   32200    312.90404    5.7650188    51.582068    -145.5293   -442.23777    11381.208 
   32210    312.88699    6.2494884    51.848148   -145.07793   -67.205162    11381.208 
   32220    309.99304    7.2065929    48.098023   -144.75762   -1250.6056    11381.208 
   32230    301.93858     8.369116    58.604868   -144.50176   -535.03289    11381.208 
   32240    306.18715    9.3853003    55.774481   -144.35189    -998.7335    11381.208 
   32250      313.131    7.1997328    57.697367   -144.40167    2190.3309    11381.208 
   32260    297.94279    5.8837285    62.327308   -144.56517    5228.7024    11381.208 
   32270    312.08627    5.1292687    52.609042   -144.64814   -89.846454    11381.208 
   32280     316.8049    4.3350824    56.186545   -144.87211   -2014.0167    11381.208 
   32290     329.4024    4.7177929    55.196811   -145.54945   -286.36817    11381.208 
32300        0.96720191816020573139 10.213098335703671538 1 71 -301.52694915302691925
   32300    341.26133    5.5655702    53.154303    -146.9072     -1953.62    11381.208 
   32310    327.54455    7.7584339    45.398771    -148.8646    1061.6293    11381.208 
   32320    310.85075     7.062632    46.597691   -150.45604   -1401.1956    11381.208 
   32330    299.15861    3.9371393    60.025432   -151.45419     3177.168    11381.208 
   32340    314.93277    2.6865377    53.959251   -152.27056    1793.5777    11381.208 
   32350    301.68514    3.8810351    55.712989   -153.45405   -2971.2299    11381.208 
   32360    296.11202    4.7538474    50.606755   -154.75559   -2712.5908    11381.208 
   32370    283.74495    3.9302545    57.226356   -155.65083   -1991.6268    11381.208 
   32380    298.17878    5.0732722    50.361677   -156.12475    1106.8701    11381.208 
   32390    280.81379    8.1189061    50.725443   -156.11259   -2649.1265    11381.208 
32400        0.96599900007833061633 10.204581048520102726 1 74 -277.85718876003744526
   32400    270.26038    9.8433624    60.852085   -155.40677   -531.55936    11381.208 
   32410    273.11073    13.162302    56.150174   -154.01849    522.79064    11381.208 
   32420    285.48516    12.581344    57.367586   -151.74462    1604.0238    11381.208 
   32430    317.21127    10.011246    55.268257   -148.38008    2808.1878    11381.208 
   32440    309.54944    8.2339061    57.171788   -144.42524   -2089.1725    11381.208 
   32450    327.60664    6.7542718    53.869019   -140.57546   -2107.1021    11381.208 
   32460    320.11674    6.5120335    67.746984   -137.47375   -1330.9987    11381.208 
   32470    337.31412    7.8913759    56.369144   -135.51099    1686.1752    11381.208 
   32480    280.92631    11.213682    65.820704   -134.64473    1978.6751    11381.208 
   32490     279.7382    10.409239    63.340399   -133.95924    2806.1231    11381.208 
32500        0.97070623245016973701 10.199870027902569802 1 71 -260.61805131152578952
   32500    281.64591    9.2481339    70.804046   -133.00904    -1249.387    11381.208 
   32510    308.78393    8.9571696    65.499958   -131.90877    3309.4432    11381.208 
   32520    309.90427    8.1353812    71.724234   -131.35924   -1533.7331    11381.208 
   32530    323.50216    6.4196209    54.414546   -131.53052   -1068.2913    11381.208 
   32540    311.22292    5.4653192    67.290196   -132.80426    -3422.052    11381.208 
   32550    312.56356    5.5619998    58.610161    -134.8791   -3904.2884    11381.208 
   32560    308.86184    5.2239578    52.958951   -138.37453    1990.3182    11381.208 
   32570    310.73588    4.1255076    59.705909   -143.30267    1576.9214    11381.208 
   32580    323.55326    4.4628036    53.790394   -149.74435    2870.4253    11381.208 
   32590    308.78886    5.8817062    61.859217    -156.5894   -2224.3825    11381.208 
32600        0.97162551651388318064 10.180953907386445678 1 69 -290.02516970469929447
   32600    281.91199    8.4333363    58.822088    -162.2956   -728.94985    11381.208 
   32610    287.09386    7.4174269    50.804568   -166.30908    1493.9324    11381.208 
   32620    269.83959    8.7542358    50.581022   -168.44469    305.82997    11381.208 
   32630    283.72822    7.9408112    47.824016   -169.22206   -4594.7662    11381.208 
   32640    256.82102    7.4084602    53.664634   -168.94692    -431.4032    11381.208 
   32650    276.79384    4.8028076    52.967505   -167.63552   -922.01127    11381.208 
   32660    266.95297    6.0640352    56.405631   -165.51485    3908.9101    11381.208 
   32670    265.26358    8.5220396    51.982724   -162.41192     -99.7012    11381.208 
   32680    293.09654    10.695267    47.964535   -158.30466   -1934.3786    11381.208 
   32690    290.14678     11.37364     49.88351   -153.83177   -2496.1474    11381.208 
32700        0.97137960079740182096 10.153555711516464299 1 68 -287.95199980714846788
   32700    305.44662    8.9732177    50.482659   -149.55929    161.71669    11381.208 
   32710    282.00695    10.618387    63.993804    -146.0994    3563.5205    11381.208 
   32720    304.20226    14.375354    56.277285   -143.37451      3222.43    11381.208 
   32730    300.12721    12.185914    61.883454   -141.29916    941.99333    11381.208 
   32740    322.04222    8.2446523     61.14526   -139.82578     18.19231    11381.208 
   32750    332.63581    6.7614454    54.496254   -139.20554   -209.01667    11381.208 
   32760    326.77893    6.2651841    56.465801   -139.84683   -54.457558    11381.208 
   32770    317.11182     5.690117    53.779602   -141.32023    162.36255    11381.208 
   32780    313.27076    5.8134262    50.254196   -143.12268    -532.1044    11381.208 
   32790    316.78709    5.0708579    51.256781   -145.23398    144.77961    11381.208 
32800        0.9752157523994177124 10.158240456950640151 1 65 -280.88075544851449195
   32800    294.33123    6.5461626    61.442348   -147.52424    1129.0833    11381.208 
   32810    295.09202    6.1632408    59.496421   -149.93054   -8.6252536    11381.208 
   32820     284.9754    7.2672428    56.800457   -152.38552    828.94559    11381.208 
   32830    287.93808    8.0491765    60.529801   -154.93765   -2420.6301    11381.208 
   32840    268.91244    9.4486506    63.495251   -157.42471    2186.3214    11381.208 
   32850    274.28237    7.7211933    59.229342   -159.68834   -1534.2012    11381.208 
   32860    287.97624    6.2457178    53.119097   -162.04546    1454.0808    11381.208 
   32870    277.75825    3.9964986    60.235934   -164.37038    137.57261    11381.208 
   32880    290.68046    4.0814502    54.769811   -166.87059    92.667011    11381.208 
   32890    251.64633    3.3723114    65.774127   -169.62105    917.34055    11381.208 
32900        0.97450714071127664262 10.168571148390130432 1 63 -300.81187339903016209
   32900    282.86835    5.5097847    49.183705     -172.649   -904.20822    11381.208 
   32910    257.83824    9.1801966     54.29756   -175.97953    172.38483    11381.208 
   32920    282.60646    13.031845    47.046317   -179.56111    210.38015    11381.208 
   32930    263.22653    13.122038     47.44251   -183.41581   -4214.5632    11381.208 
   32940    279.62156    8.6981751    47.721567    -187.1479   -2066.6856    11381.208 
   32950    257.43145    7.2475557    51.362272   -190.44409    -1610.609    11381.208 
   32960    256.79955     8.803018    46.249227   -192.80667   -458.56343    11381.208 
   32970    244.12047    9.8177767    45.901998   -193.90414    4770.8634    11381.208 
   32980    251.81515    9.7447519    46.420495   -193.43742    6226.6307    11381.208 
   32990    272.06375     6.587531    43.739055   -191.13373     5935.787    11381.208 
33000        0.97077454410911512284 10.198895633488412216 1 67 -314.84289276397180402
   33000    282.25086    4.3085586    49.774319   -186.95979   -3642.3688    11381.208 
   33010    293.17656    4.0681076    47.090038   -181.69234    -4497.175    11381.208 
   33020    285.06201    5.9092763    53.726901    -176.4244   -5280.8397    11381.208 
   33030    286.05697    6.6540615    47.704478   -171.99289    -3706.943    11381.208 
   33040    280.18673    7.9297506    51.602932   -168.46291   -627.73198    11381.208 
   33050    269.41239     9.772249    53.431623   -165.71806     3986.216    11381.208 
   33060    283.81244    10.915966    51.777379   -163.23885    2545.7034    11381.208 
   33070     289.4405    9.7706978    50.267519   -160.90885   -419.33404    11381.208 
   33080    304.25586    8.2361856    48.298848   -158.76579   -2988.5809    11381.208 
   33090    279.06132    7.5246319    53.400573   -156.75754    2493.6703    11381.208 
33100        0.96301397781657582797 10.221081631565963832 0.99735449735449732689 65 -289.22474330024607525
   33100    297.58207     6.642733    52.318248   -154.39533    313.33652    11381.208 
   33110    303.38118    4.5488116    52.757301   -151.57416    -662.8816    11381.208 
   33120    329.83777    5.6152721    50.736966   -148.75337   -777.07382    11381.208 
   33130    323.10655    7.0780348    53.552802   -146.64393   -1878.5615    11381.208 
   33140    336.08409    8.5037854    48.871717   -145.46158   -135.28011    11381.208 
   33150    321.72146    7.8346197    54.624765   -145.38876    133.30018    11381.208 
   33160    309.61382    10.324376    49.230157    -146.0476    1596.1774    11381.208 
   33170    294.52429     8.518072    53.411506   -146.78104    745.80322    11381.208 
   33180    297.45569     7.408021    46.561487   -147.20679   -1838.6252    11381.208 
   33190    282.13059    4.8679276    49.836102   -147.06394   -425.50042    11381.208 
33200        0.96765421501897885825 10.198732730459523665 0.99735449735449732689 63 -277.98756485565274943
   33200    291.23081    6.1044814    54.184729    -146.0358     919.4205    11381.208 
   33210    283.46119    7.1199818    52.789026   -143.91521   -113.03871    11381.208 
   33220    313.76288    5.1923543    50.726089   -140.45877    1296.9826    11381.208 
   33230    298.63809    4.4534398    62.889176   -136.21631    1643.0638    11381.208 
   33240    296.46558     4.998516    58.200775    -131.6039   -3616.6792    11381.208 
   33250    308.30797    6.5342231    54.074173   -126.74931   -1521.9105    11381.208 
   33260    330.10924    4.8617168    55.705345   -121.99768   -2039.5839    11381.208 
   33270    326.84928    5.6876729    66.267645   -118.59173    3130.4347    11381.208 
   33280    324.35691    6.2706964    55.288628   -116.57681    1337.6145    11381.208 
   33290    304.72548    6.0618104    61.414237   -115.56884   -163.32134    11381.208 
33300        0.96563635746859843856 10.176409982964340628 1 65 -261.95476380893489932
   33300    324.49192    6.0156888    55.687889   -114.93295    438.93741    11381.208 
   33310    314.96264    6.1070271    60.036904    -114.7552    825.05101    11381.208 
   33320    326.82826    6.8610291    57.766886   -115.01916    -487.9264    11381.208 
   33330    311.43379    6.1160591    59.791698   -115.92022   -783.07093    11381.208 
   33340    312.73622    4.7708341    59.823333   -117.08047    867.11588    11381.208 
   33350    325.35819    3.6237282    57.348349   -118.72056    2221.3052    11381.208 
   33360    298.61857    4.7662442    50.411588   -120.54874   -1861.2656    11381.208 
   33370    295.24193    6.3121719    54.693376   -121.87084   -2621.1152    11381.208 
   33380    309.25463     5.047504     63.56611   -122.83593    -2068.017    11381.208 
   33390     331.9949    2.9567327    58.282944   -124.25942    461.08409    11381.208 
33400        0.966432235384877103 10.145332918569112124 0.99735449735449732689 64 -270.85810363142149981
   33400    318.36161    4.9320853     62.43458   -126.61383    2611.9921    11381.208 
   33410    297.55288    8.8646549    60.918047   -128.95732    996.19849    11381.208 
   33420    264.64291    11.001524     62.50938    -130.5224   -2195.8442    11381.208 
   33430    285.04113    9.5743762    57.708834   -131.02523    2106.9938    11381.208 
   33440    301.42356    6.9972232    60.932636   -131.05717    960.01087    11381.208 
   33450      335.096    6.6096539     53.38786   -131.39504    2356.3226    11381.208 
   33460    336.49041    6.3980308    48.516963   -132.42307   -3410.7533    11381.208 
   33470    326.11954    5.9312449    55.131428   -134.08994   -64.127616    11381.208 
   33480    309.49037    5.6281743    51.206492   -135.92524     567.7275    11381.208 
   33490    282.96032    8.8088236     55.62491   -137.41984   -2651.0267    11381.208 
33500        0.9749746636621497986 10.097668191363416312 1 62 -272.0575787642345631
   33500    295.02545    8.6956399    56.074569   -138.38653   -2299.4626    11381.208 
   33510    306.45901     11.43853    58.075294    -139.2635    512.84615    11381.208 
   33520    312.36376    13.521262    51.578569   -140.42258    718.60127    11381.208 
   33530    295.39085    14.191892    58.234342   -141.92738    1915.2851    11381.208 
   33540    292.15207    11.431687    59.610091   -143.27458   -1964.8654    11381.208 
   33550    300.41876    9.4115705    55.540125   -144.54403    2030.1322    11381.208 
   33560    272.29779    6.9757041    58.338271   -145.68388    -611.5243    11381.208 
   33570    275.12659    7.5291323    56.282578   -146.42296    289.49318    11381.208 
   33580    257.35436    8.0303112    53.796762    -146.3418    1347.3429    11381.208 
   33590    276.11626    7.6386418     56.33294   -145.01439    1971.4441    11381.208 
33600        0.97545967395106303321 10.080182999796299725 1 66 -267.20255587814773435
   33600    275.51582    4.7854115    68.042548   -142.37099    1613.4774    11381.208 
   33610     315.0369    7.4326037    54.170068   -137.91536   -1544.3968    11381.208 
   33620    305.58976    5.8505716     63.12338   -132.48241   -2717.1711    11381.208 
   33630    331.27925    7.1727611    58.962907   -126.76687   -2797.6239    11381.208 
   33640    313.97158    8.8734377    66.814907    -121.9221   -3359.0462    11381.208 
   33650    311.51133    11.932984    63.246186   -118.63431    4210.3476    11381.208 
   33660    300.39983     12.24495    70.981125   -116.53358    364.19795    11381.208 
   33670    314.68907    9.9864563    63.995639   -115.20908    1939.8339    11381.208 
   33680    318.92173    7.7644152    63.589189   -114.42768    3824.5794    11381.208 
   33690    318.01439    6.4558031    71.174525   -114.93815    703.95499    11381.208 
33700        0.97622257553010205466 10.093393161767417965 1 73 -259.78962301900872944
   33700     315.6936    6.7457794    62.886434   -116.75418   -1087.5051    11381.208 
   33710    314.23642     7.837355    54.060904   -119.18513   -5394.3367    11381.208 
   33720    308.09945    6.9625456    56.671165    -122.1628    1433.9213    11381.208 
   33730    273.27207    5.8454393    67.720705   -124.90882    5927.2301    11381.208 
   33740    309.60384    5.9225207    54.296676   -127.21539    574.08367    11381.208 
   33750    291.77944    7.0433256    62.969945   -129.36717   -3173.5574    11381.208 
   33760      314.893    6.2269829    52.674676   -131.43015    -2288.309    11381.208 
   33770    315.67115    6.1222714    57.031726   -133.85916   -330.01342    11381.208 
   33780    330.62369    8.0327988    54.449718     -136.903    354.85805    11381.208 
   33790    298.51922    11.315985    56.694923   -140.58493   -2093.2533    11381.208 
33800        0.98273222828626805025 10.110474649884372056 1 72 -278.93874530128636025
   33800    297.94306    9.4953265    58.347032   -143.94577    1978.2585    11381.208 
   33810    286.37501    9.5175409    60.593181    -146.8427    1299.4402    11381.208 
   33820    281.35296    10.011128    60.700718   -148.72084    1869.1983    11381.208 
   33830    291.44722    8.1126922    59.955845   -149.73321   -2421.9216    11381.208 
   33840    313.50899    7.4943767    48.440313   -150.32885   -4033.2399    11381.208 
   33850    330.24446    5.9654719    53.578533   -151.05795   -217.11187    11381.208 
   33860    312.59482     4.005553    57.467863   -152.38276    290.08497    11381.208 
   33870    300.27568    3.3826517    56.970587   -154.02415    138.28329    11381.208 
   33880    290.75965    5.4040614    56.628235   -155.68685    1241.4484    11381.208 
   33890    299.02134    8.1728672     54.34066   -157.45855   -1065.1149    11381.208 
33900        0.99042849198176874381 10.085980433543202395 1 72 -290.85253743227360701
   33900    290.15442    10.308481    50.263007   -159.38846    2750.4722    11381.208 
   33910    272.32508    12.693562    49.759772    -160.9107    872.12088    11381.208 
   33920    261.22818    11.187365    51.294937   -161.36724    1906.0571    11381.208 
   33930    255.40302    11.495481    53.202451   -160.47446   -586.93012    11381.208 
   33940     278.5675    11.016391    57.188152   -158.22409    5269.3148    11381.208 
   33950    283.60784     10.58165    59.373455   -155.15122    1647.6558    11381.208 
   33960    291.63694    8.2955652    58.019423   -151.79613   -1430.5134    11381.208 
   33970    307.89047    6.2988541    50.091596   -148.51258   -3898.6605    11381.208 
   33980    326.55313    8.0207699    48.626266   -145.35828   -4191.7069    11381.208 
   33990    328.48827     11.85731    44.714887   -142.68457   -922.39061    11381.208 
34000        0.99032082696503098695 10.106645325571660621 1 69 -288.83383028697619466
   34000    327.53623    14.518374    51.677569   -140.43269    1293.6783    11381.208 
   34010    313.97509     15.36214    55.872048   -138.67344     1917.285    11381.208 
   34020    310.80006    13.029817    57.765874   -137.55228   -65.271198    11381.208 
   34030    308.57115    12.074768    62.463443   -136.97403     584.4932    11381.208 
   34040    338.23563    9.8146728    46.769098   -137.25511    1585.3738    11381.208 
   34050    318.97372    9.7726271    55.666623   -138.34777   -1053.9229    11381.208 
   34060    316.19107    8.2066145    50.649139    -139.7904   -937.48416    11381.208 
   34070    312.92798     6.200769    52.569697   -141.87839    779.80499    11381.208 
   34080    311.00593    7.6704828    58.136792   -145.11268    346.90845    11381.208 
   34090    299.68675    10.575107    54.808679   -150.17452   -1792.8108    11381.208 
34100        0.98109677867503564119 10.151927985018476264 1 72 -282.44048314956546619
   34100    279.00728    14.055925    51.009716   -156.02699   -3133.1028    11381.208 
   34110    271.60621    11.824443    58.125503   -161.39874   -1007.3797    11381.208 
   34120    294.09669    10.369218    44.775167   -165.66908   -1154.1997    11381.208 
   34130    269.44134    8.8076179    50.051339   -168.53156    429.47859    11381.208 
   34140    278.93701    5.8766934    47.041252   -169.88867    1536.9723    11381.208 
   34150    279.43732    7.1130984    47.870969   -170.22477    6476.0545    11381.208 
   34160    282.80804    8.6691002     48.59298   -170.02958    1740.6341    11381.208 
   34170    278.40739     8.837337    49.177408     -169.489    1351.7163    11381.208 
   34180    275.29619    7.0047061    53.230096   -168.51948   -2221.4305    11381.208 
   34190    307.13572    4.8678359    47.561088   -167.16542    1172.3647    11381.208 
34200        0.96981165842356531481 10.15184813939655406 1 69 -297.70396139278125247
   34200    290.96396    4.4120494    55.062245    -165.8731   -1873.0879    11381.208 
   34210    294.24257    5.6014494     46.69518   -164.62958    -1019.674    11381.208 
   34220    253.64325    4.7913905    57.539456   -163.10079    886.39822    11381.208 
   34230    275.96281    5.1933174    51.003961   -160.87199    46.809389    11381.208 
   34240    278.84636    5.1089178    50.748298   -158.02001   -1010.0219    11381.208 
   34250    285.31633    5.5093506    50.806439   -155.18346    2361.8713    11381.208 
   34260    285.51883    5.7055281    53.370682   -152.51325   -727.27512    11381.208 
   34270    292.20224    6.8860331    49.279124   -149.93016   -917.20402    11381.208 
   34280     312.1921    9.4752247    41.060849   -147.53245   -909.08969    11381.208 
   34290    285.33036    10.943842     53.60206   -145.40311    3328.2446    11381.208 
34300        0.96062716735149655811 10.205645916724481737 0.99470899470899465378 66 -277.87452225946083217
   34300    296.74022    10.673041    49.228975   -143.42653     206.4698    11381.208 
   34310    294.51869    8.6855264    53.191986   -141.56516   -2941.1445    11381.208 
   34320     324.5542    4.2045857    54.379969    -140.3143   -2020.7001    11381.208 
   34330    311.82252    2.8259356    54.695051   -140.10499   -350.92094    11381.208 
   34340    309.20326     2.239994    51.966942   -140.61329    1206.9947    11381.208 
   34350    307.24632    4.3666368    57.179439   -141.49298    2068.2148    11381.208 
   34360    304.49202    5.4660814    53.325499   -142.73684   -1108.5731    11381.208 
   34370    328.34617    7.1707764    48.778808   -144.37628   -251.61415    11381.208 
   34380    316.96075    7.5260619     54.77816    -146.6083     -3139.03    11381.208 
   34390    306.44486    8.3689333    44.285466   -149.01691     604.4708    11381.208 
34400        0.9616753233977444193 10.215601084747406802 1 63 -279.15641991866482385
   34400    282.23939    7.9273663    57.636575   -151.27851    204.06921    11381.208 
   34410    288.31605    8.3371272    53.215732   -153.28076     1640.224    11381.208 
   34420    259.33999    6.7697715    52.676354   -154.88633    757.43546    11381.208 
   34430    287.21267    4.8704004    44.762652   -155.65144   -1678.5776    11381.208 
   34440    295.82546    7.9772507    49.853328   -155.79068   -1110.7041    11381.208 
   34450     295.8622    12.095417    51.238468   -155.63779   -3739.8509    11381.208 
   34460    285.50207    11.591024    60.970497   -155.16072      304.712    11381.208 
   34470    277.46012    10.021476    61.202741   -154.08253   -90.914564    11381.208 
   34480     285.3892    9.7094491    57.930481   -151.91736   -1289.1553    11381.208 
   34490    303.62497    9.4033633    58.312848   -148.49671   -972.98458    11381.208 
34500        0.96825971104807440071 10.182435618645135023 0.99735449735449732689 67 -288.52270409788320649
   34500    318.69863    6.1882222    54.101594   -144.12573     1125.076    11381.208 
   34510    319.24887    4.6906926    55.033717   -139.80507    128.22706    11381.208 
   34520    312.18437     5.136587    63.580223   -135.82023    931.44724    11381.208 
   34530    325.46918    6.2686983    54.888061   -132.42406   -1589.0426    11381.208 
   34540    297.14676    7.1536911    64.969303   -130.10079     2095.091    11381.208 
   34550    299.86389    6.8594297    60.445101   -128.17339   -1023.9828    11381.208 
   34560    297.31574      7.05577    63.167698    -126.1472    1002.6318    11381.208 
   34570    326.11306     9.409215    62.466893   -124.16277   -736.27249    11381.208 
   34580    330.76233    9.1160509    63.957436   -123.23145    1427.5753    11381.208 
   34590    344.87821    7.2287236    58.134847   -124.12946    2094.2221    11381.208 
34600        0.97271042626814008258 10.152682814597955741 0.99735449735449732689 64 -270.91857514493233339
   34600    317.88151    8.7238519    59.712456   -126.89182    2725.9267    11381.208 
   34610    307.64504    7.4333073    58.923887   -130.87286   -751.62457    11381.208 
   34620    311.70654    6.3835099    58.572792   -135.80767   -1118.4424    11381.208 
   34630     305.9513    6.1578514     56.47777   -141.61701   -2452.5064    11381.208 
   34640    298.12303    7.8609559    52.200305    -146.9795    922.81617    11381.208 
   34650    278.10828     7.539671    55.347651   -151.03481     1211.133    11381.208 
   34660    254.20845    8.7639838    59.289138   -153.23199    148.55892    11381.208 
   34670    271.64525    9.3086019    57.080128   -153.91457    951.78834    11381.208 
   34680    278.68265    6.7410437    56.842147    -153.8393   -1114.9136    11381.208 
   34690    282.32725    6.7580805    51.086489   -153.41663   -425.53908    11381.208 
34700        0.96632492891163312976 10.166002481979383276 0.99735449735449732689 64 -276.93709837792397366
   34700    274.21773    6.1212816    65.813235   -152.69367   -1567.9334    11381.208 
   34710    282.61406    7.8965064    60.814572   -151.65565   -1886.7886    11381.208 
   34720        290.6    8.5837062    58.516168   -150.39951    -1046.925    11381.208 
   34730    283.73319    9.6889574    61.852342   -149.14552     846.1994    11381.208 
   34740    276.76579    8.3615336    55.607595   -147.75294    1281.1969    11381.208 
   34750    295.51486    6.2582805    54.666604    -145.7856    2192.7636    11381.208 
   34760    315.97827    4.4669106    48.715435   -143.23236    1737.4214    11381.208 
   34770    285.04311     5.183547    59.940349   -140.46678    1564.1385    11381.208 
   34780    287.67903    6.5342851    60.538451   -137.37239    1487.2273    11381.208 
   34790    294.14405    8.9426523    63.786497   -134.01779   -1269.2824    11381.208 
34800        0.96612903347635226137 10.178269822119389687 0.99735449735449732689 61 -270.18617058526774599
   34800    307.27858    11.143845    63.299007   -130.96343   -2166.4039    11381.208 
   34810    326.68046    12.429642    53.951701    -128.3338   -2603.4683    11381.208 
   34820    295.82213    9.9234018    62.018661   -126.45066    2478.2188    11381.208 
   34830    286.67023    8.3591954    66.643354   -124.75488   -868.35195    11381.208 
   34840     326.2723    8.1901667    58.043343   -122.89983   -1038.4428    11381.208 
   34850    335.25763    5.2339739    60.253925   -121.79596   -3187.4253    11381.208 
   34860    366.55143    4.2512059    55.281105   -122.33359    3200.6658    11381.208 
   34870    303.83301    5.4679415    66.592327    -124.7194    3567.0519    11381.208 
   34880    310.75734    5.3067078    50.039751   -127.52885   -1424.6694    11381.208 
   34890    270.38671    4.3937611    69.793722   -130.02405   -1378.6434    11381.208 
34900        0.96800753277731443891 10.189539038153803574 0.99735449735449732689 65 -271.30797643922068119
   34900    308.63177    3.1883632    53.321942   -131.47213   -810.21552    11381.208 
   34910    313.83881    3.1152666    58.976489   -132.64144   -14.921233    11381.208 
   34920    306.38531    4.1840711    62.583367   -133.56883   -2126.6381    11381.208 
   34930    292.03289    4.4896863      53.1221   -134.17663   -3106.4038    11381.208 
   34940    286.16218    4.9865663    58.248728   -134.25465    194.95353    11381.208 
   34950    280.67258    6.9343129    59.010927   -133.88105     3046.361    11381.208 
   34960    271.08585    6.6315975    57.326831   -133.12062    429.30668    11381.208 
   34970    279.48712     4.354965    61.255227   -131.95002    2142.1169    11381.208 
   34980    316.13014    2.1015804    58.997108   -130.65835   -1401.8591    11381.208 
   34990    322.16008    2.4345241    53.651811   -129.54739    902.65126    11381.208 
35000        0.97070210866004469352 10.198418045032775936 0.99735449735449732689 66 -264.39649495255963529
   35000    299.01109    3.2981468    63.311781   -128.91961   -2006.7105    11381.208 
   35010    280.12956    5.8915591    60.917194    -128.2903   -3911.6044    11381.208 
   35020    291.72552    6.5538138    67.709962   -127.47852   -3906.3513    11381.208 
   35030    299.29784    9.3530886    63.872994   -126.72917     1127.219    11381.208 
   35040    322.71554    16.286606    57.672509   -126.30723    2064.9274    11381.208 
   35050    335.38108    14.183828     54.69262   -126.76617    4536.8238    11381.208 
   35060    332.87337    9.0881947    59.558583   -128.31773    545.77377    11381.208 
   35070    333.30866    8.5632429    52.384395   -131.41593    608.28713    11381.208 
   35080    312.38348    9.5738266    58.397438   -135.57427    120.19375    11381.208 
   35090    322.66459    9.7096392    57.383453    -140.8311   -423.39438    11381.208 
35100        0.97865606924076442574 10.167886934505235175 1 68 -289.22620967032139561
   35100    314.82732    6.7233043    57.539009   -146.58326   -941.74544    11381.208 
   35110    298.20926    5.2753069    51.681419   -151.75848   -947.34259    11381.208 
   35120    297.26311    4.3285845    49.956155   -155.58171   -189.69304    11381.208 
   35130    296.14265    4.9094499    48.420937   -157.92495    1633.2165    11381.208 
   35140    301.19482    4.5197688    47.904181   -159.34261    2593.2644    11381.208 
   35150    296.94099    3.7639895    44.502147    -159.9476    177.96276    11381.208 
   35160    276.72375    5.6697634    56.771601    -160.0596    -3107.372    11381.208 
   35170    285.41682    6.3649912    51.757016   -159.63367   -1430.3382    11381.208 
   35180    281.98827    7.5658704    51.891781   -158.70154    1227.3554    11381.208 
   35190    267.26251    7.1007458    52.922724   -157.21209   -1158.6067    11381.208 
35200        0.98279243781472169772 10.134106793335954322 1 72 -284.03200875699587868
   35200    285.77749    7.2030159    51.197145   -154.55105   -2330.0179    11381.208 
   35210     287.4604    9.4844449    51.654705   -151.13265    -2218.041    11381.208 
   35220    322.27252    9.2792938    43.230829   -147.20736    380.12665    11381.208 
   35230     303.1463    10.699922    56.677429   -143.59638     3346.146    11381.208 
   35240    325.07713    13.006423    54.612644   -140.61417    2730.8598    11381.208 
   35250    290.86937    10.291096    61.957087   -138.78537    1431.6109    11381.208 
   35260    315.77648    7.2744649    56.070785   -137.62864   -358.02289    11381.208 
   35270    318.12602    8.5300426    49.003816   -136.81934     406.0412    11381.208 
   35280    344.03134     9.119832    47.458088    -136.3545   -930.04344    11381.208 
   35290    331.79555    11.105432    57.397954   -136.52523   -2771.5497    11381.208 
35300        0.98189815100166544237 10.118866760629147805 1 69 -284.65046932524160184
   35300    325.18768    13.696407    50.578544   -137.31342   -981.31085    11381.208 
   35310    297.46503    13.112626    61.003376   -138.68678    629.37847    11381.208 
   35320    290.23651    9.5483123    60.191184   -140.08056    4071.5367    11381.208 
   35330    306.06352    10.391759    54.099269   -141.26962    1593.6192    11381.208 
   35340    326.83343    9.9789739    45.931773   -142.42995    3541.9969    11381.208 
   35350    332.07608    8.1299193    56.242508   -143.90295    4063.1846    11381.208 
   35360    323.87649    8.5650151    59.352232   -146.06003     85.78921    11381.208 
   35370    302.35924    10.455558    58.590258   -148.69551   -4554.2746    11381.208 
   35380    295.74636    12.353315    54.399691   -151.06389    -3499.141    11381.208 
   35390     302.6424    9.8174897    51.561431    -152.8607   -2363.6097    11381.208 
35400        0.98084348198062887292 10.154048177670528474 1 73 -300.56186478643525106
   35400    322.76601    7.1859023    49.503862   -154.32203    4735.7588    11381.208 
   35410    316.68651    6.6597107     55.63409   -156.12968    1871.7754    11381.208 
   35420    292.57383    9.3669309    51.402549   -157.56669     1617.415    11381.208 
   35430    290.43104    7.1409495    54.720901   -158.36456    9.8435909    11381.208 
   35440    282.45472    8.4570053    49.474873   -158.58368   -800.69564    11381.208 
   35450    287.44388    9.0755099    57.133687   -158.44651   -1464.1216    11381.208 
   35460    289.06836    8.2400534    51.470191   -158.03934   -399.58979    11381.208 
   35470    300.04817    7.7390905    45.750478    -157.2697   -1947.2649    11381.208 
   35480    297.11943     6.181743    53.961453   -156.28236    443.31209    11381.208 
   35490    291.47281    4.0025441    53.115102   -154.98272   -1866.7625    11381.208 
35500        0.96743631775156235797 10.19880484510455787 1 67 -280.57247750293834088
   35500    280.53854    3.9338648    58.510023    -153.4652   -400.84174    11381.208 
   35510    268.09392    3.7032415     60.82272   -151.59106   -2732.1066    11381.208 
   35520    279.81967    3.4108512     60.89055   -149.19712   -2133.4651    11381.208 
   35530    302.53653    3.9646376    54.523045   -146.42068   -1244.8417    11381.208 
   35540    308.29064    5.0307793     51.09371    -143.4345    890.33012    11381.208 
   35550    310.82625    7.0041591    50.136242   -140.23498    3124.1427    11381.208 
   35560    292.60389    8.2680135    58.617114    -136.6419    3210.3657    11381.208 
   35570    301.98125    9.3695619    64.591575   -133.02935    917.38607    11381.208 
   35580    305.70411    9.7736087    66.467075   -130.32435    313.40847    11381.208 
   35590    324.59548    9.1085398    55.681303   -128.93771   -816.84123    11381.208 
35600        0.96948977980154449341 10.18805522420742804 1 69 -272.92623201980597969
   35600     318.8323    6.2853197    61.029153    -128.4687    2361.0415    11381.208 
   35610    316.60546    6.6782625    56.848145   -128.39003   -587.19624    11381.208 
   35620    295.20076    7.1009526    64.630502   -128.59465    -3484.572    11381.208 
   35630    303.60661    4.9941109    55.413461   -129.00662    -2214.758    11381.208 
   35640    296.56925    4.8299277    64.696588   -129.65228    -698.0251    11381.208 
   35650    319.49402    7.8442854    53.663688    -130.3571    2450.9727    11381.208 
   35660    313.90954    11.797646    54.366407   -131.40057   -332.81718    11381.208 
   35670    315.44847    11.338037    55.929277   -132.67225    1547.2796    11381.208 
   35680    332.18198    7.3117348    54.253999   -134.13436    1344.5626    11381.208 
   35690    322.62191    6.9779428    51.450661    -135.8903    454.88029    11381.208 
35700        0.97287279777638147049 10.185253734941651871 1 66 -276.68073027088644267
   35700    307.40553    4.2277831    56.019812   -137.40047   -2030.3522    11381.208 
   35710    303.80316    2.7030571    63.760059   -138.63623    1299.9675    11381.208 
   35720    333.18352    2.7664039    57.749346   -139.62386   -1699.9418    11381.208 
   35730    338.55912    4.6656676    52.553815   -141.02685    276.40027    11381.208 
   35740    324.12601    5.7689648    50.707943    -142.7536   -3153.6324    11381.208 
   35750    311.39679    6.2283391    53.580937   -144.41838    426.76369    11381.208 
   35760    299.94125    5.6036384    64.068424   -145.91966   -1847.1263    11381.208 
   35770    292.05012    4.4949344     55.38861   -147.30185   -418.80231    11381.208 
   35780    292.78427    2.6083552    63.884393    -148.5254    1067.4953    11381.208 
   35790    308.50696     3.368996    53.441471   -149.58164    652.93799    11381.208 
35800        0.98221691785689901888 10.124829308545002959 1 68 -297.51675347037922847
   35800    323.38979    4.8277355    52.313815   -150.99429   -1605.1291    11381.208 
   35810    279.38054    6.6305524    62.428215   -152.95091   -2165.8257    11381.208 
   35820    292.19564    6.1652457    52.558016   -154.70951   -1608.0735    11381.208 
   35830    290.66711    7.2627783    61.592591   -156.23996    4863.1896    11381.208 
   35840    314.97419    7.8275507    51.610193   -157.67863    3307.3424    11381.208 
   35850    298.89301    9.0420441    54.120721   -159.50858    4011.5602    11381.208 
   35860    287.90558    10.019274    52.285917   -161.33262   -2798.3591    11381.208 
   35870    297.03527    13.168485    52.223221   -163.00096   -4134.8567    11381.208 
   35880     292.8341    14.043807    60.889808   -164.83842   -3592.4486    11381.208 
   35890    293.11089    13.880888    50.513343   -167.12949    2336.7747    11381.208 
35900        0.99001429908648452827 10.078019083967626912 1 67 -292.87589785324331615
   35900    272.37274    14.620299    54.175982    -169.4684    2195.9686    11381.208 
   35910    292.23427    11.248071    47.517211   -171.60729    2136.7684    11381.208 
   35920    279.31223    9.5407182    54.787192   -173.56473    884.92358    11381.208 
   35930    282.17123    10.886458    50.247372    -175.4111     2471.068    11381.208 
   35940    259.22994    13.460324    51.177361   -177.01316   -2223.6154    11381.208 
   35950    256.33745    12.171957    49.977799   -177.78692   -1028.1588    11381.208 
   35960    254.36367    10.000589    57.849709   -177.42676   -2085.8095    11381.208 
   35970    253.39491    9.2356717    64.309108    -175.5448    1666.2294    11381.208 
   35980    274.35355     8.998467     62.11759   -171.78708   -790.54905    11381.208 
   35990    308.42551    9.0808112    57.515862   -166.87528    1422.2296    11381.208 
36000        0.99015032040877359876 10.096584538697204181 0.99470899470899465378 71 -307.47655283379680213
   36000    321.30118    11.015542    54.435227   -161.90041    383.07903    11381.208 
   36010    313.65943    10.297071    44.197874   -157.93015   -434.58089    11381.208 
   36020    286.08431      10.1629    54.845127   -154.48181    -970.2909    11381.208 
   36030    292.31533    10.802609    63.993273   -151.32507    2799.0599    11381.208 
   36040    322.60089    7.5564319    57.750059    -148.7521    436.00634    11381.208 
   36050    304.57177    5.9907975    60.979935   -147.37399     1439.416    11381.208 
   36060    293.81818     5.422336      58.8683   -146.41562   -1553.6378    11381.208 
   36070    286.06885    7.1917134    52.076284   -145.21649   -144.98046    11381.208 
   36080    314.14316    6.8431758    53.213053   -143.84246    -2273.181    11381.208 
   36090    291.40408    4.8222939    58.558215   -142.64641    -1071.108    11381.208 
36100        0.98728940755503102888 10.106478376611512715 0.99735449735449732689 70 -273.21700372202036533
   36100     290.6801    3.7503224    54.121888   -141.51476   -2325.4646    11381.208 
   36110    291.17105    5.0583015    63.353564    -139.8956    2322.9319    11381.208 
   36120    302.29543     7.971557    57.544852    -138.0568    974.92923    11381.208 
   36130    308.86503    10.782004    54.103998   -136.24868    1424.1289    11381.208 
   36140    291.16452    10.216761    60.108888   -134.07518    555.89737    11381.208 
   36150    333.54298    8.7042843    49.002559    -130.7881    -478.7602    11381.208 
   36160    329.05607     8.542976    65.692911   -126.70743     891.3831    11381.208 
   36170    339.64316    9.1849576    57.767184   -122.68017   -448.72679    11381.208 
   36180    302.78337    10.589749    71.116015   -119.24602     642.5943    11381.208 
   36190    318.80708    14.392715    60.143755   -115.58411    971.84563    11381.208 
36200        0.98331254752500740768 10.126648785512076145 0.99735449735449732689 69 -258.68905622396198396
   36200     324.6384    14.810095    60.868594   -111.60087    2212.0535    11381.208 
   36210    345.25562    13.041974    71.889196   -107.79934    998.72907    11381.208 
   36220    374.47316    11.345424    54.626833   -105.05489   -2625.9049    11381.208 
   36230     353.3306    11.480866    62.659047   -104.49974   -737.20052    11381.208 
   36240    326.75498    10.723429    68.226875   -106.08393    1471.6037    11381.208 
   36250    319.30026    10.643756    69.052435   -109.08245   -105.61411    11381.208 
   36260    331.40045    8.8892883    60.891017   -114.03149   -1787.1342    11381.208 
   36270    319.57602    6.8777117    60.163728   -120.20619    -4417.199    11381.208 
   36280    321.47525    6.7997957     61.86961   -126.82339    569.01995    11381.208 
   36290    323.03579    8.3635413    52.144259   -132.51332    1193.9866    11381.208 
36300        0.97910479804037797713 10.149087516919829355 1 71 -280.66575457304793417
   36300     316.7594      6.30349    57.331063   -137.14742    1398.7063    11381.208 
   36310    286.52213    6.5315709     60.55453   -140.25957    1404.6311    11381.208 
   36320    315.52846     9.149439    50.060858   -142.09344   -445.74496    11381.208 
   36330    298.09092    8.1160603    63.490502   -143.65002    1650.0888    11381.208 
   36340    294.34934    8.9876286    59.024854   -145.04466   -1835.8855    11381.208 
   36350    292.94454    8.7732877    56.800118   -146.20107    -2433.253    11381.208 
   36360    309.01662    6.0940732    57.672144   -147.33255   -682.99167    11381.208 
   36370    315.98645    6.0848391    53.423603   -148.83887   -1039.3278    11381.208 
   36380    303.16564    7.1815411    46.751067   -150.66108    3336.5694    11381.208 
   36390     304.6636    8.1787174    44.101658    -152.2152   -1391.5714    11381.208 
36400        0.97631651173409317312 10.172041138075170963 1 70 -287.67133811828659873
   36400    296.32973    7.3582307    47.910782   -153.40934    660.46946    11381.208 
   36410    273.84368    7.6916206     57.31355    -154.2292   -2376.7555    11381.208 
   36420    304.85982     8.798514     50.29248   -154.47923    147.88808    11381.208 
   36430    303.55792    6.8584095    54.412126    -154.5005     895.3634    11381.208 
   36440    298.20121    5.4019437    55.661853   -154.46377    2585.0497    11381.208 
   36450    293.62968    6.4524481    51.878472    -154.1509   -177.68405    11381.208 
   36460    300.63099    7.3955987    56.242896    -153.4642    1132.0974    11381.208 
   36470     300.2882    9.4078381    62.203048   -152.53939   -503.09599    11381.208 
   36480    313.23106    9.3733154    48.532984   -151.66907   -1496.0089    11381.208 
   36490    289.26679    8.5140088    56.021722   -150.51621   -2752.0962    11381.208 
36500        0.97287836059570964586 10.190147880730487273 0.99735449735449732689 66 -297.8681356172201049
   36500    329.60146    7.5992269    49.605942   -148.53127     3451.471    11381.208 
   36510    326.98516    9.1503006     58.70882   -146.60902   -462.53401    11381.208 
   36520     294.0444    9.1431034    61.587576   -145.45679    1054.5817    11381.208 
   36530    304.01754    8.1535611    52.238478   -144.45566   -1640.9857    11381.208 
   36540     291.1436    7.8522253     65.08874   -143.08312   -1071.4225    11381.208 
   36550    332.26252    6.8960688    54.341253   -141.56136    -1665.911    11381.208 
   36560    305.75981    8.1648362    60.759679   -140.37369   -2700.4892    11381.208 
   36570    312.95952    9.1970354    54.277209   -139.22412   -154.51133    11381.208 
   36580    309.13438    8.1038042    53.138811     -138.139    5317.9438    11381.208 
   36590    323.63482     5.921927    54.846067   -137.10279    4574.8481    11381.208 
36600        0.97085299989116113917 10.183593257140893584 1 64 -285.71620812434997561
   36600    329.71708    4.7418924    55.228274   -136.32696    3210.2814    11381.208 
   36610    323.84811    5.1091908      57.9409   -136.34036   -2787.0035    11381.208 
   36620    312.70398    6.0400586    54.539482   -137.06266   -3403.2844    11381.208 
   36630    307.56969    4.1471976     56.38447   -138.07632   -3232.4804    11381.208 
   36640    313.85243    4.1867551    61.548478   -139.47897   -35.536618    11381.208 
   36650    284.71039    5.0143663    72.386452    -141.4553   -188.96832    11381.208 
   36660     309.3746    6.1598449    56.307555   -143.66252   -528.93428    11381.208 
   36670    307.61663    4.6467323    51.773227   -146.23942   -679.94274    11381.208 
   36680     316.8216    3.2508829     53.33636   -149.37825    2826.9913    11381.208 
   36690    301.11222    4.1510877    53.539563   -152.98146    1564.9554    11381.208 
36700        0.97325726218942398837 10.156819270580928816 1 65 -278.93957542869168265
   36700    270.17222    5.4922163      52.4263    -156.5291    304.98864    11381.208 
   36710    261.03181    5.1330741    51.705421   -159.12995   -3078.6724    11381.208 
   36720    269.52713    5.5219876    59.503862   -160.83673    1070.5884    11381.208 
   36730    283.34854    5.1606715    53.303304   -162.03922    3126.5626    11381.208 
   36740    268.37766    5.0766043    57.247614   -162.57162    16.974962    11381.208 
   36750    295.25886    5.3891931      55.2762    -162.3789   -1838.9582    11381.208 
   36760    282.08518    6.6641789     58.48947   -161.73232   -5330.8274    11381.208 
   36770     288.5263    8.4362841      54.4668   -160.48365    2069.1643    11381.208 
   36780    287.38625    7.9024103     59.52962   -158.45494    2745.7588    11381.208 
   36790    287.68227    10.969602    58.712891   -155.19963   -514.78657    11381.208 
36800        0.98273785528701307346 10.148026842585441187 1 69 -287.56943714520008371
   36800     301.5003    11.875724    58.739616   -150.96474   -727.52548    11381.208 
   36810    296.93673    10.334526     66.03453   -146.21802    1287.6481    11381.208 
   36820    322.52393    10.647842    57.365697   -141.10697    2836.7503    11381.208 
   36830    313.65526    10.555619    62.365033   -136.77296   -381.37562    11381.208 
   36840    314.67789    9.2830091    60.510731   -132.67705   -3080.7052    11381.208 
   36850    320.26941    7.6760825    59.758959   -129.78994   -2792.2363    11381.208 
   36860     305.0408     6.001491    67.825216   -127.79339   -939.50664    11381.208 
   36870    311.31835    6.1353065    60.684353   -126.79654    922.07916    11381.208 
   36880    305.10896    5.6358913     59.75495   -126.24376      423.838    11381.208 
   36890    321.02119    5.9237524    62.471407    -126.1053    3338.2548    11381.208 
36900        0.98264685666263495989 10.131564031705027062 1 65 -276.58942379498137143
   36900    331.18334    7.7581514    55.417395   -126.53584     -2378.22    11381.208 
   36910     313.8339    7.6322903    53.056152   -127.65995     375.8752    11381.208 
   36920    321.43673    5.9200271    56.706133   -129.38145    318.93418    11381.208 
   36930    314.70184    6.6058514     61.59062    -132.1045    1946.6919    11381.208 
   36940    298.72921    6.6850041    61.381432   -136.03375    639.44932    11381.208 
   36950    293.89242    6.7774882    57.626084   -140.61859   -397.05051    11381.208 
   36960    305.16182    6.0656553    54.217083   -146.37191   -777.01589    11381.208 
   36970    284.52841    8.1895609    57.837313   -152.05753   -162.46243    11381.208 
   36980    306.24107     7.999039    49.871545   -157.46171   -1881.9665    11381.208 
   36990    272.37173    8.4172105    64.368756   -161.31131    72.801432    11381.208 
37000        0.98341597417677317772 10.127978774635590042 1 66 -288.26800527531639773
   37000     276.1169    7.8814155    49.818803    -163.1641    727.01385    11381.208 
   37010    285.26406    7.7042655    52.189725   -163.66482    1364.0214    11381.208 
   37020    288.76193    9.4258483    52.879693   -163.52803   -20.412172    11381.208 
   37030    265.78936    8.9464391    62.207245   -163.14759    -1127.469    11381.208 
   37040    269.72485    10.662142    54.430353   -162.08738   -2993.1313    11381.208 
   37050    291.00482    10.206869    51.316969   -160.18598   -240.58186    11381.208 
   37060    284.60319    8.8379029    57.378378   -157.99157    2075.7257    11381.208 
   37070    286.70185    8.5465929    59.724099   -155.22081    1160.2169    11381.208 
   37080    294.97075    8.1809475    54.439301   -152.18386    1662.3295    11381.208 
   37090    311.30918    6.4253849    54.495076   -149.07118    70.182124    11381.208 
37100        0.97858011016066526189 10.140166243001537794 0.99206349206349198067 67 -276.82026088006330156
   37100    288.21608    7.7531567    63.982716   -146.23442    1087.3156    11381.208 
   37110    295.77809     8.322515    62.031395   -143.60233   -2987.2393    11381.208 
   37120    279.55096    6.6224493    63.496942   -140.92049   -1918.7929    11381.208 
   37130    316.62956    5.3772925    58.172841   -138.23987    1232.7806    11381.208 
   37140    306.50303    5.0560748    60.962204   -135.74571    2797.8641    11381.208 
   37150    287.50651    6.4988854     62.06106   -133.74636    1314.9992    11381.208 
   37160    278.69412    6.9083751    69.100877   -131.68323   -2028.1213    11381.208 
   37170    303.35888    4.7070629    60.462964   -129.45888   -1637.8379    11381.208 
   37180     323.7285    4.6634413    69.657169   -127.65083    1069.6551    11381.208 
   37190    350.14113    4.6432463    58.264414   -126.99614    1147.5734    11381.208 
37200        0.97881132472354914764 10.161029122234463529 0.99470899470899465378 66 -284.19880849811215739
   37200    345.32261    4.5668308    59.153371   -127.73896   -982.13694    11381.208 
   37210    329.35497    5.5149763    62.725483   -129.68914   -1069.8406    11381.208 
   37220    310.81127    5.6280414    59.731963   -132.75722    398.03246    11381.208 
   37230    309.35902    7.4938674    60.753092   -136.97126    2002.4841    11381.208 
   37240      298.067    7.2563406     55.86526   -141.67655    1984.6979    11381.208 
   37250    310.86871    5.4343509    51.920365   -145.86592   -770.36268    11381.208 
   37260    288.09902    6.2045996    57.246184    -149.1462   -1927.6816    11381.208 
   37270    287.98997    7.3121346    55.785166   -151.32819   -2657.4441    11381.208 
   37280    284.67115    6.9963177    61.533304   -152.75749      873.689    11381.208 
   37290    286.32525    5.6649659    66.817296   -153.52434    2331.8405    11381.208 
37300        0.97589237333720779688 10.188292730727727786 1 66 -293.09436901916689067
   37300    306.97828     8.294599    57.374688   -154.00769   -1272.2003    11381.208 
   37310    306.66273    6.7669395    60.206881   -154.66695    -354.3471    11381.208 
   37320    290.88018    6.7151985    54.675634   -155.40455    674.41464    11381.208 
   37330    283.54892    7.1580474    57.317916   -155.82732    478.42625    11381.208 
   37340    270.22757    8.0612972    58.366264   -155.44597   -1146.0215    11381.208 
   37350    298.44825     8.414402    52.127893   -154.24053    116.20317    11381.208 
   37360    309.85424    6.6775112    60.223322   -152.76715    288.45251    11381.208 
   37370    317.34629       5.8915    55.319039   -151.44449    236.38948    11381.208 
   37380    306.38396    5.5697754    56.819969   -150.39977   -4498.8652    11381.208 
   37390    301.49474    4.6096769    57.936593   -149.47428   -1883.1179    11381.208 
37400        0.97019152171412825769 10.189277081417294823 1 70 -286.09360092313829682
   37400    303.41345    4.8899052       57.854   -148.62209    436.36454    11381.208 
   37410    308.19965     4.395531    59.678691   -147.58459    3531.3333    11381.208 
   37420    323.40735    3.3663362    57.511704   -146.42552    781.26879    11381.208 
   37430    321.29554    3.5845327    51.698453   -145.51141    889.12229    11381.208 
   37440    281.32674     4.600963    65.271212   -144.96175    1007.5204    11381.208 
   37450    288.13685    4.0170249    60.828192   -143.94818   -898.98099    11381.208 
   37460    293.99666    3.8444897    64.403654   -142.10326    1199.5012    11381.208 
   37470    294.68382     5.035946    69.599339   -139.71055    2105.7585    11381.208 
   37480    308.47414    5.8726589    65.120579   -136.74991   -1367.0499    11381.208 
   37490    298.30493    6.8464067    65.947048    -133.8302   -2728.0618    11381.208 
37500        0.95996236941807711052 10.215355714613224336 1 68 -267.71364783627353745
   37500    301.98929    6.3219705    62.578616    -130.8874   -3773.5821    11381.208 
   37510    334.93023    5.6033796     57.46665   -127.61796    2770.2251    11381.208 
   37520    328.76507    6.4903976    65.217424   -124.60657     2623.215    11381.208 
   37530    321.29568    3.9180301    68.854066   -122.21114    1983.1758    11381.208 
   37540    318.54322    3.1692185    77.063707   -120.85366    159.24183    11381.208 
   37550    365.73536    4.1041042    52.937752   -120.85739    -4041.852    11381.208 
   37560    349.87958    4.6168415     60.08146   -123.07544   -3224.4193    11381.208 
   37570    335.71686    6.1911038    55.270176   -127.12486    1081.9511    11381.208 
   37580    291.21508    7.9368558    68.804146   -132.43175     2621.811    11381.208 
   37590    317.06412    10.869115    60.769038   -138.19424   -729.79502    11381.208 
37600        0.96540643214421439922 10.211381967996743469 1 69 -286.63692097028172157
   37600    315.60386     11.28061    54.360902   -143.64214    -1209.273    11381.208 
   37610    308.16393    9.4696179    57.475624    -147.9699    111.26362    11381.208 
   37620    294.38889    6.5427009    56.336895    -150.7701   -1001.9483    11381.208 
   37630    301.60834    5.7382559    55.104192   -152.60798    -1924.476    11381.208 
   37640    299.53049    6.9838382    57.715693   -153.81139   -633.05293    11381.208 
   37650    324.22865    6.4108574    51.422728    -155.0255    2850.3491    11381.208 
   37660     301.1031    7.1818484    50.745129   -156.33505    2763.9567    11381.208 
   37670    289.18364    8.0137121    59.289516   -157.05352    1654.1181    11381.208 
   37680    296.41798     6.366782    53.353911   -157.19483   -1169.0943    11381.208 
   37690    288.05183    4.8141136    55.244335   -157.01117   -3380.1249    11381.208 
37700        0.97936413662259280688 10.162123368520688871 1 71 -281.17689648793981405
   37700    275.36868    3.9178832    57.809952   -156.41199    171.00792    11381.208 
   37710    316.49352    3.3706133    48.542867   -155.16543   -1863.6569    11381.208 
   37720    291.57782    4.1384138    60.160647    -153.4938    344.52855    11381.208 
   37730    316.26621    6.4313815    53.360014   -151.59529    -940.7244    11381.208 
   37740    275.25837    6.9074201    65.315757    -149.6344    3037.0367    11381.208 
   37750     292.9337    8.6816326    59.841939   -147.46408    2826.8151    11381.208 
   37760    295.85692    8.8400992    63.645555   -144.56625    1606.7562    11381.208 
   37770     310.8513    6.9578314    62.372194   -141.17794   -2257.8557    11381.208 
   37780    334.71663    5.1839579    57.741853   -137.59987   -730.56945    11381.208 
   37790    301.98771    7.1971997    63.726277   -134.48233    903.48459    11381.208 
37800        0.98336950525078103968 10.138698413912601737 1 71 -290.09219692079801689
   37800    349.55625    8.8519334    53.262088   -131.71416   -1430.2177    11381.208 
   37810    334.81908      11.2078    62.313352      -129.56   -2594.9224    11381.208 
   37820    342.80818    10.940437    64.313889   -128.31239   -1551.1218    11381.208 
   37830    351.68289    11.101692    57.346964   -128.57267    402.94417    11381.208 
   37840    335.18678    13.878103    61.621133    -130.9693    2299.0845    11381.208 
   37850    336.97444    15.272862    48.726775   -135.51679    2820.2304    11381.208 
   37860    301.10899    11.068939    63.726087   -141.51944    1023.0805    11381.208 
   37870    306.63962    8.6307172    61.958617    -147.3916    1814.4741    11381.208 
   37880    290.59405    9.2241779    60.639593   -152.76923   -485.27842    11381.208 
   37890    291.76153     7.702876    50.608196   -156.60385   -1701.2153    11381.208 
37900        0.9834508968696759057 10.144980300834243181 1 67 -285.40526490805746107
   37900    279.01255    5.0938343    59.196153   -158.98938   -1213.4603    11381.208 
   37910    279.45159    4.0504464    52.634215   -160.18771   -3466.8213    11381.208 
   37920    304.93829    6.0248745    56.205357   -160.77431    1727.8458    11381.208 
   37930    294.13689    6.0329823    61.595008   -161.30114    467.14686    11381.208 
   37940    285.69435    7.8995836    54.015532   -161.60746    1315.9055    11381.208 
   37950    257.65362     5.496778    65.103021   -161.46395    1894.4791    11381.208 
   37960    289.08057    6.4223165    56.046099   -160.81888   -1246.1851    11381.208 
   37970    274.89497    5.2160494    63.522053   -159.81678    1499.5274    11381.208 
   37980    322.42383    5.1460703    46.358543   -158.38991    307.46407    11381.208 
   37990    304.05604    5.0675253    52.200718    -156.8774   -511.80663    11381.208 
38000        0.98669361716457704148 10.131373937350078407 1 63 -297.16281578422587017
   38000    313.51576    6.0653921    49.161296   -155.11412    909.34208    11381.208 
   38010    288.63973    6.9931834    58.082516   -152.67552     703.3399    11381.208 
   38020    308.27827    9.3494079    58.913832   -149.20063    570.63329    11381.208 
   38030    310.26136    10.232549    54.244502   -144.95813   -2796.9483    11381.208 
   38040     323.9181     12.58547    54.330969   -140.62965   -2774.6757    11381.208 
   38050    327.83377    11.604726    55.796532   -136.12205   -2747.5964    11381.208 
   38060    323.96674    8.8534757     62.28622    -132.3177   -224.21851    11381.208 
   38070    296.41859      6.93272    70.099067   -129.37435    2037.3774    11381.208 
   38080    319.65268    4.7734166    67.739962   -127.09356    1084.3726    11381.208 
   38090    339.78009    6.0473611    61.194232   -125.78791    1897.7888    11381.208 
38100        0.98926322481022477273 10.119991063229253569 1 73 -261.74086596371159885
   38100    300.23421     7.231711    66.477736   -125.70981   -3404.7645    11381.208 
   38110    317.06908    5.6954768    64.624161    -126.1202    150.03948    11381.208 
   38120    320.65091    5.2616369    64.853417   -127.14775    854.81337    11381.208 
   38130    329.25594    6.0518868    59.331292   -129.60661    -866.9048    11381.208 
   38140     311.5683    5.0030668    63.703875   -134.14057    1781.0572    11381.208 
   38150    321.72839     3.875835    56.558606   -141.91325   -344.43229    11381.208 
   38160    295.14022    5.3375669    58.741632   -151.08783     2170.698    11381.208 
   38170    287.28076    10.382325    54.411639   -158.15327    2557.7058    11381.208 
   38180    259.64157    10.497489    61.057113   -161.60105    1665.4342    11381.208 
   38190     288.1067    9.4431751    54.364798   -162.89888   -696.51491    11381.208 
38200        0.98609251105307738072 10.121287720142127853 1 66 -300.64529026138842482
   38200    303.31922    5.4954794    51.767537   -163.21647   -4415.4519    11381.208 
   38210    307.42126    4.2120494    54.980071   -163.21107   -520.16377    11381.208 
   38220    287.61785    4.3772328    57.249366   -163.05611   -2734.6761    11381.208 
   38230    279.26909    5.0395335    57.677531   -162.60171   -744.43078    11381.208 
   38240    276.27798    5.0871653    59.136953   -161.69636    1719.1295    11381.208 
   38250    290.55562    6.0337355    52.257585   -160.22109    4112.5437    11381.208 
   38260    284.00977    7.1033174    58.307282   -158.37602    1531.1055    11381.208 
   38270    296.68328    7.7260031    56.006542   -155.85413   -40.694818    11381.208 
   38280    283.64516    6.4890906    58.494306   -152.78755   -705.17268    11381.208 
   38290    284.29359    7.4390778    65.634266   -149.37909   -1018.3963    11381.208 
38300        0.98222330878745700566 10.102125374247323819 1 66 -272.54247089538131377
   38300    279.43234    6.1634119    63.006093   -145.93639   -2120.6546    11381.208 
   38310    321.34953     5.669628    60.705423   -142.29227   -658.56619    11381.208 
   38320    303.75902       8.0298    60.975555   -139.28471    165.57458    11381.208 
   38330    303.55819    12.357697     67.13801    -136.7312    1623.2616    11381.208 
   38340    313.65726    11.798341    59.360813    -134.4797    232.95507    11381.208 
   38350     314.0731    7.9671369     60.85168   -132.81183    825.32151    11381.208 
   38360    312.36796    8.8891728    61.769058   -131.73622    472.11909    11381.208 
   38370    333.45796    10.352151    60.331948   -131.12156   -2929.4906    11381.208 
   38380     356.2004    10.077802    55.581535   -131.21373   -5250.0828    11381.208 
   38390    365.26197    7.0804426    49.488416   -133.08015   -1711.2092    11381.208 
38400        0.98413660013843917707 10.096186909373185969 1 66 -283.76843245876926858
   38400    324.50001    7.0123298    63.871071   -136.74295    3432.7248    11381.208 
   38410     308.7099    9.1166201     53.24583   -141.49882    1191.3816    11381.208 
   38420    300.09576    8.5556045    59.721286   -146.06367    2921.0568    11381.208 
   38430    319.37661    8.8415902    53.804559   -150.61102    2044.8303    11381.208 
   38440    310.36499    8.7091988    54.930791   -154.69873    2722.9103    11381.208 
   38450    301.90312    8.7884947    49.477266   -157.83932    24.003052    11381.208 
   38460    275.20233     5.914698     59.79977   -159.44854   -1441.3409    11381.208 
   38470    286.38101     6.869922    58.716665   -159.78582   -416.49051    11381.208 
   38480    283.99107    8.1704263    60.889817   -159.53454    -1588.694    11381.208 
   38490      308.439    8.6005546    54.892327   -159.19564   -2549.0511    11381.208 
38500        0.98405098477702035442 10.117068499907736268 1 66 -296.10514334998481445
   38500    302.74094    8.6798827    66.540336   -158.93833    -1342.251    11381.208 
   38510    304.25103    11.984588    55.155712   -158.62607    2090.1524    11381.208 
   38520    268.19754    13.564188    62.728526   -158.16993    2957.7835    11381.208 
   38530     287.8383    11.645702    57.091676   -157.28066     2217.487    11381.208 
   38540    286.91607    7.6783854    65.174745   -156.12699   -1552.7647    11381.208 
   38550    296.33131    5.2086411    58.292696   -154.85198   -2540.6985    11381.208 
   38560    277.76711    4.0328164    62.080697   -153.43964    -2763.393    11381.208 
   38570    303.86962    3.2920509    54.287857   -151.49275    681.05792    11381.208 
   38580    298.78135    5.3901355    61.662338   -149.03548    2882.2408    11381.208 
   38590    292.75705    8.6078733    59.240964   -146.15826    3509.7774    11381.208 
38600        0.98545375249659716843 10.120406764205537087 1 71 -273.21156445467852336
   38600    287.86333    9.2130484    59.839754   -142.78555    811.09805    11381.208 
   38610    276.57429    9.7218439    65.176645   -139.01887    1548.4962    11381.208 
   38620    312.49703    8.0343394    70.266654   -134.89644   -918.60168    11381.208 
   38630    315.49421    8.3748652    64.817573   -131.28717   -868.01465    11381.208 
   38640    330.48777    7.5806218    68.437585   -128.82793   -4803.2875    11381.208 
   38650    322.33043    6.7163605    61.607033   -127.69699    1409.9589    11381.208 
   38660    304.71548    6.4341658    64.772368    -127.5271   -2629.9169    11381.208 
   38670    322.39883    7.1390599    63.417313   -127.95705    2580.6383    11381.208 
   38680    318.85396    7.6191949    69.563545   -129.40221    413.58529    11381.208 
   38690    325.09655    6.4445429    58.106463   -132.43833    2300.4854    11381.208 
38700        0.98232407906932162067 10.156351843070726915 1 70 -269.88635724934397331
   38700    292.83582    4.7937667    61.275051   -137.20739   -1250.3555    11381.208 
   38710    297.07939    5.6684726    51.843111   -143.49664   -682.86943    11381.208 
   38720    291.86979    4.5315432    57.982585    -150.4654    482.47721    11381.208 
   38730    294.56049    4.8009313    51.295615   -156.39188   -1783.4015    11381.208 
   38740    289.76147    4.8079791    53.389478    -160.3902   -1795.8816    11381.208 
   38750     302.0323    3.2799918    52.001274   -162.63146     1228.581    11381.208 
   38760    294.76354    2.8151125    51.200333   -163.93705   -838.37486    11381.208 
   38770    287.69939     3.726814    54.176296    -164.4093    627.83884    11381.208 
   38780    304.33431    3.9209569    44.900469   -164.21597   -1633.2256    11381.208 
   38790    299.95009    6.9355879    52.514215   -163.65297    1161.4722    11381.208 
38800        0.97742681554206756189 10.170911850118182329 1 67 -308.59665988397739511
   38800    321.52212    7.6092472    48.949311   -162.92041    43.161067    11381.208 
   38810    273.88695    6.7870212    60.750185   -162.38639   -140.52653    11381.208 
   38820    290.57941    9.0251629    54.441909   -161.48765    2966.3153    11381.208 
   38830    264.91957    11.558269    60.951632   -160.05191    1492.2278    11381.208 
   38840    290.51219    10.299568     55.57238   -157.92737    503.68356    11381.208 
   38850    285.57561    7.9030899    61.701429   -154.93496   -3700.7278    11381.208 
   38860    300.59729     7.026915    59.490678   -151.55368   -2030.7539    11381.208 
   38870    308.89569    8.9009101    65.855986   -148.21823    1577.3849    11381.208 
   38880    319.35705     8.388544    60.204158   -145.45864    1642.7492    11381.208 
   38890    292.05377    9.8839129    59.213775   -143.23309   -443.27572    11381.208 
38900        0.97498992620026969647 10.185752790858188632 1 68 -273.89787672280931474
   38900    293.06071    10.463779    64.096276   -141.11701    1507.5939    11381.208 
   38910    292.02581    11.448996    60.730138   -138.88819   -533.87505    11381.208 
   38920    323.84262    9.5609819    56.792918   -136.54889    309.63552    11381.208 
   38930    316.67374    8.9226996    60.459796   -134.37359    -3741.874    11381.208 
   38940    318.00832    8.1437458    60.467855   -132.53397   -3212.2999    11381.208 
   38950    318.17216      5.19806    66.459922   -131.12674    654.60768    11381.208 
   38960    316.50404    5.2955197    69.714694   -130.69148   -3181.4918    11381.208 
   38970    318.28055    6.4848184    64.362766   -131.57767   -730.95594    11381.208 
   38980    295.16395    6.6951068    65.180193    -134.0081    907.81124    11381.208 
   38990     314.9708     5.494672     60.37222   -137.93972    2728.6038    11381.208 
39000        0.97210264244854382998 10.157762112437989543 1 66 -267.8987664109980642
   39000    273.99422    5.7929417    59.857436   -143.75661    1025.4249    11381.208 
   39010    282.41313    5.7843221    60.267874   -149.55215    1160.5792    11381.208 
   39020    285.13506    4.9000069    62.335735    -154.7684    4116.7088    11381.208 
   39030    311.78594    6.8564941    42.983813   -159.00857    1985.1741    11381.208 
   39040    283.52634    7.3093989    51.535096   -162.15642   -1529.9958    11381.208 
   39050    298.93772    6.9450836    45.294133   -163.99103   -238.97311    11381.208 
   39060    281.90724    5.5993002    52.871643   -165.09565   -3534.1622    11381.208 
   39070    295.66444    4.2856192    46.394982   -165.54339   -1977.1206    11381.208 
   39080    274.39938    5.3433975    58.672676   -165.35266    390.49425    11381.208 
   39090    303.16614     6.020751    51.413038    -164.3338    2904.3572    11381.208 
39100        0.97000906485647564459 10.182763028815822182 1 65 -294.52842857699323531
   39100    290.41239    8.3670937    59.948928   -162.94747    859.65292    11381.208 
   39110    277.15734    9.3108206    56.519644   -161.48357    -53.88737    11381.208 
   39120     283.4345    9.3030454    59.399235   -159.05808   -836.54174    11381.208 
   39130    296.30013    7.3232845    56.298197   -155.81911   -3605.9573    11381.208 
   39140    308.09685    6.1051572    58.815307   -151.93189   -4417.4141    11381.208 
   39150    300.56537    7.1849217    66.182433   -148.26513    1179.8324    11381.208 
   39160    288.98573    5.0382151    66.249877   -144.88869    5004.0973    11381.208 
   39170    322.83123    4.3219914    61.016509   -141.61393    3642.0915    11381.208 
   39180    324.75576    6.6423977    66.309036     -139.108    2087.7055    11381.208 
   39190    349.96195    7.4817642    59.718105   -138.10331   -3568.0462    11381.208 
39200        0.96474922183873279558 10.195023267217301566 1 68 -277.66862527624084578
   39200    306.40701    7.4469173     72.28786   -138.84078    171.38627    11381.208 
   39210    314.61883     7.336531    63.715932   -140.68972     -1807.86    11381.208 
   39220    305.47974    8.4967794    62.913627   -143.16759    -1820.872    11381.208 
   39230    309.18076    6.2877703    65.002179   -145.60713   -3153.5138    11381.208 
   39240    313.03938    6.6241736    59.456808    -147.9469    4093.9062    11381.208 
   39250    296.98227    8.0886175    60.743679   -150.09615    4656.1712    11381.208 
   39260     268.3237    7.3165475    59.972749   -151.51308   -144.06547    11381.208 
   39270    281.26027    6.8854217     61.07171   -151.98932   -3075.6779    11381.208 
   39280    264.88949     6.820391    65.514472   -151.67107   -803.83871    11381.208 
   39290    281.26031    5.1674971    57.080089   -150.74502   -849.19736    11381.208 
39300        0.96406807420788842578 10.209158197411818847 1 70 -283.9775511448555676
   39300    296.73063    5.1038735    61.067329   -149.53391    1107.6226    11381.208 
   39310    305.47529    6.1424973     61.75712    -148.3019   -2812.6662    11381.208 
   39320    304.63531    8.2039111    58.935033   -147.45605   -3419.6388    11381.208 
   39330    285.97257    8.0645322    70.306399   -146.97904    657.53038    11381.208 
   39340    315.06308    8.1583078    58.942402   -146.58327    2785.8852    11381.208 
   39350    291.07006     9.622516    63.545028   -146.40378    1796.0659    11381.208 
   39360    304.94841    8.5480387    55.355916   -146.11597   -1763.8454    11381.208 
   39370    301.85427     6.619641     64.24297   -145.85289    46.058424    11381.208 
   39380     325.9262    6.6862714    63.372235   -145.98858    1124.8603    11381.208 
   39390    330.08263    8.0582684    64.878278   -147.13503     301.0644    11381.208 
39400        0.97726153117545966342 10.176484903528088211 1 69 -292.91780479592142683
   39400    315.59141    6.7581765    66.443098   -149.92866   -2895.1061    11381.208 
   39410    301.11387     7.712828    63.844002   -154.28405   -3391.1739    11381.208 
   39420    298.77843    10.142745    58.945959   -159.70337    2436.4901    11381.208 
   39430     296.5041    10.104726    54.485745   -165.19595    2709.8982    11381.208 
   39440    267.33842    7.3428632    56.491555   -169.35698     1502.625    11381.208 
   39450    273.98049     7.927449    54.501733   -171.69617    1857.3413    11381.208 
   39460    281.21307    8.0811593     52.40229   -172.43078    2853.0076    11381.208 
   39470     282.8063    6.8626393    57.408812   -172.16566   -2798.3387    11381.208 
   39480    285.99822    9.5788613    51.592267   -171.28593   -4255.7825    11381.208 
   39490    280.11501    9.1680771     57.48608   -169.98673   -2456.9001    11381.208 
39500        0.98243354486855771768 10.137488210610767325 1 67 -308.75850054408681444
   39500    309.44439    5.9776878    49.740469   -168.55447   -543.97075    11381.208 
   39510    290.71376    4.0717691    60.499087   -167.18269    2777.5214    11381.208 
   39520     301.1459    6.2174549    55.915059   -165.90239    3276.9325    11381.208 
   39530    275.98991     5.720332    63.810962   -164.59234    3107.8991    11381.208 
   39540    286.87855    2.5895959     57.96018   -163.08804    633.52847    11381.208 
   39550    263.39983    2.5253547    68.495357   -161.39849   -2407.3201    11381.208 
   39560    275.16021    4.3039673    58.699577   -159.17257   -1324.3361    11381.208 
   39570      294.858    4.5701116    56.064281   -156.62478   -473.53075    11381.208 
   39580     295.7673    5.0274791    64.268318    -153.9931    1172.8181    11381.208 
   39590    313.26333      6.33776     52.79068   -151.55181   -21.144626    11381.208 
39600        0.97205005446822223547 10.17977028715733212 1 70 -286.82297953734530438
   39600    303.63656    6.9618726    59.479039   -149.25038   -3105.5814    11381.208 
   39610    325.39126    8.5112277    59.144707   -147.50322    1947.3271    11381.208 
   39620    291.62111    9.2664572    65.530123   -146.50936   -131.45092    11381.208 
   39630    296.70566    8.0936304    64.747969   -145.94673    3654.4278    11381.208 
   39640    292.94764    6.9199538     58.03358   -145.53752   -1618.8494    11381.208 
   39650    290.60764    6.1220794    62.703811   -145.08669   -2183.7883    11381.208 
   39660    319.21317    6.7182596    61.044835   -144.75769   -2137.0036    11381.208 
   39670    337.27076    7.9124525    59.319604   -145.12916   -1244.8218    11381.208 
   39680    303.98362    6.5211493    66.696363   -146.46403   -952.82174    11381.208 
   39690    285.15669     7.163627    61.985941   -147.72385    2262.4289    11381.208 
39700        0.97034905314629771311 10.172386959387139882 1 68 -270.02070440695666775
   39700    268.88264     8.911174    63.023277   -148.19452    2056.0852    11381.208 
   39710    307.71234    10.560695    52.577307   -147.90757     1169.019    11381.208 
   39720    310.03025    7.9812762    60.582964   -147.21878    846.30412    11381.208 
   39730    341.45355    7.3335582    50.170267    -146.6609   -864.85488    11381.208 
   39740    299.81187    6.7650254    69.306213   -146.81559   -283.92992    11381.208 
   39750    305.82965    2.7517247    62.571933   -147.44735   -545.63048    11381.208 
   39760    294.15805    2.6180275    68.784793    -148.3182    1064.6573    11381.208 
   39770    320.86714     5.490975    57.633005   -149.46019    2400.7552    11381.208 
   39780    297.30265    5.8186623    60.364104   -150.94086   -545.08738    11381.208 
   39790    316.23528    6.0819423    56.256084   -152.68194     1444.982    11381.208 
39800        0.96862830447514558507 10.194275284180633889 1 68 -286.34059468809539339
   39800    290.28312    3.8458037    65.622923   -154.81821   -1141.1088    11381.208 
   39810    274.25989    3.4508373    60.829628   -157.34341        -1982    11381.208 
   39820    256.04804    4.0065725    66.567276   -160.16848   -2615.6783    11381.208 
   39830    270.07602    2.5176098    65.235333   -163.16634   -3617.6747    11381.208 
   39840    266.91688    3.7563227    62.519173   -166.76546   -2790.8496    11381.208 
   39850    268.52565    5.0511657    57.910213    -170.5322   -2026.7493    11381.208 
   39860    257.99449    5.2790486    58.183539   -174.22692    1922.5848    11381.208 
   39870    262.45652     9.171091    55.085405   -176.92265    3527.4908    11381.208 
   39880    261.77657    9.2322251    54.696224   -178.82819    3621.1893    11381.208 
   39890    271.19357    6.2873789    56.580859   -179.71884    2844.1613    11381.208 
39900        0.97418681587958189105 10.185554944096796959 1 69 -305.56931781787909586
   39900    277.79177     4.462892    54.282734   -179.70656   -2866.9436    11381.208 
   39910    283.15977    4.6124624    54.986996   -178.84667   -3177.6826    11381.208 
   39920    298.77565    6.1769605    50.202844   -176.87819   -1406.5608    11381.208 
   39930    276.14102    6.6296423      60.0359    -173.9043    877.54897    11381.208 
   39940    290.11842    10.087199     57.79271    -169.5069    1594.1758    11381.208 
   39950    294.55817    13.742975    57.623438   -164.16694   -559.96759    11381.208 
   39960    318.87866    8.9320879    58.308383   -159.06128    3106.9051    11381.208 
   39970    315.05899    7.2639315    59.800932   -155.07471   -1061.3419    11381.208 
   39980    301.64111    7.2013496    62.530505   -152.26397   -3745.1478    11381.208 
   39990    313.76179    7.6847023    58.544558   -150.28861   -713.40739    11381.208 
40000        0.98511357594748449884 10.148208843269182822 1 70 -282.50257878506170073
   40000    294.50862     7.771656     64.78816   -149.06569    281.06276    11381.208 
   40010    288.78958    7.3804867    63.546056   -148.16446    1859.2401    11381.208 
   40020      296.619    7.2563692    56.804861   -147.13827   -80.722062    11381.208 
   40030    304.75158    8.4969518     59.30777   -146.06304    1548.0485    11381.208 
   40040     312.2686    7.7023428    62.624038   -144.97382   -1253.7011    11381.208 
   40050    328.28775    6.1904273     60.18719    -144.3998   -1867.6152    11381.208 
   40060    327.65306    6.2460757    57.950238   -144.75161   -3212.7156    11381.208 
   40070    306.82963    6.3826431    65.568059   -145.81989    2201.7434    11381.208 
   40080    304.94862    7.1073439    56.122567   -147.07947    -54.15963    11381.208 
   40090    277.96101    8.1717442    58.761999   -148.16341    620.68384    11381.208 
40100        0.99065427590101751143 10.085642132053388664 1 71 -290.13835899094476645
   40100    311.60703     8.417479    53.393014   -148.95447   -195.11964    11381.208 
   40110    282.96707    9.0896581    70.664233   -149.80006    3083.1933    11381.208 
   40120    309.41905    7.9235099    60.062436   -151.06051    1547.5928    11381.208 
   40130    297.75129    9.8061142    71.206544   -153.45103    662.84924    11381.208 
   40140    321.16876    10.032097    63.352861   -158.06587    258.85967    11381.208 
   40150    284.37481    7.0391197    58.943553   -164.59932   -295.88463    11381.208 
   40160    266.36303    7.0234451    62.152932   -171.12384    -55.30437    11381.208 
   40170    264.23159    7.0881522    60.017172   -175.62484   -139.40039    11381.208 
   40180    276.00932    7.5071212      56.6617   -178.45147   -2041.8048    11381.208 
   40190    262.17816    6.9371768    63.106427   -179.86587   -673.26498    11381.208 
40200        0.99120366216531674564 10.074915652158519919 1 68 -305.02791318299057366
   40200    275.81247    6.9159337     47.09298   -180.06194    1372.2232    11381.208 
   40210    259.10022    7.3013887    62.838802   -179.35435    3016.5684    11381.208 
   40220    280.87203    9.7976597    58.404306   -177.76194    2383.6798    11381.208 
   40230    279.40442    10.072933    51.861605   -175.46984   -2340.0613    11381.208 
   40240    276.90827    9.5125794    62.336035   -172.84125    1842.1953    11381.208 
   40250    288.21381    8.6759852    57.701836   -169.75239    3729.8304    11381.208 
   40260    301.01482    8.9494071    56.692522   -166.57738   -2140.7866    11381.208 
   40270    304.13498    8.6138848    50.921919   -163.40175   -946.65266    11381.208 
   40280    295.27178    6.4828974    57.827703   -160.61431   -2271.8527    11381.208 
   40290    275.72204    5.2160644    67.790505   -157.84586    4125.6542    11381.208 
40300        0.98954188617401162009 10.11743877613021958 1 68 -292.04117515473120648
   40300     302.0457    4.7987964    54.239236   -155.18937   -1032.7405    11381.208 
   40310    292.57764    6.2455176    56.735427   -153.11367   -3940.9298    11381.208 
   40320    299.50815    6.0416742    57.418099   -151.29044    546.82846    11381.208 
   40330    290.30061    6.8036371    63.991191   -149.63433    1799.0769    11381.208 
   40340     294.8668    7.1344957    60.869334   -148.14282    1158.9258    11381.208 
   40350    302.72239    8.2963593    58.895755   -146.77071   -5713.8104    11381.208 
   40360    295.22506    7.1817251    59.186281   -145.63552   -3338.8997    11381.208 
   40370    300.76751    7.3539082    59.422672   -144.35614    3176.2197    11381.208 
   40380    276.04531    8.2322529    68.408326    -143.0353    1444.6346    11381.208 
   40390    311.41166    7.3866724    60.818398   -141.61593    2130.2929    11381.208 
40400        0.98435665364208213557 10.15479661361840158 1 67 -278.77539859551927748
   40400    304.98705    5.6304181     68.86044   -140.59091   -2754.2197    11381.208 
   40410    320.63115    6.9347944    60.369845   -140.07683   -4.7442201    11381.208 
   40420    306.08187     9.078458    66.334235   -140.16546    2451.6317    11381.208 
   40430    309.97711    6.6770484    68.059642   -140.90589   -292.55327    11381.208 
   40440    303.78632    7.3990898     62.58781   -142.42954   -1737.4592    11381.208 
   40450    304.39347    8.5427554    57.883067   -144.55484   -3382.1526    11381.208 
   40460    311.69942     7.413783    52.305569   -147.47683    1442.4279    11381.208 
   40470    298.00108    5.3346248    61.753923   -151.22066    863.66934    11381.208 
   40480    310.58194    4.8373724    53.147209   -156.03128    2336.3679    11381.208 
   40490    284.81229    4.7113944    56.712394   -161.47663      1549.01    11381.208 
40500        0.97928875088344580213 10.172573454076301758 0.99470899470899465378 70 -298.68204679033271987
   40500    290.80378    4.5933987    54.280357   -166.92376   -1529.2238    11381.208 
   40510    262.95018    2.8362327     64.39384   -171.15212    -2260.039    11381.208 
   40520     269.2211    4.2197848     55.13083   -173.82859   -2642.5391    11381.208 
   40530    267.66976      4.12525    53.538195   -175.06626   -1335.9534    11381.208 
   40540    270.75695    4.7814213     55.13257   -175.23578     164.8504    11381.208 
   40550    267.62497    5.4192669    56.020894   -174.48848   -233.17053    11381.208 
   40560    268.62796     6.290879      55.0331   -173.04151    1810.1466    11381.208 
   40570    252.70501    7.5368098    61.420641   -171.21402   -1766.0561    11381.208 
   40580    262.71756    8.3656866    58.939744   -168.87176    963.55597    11381.208 
   40590    283.13862    9.8171978    54.132634   -166.26734    1427.1465    11381.208 
40600        0.98228054416068311117 10.141632197589489195 1 65 -292.58620382926085313
   40600    284.83439    10.066073    57.010082   -163.53255    1466.5418    11381.208 
   40610    316.51553    7.2098609    51.036403   -160.55796    1031.0734    11381.208 
   40620    298.05827    6.0350235     57.28649   -157.97281     65.69276    11381.208 
   40630    296.27004    5.5041781     59.23492   -155.97025   -155.11719    11381.208 
   40640    289.49746     5.141064    60.917172   -154.16778   -818.18197    11381.208 
   40650    292.87407    5.1242868    58.318214   -152.28147    47.176564    11381.208 
   40660     313.0577    5.3434723    58.563503   -150.19958    -405.7471    11381.208 
   40670    304.86856    6.1352999    58.333228   -148.72453   -1170.5041    11381.208 
   40680    303.54356     7.679629    59.941674   -147.72389    1104.4881    11381.208 
   40690    321.12049    8.2409658    51.725282   -147.06575   -152.60988    11381.208 
40700        0.98617099211311853857 10.09628320682343805 1 65 -285.11724841135327324
   40700    305.89874    9.4163578    57.487799   -146.51969    1302.5606    11381.208 
   40710    313.36394    9.3541167    62.737998   -146.31295    2701.6235    11381.208 
   40720    316.38844    9.7457309    62.378506   -146.71226    2059.7593    11381.208 
   40730    316.37132    9.9630264    62.954928   -148.46597   -2984.3404    11381.208 
   40740    312.41594    11.073143    52.457175   -151.31237   -3402.7831    11381.208 
   40750     291.7906    10.900994    62.178443   -155.55325   -170.59827    11381.208 
   40760    288.70836     9.797706    57.408688   -160.53917    1057.3845    11381.208 
   40770    274.99957    8.1387426    52.954037   -165.77166   -1306.9834    11381.208 
   40780    284.32032    6.8337441    56.724142   -169.91453    2096.8409    11381.208 
   40790    271.84222    5.5582511    58.782237   -173.12827     165.8764    11381.208 
40800        0.98555676717872275905 10.121142861958217551 1 70 -298.88767967871365272
   40800    273.05278    4.5883789    54.348767   -175.17207   -1041.0411    11381.208 
   40810    275.41113    5.5425538     55.01921   -176.26453   -752.13442    11381.208 
   40820    283.41617    4.6078039    56.084064    -176.6578   -969.55171    11381.208 
   40830    281.13697    6.8770721     50.70453   -176.40854    889.69731    11381.208 
   40840    268.49534     10.20116    52.486932   -175.40022   -1462.5728    11381.208 
   40850    276.09505    12.037139    47.215142   -173.56731    1713.1301    11381.208 
   40860    273.08394    8.5361815     61.84847   -171.06036    1648.2737    11381.208 
   40870    313.37512    5.4204797    49.269135   -168.16881    1329.7798    11381.208 
   40880    288.30963    5.1384862    55.547859   -165.75469   -541.97999    11381.208 
   40890    288.97397    7.1532108    52.635375   -163.64957   -545.48832    11381.208 
40900        0.98501878112421425993 10.10926252444590645 1 65 -297.05864192804403956
   40900    298.94013    6.4494369    50.451624   -161.61392    43.342254    11381.208 
   40910    285.36977    7.7412114    55.339281     -159.872    1931.7013    11381.208 
   40920    296.90446    7.6951409    55.963927   -158.31274    -1183.658    11381.208 
   40930    269.96181    8.0428375    57.460004     -156.936    -371.4885    11381.208 
   40940    314.09039    8.0369774    50.462371   -155.52859   -1742.4747    11381.208 
   40950    311.13269    8.1376333    56.900748   -154.49669   -831.11497    11381.208 
   40960    309.18332    7.4877697    53.675754   -153.73078    957.44359    11381.208 
   40970    292.77542    5.9627723    59.404868   -152.98479   -947.66582    11381.208 
   40980    287.56804    7.2818657    59.382656    -152.2237    75.768702    11381.208 
   40990    293.13147    9.1497558    58.192177   -151.30633    3018.3749    11381.208 
41000        0.98170034902744829353 10.121590897553401689 1 69 -280.69523334698368444
   41000    287.81329     10.09692    63.535559   -150.29189    1648.9486    11381.208 
   41010    295.51988    9.9177259    58.602449   -148.99531    1094.7655    11381.208 
   41020    297.90841    9.6323461    55.268614    -147.5828   -6163.2636    11381.208 
   41030    287.81118      7.29679    61.151386   -145.88622   -672.15895    11381.208 
   41040    310.52682    5.8149053    61.641978     -143.748    652.82659    11381.208 
   41050    307.94916    6.9295244     59.05703   -141.68349     2212.535    11381.208 
   41060    321.01422     9.184644    52.993181   -139.76404    540.52397    11381.208 
   41070    309.87545    9.1911106    52.785676   -137.71266    139.79401    11381.208 
   41080    299.81066    7.4443989    60.689089   -135.15863    2677.9476    11381.208 
   41090    306.26559    6.2548948    60.190528   -131.60085    1039.6785    11381.208 
41100        0.97107200272742277836 10.172940841978952875 1 69 -269.3532202365445869
   41100    314.03587    6.9792606    61.840723   -127.06887   -2694.0939    11381.208 
   41110    318.02343     7.264665    65.182347   -122.40565   -1180.8646    11381.208 
   41120    338.72707    6.6250279    63.599975   -117.96148   -1523.2814    11381.208 
   41130    342.27253    8.2735625    68.262509   -114.67721   -713.17041    11381.208 
   41140    332.64823    10.106497     68.43923   -113.13445   -349.44371    11381.208 
   41150    325.00967    12.401893    68.327788   -113.31188    2357.3306    11381.208 
   41160    318.84962    13.704558    65.308436    -114.6771     4001.737    11381.208 
   41170    347.40373    10.215201    61.383043   -117.30157   -547.42722    11381.208 
   41180    310.31792    9.2458236    61.179063   -121.73602   -2825.5828    11381.208 
   41190    308.92284    7.7086516    61.411774   -127.01894   -3124.1207    11381.208 
41200        0.96570665412148415374 10.210380427855682228 1 72 -271.24511999789564243
   41200    306.23514    6.8836591    54.113206   -132.49514    331.48868    11381.208 
   41210    295.21159     6.344238    59.918925   -136.77971    2559.2743    11381.208 
   41220    312.14684    6.3765251    53.527757   -140.07086    3300.5625    11381.208 
   41230    292.74601    8.2421746    64.588489   -142.86363      654.981    11381.208 
   41240    287.41262    8.4962721    57.588814   -144.90553   -4051.8768    11381.208 
   41250    304.91328    5.9461979    57.955894   -146.47593    998.04391    11381.208 
   41260    288.86799    5.9762335     58.08447   -147.72981    1692.1588    11381.208 
   41270    299.03108    5.4168932    52.642077   -148.45483   -3708.0956    11381.208 
   41280     290.0757    4.7674601     57.05536   -148.91063   -3677.0628    11381.208 
   41290    313.58117    6.5054993    54.974387   -149.36802    366.01187    11381.208 
41300        0.9660430092451690598 10.213763114414600608 1 68 -297.57370500777449251
   41300    324.90812    8.5949975    58.266371   -150.36332    3082.7897    11381.208 
   41310    316.04083     11.58437    42.674602   -152.18902   -1125.3447    11381.208 
   41320    273.27724    10.187342    48.225018   -153.88028   -2797.1826    11381.208 
   41330    276.74743    9.9525298    57.164842   -154.70086    3676.6715    11381.208 
   41340    333.68117    6.4123023    50.522111   -155.31203     1992.274    11381.208 
   41350    298.72807    5.0940656    55.371471   -156.94695    18.042994    11381.208 
   41360     303.8664    3.8033212    46.834119   -159.16198   -1542.9003    11381.208 
   41370    279.29256     5.791394    47.800853   -161.50775   -932.44924    11381.208 
   41380    295.49161    5.6628425    45.931909   -163.79918    -173.5873    11381.208 
   41390    270.56224    6.4582132    53.240556   -165.79071   -1126.2096    11381.208 
41400        0.96156232236965011317 10.213249906687932977 1 68 -297.68918543263208676
   41400     287.1158    4.8165119    49.428716   -167.60186   -389.87935    11381.208 
   41410    275.89966    4.2651924    50.687502   -169.48353   -899.09352    11381.208 
   41420    274.62261    5.4222426    48.925578    -171.1407   -2774.0984    11381.208 
   41430    282.84819    7.2820552    44.908448   -172.42615    2465.8524    11381.208 
   41440    257.11107    6.3067509    52.347773   -172.98735    2017.5044    11381.208 
   41450     264.5516    5.3641249    53.900725   -172.49157    2621.6338    11381.208 
   41460    272.33477    4.4454211    50.768429   -170.72731   -414.02422    11381.208 
   41470    289.69196    4.9575108    55.959969   -167.69036   -434.14088    11381.208 
   41480    308.19452    4.5532115    47.606585    -163.9007   -1799.8167    11381.208 
   41490    310.57694    3.2717692    47.881808   -159.35644   -4080.3638    11381.208 
41500        0.96958664344313982841 10.192953691103920022 0.99735449735449732689 65 -292.61704148295154937
   41500    303.04357    3.9885434    56.818897   -155.31311   -148.74566    11381.208 
   41510    305.75307    5.6313816    52.509972    -151.2889    2461.7889    11381.208 
   41520    321.52825    6.9092014    49.028656   -148.06331   -1947.2398    11381.208 
   41530    299.08226    7.9087463    59.657994   -145.83553    1559.2891    11381.208 
   41540    302.68807    7.0689776    61.907785   -144.31391    437.52563    11381.208 
   41550    319.06456    6.6670638    58.528643   -143.10916    3401.4622    11381.208 
   41560    291.63474    7.8847693    63.800641   -142.50932    636.04196    11381.208 
   41570    285.08351    8.3746541    63.175097   -141.94234       430.88    11381.208 
   41580    298.60434    9.1248441    58.215983   -141.06548    1645.4033    11381.208 
   41590    300.95175    8.6648897    59.334637   -140.38471   -1631.8135    11381.208 
41600        0.97468184261876134045 10.163167919557647423 0.99735449735449732689 67 -272.88648052069481764
   41600    293.82093    9.3488783    54.725628   -139.76118   -2627.0369    11381.208 
   41610    284.32776     8.445204    59.835588   -138.90778   -679.44959    11381.208 
   41620    298.66361    6.5432509     59.71952   -137.28893   -1355.1666    11381.208 
   41630    301.67666    7.7324561    58.432425   -135.01668    2962.5529    11381.208 
   41640    312.24665    8.7553135    56.744021   -131.88984    110.05902    11381.208 
   41650    319.80644    8.0391095    56.612322   -127.94388   -6.6878303    11381.208 
   41660    342.44206    6.0430846    55.748112   -123.69417   -1789.4431    11381.208 
   41670    342.36847    5.8492012    61.150223   -120.02532    2054.1327    11381.208 
   41680    334.51067    6.8869218    72.580897   -117.56079    4676.3533    11381.208 
   41690    320.53216    7.8563245    67.524218    -116.5405     717.1343    11381.208 
41700        0.971165124797282453 10.147397970379687493 0.99206349206349198067 65 -264.58817665820970433
   41700    326.60687    7.0961229    59.939229   -116.60812    -2636.241    11381.208 
   41710    312.53168    6.1360234    66.486151   -117.78408   -4229.7022    11381.208 
   41720    316.84777    5.4321235    61.395098    -120.0111   -544.77679    11381.208 
   41730    330.64989    4.7299559    52.711862   -123.53652   -2411.4591    11381.208 
   41740    314.17837     4.762986    53.333806   -128.46091    -1946.579    11381.208 
   41750     301.6787    5.1420014    55.969231   -134.13435    374.23164    11381.208 
   41760    295.17022    5.9847881    62.449399   -139.71517    4000.1817    11381.208 
   41770    305.21809    8.3083351      55.2316   -144.32142    2912.5175    11381.208 
   41780    312.63973    10.985164    49.919942   -147.85522   -1243.4095    11381.208 
   41790    302.24847    11.795564    53.171352   -150.39758    690.51095    11381.208 
41800        0.98055778044997554677 10.124801514979463235 0.99735449735449732689 69 -284.44877361978649333
   41800    291.85695    13.752384    52.078167   -152.21331    1382.9604    11381.208 
   41810     272.0579    14.078428    56.700375   -153.15573    1133.2157    11381.208 
   41820    315.54881    11.587808     52.87696   -153.53525    185.75809    11381.208 
   41830    318.33337    10.135345    47.846166   -154.08974    -2934.576    11381.208 
   41840    339.57259    7.7454728    44.363008   -155.15565    803.27624    11381.208 
   41850    313.51603     6.570408    49.761297   -156.83132    -441.1314    11381.208 
   41860    303.72153    4.8834765    52.600428   -158.82773   -1458.5962    11381.208 
   41870    307.99594    5.8124691    47.812553    -161.1447    1917.9186    11381.208 
   41880    283.11402    6.1730975    56.992016   -163.50688    1281.4125    11381.208 
   41890       294.64    5.5211259    49.126341   -165.47113     1513.585    11381.208 
41900        0.97702495621350482491 10.162075097610772545 1 64 -290.23107950181537262
   41900    272.06016     7.780002    48.747963   -166.96521   -2230.0816    11381.208 
   41910    276.45164    9.9564179    56.378226   -167.91499   -385.28456    11381.208 
   41920    287.37221    11.026008     50.66833    -168.4606    1851.1572    11381.208 
   41930    283.77275    10.538695    48.463876   -168.59792    1007.6413    11381.208 
   41940    266.19309    11.230347    52.264222   -168.00052   -138.34314    11381.208 
   41950    282.07073    9.6514464    45.411065   -166.04869   -2836.8083    11381.208 
   41960     293.5566    7.6849564    49.517254   -162.18603   -960.91168    11381.208 
   41970    315.58156    6.2091766    46.480446   -156.26952   -651.29245    11381.208 
   41980    290.18515    6.8523001    53.007092   -149.57535    1932.3064    11381.208 
   41990    302.40792    5.6922539     49.99896   -143.65922    2625.4212    11381.208 
42000        0.97091508319042152397 10.190340175992117722 1 66 -282.2987851583726524
   42000     316.7373    4.7764121    55.723621   -138.79046    453.09974    11381.208 
   42010    337.96642    4.8336918    50.272375   -135.83804    803.72068    11381.208 
   42020    302.85134    7.1395107    56.704277   -134.51937   -1448.9455    11381.208 
   42030    316.31719     5.958769    51.746821   -133.97475    -1974.498    11381.208 
   42040    323.15446     4.194643    53.443482   -133.97896    719.27887    11381.208 
   42050    306.61175    3.6578322    59.240522   -134.22978    124.00455    11381.208 
   42060    322.63659     4.882608    52.507296   -134.64159   -2327.1488    11381.208 
   42070    311.93539    4.0830592    57.851721   -135.41491   -2624.9668    11381.208 
   42080    325.80083    4.3144697     47.61396   -136.84889   -1504.6801    11381.208 
   42090    293.87788    4.7940297    49.299852   -138.79255   -1253.1423    11381.208 
42100        0.95962065529501072714 10.248435154412797843 1 62 -266.91320717696112297
   42100    279.31511    6.1631406    52.906553   -140.36024   -392.45789    11381.208 
   42110    285.30283    7.1024874    52.080087    -141.1329     1705.164    11381.208 
   42120    289.23325    6.7569732    59.553036   -141.52049    2228.8883    11381.208 
   42130    299.05221    6.0327459    55.899543   -141.96194    440.44696    11381.208 
   42140    294.10496    4.5503256     60.27242    -142.5803   -635.15996    11381.208 
   42150    308.41987    1.7445125    61.044788    -143.6548   -1721.8742    11381.208 
   42160    317.69689    2.7035769    61.136755    -145.6781    400.97653    11381.208 
   42170    295.71889    6.4572636    58.245932   -149.07105   -20.585659    11381.208 
   42180    275.30542    9.1916441     52.56095   -153.11137   -1490.2994    11381.208 
   42190    272.66298    7.7618231    59.772609   -157.15066   -1087.1604    11381.208 
42200        0.96348382011461575214 10.230770187655538805 1 69 -294.37448371402842895
   42200    294.52135    7.0108161    51.948239   -160.93183   -93.449207    11381.208 
   42210      291.835    6.4441904    51.989683   -164.76072   -263.88775    11381.208 
   42220    273.33585    6.0785407    55.622795   -168.22598     2480.157    11381.208 
   42230    261.23074    5.6194949    57.689932   -170.89854   -2297.4815    11381.208 
   42240     250.7224    8.6476329    59.737154   -172.16214    1195.4002    11381.208 
   42250    279.32615    7.7457787    47.306017   -172.18756    -1502.761    11381.208 
   42260    283.61143    8.2910292    50.110034   -171.38422    1382.8905    11381.208 
   42270    295.09539    7.6255294    48.088802   -169.89649   -747.40998    11381.208 
   42280    283.03262    6.0347088    54.067649   -167.93602   -672.67716    11381.208 
   42290     294.1505    5.9330907    53.747757   -165.59985   -2201.9396    11381.208 
42300        0.97421933792987824852 10.160091121474151166 1 69 -296.05891483545462961
   42300    293.49355     5.610131    51.632945   -163.08194    -1591.172    11381.208 
   42310    307.97123    5.9921434    50.085752   -160.21492    119.44643    11381.208 
   42320    309.46801    7.3362078    54.986102   -157.00161    4415.5125    11381.208 
   42330    276.92259    6.6135002    63.407081   -153.62927    759.30723    11381.208 
   42340    308.30828    6.0996671    54.716838   -149.71094    2570.5122    11381.208 
   42350    312.16956    6.9096269    54.386565    -145.5387     897.4514    11381.208 
   42360    348.56206    7.5901872    43.479959   -141.58153     9.536486    11381.208 
   42370    312.16911    8.6965388    60.758867   -137.99773   -3026.4568    11381.208 
   42380    329.18565    11.683621    54.203814    -134.9727   -3509.3878    11381.208 
   42390    333.36795    13.301855    55.841697   -132.93949    1564.8471    11381.208 
42400        0.97970836115948978229 10.130356573398382025 1 72 -277.74977910801328562
   42400    321.55241    12.350035    53.567124   -132.05981    1274.3286    11381.208 
   42410    312.00124     11.59873    51.612769   -131.71043    1674.9197    11381.208 
   42420    316.08362    9.5265205    57.157977   -131.25193   -755.92198    11381.208 
   42430    306.51656    9.0490535    59.817958   -130.79114   -2624.7675    11381.208 
   42440    354.97204    6.1524308    53.790277   -130.76794    2666.2638    11381.208 
   42450    343.91714    6.1368695    64.927259    -133.5511    2860.3282    11381.208 
   42460    330.05863    7.6089818    54.075353   -140.12081    836.12819    11381.208 
   42470    299.94057    10.511132    56.227441   -147.97087   -2062.1228    11381.208 
   42480    290.84544    8.6592483    59.930078   -154.29869    430.98946    11381.208 
   42490    292.15706      8.65237    58.546664   -159.22991    2014.0029    11381.208 
42500        0.97970378673373148537 10.106784539274977774 1 73 -291.6331541175586608
   42500    283.91889    12.184931    54.813642   -162.99429   -1149.8949    11381.208 
   42510     285.4506    9.8581155    55.836461   -166.07877    -465.5063    11381.208 
   42520    284.64346     8.754776    52.688153   -168.22093   -64.506993    11381.208 
   42530    269.58256     9.569809    50.176125   -169.49621    307.06878    11381.208 
   42540    264.47453    10.484388    53.688135    -169.7707    2659.8965    11381.208 
   42550    267.09019    11.750184    54.991656    -168.9455    2386.8869    11381.208 
   42560    277.26331    7.6304521    56.632183   -167.24199    -983.1418    11381.208 
   42570    303.02522    8.2977636    50.003727   -164.82344   -2816.5612    11381.208 
   42580    293.40854     7.471358     51.37371   -161.99606    -3513.324    11381.208 
   42590    281.42476    8.2411092    54.873026   -158.91966     670.3465    11381.208 
42600        0.98146620684653773647 10.107809623030666657 1 70 -292.35830731460680454
   42600    302.60492    9.3145723    54.051479   -155.25313   -1672.3799    11381.208 
   42610    300.35493    7.2755056    64.171722   -151.66261    1848.2707    11381.208 
   42620    328.48738    4.8026336    52.628285   -148.75512    5323.9858    11381.208 
   42630    302.46685     6.514796    60.622234   -146.66071    2640.3405    11381.208 
   42640    316.94424    5.1249335    57.524357   -145.13482   -1469.6971    11381.208 
   42650    308.29665    5.3021101    60.002869   -143.90011   -4374.1544    11381.208 
   42660    308.44801    6.2935094    59.689133   -143.21063    -719.1645    11381.208 
   42670    310.93682     8.587838    62.130679   -142.97779   -775.21386    11381.208 
   42680     318.2176    8.1568018    59.532144   -143.26046   -1174.9219    11381.208 
   42690    312.89429      9.12547    56.083572   -144.03082   -649.99679    11381.208 
42700        0.97693036164668112242 10.132614587099807224 1 68 -277.24096294481000768
   42700     291.4791    7.9607497    57.462727    -145.1767    1201.7573    11381.208 
   42710    290.81149      4.37081    53.211929   -146.29508     1005.487    11381.208 
   42720     283.1628    3.5785395    60.969616   -147.12785    3059.5555    11381.208 
   42730    289.09499    5.1387953    59.258639   -147.63049     894.0244    11381.208 
   42740    307.96167    5.2145621    54.761304   -147.98818    1435.9943    11381.208 
   42750    303.06883    4.8205636    57.186999   -148.79445   -1794.9753    11381.208 
   42760    309.35382    5.9624776    59.401213   -150.34318    2917.1527    11381.208 
   42770    282.12581    9.4166348    58.596995    -152.5955   -740.98804    11381.208 
   42780    315.45723    6.5183867    52.032361   -155.27643    1172.9743    11381.208 
   42790    292.89932    3.2912402    59.369004     -158.701   -1594.7286    11381.208 
42800        0.97269527691426416194 10.161612398280619018 0.99735449735449732689 67 -288.3452972842723625
   42800    277.95168    4.0599584      62.7071   -162.41008     -15.8274    11381.208 
   42810    271.99146    3.5389864    59.746503    -166.1518   -2137.1495    11381.208 
   42820    263.61086    5.4362665     64.24373    -168.8586    2749.3824    11381.208 
   42830    284.99839    6.7450379    51.798092   -170.74081   -1104.4922    11381.208 
   42840    240.02963    7.9440225    65.163507   -171.65738    537.63892    11381.208 
   42850    280.14057    8.0373599    51.112173   -171.46569   -4735.1915    11381.208 
   42860    253.53207    7.2423842    63.211844   -170.39825   -1530.7033    11381.208 
   42870    274.44585    6.0300963    54.832938   -168.11505   -1731.6067    11381.208 
   42880    264.29046    6.8738755    58.041646   -164.64309   -855.91159    11381.208 
   42890    301.16677    4.6608974    50.921749   -160.22548   -1637.7778    11381.208 
42900        0.98016676358230037103 10.122316981957824922 1 67 -284.44344059274658321
   42900    284.95675    3.8891322    57.799553   -155.33435    4651.2165    11381.208 
   42910    301.92904    3.0051782    51.298582   -150.82965    1547.6806    11381.208 
   42920    271.45575    3.0967714    64.160013   -147.06438    1829.5532    11381.208 
   42930    308.83649    3.4150532    56.650513   -144.12044   -4201.2444    11381.208 
   42940    307.12706    3.4103023    58.295292   -142.09474   -1303.9542    11381.208 
   42950    318.27596    3.7838682    53.258104     -141.053    817.71107    11381.208 
   42960    302.22695    3.6738004    52.740078   -140.32329   -201.52937    11381.208 
   42970    323.24401    6.7896383    52.922237   -139.80658   -557.28756    11381.208 
   42980    303.58271    7.4521228    68.964732   -139.75435    465.68158    11381.208 
   42990    323.39122    7.7908995    47.698634   -140.35208    1074.9137    11381.208 
43000        0.9830208513722156205 10.121622298708992105 1 69 -266.7313482077886988
   43000    277.29016    7.7290842    64.134381   -141.09586    2041.2901    11381.208 
   43010    304.90974    9.0334619    55.766365   -141.36447     2001.645    11381.208 
   43020    290.25311    8.8506724    70.693225   -141.53913    1757.5235    11381.208 
   43030     342.3593    9.0091564    56.393098    -142.1988   -1086.3986    11381.208 
   43040    310.47742    10.883811    58.488062   -144.35148   -1074.2676    11381.208 
   43050     302.0633    8.6577652    58.889215   -147.24526   -1215.9058    11381.208 
   43060    302.26255    6.5005751    54.786575   -150.82394   -1621.1041    11381.208 
   43070    290.04587    5.1906449    60.993958   -154.61578    -3519.511    11381.208 
   43080    277.02712    5.6141965    66.963336   -158.50205   -1362.5998    11381.208 
   43090    285.80669    5.6673783    60.750217    -162.1312    719.99659    11381.208 
43100        0.98872561061809616234 10.101504140969712608 1 67 -286.06615424298507833
   43100    266.26113    6.8315497    61.186468   -165.42773    188.99087    11381.208 
   43110    264.61531    9.1376344    53.641035   -167.64527   -99.621785    11381.208 
   43120    251.33537    10.075902    60.609005   -168.63619    2458.0312    11381.208 
   43130      270.954    12.612807    51.520757   -168.43865    3066.6406    11381.208 
   43140    256.91061    13.111745    60.880992   -167.34913    1510.8271    11381.208 
   43150    265.45119    10.402283    59.937435   -165.50049    634.97039    11381.208 
   43160    289.43793    7.2138934    60.828021    -162.9321   -2870.6864    11381.208 
   43170    289.09608    7.1950908    62.158701   -160.31183   -2534.4865    11381.208 
   43180    308.00509     9.121229    56.048513   -158.08897   -3540.8318    11381.208 
   43190    305.13098    10.203619    52.541361   -156.48413    2664.1855    11381.208 
43200        0.99214906744170483499 10.054379730071916654 1 66 -287.45768225531855933
   43200    291.04671    9.3636443    63.671313   -155.58933    4297.0854    11381.208 
   43210    300.79373    12.123522    54.600398     -155.151    2711.9272    11381.208 
   43220    277.03391    12.807573    61.026672   -155.04921    551.49726    11381.208 
   43230    302.33076    11.971369    56.193236   -154.67433    27.129529    11381.208 
   43240    294.18467    12.931345    52.454174   -154.20749    308.69765    11381.208 
   43250    281.31296    9.7141917    57.669433    -153.5048   -728.64366    11381.208 
   43260    307.59654    8.2276265    56.230086    -152.2056    -2085.821    11381.208 
   43270    294.39383    8.3979162     62.05831   -150.92373   -1294.5797    11381.208 
   43280    307.62397    7.0138276    53.248077   -149.52533     603.8481    11381.208 
   43290    296.49459    4.8578593    61.496028   -148.22605   -1227.8284    11381.208 
43300        0.986556741690294281 10.104209372811299161 1 64 -278.33339301793159848
   43300    289.59469    7.2746915    66.750703   -147.12293    2678.5309    11381.208 
   43310    297.25792    10.549028    55.346224   -146.17698   -2141.0716    11381.208 
   43320    303.02176    9.1280856    57.580819   -145.26936   -842.95591    11381.208 
   43330    306.72595    5.5857234    55.411274   -144.12289   -2408.1769    11381.208 
   43340    293.16956    5.1856305     62.39258   -142.70784   -862.05394    11381.208 
   43350     301.8055    5.1881108    60.858469   -140.79083    438.68364    11381.208 
   43360    329.91509    3.2654086    53.012829   -138.41793     343.1664    11381.208 
   43370    331.03337    2.1688238    60.252828   -136.08496    1783.0075    11381.208 
   43380    307.70394    3.7916114    64.041519   -134.29521    1938.0903    11381.208 
   43390    294.38693    5.6616543    61.524576   -132.41846   -1928.5793    11381.208 
43400        0.98068974829831223605 10.146665592653588917 1 69 -271.23954279466636308
   43400    311.19388    5.8688383    65.384068   -130.24284   -98.820647    11381.208 
   43410    335.48388    5.6524542    61.852137   -127.83531    447.36219    11381.208 
   43420    323.18702    6.6768134    68.191554   -126.25731    1346.1503    11381.208 
   43430    319.76367    7.8164742    66.437971   -125.33238   -1755.5743    11381.208 
   43440     333.0246    8.2078606    68.214777   -125.65981    1584.2704    11381.208 
   43450    309.64758    9.8137219     69.21807   -127.78508    809.50336    11381.208 
   43460    332.69377    10.512845    52.604754   -131.36316   -220.07959    11381.208 
   43470     308.4396    7.4893372    62.518203   -135.82238    -2387.457    11381.208 
   43480    320.46009    4.6825698    55.700147   -140.63019    2457.3922    11381.208 
   43490    277.34561    3.6447633    63.779369   -145.46116    1433.9279    11381.208 
43500        0.97733278541731793965 10.158422051598961389 1 67 -275.54127703470595634
   43500    278.98956    6.1218547     57.02904   -149.13581    59.767911    11381.208 
   43510    281.97209    6.2362048    61.459741   -151.79539   -1441.7041    11381.208 
   43520    315.31107    6.5036117    53.626882   -153.97072    248.82196    11381.208 
   43530    302.85284    9.2742191    57.478119   -156.05023   -611.16098    11381.208 
   43540    321.37093    9.9159267    45.187017   -157.80448   -154.91235    11381.208 
   43550    303.68988    10.213546    55.751555   -159.48574   -1169.0409    11381.208 
   43560    296.93427    9.4157225    54.208961   -161.01855   -2193.6504    11381.208 
   43570    279.05784    9.4775963    54.949906   -162.35392    -304.2674    11381.208 
   43580    287.72238    7.8714273    53.201623   -163.26497     3584.711    11381.208 
   43590    295.60676     7.096518    49.193979   -163.65415    830.37553    11381.208 
43600        0.96637150989067133189 10.183423065396027596 1 67 -289.9714635396217659
   43600    279.02682     5.762182    47.847829   -163.54912   -2446.1036    11381.208 
   43610    275.59172    5.6929111    57.498578    -162.5925   -1168.4501    11381.208 
   43620    278.31326    6.8579258    61.805519   -160.63443    2229.2025    11381.208 
   43630    267.40276    5.8955238    64.719454   -157.81749    456.53534    11381.208 
   43640     276.8308    4.8845934    57.711966   -153.61754   -4819.7796    11381.208 
   43650    288.34367    5.0745245    58.075867   -148.03966    778.25031    11381.208 
   43660    323.38055    7.0170243    56.878139   -141.52851    1611.7712    11381.208 
   43670    325.49667    8.1930134    63.563892   -136.31454    3928.2128    11381.208 
   43680    325.95233    7.8194979    53.663425   -133.54764   -1832.6349    11381.208 
   43690    306.64302    7.4527799    69.864522   -132.59977    288.52148    11381.208 
43700        0.9703355488027072262 10.165026483509191024 1 68 -275.23842535926144137
   43700    314.91359    6.8024081    60.684044   -132.55639    1862.1379    11381.208 
   43710    286.62268    6.5346322    66.203689   -132.90473    1139.8396    11381.208 
   43720    291.31288    5.0495731    68.194827   -133.07178   -2008.1155    11381.208 
   43730    315.34237    6.1934555    57.691254   -133.27071   -2444.0895    11381.208 
   43740    316.22569    6.1274968    62.210258   -133.92374    -3677.792    11381.208 
   43750    316.66758    7.8908538    60.317238   -135.08514    1837.1892    11381.208 
   43760    316.53662    7.4614294    64.209131   -137.02383    832.06445    11381.208 
   43770    300.70411    7.6765278    59.344525   -139.55059    2360.6879    11381.208 
   43780    305.41121     5.304128    57.528883   -142.16199   -2113.9959    11381.208 
   43790     314.0934    5.4119289    56.306469   -144.84054    2407.0086    11381.208 
43800        0.97297763776241474876 10.181393805792987806 1 67 -295.42129882365179583
   43800    325.64194    5.8903697     50.30477   -147.87843    1786.0189    11381.208 
   43810    309.27901    7.8988794    55.911296   -151.18388   -574.67555    11381.208 
   43820    305.70189    9.1132425    57.354548   -154.29943   -4037.4886    11381.208 
   43830      295.243    7.4436427    50.786297   -157.12167    654.33124    11381.208 
   43840     287.7351    5.9276489    59.609215    -159.3863    689.09271    11381.208 
   43850    297.18899    6.9157098    46.819802   -160.97912   -1294.3688    11381.208 
   43860    272.45636    7.8961792    56.003215   -161.88227   -1496.2102    11381.208 
   43870    289.65138     5.497239    50.833634   -161.85312    4261.2667    11381.208 
   43880    277.96847     4.813638    59.656561   -161.21971    5046.8676    11381.208 
   43890    289.26778     6.968493    54.055955   -160.17335   -1583.9785    11381.208 
43900        0.9693184723152513671 10.188893797134399577 1 68 -281.2627421944915227
   43900    270.56349    10.490482    52.362798   -158.67499   -2888.6652    11381.208 
   43910    288.07992    11.383815    53.233273    -156.7556   -2807.8954    11381.208 
   43920    308.29054    8.5024688    55.168465   -154.67764    2762.9066    11381.208 
   43930    278.65382    9.6433142    59.639544   -153.32364   -396.10289    11381.208 
   43940    303.11586    11.329293     53.71858   -152.14134    53.039316    11381.208 
   43950    290.08508    9.9750872    65.716043   -151.24982    -1409.184    11381.208 
   43960    307.14263    10.460178    55.544846   -150.54561   -828.30888    11381.208 
   43970    286.02042    8.1662246    67.492543   -150.09475   -2026.5969    11381.208 
   43980    308.65067    9.7977587    51.348198   -149.79594   -1367.3981    11381.208 
   43990    305.50792    9.2945351    52.660931   -149.60954   -170.29994    11381.208 
44000        0.97255826085382457435 10.173290452283085372 1 69 -285.40546584707732336
   44000    300.14795    6.8641189    58.270517   -149.41349    3235.5243    11381.208 
   44010    306.24754    4.8859103    57.438586   -148.94956   -541.77788    11381.208 
   44020      303.605    5.7676009    57.492028   -148.52506   -957.70492    11381.208 
   44030    318.63193      9.16354    54.258929   -148.28462   -1978.0413    11381.208 
   44040    310.08344    8.0243233    61.699265   -148.36898    375.55706    11381.208 
   44050    303.62543    8.7711209    53.298395   -148.66914    2662.7826    11381.208 
   44060    292.98331    11.728604    60.771847    -148.6741    603.69206    11381.208 
   44070    296.29642    10.051558    58.733171   -148.31328    2590.4999    11381.208 
   44080    304.47054    8.1089119    56.115424   -147.83838    55.920193    11381.208 
   44090    288.88133    8.0017681    66.998401    -147.5372    2932.0249    11381.208 
44100        0.97678735744944322761 10.159957607301763005 0.99470899470899465378 69 -287.16650013559473109
   44100    309.02036    9.5900304    54.188008   -147.15459    1126.3597    11381.208 
   44110    301.26517     8.303262    64.883482   -146.58129    1417.8359    11381.208 
   44120     306.9212    5.1139871    68.659315   -146.15506   -635.31937    11381.208 
   44130    300.68708    6.0035771    64.494699   -146.19221   -5074.9998    11381.208 
   44140    291.04418    8.9226682    65.648382   -147.02362   -1865.9876    11381.208 
   44150    300.65326    11.376619    49.192256   -148.11456   -161.22328    11381.208 
   44160    278.83033    12.390225    66.608095   -149.07487    1290.1927    11381.208 
   44170    296.35597    14.212656    59.081033   -149.48715    3314.7811    11381.208 
   44180    295.00402    13.029109    64.897315   -149.42124    417.30558    11381.208 
   44190    333.98989    8.9317775    54.439753   -149.51623      1077.76    11381.208 
44200        0.9720553673613591128 10.189214706031998858 0.98941798941798930755 68 -287.64973276079984998
   44200    302.59578     6.045033    61.641635   -150.54869   -3884.4889    11381.208 
   44210     304.8827    7.3256195     53.80189   -151.97163   -1449.5766    11381.208 
   44220    286.00361    9.9983288    55.235555    -153.2334   -1072.8747    11381.208 
   44230    315.70172    9.8452219    50.911847    -154.3216   -708.06183    11381.208 
   44240    288.78117    9.3162216    67.352082   -155.52866    2460.5056    11381.208 
   44250    329.11939    6.6893759    46.925347   -157.09312    1140.0944    11381.208 
   44260    299.84541    8.0761024    61.668151   -159.43695    430.72025    11381.208 
   44270    287.94938    9.4630623    50.076419   -161.89643   -471.34331    11381.208 
   44280    261.10293     8.319163    57.972699    -163.7707    652.47054    11381.208 
   44290    279.67639    8.3018726    55.983177   -164.78475    2253.7801    11381.208 
44300        0.97328457137515578257 10.170723395734730943 0.99470899470899465378 67 -284.07843418064732077
   44300    262.16439    5.7784024    61.745833   -165.29617   -2388.3768    11381.208 
   44310    272.86845    4.5376106    61.109616   -165.26495   -392.80628    11381.208 
   44320    273.18414     4.047161    57.738878   -164.45095   -1615.9293    11381.208 
   44330    289.25229    4.9415211    49.321827   -162.41783   -1523.6635    11381.208 
   44340    301.11118    3.4344415    62.334039   -158.80121    90.654963    11381.208 
   44350     303.2176    4.1971313    63.848062   -154.54219    273.69459    11381.208 
   44360    317.63229    6.0063352    60.630549   -150.19413   -1050.2117    11381.208 
   44370    291.36546    6.5321547    70.325061    -146.7713   -347.11265    11381.208 
   44380    328.90017    9.2436387    58.068527   -143.56586    3752.3707    11381.208 
   44390    286.57615    11.585547    66.158008   -140.94786     864.2617    11381.208 
44400        0.96959128401926175655 10.189974883663726501 1 66 -274.21003360411475569
   44400    300.24128    11.818337    54.792685   -138.17577   -1046.2891    11381.208 
   44410    306.43505    9.7711204    65.280563   -135.45122   -2122.7534    11381.208 
   44420    310.02619     7.183109    67.010466   -133.24061    1572.5869    11381.208 
   44430    305.24809    5.6172215    69.327727   -131.62468   -1827.0551    11381.208 
   44440    338.01417    5.6282408    62.504677    -130.7604   -1999.8431    11381.208 
   44450    304.48746    8.3728734    72.427327   -131.17537    1397.6771    11381.208 
   44460    313.41511    9.4369332    55.464223   -132.24834    1114.1629    11381.208 
   44470    290.84947     6.562431    69.883287   -133.75592    117.26767    11381.208 
   44480    325.62975    5.7440637    60.142975   -136.07993    1942.4546    11381.208 
   44490    284.93578    6.3691424    70.159694   -140.31513    1223.9527    11381.208 
44500        0.9686619596557530798 10.188111579066250201 1 65 -271.29017234946496728
   44500    275.75744    8.2457694     63.03879   -146.34913   -361.33697    11381.208 
   44510    276.71503    8.0480503    59.044487   -153.09631    -2634.847    11381.208 
   44520    288.13101    5.3619474    59.842331   -159.35452    1233.7987    11381.208 
   44530    304.43827    4.1699789    54.921458   -163.96247    1992.0488    11381.208 
   44540    282.89955    4.6874522    54.492968   -167.05966    -3428.639    11381.208 
   44550    271.18942    5.0398943    55.966259   -168.58425   -932.39647    11381.208 
   44560    252.49464    6.8536402     64.72583   -168.91968    866.58093    11381.208 
   44570    284.99384    7.7836958    54.174614   -168.37653    415.18125    11381.208 
   44580    277.16948    9.2496629    58.726219   -167.29356   -3941.2345    11381.208 
   44590    310.99201    6.7881778    57.270997   -165.78162   -1107.3825    11381.208 
44600        0.97081595610948023811 10.164948362306423846 1 67 -305.23331262314206924
   44600    310.93767    6.1751639    59.346302    -164.3527    508.77412    11381.208 
   44610    295.19669    4.1561059     59.28215   -163.48649   -319.17628    11381.208 
   44620    300.18236    5.4322148    59.039492   -162.92341   -146.96157    11381.208 
   44630      293.985    5.1588282    60.295577   -162.55474    749.02889    11381.208 
   44640    298.62548     6.239964    47.484266    -162.1564   -574.37853    11381.208 
   44650    284.89431     6.370316    51.344159   -161.13088    997.87362    11381.208 
   44660    302.82776    6.9587405    49.574817   -158.64492    2608.8991    11381.208 
   44670    289.13994    6.0003552    60.184404   -154.63472   -364.91839    11381.208 
   44680    288.11277      4.99414    56.734859    -149.5683   -838.42292    11381.208 
   44690    295.78475    4.7745617     56.93115   -144.11568   -1373.6686    11381.208 
44700        0.9739047305223955675 10.131472884232811893 0.99735449735449732689 68 -284.97700223639191108
   44700    321.87287    3.0464386    60.582551   -139.14183    2205.8687    11381.208 
   44710    329.83763    4.0807212    65.711175   -135.60682    1692.4022    11381.208 
   44720    310.06444    6.1415523    63.194091   -134.12874    1438.6204    11381.208 
   44730    302.47906    7.2897314    67.221011   -133.69344     200.1835    11381.208 
   44740    285.45881    7.9864454    68.285064   -133.43876     -1003.14    11381.208 
   44750    308.48301    9.8255208    65.679421   -133.17517   -2852.5344    11381.208 
   44760    282.05563    9.7916946    70.529235   -133.22089   -2.6410955    11381.208 
   44770    290.56415    10.472531    67.067215   -133.38718    1382.2834    11381.208 
   44780    294.09153    8.9707772    67.698622   -133.48458    5568.1234    11381.208 
   44790    323.87146    7.8617616    59.557956   -133.80009   -893.57504    11381.208 
44800        0.98075992192140315495 10.139323876262604784 1 70 -271.3356161027332405
   44800    301.12355    6.8793773    69.237667   -134.90162   -2781.5494    11381.208 
   44810    296.93875    7.1068616    76.269548    -136.5272   -1664.0665    11381.208 
   44820    313.21951    7.9104087    68.016835   -139.15677   -503.48723    11381.208 
   44830    315.23343    9.3300199    63.472318   -142.79408   -1907.5033    11381.208 
   44840    324.35086     9.971518    55.229903   -147.64438   -133.03562    11381.208 
   44850    310.90798    12.185406    55.282698   -152.90679    2976.5704    11381.208 
   44860    303.41854    11.022823    51.761937   -157.77149    1834.6329    11381.208 
   44870    293.22317    8.7368079    57.118904   -161.26276   -2414.2099    11381.208 
   44880    281.63418    6.6822753    63.458835   -163.51331   -1968.0113    11381.208 
   44890     280.8249    7.3168213    62.983918   -164.76493    748.29274    11381.208 
44900        0.98500854331055653912 10.132519287207808034 1 69 -290.80559161337203022
   44900    276.63202    7.2693259    62.726101   -165.46829    702.90429    11381.208 
   44910    285.67472    7.8290741    59.251599   -165.89648    1085.6251    11381.208 
   44920    275.02874    7.0906404    60.500812   -165.82635   -2494.1342    11381.208 
   44930    260.26903    9.6473973    54.289885   -165.04455   -2901.1735    11381.208 
   44940    278.48782    7.6409092    58.716658   -163.42382   -180.16134    11381.208 
   44950    295.25724     7.820349    63.820138   -161.19984    5907.0127    11381.208 
   44960    308.62052    9.7098122    55.889133   -159.11194    276.18432    11381.208 
   44970    296.26023    8.6011279     57.13514    -157.1438   -565.45999    11381.208 
   44980    290.48092    7.9975898    64.104704   -155.38421    1787.4083    11381.208 
   44990    315.21261     8.169025    62.695856   -153.74201    5131.4695    11381.208 
45000        0.98678707427524603446 10.109390459808443197 1 68 -301.0485868518190955
   45000    327.37985    9.1952953    56.393104    -152.7183   -191.40882    11381.208 
   45010    312.96217    10.065917    53.191357   -152.48633   -3657.0282    11381.208 
   45020    289.37384    9.6862228    60.417966   -152.51371    444.68835    11381.208 
   45030    288.49866    10.850437    59.833846   -152.47483    397.75294    11381.208 
   45040    291.16272    12.812971    54.270177   -151.83474   -1728.0238    11381.208 
   45050    308.53549    9.2145336    54.739743   -150.54106   -1226.1422    11381.208 
   45060    317.70676    6.6283953    56.188329   -148.56674    3878.4479    11381.208 
   45070    315.23116    7.9709285    52.567755    -145.5398   -176.83263    11381.208 
   45080     303.6451    7.5871574    61.490006   -141.13109    318.77967    11381.208 
   45090    291.45887    8.1689331     62.24092   -135.32987   -3486.4963    11381.208 
45100        0.98274437254107149808 10.13574730044258132 1 68 -269.40466995583653897
   45100    309.31754     7.076117    62.384065   -129.25811   -1673.1187    11381.208 
   45110    330.32216    4.8470832    61.465182   -124.07508    -3636.285    11381.208 
   45120    332.02189    4.2003626    61.209449   -120.40827    1790.1743    11381.208 
   45130    328.03405    3.9604985    66.963919    -118.2313    4033.3813    11381.208 
   45140    330.69984    3.8646329    63.427538    -117.5945    1770.0403    11381.208 
   45150    309.09985    4.7046137    63.253971   -117.80121    -1480.026    11381.208 
   45160    314.22527    5.5000651    71.423543   -118.69798   -359.47973    11381.208 
   45170     324.2691    5.1564069    68.008866   -120.52561    -1414.773    11381.208 
   45180    310.50604     4.367695    70.422854   -123.92077   -1088.2917    11381.208 
   45190     278.9612    3.2619412    71.371617   -127.62577   -2767.1238    11381.208 
45200        0.97862659587706690711 10.147226811442667582 0.99470899470899465378 66 -260.28610046362632602
   45200    284.74777    4.1194713    65.539078   -131.27169   -104.55943    11381.208 
   45210    287.79955    4.9558249    69.117301   -134.29803   -2235.7412    11381.208 
   45220    302.88817    5.9013392    60.834466   -136.74777    1729.7246    11381.208 
   45230     293.1618    5.0727199    66.307774   -138.96575    3898.9177    11381.208 
   45240    291.43958    5.4506388    65.882365    -140.6878    3837.4783    11381.208 
   45250     311.7588    6.4427471    57.695311   -142.17388    341.18675    11381.208 
   45260    333.67012    6.4616311    48.534016   -143.48886   -2929.0897    11381.208 
   45270     304.5062    7.4308163    62.779143   -144.96326   -2067.5464    11381.208 
   45280    294.86722    9.9810303    60.230767   -146.08855   -2135.3714    11381.208 
   45290    283.20832    12.933645    56.946005   -146.72504   -3999.0633    11381.208 
45300        0.98054064479335822924 10.136469002609278078 0.99206349206349198067 67 -280.99204061558094736
   45300    295.26933    12.347256    64.757642   -147.21049   -988.34934    11381.208 
   45310    303.36718    12.204172    61.333186   -147.53874     4419.157    11381.208 
   45320    304.81004    9.9185534    60.157789   -147.97911    3671.7275    11381.208 
   45330    304.71042    9.3649236    57.458885   -148.42099    2480.3706    11381.208 
   45340     279.6655    10.212474    60.574582   -148.55017   -2159.0262    11381.208 
   45350    296.59215    9.8226744    57.366232    -148.3365   -1241.7196    11381.208 
   45360    287.68128    9.9830689    64.479417   -147.98298    653.01685    11381.208 
   45370    304.54262    8.7076561    58.498616   -147.58642   -458.97257    11381.208 
   45380    310.36306    8.9276816    67.541089   -147.37206    -50.02095    11381.208 
   45390     336.0865    7.0243423    56.474575   -147.65794    -4131.788    11381.208 
45400        0.9814302733926979494 10.130356975605488756 1 70 -292.07365966989391382
   45400    316.63777    6.3149027    63.566011   -148.61043   -1662.3889    11381.208 
   45410    288.44125    4.9065639    71.122656   -150.13178    899.89585    11381.208 
   45420     282.1113    3.5823947    63.353997   -151.42624    2222.1175    11381.208 
   45430    286.97336    3.4368483    57.500308   -152.31393    807.20511    11381.208 
   45440      304.559     5.813329    53.631254   -152.63354    2117.2448    11381.208 
   45450    308.28422    6.8099936    61.165762   -152.76355    162.85308    11381.208 
   45460    277.84064    6.9320131    63.543486    -152.9455   -448.09718    11381.208 
   45470     292.2088     10.88319    57.342011   -152.70679   -1833.4772    11381.208 
   45480    290.11647    9.0460554    65.704936   -152.13266   -881.15024    11381.208 
   45490    324.51167    7.6668386    51.766753   -151.52831   -2849.3485    11381.208 
45500        0.983318789508015767 10.099972730103159435 1 71 -277.63663126482299504
   45500    278.94182    4.3945141    60.824956    -151.2528    -1654.178    11381.208 
   45510    295.58746    5.1233063    56.168075   -150.76412     3582.587    11381.208 
   45520    283.96702    6.9030642    58.430235   -149.61641    2357.0162    11381.208 
   45530    313.23255    5.7423545    50.292759   -147.73654   -210.22039    11381.208 
   45540    311.94176    6.1541537    62.692473   -145.42663    431.01669    11381.208 
   45550    306.26767    7.8588314    62.327796   -142.64314    2271.4575    11381.208 
   45560    332.43101    8.9990135    56.824361    -139.1039    2879.0568    11381.208 
   45570    337.88251    9.2492655    62.907683   -134.50384   -1044.0415    11381.208 
   45580     361.1061    11.814349    57.348603   -129.51906   -1359.1707    11381.208 
   45590    333.88421    12.269085    74.773514     -125.329    136.12845    11381.208 
45600        0.98486275923385346864 10.104922110300735838 1 73 -275.47998737412370929
   45600    338.38694    13.167324    62.863477   -122.16258    1399.7426    11381.208 
   45610    325.73027     13.51001    62.280553   -119.73674    1788.6978    11381.208 
   45620    326.59214    12.146428    73.334539   -117.89168    61.669928    11381.208 
   45630    326.46587    9.3161054    71.642897   -117.05229   -3733.8481    11381.208 
   45640    323.67816     6.742352    63.594383   -117.66696   -2139.6663    11381.208 
   45650    312.74486    8.8802583    70.582551    -119.4607    951.05283    11381.208 
   45660    310.56902     11.47023    63.291183    -122.3262    1798.1503    11381.208 
   45670    308.69826    11.094707    64.643061   -126.37173    1138.2372    11381.208 
   45680    323.55278    7.9919715    56.666471   -131.41928     334.1281    11381.208 
   45690    311.66208    6.4939422     63.65696   -137.23076    1159.0659    11381.208 
45700        0.97915522193329185274 10.162411360429764784 1 67 -284.19753468732460533
   45700     311.9829    6.2809245    59.733469   -142.84335   -707.57372    11381.208 
   45710      293.574    7.9271438    57.825199   -147.61806   -4849.2211    11381.208 
   45720    276.66078    8.9161867     60.08575   -150.90616   -3830.1358    11381.208 
   45730    298.35688    9.2873169    59.489078   -153.10889   -453.02814    11381.208 
   45740    285.95827    9.9394854    58.494195   -154.59468    3162.1497    11381.208 
   45750    278.71584    9.0229473    60.784035    -155.4505     3194.383    11381.208 
   45760    282.65717     9.838845    55.137989   -155.77351    82.923257    11381.208 
   45770    273.35512     5.382755    64.623988   -155.50661   -1514.4143    11381.208 
   45780    304.46081    6.0769928    56.584492   -154.58629    1107.3965    11381.208 
   45790    292.59326     6.415912    65.059203   -153.53677   -3160.1852    11381.208 
45800        0.97147364171559968948 10.171257712042326204 1 67 -284.64634209678109755
   45800    291.65067    7.3775506    63.735925   -152.50434    2467.5593    11381.208 
   45810    281.78144    6.6164934    63.910129   -151.23131   -217.16715    11381.208 
   45820    266.49695    10.292938    61.633776   -149.50744     1648.753    11381.208 
   45830    295.73168    8.2522812    60.355049   -146.84078    886.37639    11381.208 
   45840    308.84546    5.5308921    60.148315   -143.31404    622.42498    11381.208 
   45850    348.16566    4.4951871    54.446697   -139.48964   -2610.4996    11381.208 
   45860    320.82069    4.9220316    64.874344   -136.29034   -882.06775    11381.208 
   45870    314.96193     4.119296    62.699959   -134.17485    570.03559    11381.208 
   45880    303.55251    3.3920568     69.87016   -132.85368    2892.4524    11381.208 
   45890    330.92208    4.4875035     50.24702   -131.72924   -2800.5254    11381.208 
45900        0.96000818870392323756 10.206696368164998034 0.99735449735449732689 65 -268.54436787363590611
   45900    304.42375    7.0040587    57.238717    -130.6151   -1095.2609    11381.208 
   45910    310.14078    6.8985438    64.644431   -129.09824    1477.9589    11381.208 
   45920    314.96026    7.1926947    51.099998   -126.85609    1672.1657    11381.208 
   45930    295.69466    7.3131152    63.212077   -123.75247    1423.2099    11381.208 
   45940    326.04914    5.0876355     58.25749   -118.88372   -1216.4738    11381.208 
   45950    343.34539    3.9952423    63.422899   -113.56601   -2494.7656    11381.208 
   45960    370.70057    5.8126562    57.552761   -109.27347   -2324.5545    11381.208 
   45970    344.49145    4.9427212    62.934591   -107.22934   -1547.3667    11381.208 
   45980    328.43773    5.5477554    71.840446   -106.66431    2709.1069    11381.208 
   45990    336.54108    5.2460076    60.425203   -107.39484    3266.6573    11381.208 
46000        0.95053156335741950667 10.211853516563763833 0.99735449735449732689 69 -249.2185868624923728
   46000    309.01015    7.2218182    64.983864    -109.2113    1472.2273    11381.208 
   46010    330.05531    8.6736067    67.460485   -111.87263    1907.4737    11381.208 
   46020    336.74154    6.0345195    65.906026   -116.19084    1215.7155    11381.208 
   46030    339.43413    6.0688753    67.470838   -122.67716   -780.43583    11381.208 
   46040    321.52084     6.362927    63.578943   -130.23272   -2296.0203    11381.208 
   46050    317.72002    8.6776396    61.657733   -135.88633   -1609.0076    11381.208 
   46060     316.1518    10.443024    66.719872   -140.06868    -1604.004    11381.208 
   46070    320.22945    13.013258    55.034329   -143.18695    476.27344    11381.208 
   46080    289.01683    10.293318    65.456572   -145.70332    64.522982    11381.208 
   46090    304.14101    8.2148472    56.042349   -147.59516    1100.3255    11381.208 
46100        0.94692300822581010333 10.248842881905806834 0.99470899470899465378 65 -274.16345742915052597
   46100    276.24214    7.3854796    63.025918   -149.00281   -2139.6445    11381.208 
   46110    289.65674    5.6268325    55.389243   -149.79306     1857.383    11381.208 
   46120    284.29849    4.0118338    66.494368   -150.08901    1454.4685    11381.208 
   46130    299.15025    4.0062263    55.322882   -150.27321    674.42849    11381.208 
   46140    293.88906    4.2633207    58.464799   -150.39931   -2502.9901    11381.208 
   46150    286.71274    6.2023847    57.102065   -150.07514   -616.09424    11381.208 
   46160    298.14441    6.6264881    60.346937   -149.04481    2143.6928    11381.208 
   46170    289.46406    7.9404987    57.637458   -147.21189   -524.82827    11381.208 
   46180    285.97294    6.3358963    61.385052   -144.72811   -3913.2185    11381.208 
   46190    303.25512    4.4791734     59.45256   -141.77108   -1550.4874    11381.208 
46200        0.95038454651443737831 10.247600246360141441 0.98941798941798930755 69 -273.28415420897579224
   46200    297.01964    3.9869631    67.786486   -138.70957    3657.6246    11381.208 
   46210    333.09371    3.1553338    57.496934   -135.84892    3508.5962    11381.208 
   46220    310.64971    3.3196517    60.816492   -133.40371   -2412.2429    11381.208 
   46230    323.77991    2.8352634    61.792272   -131.31908   -2843.6793    11381.208 
   46240    305.90535    3.4052513    68.778656   -129.64494   -3018.5135    11381.208 
   46250    298.63847    4.6739747    69.259256    -128.7342    86.416504    11381.208 
   46260    288.41169    6.4303071    70.266949   -128.33761    1492.3916    11381.208 
   46270    297.98777    7.1528734    69.293324   -127.85039   -911.90153    11381.208 
   46280    323.25016      7.67381    67.699028   -127.37182    2403.8456    11381.208 
   46290    310.76499    10.357736    69.394736   -127.53776    1562.3989    11381.208 
46300        0.95509535820608959522 10.232564898632375616 0.99470899470899465378 70 -268.23119885915883742
   46300    307.60313    10.939194    61.270158   -128.86141    1450.1465    11381.208 
   46310    295.12275    7.5075922    74.352662   -131.50617   -1305.0734    11381.208 
   46320    335.33042    3.8726403    65.265726   -136.39802   -2144.4774    11381.208 
   46330    313.31835    3.1780503     61.51014   -143.32042    1444.7699    11381.208 
   46340    284.91965    5.1578326    59.278933   -149.84529    1053.0944    11381.208 
   46350    270.09264    4.9008294    59.347012   -154.22234   -732.25183    11381.208 
   46360    273.26868    6.9240661    58.849727   -156.57396   -1235.8344    11381.208 
   46370    285.30055    6.8234704    59.084972   -157.88147   -31.238776    11381.208 
   46380    288.47322    8.5464463     59.27855   -158.56756      1055.55    11381.208 
   46390    290.48981    7.5662797    63.097765   -159.00577   -1651.1569    11381.208 
46400        0.9707715011824481488 10.19829055949055352 1 68 -298.97573355738029477
   46400    308.52781    8.7272496    54.411128   -159.18699   -525.00068    11381.208 
   46410    309.01222    7.6949814    58.198948   -159.24454    246.34611    11381.208 
   46420    304.55354    6.1072319    51.925446   -159.26429    742.40001    11381.208 
   46430    307.14129    3.7627566    51.399223   -159.10829   -368.36988    11381.208 
   46440    301.96798    4.3167931    59.078268   -158.99095   -2342.3913    11381.208 
   46450    306.36109    5.0581427    53.699792   -158.93539    -1488.716    11381.208 
   46460    297.01222    5.2037447    56.943695   -158.91499   -3047.1685    11381.208 
   46470     299.7095    9.0542258    56.086422   -158.90311    3148.5655    11381.208 
   46480     273.5653    13.202302     58.75292    -158.6052    5300.1005    11381.208 
   46490    280.39893    12.376229    57.946022   -157.39979    3116.3023    11381.208 
46500        0.97595897005513743139 10.161563060742135889 1 73 -284.03239754992318922
   46500    285.08531     9.091779    61.204235   -154.86505   -326.24147    11381.208 
   46510    310.29387    9.4893938    54.342133     -150.793   -357.79783    11381.208 
   46520    316.48993    8.3509581    65.622328    -145.8118   -1268.5387    11381.208 
   46530    323.09043    5.9167348    59.945962   -141.16204   -487.31957    11381.208 
   46540    311.60753    5.6760794    69.859889   -137.49161   -6204.6807    11381.208 
   46550     342.3575    5.5411334    61.430181   -134.80149    1122.1842    11381.208 
   46560    326.12569    5.9617533    61.794379   -133.44264    1493.7113    11381.208 
   46570    319.25549    6.8725071    56.727265   -132.76989    2192.8795    11381.208 
   46580     312.7115    6.8479836    66.705267   -132.49551    1993.1402    11381.208 
   46590    292.39875    10.409259     64.07304   -132.63659   -853.80561    11381.208 
46600        0.97928167201274929354 10.121914731612509541 1 69 -265.76137995159194816
   46600    293.00261    10.201269    62.102408   -133.00684   -379.29269    11381.208 
   46610    301.51807    11.181445    60.023591   -132.92195     1934.879    11381.208 
   46620    296.73824    12.248115    60.751939   -132.47014    1648.1187    11381.208 
   46630    306.68362    10.598287    64.147762   -131.74078    3459.3393    11381.208 
   46640    311.63814    8.3361443    64.876412   -130.84087   -2388.5711    11381.208 
   46650    326.58737    7.3587795    61.193231   -130.14338    172.18867    11381.208 
   46660    327.11272    7.3196903    62.725266   -130.16552    666.80533    11381.208 
   46670    328.29921    7.3306055    63.661099   -131.45306   -1582.4618    11381.208 
   46680    310.80183    8.8416205     66.93426   -134.08677   -928.14748    11381.208 
   46690    303.66186    9.9853952    60.680116   -138.07849   -3006.5733    11381.208 
46700        0.9815559447620021416 10.134550290339738865 1 65 -281.86672675767448482
   46700    306.60061    11.048219    54.844939   -142.95116   -385.83529    11381.208 
   46710    325.68945    9.4857474    52.435427   -148.08946   -456.78153    11381.208 
   46720    328.34432    7.6998269    58.583643   -153.24909    3214.3861    11381.208 
   46730    321.85656    8.6206943    55.187176   -158.55779    1722.6108    11381.208 
   46740    284.61616    8.4611727    62.358681   -163.03198   -1115.5641    11381.208 
   46750    290.25404    7.5933332    60.863579   -166.19083    1511.2506    11381.208 
   46760     290.8563    7.5220281    57.546499   -168.37946   -107.20949    11381.208 
   46770    307.37617    6.5345768    52.719548   -170.15708   -202.32812    11381.208 
   46780    306.91103    8.1143676    50.501206   -171.90045   -3371.2973    11381.208 
   46790    289.62894    7.9812545    56.721359   -173.46641   -851.22048    11381.208 
46800        0.98273492273044005252 10.12845719470942818 1 61 -304.78947193766623514
   46800    287.15092    7.0482117    47.635913   -174.68624    1275.9389    11381.208 
   46810    249.97216    3.6697472    61.725049   -175.21887    1037.1615    11381.208 
   46820    270.72302     3.190634    56.937265   -174.59646    34.097543    11381.208 
   46830    264.97714    3.3532014    59.726982   -172.86586   -2507.8396    11381.208 
   46840    289.66584    4.3048989    52.967447   -170.14941    585.11118    11381.208 
   46850    259.95239    6.4096827    65.785194   -166.62437    1504.6915    11381.208 
   46860    298.50599    8.1252012    49.296602   -162.19961    1383.5279    11381.208 
   46870      289.848    7.9522866    62.357281   -157.49875   -2062.2212    11381.208 
   46880     309.5737     9.499337    55.971583   -153.35014    2656.9226    11381.208 
   46890    297.34295    7.9417718     60.40204   -150.31251   -408.33827    11381.208 
46900        0.97351581329246350549 10.179771042401576153 1 64 -290.55875710490056463
   46900    314.62562    8.4607303    57.132279    -148.0072   -757.22204     13342.62 
   46910    299.13749    7.2707793    58.616291   -146.56396   -3075.9899     13342.62 
   46920    298.55026    6.8812366    61.567143   -145.26517   -1826.7776     13342.62 
   46930    305.01873    6.3655813    64.626452   -144.52369    1778.4082     13342.62 
   46940    290.35323    7.0533418    64.906708   -144.26141    4592.4573     13342.62 
   46950    306.12392    7.0284547    61.767377   -144.11126    1207.6293     13342.62 
   46960     273.3411    6.1121623    68.132137   -143.87757    863.36898     13342.62 
   46970    298.75716    6.7402047    57.581142   -143.20939   -3784.3815     13342.62 
   46980    296.71335    5.3454555    64.991385   -142.55634   -504.66978     13342.62 
   46990    284.58065    4.6438825    74.180912   -141.93663    820.73338     13342.62 
47000        0.96612231602140474784 10.202216469675205346 1 61 -275.13788175232940603
   47000     295.7104    4.9967285    60.231722   -141.15649   -1764.3043     13342.62 
   47010    270.63867    4.7857699    65.518242   -140.04043   -1684.1045     13342.62 
   47020    310.54421    4.5392137    60.094053    -137.9836    459.73843     13342.62 
   47030     283.3246    4.2164164    68.628372   -135.21777   -505.24383     13342.62 
   47040    321.34763    3.8298586     54.39954   -131.64975    301.31952     13342.62 
   47050    334.09887    3.6907934    62.704819   -126.91024   -1166.6978     13342.62 
   47060    348.28546    3.4292005    69.172063   -122.02559    202.64321     13342.62 
   47070    347.88066    5.3459571    68.175172   -118.35697   -434.99637     13342.62 
   47080    314.72275     9.080442    65.704616   -116.42164   -721.58796     13342.62 
   47090    352.63323     8.481307    54.804647   -115.26398   -4.5545301     13342.62 
47100        0.97437647054759357612 10.175902649049415771 1 64 -274.56105606309500899
   47100    352.04661    4.7854413    69.554756   -115.05468   -413.83726     13342.62 
   47110    356.03929    3.7575309    66.396769   -117.42755   -1334.1849     13342.62 
   47120    319.66448    6.5696405     74.06004    -122.9568   -72.372629     13342.62 
   47130     338.4547    6.7271807     67.27227   -130.91797    2038.6624     13342.62 
   47140    310.22505     10.33199    66.934091   -138.93886    591.46898     13342.62 
   47150    329.50353     11.72243    55.326523    -144.9417   -739.48913     13342.62 
   47160    293.45569    11.614377    64.243627   -148.84942    1685.0311     13342.62 
   47170    287.63997    7.9999553    65.724316   -151.08386   -47.119098     13342.62 
   47180    286.28753    6.9685005    66.150519   -152.69543    -1702.308     13342.62 
   47190    288.15655    6.2394631    63.054465   -153.89362   -4518.5109     13342.62 
47200        0.98613643731813882543 10.118044336110076031 1 65 -297.14057348785439672
   47200    313.62604    6.0085898    56.202267   -155.04191    -750.0744     13342.62 
   47210    304.49967    5.2116562    57.308051   -156.26772    2882.0471     13342.62 
   47220    296.67662    6.5940526    56.913526   -157.21007    2344.2915     13342.62 
   47230    278.75471    7.5346905    67.986178   -157.70652    2849.2833     13342.62 
   47240    285.81216    8.9603317    63.341515   -157.88866   -1250.4686     13342.62 
   47250    289.70924    11.462677    66.293969   -157.88525     -2424.47     13342.62 
   47260    301.97188    12.620301    59.065937   -157.74157   -1134.8259     13342.62 
   47270    336.86528     13.25963    54.978078    -157.8747    1292.5651     13342.62 
   47280    305.06677    8.7517718    64.689739   -159.03375    2885.8077     13342.62 
   47290    299.94091    7.6027278    58.531444   -160.82609    1396.6968     13342.62 
47300        0.99358662830519961506 10.076871806838788359 1 64 -288.28166817763860763
   47300    276.53213    8.9108414     61.38963   -162.98962   -758.24944     13342.62 
   47310    279.28521    9.1924919    63.228963   -165.04152   -471.46631     13342.62 
   47320    285.57104    10.232194    56.733299    -166.9916   -140.48471     13342.62 
   47330    284.21442    12.133832    49.798553   -168.91738   -2736.6953     13342.62 
   47340    263.01435    12.755493    61.883817    -170.1439    1100.6987     13342.62 
   47350    288.26923    12.124788    58.394598   -170.24833    1017.0603     13342.62 
   47360    293.73648    10.423565    58.424974    -169.6408    1720.5486     13342.62 
   47370    274.98432    9.5563005    56.722958   -168.71562   -224.77311     13342.62 
   47380    252.30209    10.100453    63.560305   -166.91168    67.592998     13342.62 
   47390    287.71423    7.6765058     61.71914   -163.28424    2267.4731     13342.62 
47400        0.9894968672159216716 10.091879280180334533 0.99735449735449732689 64 -308.45658857633998196
   47400    332.08157    5.7504512    52.953106   -157.99603    104.38363     13342.62 
   47410    326.33131    4.9282773    64.401301   -153.03666   -2898.9647     13342.62 
   47420    323.93289    7.2476551    62.116923   -149.42251    -1319.833     13342.62 
   47430    307.12235     10.05441    62.593276   -146.72311    443.37492     13342.62 
   47440    319.78893    11.445087    58.841483   -144.56033    2422.3096     13342.62 
   47450    295.19111    9.9093756    71.649697   -143.05086    797.42652     13342.62 
   47460    304.28058     10.34278    60.296207   -141.88248    978.64929     13342.62 
   47470    305.99842    11.973359    54.783405   -140.99026   -1136.1325     13342.62 
   47480    276.61805    12.992104    58.797791    -140.0767    -29.80018     13342.62 
   47490    289.66749    10.614433    64.671677   -138.15363    360.01727     13342.62 
47500        0.97785544843036376061 10.146242858822851929 0.99470899470899465378 66 -270.32542727097256829
   47500    297.08669    7.8872472    63.942413   -135.72046   -292.83809     13342.62 
   47510    318.04881     8.002421    59.971958   -133.04364   -1838.1729     13342.62 
   47520    341.04624    9.9898196    58.748527   -130.55705    617.72839     13342.62 
   47530    363.78097    8.6455982    58.165505   -128.23742    3112.5879     13342.62 
   47540    343.86604      7.27157    59.759068   -127.08264    -360.6985     13342.62 
   47550    307.08465    5.8908173    68.976533   -127.26694   -3060.2845     13342.62 
   47560     312.5946    3.6638928     60.68911   -128.98331   -951.87193     13342.62 
   47570    292.85562    5.0441656    65.971479   -132.13033    1852.8479     13342.62 
   47580    309.79956    5.7967845    58.193463   -136.19634     936.1778     13342.62 
   47590    314.86472    5.6874583    56.046886   -141.27307   -2713.8283     13342.62 
47600        0.97609705808678148831 10.163110174655839657 0.99470899470899465378 68 -277.75636086363044797
   47600    289.15179    7.8172137    66.056039   -146.74656   -3398.1791     13342.62 
   47610     281.3829    11.653438    61.753417    -151.3475    2061.2956     13342.62 
   47620    288.37014     8.884858    64.736583   -155.12651    3254.7056     13342.62 
   47630      299.561    7.1661501    56.544854   -157.98279    2849.2288     13342.62 
   47640    301.94212    5.4469757    50.687897   -160.26944    -3197.896     13342.62 
   47650    267.58241    5.1597026    56.002831   -161.71942   -1495.2357     13342.62 
   47660    277.31605    3.9864999    57.460854   -162.05907   -19.068123     13342.62 
   47670    278.99023    4.6151779    61.923623    -161.7378   -1266.2876     13342.62 
   47680    284.69668    5.9058245    58.795805   -160.97618    -539.4723     13342.62 
   47690    308.44041    5.9751301     57.30794   -159.80569   -2115.9014     13342.62 
47700        0.97696108970077844003 10.163465033799683468 1 67 -300.44620655479980087
   47700    312.61052    5.4555034    56.807577   -158.80765    2290.5211     13342.62 
   47710    304.21521    6.0362804    55.138304   -158.11397    1264.9628     13342.62 
   47720    283.68202    7.8208207    60.334123   -157.09732   -722.22113     13342.62 
   47730    299.59358     6.911462    52.449429   -155.12609    911.40232     13342.62 
   47740    295.83242    5.9600749    61.295119   -152.32432   -1950.0264     13342.62 
   47750    310.61543    7.0719508    62.105071   -148.81777    1314.3369     13342.62 
   47760     312.5067    9.3853014    51.399706   -144.93013    617.87458     13342.62 
   47770    280.70136    10.615188    67.647711   -140.92066   -1941.7456     13342.62 
   47780    319.02324    9.2586448    63.509431   -136.32099   -715.45326     13342.62 
   47790    318.23839    5.3132791    72.307833   -132.25708   -1868.5745     13342.62 
47800        0.9805747704272066434 10.135169791308911158 1 66 -289.68525167437098844
   47800    352.43551    4.7034459    67.890901   -130.00267     3155.831     13342.62 
   47810    321.79477    6.0067919    72.719653   -129.77539    1534.0674     13342.62 
   47820    325.32093    7.5373084    65.097487   -130.77864    181.45195     13342.62 
   47830    290.38733    6.9326859    66.025883   -132.28777   -699.77349     13342.62 
   47840     330.3202    8.5186955    47.535305    -133.8666   -535.31369     13342.62 
   47850    303.39861    9.1227294    65.134211   -135.92379    2626.1525     13342.62 
   47860    318.61572    11.265497    53.838448    -138.2329    531.01068     13342.62 
   47870    314.40992    9.4101137    57.392218   -140.90881   -2544.2186     13342.62 
   47880    296.22814    5.6548364    56.132481   -144.01603   -2464.5976     13342.62 
   47890    294.42599    4.5060339    58.606089    -147.7039   -1801.5176     13342.62 
47900        0.97915115089941273663 10.109538271477161331 1 68 -288.31167002390964171
   47900    299.51599    3.4826071    56.449107   -152.60603    2689.3763     13342.62 
   47910     267.6989    5.6861053    63.117055    -158.8115   -531.29791     13342.62 
   47920    267.60727    4.9556098       62.102   -164.72703    1905.6426     13342.62 
   47930     268.8861    4.9274268    55.932881   -169.66057   -877.77121     13342.62 
   47940    270.77237    7.7531953    51.274186   -172.59608   -827.83883     13342.62 
   47950    269.76448    6.9778183    55.655432   -173.73292   -1321.8126     13342.62 
   47960    283.22335    7.1252394    46.975292   -173.65642    2022.4187     13342.62 
   47970    251.14708    8.3384004    65.054458   -172.68937    706.93338     13342.62 
   47980     280.2689    5.4724818    50.460818   -170.98837    2426.1285     13342.62 
   47990    280.13999    3.8162209    58.736808   -168.94763    751.82748     13342.62 
48000        0.98559452083224585728 10.123251810559777297 1 70 -300.06685082782121299
   48000    294.49257    3.6494309    50.670875   -166.63724   -1107.7407     13342.62 
   48010    293.92602     3.727498    49.379755   -164.22333    -1198.295     13342.62 
   48020    283.99195    5.7387941    56.872676   -161.72028    2120.8288     13342.62 
   48030    302.71866    6.6895748    62.050482   -159.21204    1333.7462     13342.62 
   48040    312.99928     7.953008    56.759877    -156.8182   -2085.1872     13342.62 
   48050    289.43769    9.3894021    61.562453   -155.10392   -1730.5252     13342.62 
   48060    306.58125    9.8431115    60.836898   -153.58176   -1180.4324     13342.62 
   48070    295.90685    8.9664997    66.246628   -152.31373    1701.8959     13342.62 
   48080    299.76805    9.6852366     59.11702   -151.20589    2087.7287     13342.62 
   48090    292.94037    10.631093     60.01514   -150.23245   -96.953467     13342.62 
48100        0.98092305049275596573 10.139556633717610623 1 68 -289.66169653699637365
   48100    309.61104    9.1186325    59.467336   -149.38216    -68.67533     13342.62 
   48110    298.07928    8.5181257    63.218536   -148.54373     962.8227     13342.62 
   48120    295.05953     7.591544    62.768564   -147.06882   -213.58202     13342.62 
   48130     287.5088    8.3575975    66.358637   -145.14114   -1855.6331     13342.62 
   48140     285.7965    11.382507     69.81292   -143.06639    274.13607     13342.62 
   48150    326.25104    10.202993    57.810161   -140.38694    1125.9934     13342.62 
   48160    332.50762    9.0204537    65.103995   -137.38527    580.37701     13342.62 
   48170    330.68482    5.7633496    68.503185   -134.97726   -1601.9713     13342.62 
   48180    323.35782    7.0738214    59.611038   -132.95618    607.06674     13342.62 
   48190    318.49243    6.9365368    67.435124   -131.26616    2696.0175     13342.62 
48200        0.97433731390282174445 10.169457379498089367 1 67 -278.77793440404616376
   48200    328.85671    8.8731779    59.142354   -129.77851   -1781.5913     13342.62 
   48210    322.96605    8.9647394    64.940808   -128.82587   -620.15749     13342.62 
   48220    344.78233    9.1825781    59.912348   -128.47576   -382.95841     13342.62 
   48230    288.13835    9.1268637    69.073666   -129.10512   -537.38919     13342.62 
   48240    328.54549    7.0239566    61.353357   -130.27484    395.71973     13342.62 
   48250    321.25082    6.2851914    63.151007   -132.24374    411.53336     13342.62 
   48260    334.64396    6.2858866    59.911636    -135.3802   -567.41351     13342.62 
   48270    290.52616    7.0963531    64.781138   -139.62729   -525.36919     13342.62 
   48280    265.72763    6.6623883    64.867991   -143.28554   -1171.6201     13342.62 
   48290    286.39087    6.5945328    60.383157    -146.3652    834.97637     13342.62 
48300        0.97099286689328168087 10.200986895405888433 1 65 -285.68484858985260644
   48300    301.87568    6.3197026    59.670846   -148.91007   -736.29528     13342.62 
   48310    327.57087    7.0674535    50.345587   -151.67072    1062.3787     13342.62 
   48320    287.97895    7.1281614    59.613368   -154.08041   -1967.6263     13342.62 
   48330    283.45538    6.0605869    56.937028   -155.63988   -1160.1424     13342.62 
   48340    282.04871    6.4510287    60.597129   -156.61873   -481.71379     13342.62 
   48350    292.04609     7.742471    59.890057   -157.38289    1450.2142     13342.62 
   48360    282.65756    6.3953599     58.78852   -158.06224    4584.3594     13342.62 
   48370    291.22379    5.3907955    49.681655   -158.15781    12.786122     13342.62 
   48380    305.11717     3.483647    54.799709   -157.59193   -2270.7335     13342.62 
   48390    293.62901    2.9340927    61.202836   -156.55092   -2592.7752     13342.62 
48400        0.97075697003080640979 10.197238357192542679 1 69 -286.71304371554924728
   48400    290.72961    3.5092794     62.05263   -154.98836     551.4599     13342.62 
   48410    291.97828    4.2862989    67.987267   -153.02435    477.98715     13342.62 
   48420    299.92241    4.0817949    62.860545   -150.43003   -565.41564     13342.62 
   48430    329.41552    4.0995706    51.544392   -147.03311   -924.68003     13342.62 
   48440     299.0009    4.1040394    69.579187   -143.26437   -1246.1678     13342.62 
   48450    313.77098    6.8503472    55.836676    -139.3177    97.977124     13342.62 
   48460    289.56819    6.3490344    71.474977   -135.27807    689.87937     13342.62 
   48470     347.1189    6.1877588    60.839323   -131.26353    3284.3801     13342.62 
   48480    313.17472    6.4469684    70.536931   -128.62332   -118.65471     13342.62 
   48490    336.51156    5.7305906    60.887103   -127.08694     559.4693     13342.62 
48500        0.97032320732960986032 10.189709144262479867 1 67 -262.31159736585334485
   48500    299.69115    7.4684786    71.168188    -126.5266   -4246.8431     13342.62 
   48510    327.52979    8.0999331    61.789965   -126.19015  -0.41670918     13342.62 
   48520    339.75311     9.434343    65.314182   -126.46483   -297.79277     13342.62 
   48530    322.42301    11.050191    64.499853   -127.95133    560.61737     13342.62 
   48540    309.91845    13.904351    67.357238   -130.87793    3726.7863     13342.62 
   48550    291.38456    13.187573    67.968336   -134.44124    1056.9488     13342.62 
   48560    313.33956     7.714724    63.367095   -139.21699    133.66327     13342.62 
   48570    295.27174    5.9493147    61.946419   -144.45445   -1751.6469     13342.62 
   48580    319.48999    5.2394856    55.183374    -149.7588   -1361.1567     13342.62 
   48590    303.76669    3.6599674    57.941855   -154.05118    1192.2406     13342.62 
48600        0.97232763399310562225 10.192383316594487042 1 65 -291.50428805550177458
   48600      296.392    4.0762285    59.051759   -157.21408   -1058.3819     13342.62 
   48610    307.72786    5.0395444    60.547423    -159.4049    184.06122     13342.62 
   48620    300.81474    5.1734377    59.562221   -161.35483   -929.58895     13342.62 
   48630     298.7282    5.4100537    53.761901   -162.98082   -287.26836     13342.62 
   48640    278.02706    4.1214151    60.778489   -163.92904    1031.2338     13342.62 
   48650    267.66646    6.2643233      52.9061   -163.99438    2151.4449     13342.62 
   48660    280.43111    6.3104232    61.809906   -163.15795     906.6563     13342.62 
   48670    302.19636    6.5293311    49.356537    -161.8965   -1002.6733     13342.62 
   48680      308.286    4.8269759    60.306352   -160.86315   -4473.3837     13342.62 
   48690    298.40249    7.2533854    60.323932   -160.00303    1688.5686     13342.62 
48700        0.97134675383115476333 10.20221214572193702 1 66 -292.9028447530433823
   48700     295.1084    7.5118677    59.826981   -159.19421   -258.08156     13342.62 
   48710    289.15955    5.1085761    66.355199   -158.41902    3215.5276     13342.62 
   48720    284.22571    5.0242562    65.667625   -157.56642   -167.04914     13342.62 
   48730    290.46566    4.7899945     53.16495   -156.21002   -345.22239     13342.62 
   48740    317.46799    5.5769397    57.788768   -154.09956   -2275.7168     13342.62 
   48750    321.57161    5.1560708     54.40429   -151.89507   -844.61253     13342.62 
   48760    313.06137    7.7785866     62.34407   -149.91457   -835.86188     13342.62 
   48770    301.90973    11.954101    60.027213   -148.29255     991.7334     13342.62 
   48780    323.32168     13.86351    54.385355   -146.37805    1395.2883     13342.62 
   48790    307.63522    14.694099    65.524058   -144.30682    3609.8772     13342.62 
48800        0.96686349926854531223 10.184476023989285309 0.99735449735449732689 69 -285.06882528792488074
   48800    315.43815    12.894964     53.05609   -142.14912    203.49847     13342.62 
   48810    291.47262    12.583226    72.021369   -139.91802   -321.27448     13342.62 
   48820    316.38677    9.9357373    60.395005   -137.50184   -3022.4973     13342.62 
   48830    314.01374    9.1981543    59.655681   -134.97049   -1388.1094     13342.62 
   48840    308.32895    9.8362296    67.606975   -132.68633    1020.4017     13342.62 
   48850    313.22567    8.5913409    63.936103   -130.52956    163.04524     13342.62 
   48860    306.20787    7.1236744    65.079926   -128.94459   -251.98398     13342.62 
   48870    299.79541     7.417926     66.48844   -127.81235   -2058.0732     13342.62 
   48880      294.738    7.5174367    67.087407   -126.71148   -378.62323     13342.62 
   48890    302.12706    9.0220001    70.377706   -125.82238   -104.86985     13342.62 
48900        0.96787245163705859508 10.199226015891730057 1 69 -275.49194586785858974
   48900    331.12888    11.487523    66.916827   -125.46304   -26.486144     13342.62 
   48910    336.91113    12.599377    63.259454   -126.27789    93.796224     13342.62 
   48920    338.62783    6.7054916    61.491703   -128.81102    806.67878     13342.62 
   48930    305.20513    5.1414419    66.616911   -132.83217    47.564888     13342.62 
   48940    319.13347     2.869342    64.542434   -138.00936    687.14216     13342.62 
   48950     312.2937    3.2885558    57.476543   -143.48062    -118.5283     13342.62 
   48960    317.88794    3.9043721    58.337664   -149.11422   -356.17393     13342.62 
   48970    300.11381    5.0461721    56.677065   -153.69996    946.09777     13342.62 
   48980    286.23173      3.88319    57.374312   -156.92577   -665.96565     13342.62 
   48990    280.61476    4.9814288    55.205894   -158.76589    537.61815     13342.62 
49000        0.97154123079113197115 10.187863047894007096 0.99735449735449732689 68 -291.44610426157595384
   49000    290.83756    7.1379118    58.276899   -159.67251    1009.7943     13342.62 
   49010    294.95824    6.8189836    59.056664   -160.03684    1184.8299     13342.62 
   49020    299.63548    5.5720989    54.754796   -159.91041   -2260.6979     13342.62 
   49030     306.3457    4.2474128    58.311469   -159.61791   -2777.5403     13342.62 
   49040    304.34674    6.0798169    54.708447    -159.4939   -737.19983     13342.62 
   49050     292.0898     5.945239    59.720298   -159.38046   -966.95272     13342.62 
   49060     306.4388    6.9397507    49.487292   -158.99551    2294.7029     13342.62 
   49070    302.85284    8.2506381    56.076402   -158.22489    1638.8383     13342.62 
   49080    318.84213    7.3109348    55.155305   -157.21228    1890.6892     13342.62 
   49090    311.22453     8.022623    51.364232   -156.29833   -774.05008     13342.62 
49100        0.97755539339677377519 10.151313177861386094 1 66 -290.96154845543662759
   49100    299.15876    10.507113     55.41655   -155.41776    -1151.405     13342.62 
   49110      311.739    11.198626    51.600275   -154.07848   -1549.4712     13342.62 
   49120     309.5288    7.4952215    58.659848   -152.29141   -900.17996     13342.62 
   49130    322.40968    7.5062512    52.690947   -149.96319     1435.671     13342.62 
   49140    302.23481    9.3322289     57.40473   -147.09965     1242.178     13342.62 
   49150     310.2433    10.659632    46.775884   -143.36783    2826.3379     13342.62 
   49160    297.17207    8.3056316    62.864476   -138.66216   -291.21566     13342.62 
   49170    330.18349    5.1530239    53.835366   -133.55214   -503.94788     13342.62 
   49180    295.43187    5.9553525    64.598547     -128.804   -2093.7439     13342.62 
   49190    340.67379    6.2188982    55.542067   -124.84135    -1734.899     13342.62 
49200        0.98062845063393722089 10.158155541406992839 1 65 -266.13707321896089297
   49200    317.37342    5.4398121    67.920032   -122.34053   -1104.7789     13342.62 
   49210    342.79714    4.3586608    63.678309   -121.26583     1458.809     13342.62 
   49220    331.41595    5.6048861    65.314625    -121.8941      857.868     13342.62 
   49230    313.11916    8.8134178    65.338784   -123.97356    382.46952     13342.62 
   49240    306.84019    9.5794262    70.424175   -126.98017   -652.53904     13342.62 
   49250    292.59975     10.08191    71.255444    -130.1428    2278.2836     13342.62 
   49260     324.0523    7.3916932    59.641958   -133.38321   -582.87619     13342.62 
   49270    305.35229    5.3763198    72.298229   -136.61611    450.46239     13342.62 
   49280    319.87123     4.806352    62.731543   -139.97656   -675.56821     13342.62 
   49290     274.3376    3.7578207    74.858595   -143.10546     785.1171     13342.62 
49300        0.98194556761324758298 10.147076201387951855 1 67 -278.68965645585871016
   49300    293.81071    3.9121496    59.085064   -145.56898    99.351467     13342.62 
   49310    297.31408    3.8146897    61.368527   -147.44089    937.95043     13342.62 
   49320    322.94936    4.0160369    53.923006   -149.00718    718.31591     13342.62 
   49330    288.61051    4.8018964    55.292209   -150.56212   -3250.1342     13342.62 
   49340    278.34434    4.6758832    56.879911    -151.4788   -1622.0172     13342.62 
   49350    274.38131    4.7074653    63.121709   -151.76629   -1697.2003     13342.62 
   49360    284.95369    5.0610194    60.543336    -151.4484    2153.4047     13342.62 
   49370    309.77877    6.9742052    54.297533   -150.71827   -1040.6412     13342.62 
   49380     303.0955    8.4529161    54.280065   -149.92334    1233.3913     13342.62 
   49390    303.33501    6.3000056    63.248451   -148.98607    177.58625     13342.62 
49400        0.98081454827945335762 10.132246490305044873 0.99735449735449732689 68 -286.26386643055570858
   49400    305.38864    6.8819226    56.275823   -147.89742    701.94101     13342.62 
   49410    326.92219    6.9092569    53.057206    -146.9495    197.96283     13342.62 
   49420    301.05915    5.9297334    59.046392   -146.37893   -929.53335     13342.62 
   49430    303.92499    7.4463425    56.277213   -145.83746   -589.33894     13342.62 
   49440    295.48021    5.3116066    66.134107   -145.20234   -1125.6082     13342.62 
   49450    295.49613    4.8288509    63.143238   -144.67353     527.0182     13342.62 
   49460    312.52531     5.043328    61.590888   -144.52354    526.35635     13342.62 
   49470    301.85753     7.243463     62.27595   -145.09139   -1295.6051     13342.62 
   49480    307.40618    7.1899995    57.429492    -145.9671   -354.83974     13342.62 
   49490      305.772    7.3542507    58.854511   -146.92436    1045.6794     13342.62 
49500        0.98204633214613035186 10.106490396137726151 1 64 -294.28200804049350836
   49500    321.74808    9.3115211    54.705566   -148.50338    2284.5429     13342.62 
   49510    303.26617    9.0850372    62.173735   -151.13451   -220.80572     13342.62 
   49520    297.00407     9.580637    48.599798    -154.2151    25.685312     13342.62 
   49530    284.38725    6.9729765    54.353107   -157.20202    1657.9946     13342.62 
   49540    266.96366    4.6746731    61.760785   -159.30236    704.07363     13342.62 
   49550    278.74683    5.3577614     57.02286   -160.66211   -3811.5813     13342.62 
   49560    254.96483    7.5694713    64.129846    -161.3922   -1293.2775     13342.62 
   49570    276.84261    9.4321853    56.607847   -161.51731     39.36305     13342.62 
   49580    271.61232    12.148408    56.065727   -161.00586    2998.4654     13342.62 
   49590    286.71923    11.676553    49.163738   -159.45346    469.67081     13342.62 
49600        0.97966008927746828228 10.090609494267747337 0.99735449735449732689 71 -282.10447376927146479
   49600    276.53886    9.9167764    54.512276   -156.80938       1086.8     13342.62 
   49610    291.99006    9.3622497     61.49591   -153.09409   -389.98837     13342.62 
   49620    308.83357     7.030888    56.528602   -148.93448    650.49556     13342.62 
   49630     301.9396    7.1270184    65.070131   -145.20915    678.91781     13342.62 
   49640    307.77227    6.2393534    64.813284   -142.39227   -1720.4944     13342.62 
   49650    319.97935    5.0502473    56.506928   -140.05979   -1715.4144     13342.62 
   49660    300.85496     3.209343    66.132079   -138.45832    1255.1116     13342.62 
   49670    277.76209    3.3993814    68.075783   -137.38604   -1231.5735     13342.62 
   49680    283.37799    3.8103457    68.746641   -136.24895   -2879.9865     13342.62 
   49690    297.45227    6.5965099    65.224536   -134.97152   -70.870225     13342.62 
49700        0.97937096236324860943 10.069529449178443059 0.99735449735449732689 70 -264.97133127071361969
   49700    289.42204    7.2567087    69.123117   -133.83909    184.11186     13342.62 
   49710    304.61689    7.9606103    61.880267    -132.7648    4656.6654     13342.62 
   49720    275.28148    5.5184968    68.323607   -131.49709      1887.85     13342.62 
   49730    309.81131    7.0003359    58.623427   -129.30599    382.00025     13342.62 
   49740    324.23429     6.026159    65.986602   -125.91142    634.91348     13342.62 
   49750    338.59477    6.4018131    64.223953   -121.54566   -312.00406     13342.62 
   49760    346.00583    6.5387798    57.303778   -116.58298   -179.33485     13342.62 
   49770     323.8412    4.2458616     71.96755   -111.90436   -763.97746     13342.62 
   49780    344.19943    4.2924501    69.001871   -107.95453    796.62372     13342.62 
   49790    343.46762    6.6549987    62.534654   -105.07323    760.62565     13342.62 
49800        0.97972814696199961304 10.122533394590318423 0.99470899470899465378 69 -260.05098330850756838
   49800    345.44571    8.0645575    67.733229   -103.53536   -2371.6783     13342.62 
   49810    337.15299    6.7878815    76.091741   -103.92325   -102.03579     13342.62 
   49820    345.50039    8.4459336    61.293873   -106.86895    42.019033     13342.62 
   49830    311.23512     9.535466    74.093267   -112.22382   -1843.5847     13342.62 
   49840    317.91405    8.0942043    62.765812   -118.68714    676.87227     13342.62 
   49850    324.46242    8.3483258    58.105852    -125.1018   -2178.1463     13342.62 
   49860    310.56968    9.8132476    59.278638   -130.28847   -1381.4618     13342.62 
   49870    309.20155    8.9134686    59.090529   -133.91039     1114.394     13342.62 
   49880    302.34688    7.3216005    55.539747   -136.60891    2791.2079     13342.62 
   49890    315.52037    6.6752676    62.416881   -138.92294    4603.3979     13342.62 
49900        0.98074608391156925524 10.125615836392338309 0.99470899470899465378 66 -290.69825381911357454
   49900    329.35733    7.1966645    60.233058   -141.47201   -1571.8438     13342.62 
   49910    320.20842    7.8323878    58.472866   -144.59349   -1845.8867     13342.62 
   49920    324.43289    7.5150074    53.698254   -148.14183   -319.26941     13342.62 
   49930    291.90946    6.0621688      57.9978    -151.5367   -485.06085     13342.62 
   49940    270.96311    6.7338657    60.777244   -154.20922    52.374028     13342.62 
   49950     302.9779    8.7664585     53.56618   -156.21063   -205.74173     13342.62 
   49960    294.00641    10.423686    51.764661   -157.89235   -662.79062     13342.62 
   49970     305.9548    8.7480919    49.529962   -159.20429    622.48835     13342.62 
   49980    278.74565    7.2431121    62.050498   -160.11691    1375.4282     13342.62 
   49990    312.41422     8.441013    54.861556    -160.9161     520.1508     13342.62 
50000        0.97834491108717802632 10.134157062923728532 1 70 -295.6884066264767057
   50000    295.10035    10.064992    55.996616   -161.98342   -902.12607     13342.62 
Loop time of 184.405 on 1 procs for 50000 steps with 153 atoms

Pair  time (%) = 8.15458 (4.4221)
Bond  time (%) = 0.625627 (0.339268)
Neigh time (%) = 0.00293016 (0.00158898)
Comm  time (%) = 0.0624812 (0.0338826)
Outpt time (%) = 0.608326 (0.329886)
Other time (%) = 174.951 (94.8733)

Nlocal:    153 ave 153 max 153 min
Histogram: 1 0 0 0 0 0 0 0 0 0
Nghost:    0 ave 0 max 0 min
Histogram: 1 0 0 0 0 0 0 0 0 0
Neighs:    5932 ave 5932 max 5932 min
Histogram: 1 0 0 0 0 0 0 0 0 0
FullNghs:  11864 ave 11864 max 11864 min
Histogram: 1 0 0 0 0 0 0 0 0 0

Total # of neighbors = 11864
Ave neighs/atom = 77.5425
Ave special neighs/atom = 2.64052
Neighbor list builds = 4
Dangerous builds = 0
