LAMMPS (9 Oct 2012)
# 3d protein simulation

units real

timestep 2

dimension	3

boundary s s s
#boundary p p p

neighbor	10 bin
neigh_modify	delay 5

atom_modify sort 0 0.0

special_bonds fene

atom_style	peptide

bond_style harmonic

pair_style vexcluded 2 3.5 3.5

read_data data.testeo
  3 = max bonds/atom
  orthogonal box = (-200 -200 -200) to (200 200 200)
  1 by 1 by 1 MPI processor grid
  153 atoms
  202 bonds
  5 = max # of 1-2 neighbors
  5 = max # of special neighbors

pair_coeff * * 0.0
pair_coeff 1 1 20.0 3.5 4.5
pair_coeff 1 4 20.0 3.5 4.5
pair_coeff 4 4 20.0 3.5 4.5
pair_coeff 3 3 20.0 3.5 3.5


velocity	all create 300.0 7825954

group		alpha_carbons id 1 4 7 10 13 16 19 22 25 28 31 34 37 40 43 46 49 52 55 58 61 64 67 70 73 76 79 82 85 88 91 94 97 100 103 106 109 112 115 118 121 124 127 130 133 136 139 142 145 148 151
51 atoms in group alpha_carbons

group		beta_atoms id 3 6 9 12 15 18 21 24 27 30 33 36 39 42 45 48 51 54 57 60 63 66 69 72 75 78 81 84 87 90 93 96 99 102 105 108 111 114 117 120 123 126 129 132 135 138 141 144 147 150 153
51 atoms in group beta_atoms

group		oxygens id 2 5 8 11 14 17 20 23 26 29 32 35 38 41 44 47 50 53 56 59 62 65 68 71 74 77 80 83 86 89 92 95 98 101 104 107 110 113 116 119 122 125 128 131 134 137 140 143 146 149 152
51 atoms in group oxygens


fix		  1 all nvt temp 300.0 300.0 100.0
fix		  2 alpha_carbons backbone beta_atoms oxygens fix_backbone_coeff.data testeo.seq
Chain flag on
Chi flag on
Rama flag on
Rama_P flag on
SSWeight flag on
ABC flag on
Dssp_Hdrgn flag on
P_AP flag on
Water flag on
Burial flag on
Helix flag on
Fragment_Memory_Table flag on
DebyeHuckel on

Reading fragments...
Computing FM table...

variable      biasinge equal f_qbias
# output wham.dat, a file with collective variables that can be used to compute pmfs
compute     qw alpha_carbons qwolynes rnative.dat 2 0.15
variable    qw equal c_qw
compute     rg alpha_carbons gyration
variable    rg equal c_rg
compute     qo alpha_carbons qonuchic cutoff 12.0 nativecoords.dat 1.2
variable    qo equal c_qo
compute     tc beta_atoms totalcontacts 6.5 2
variable    tc equal c_tc
variable    step equal step
variable    E_P equal pe

fix         wham all print 100 "${step}        ${qw} ${rg} ${qo} ${tc} ${E_P}"

thermo		10
dump		1 all atom 50 dump.lammpstrjPH


dump_modify	1 sort id

reset_timestep	0
run		50000
Memory usage per processor = 0.857471 Mbytes
Step Temp E_pair E_mol TotEng Press Volume 
       0          300    54.408864    955.49334    706.55963    -33253.58    10890.368 
      10    1270.4147    67.422515    297.11123    647.35097     8433.395    10890.368 
      20    729.44422    27.545397    515.96223    558.19761    6421.5163    10890.368 
      30    1039.0257    15.909898    342.00672     484.7732    29572.996    10890.368 
      40    767.67344    9.4132639    352.15115    390.85721   -31770.088    10890.368 
      50    733.31407    9.1074805    271.90528    325.11155   -2698.6692    10890.368 
      60    736.90194    4.1160564    243.15155    252.09079    -4504.223    10890.368 
      70    657.01681    7.2658176    225.55867      197.366    23529.631    10890.368 
      80    610.91831    17.953243     183.8613     147.9326   -2041.3358    10890.368 
      90    484.03956    12.015569    184.70542    106.26339   -18199.995    10890.368 
100        0.9933217870272532668 10.056398181396003721 1 67 -154.18882494111196024
     100     486.9822    8.3724747    182.55145    66.454594     3256.046    10890.368 
     110    442.74304    4.9601139    169.55907    30.141114    7840.9038    10890.368 
     120    490.48346    6.5947179    134.55814  -0.91458689    4221.3099    10890.368 
     130    455.93395    5.8963298    108.11927   -29.213483   -7807.7874    10890.368 
     140    414.98365    7.2400313    115.21036   -53.021445   -11867.141    10890.368 
     150    408.54615    9.5457391    110.16701   -76.840828    11051.251    10890.368 
     160    378.28349    12.348571    98.722265   -96.915429    5929.0915    10890.368 
     170    391.98527    9.8967913    87.435946   -114.88826    4433.1976    10890.368 
     180    340.47548    6.7600294    100.61171   -131.62247   -6055.7803    10890.368 
     190    334.10143    6.0832646    82.870538   -145.76252   -1936.9213    10890.368 
200        0.99209532656916532556 10.10882702184368398 1 68 -296.37990361053476818
     200    302.60943    6.2391833    95.347683   -159.27268    1836.3304    10890.368 
     210    279.67388    7.6393248    85.789555   -169.58205   -424.04834    10890.368 
     220    314.56103    6.7204647    73.105929   -179.10254   -5836.3603    10890.368 
     230    253.27608    7.5641004    83.169141   -186.77646    2782.4154    10890.368 
     240     284.6165    9.8211828    63.934595   -192.89286     2086.476    10890.368 
     250    246.16478    8.1031725     80.43481   -197.79351    4360.1343    10890.368 
     260    292.33694    8.3755618    64.288259    -201.1489   -470.78132    10890.368 
     270     273.2218    7.9507194    62.107745   -203.41512    -3447.448    10890.368 
     280    253.78079    8.8949756    72.243331   -204.07774   -1811.4028    10890.368 
     290    261.69691    6.5524617    73.693165   -203.33265   -503.15185    10890.368 
300        0.9879334694580317322 10.118521283045419423 1 64 -310.45222692811040588
     300      240.338    6.6808084    81.852697   -201.55913    2788.7159    10890.368 
     310    283.01886     4.422266    65.128459   -198.33403   -801.44792    10890.368 
     320     263.8914    6.4227352    75.471157   -193.72986   -1846.5345    10890.368 
     330    280.65241    6.2498546    81.196451   -188.30716   -1775.5103    10890.368 
     340    283.39389    8.3160955    73.097637   -181.70475    1729.3147    10890.368 
     350    258.27545    6.4830611    97.062237    -175.2654    3545.2022    10890.368 
     360    307.65789    8.6548929    71.318314   -167.73756     1413.162    10890.368 
     370    288.81065     8.374393    88.536488   -160.21417   -4641.1562    10890.368 
     380    319.04736    6.2590218    83.373344    -152.8607     1417.729    10890.368 
     390    329.24658    6.1248875    80.231717    -145.6103   -1235.1951    10890.368 
400        0.98396752767495743175 10.13549690669221448 1 65 -294.08854906023555031
     400    342.03868    5.5673045    85.788897   -139.11659    2853.2807    10890.368 
     410     350.8216    9.3110585    86.966617   -132.90353   -3039.2213    10890.368 
     420    327.31911    12.144594    93.703911   -127.97523   -4120.1263    10890.368 
     430    315.44279    10.577687    110.22162    -124.0864    8259.1818    10890.368 
     440    345.73838    9.4230248    104.87905   -121.63883    1619.6353    10890.368 
     450    355.61664    7.4038511    93.020753   -121.04167    254.89777    10890.368 
     460    323.17424    6.1252712    103.53394    -122.5016   -5423.6187    10890.368 
     470    334.10552    5.2580106     97.66599   -125.67044   -1358.4147    10890.368 
     480    325.89609    6.4859873    109.21699   -130.57232    6249.1079    10890.368 
     490    343.02298    6.9816428    80.193124   -136.50605   -588.61093    10890.368 
500        0.98044601838682066131 10.161598319082003172 1 66 -292.14882982640659748
     500    329.06725    8.1558697    85.180954   -143.05401   -3303.0538    10890.368 
     510    286.93772    6.4560088    96.374537   -149.92013   -3479.1567    10890.368 
     520     315.7315    5.5970735    79.608936   -156.67923    1435.6118    10890.368 
     530    285.87135    5.8698804    92.166413   -163.23888    3423.1417    10890.368 
     540    319.68954     6.327923    74.695955   -169.13209     -2861.91    10890.368 
     550    279.34177    5.2766024    82.034856   -174.69906   -5020.2843    10890.368 
     560    283.55343    5.4615511    77.836665    -179.3856    4556.5606    10890.368 
     570    258.90536    4.8999299    86.613462   -183.35524    627.78769    10890.368 
     580    256.53193    6.5448503    76.867883   -186.19265    1921.2449    10890.368 
     590    255.29864    4.3184175    83.301422   -188.05609   -4522.8692    10890.368 
600        0.98231622463769086018 10.141171887873545288 1 66 -314.90488301064141297
     600     278.1695    5.1467697    70.956507   -188.87098    2447.0761    10890.368 
     610    287.55807    6.1235299    65.118678   -188.49642   -2717.2884    10890.368 
     620    272.79158    5.4627086     78.15513   -187.04291    413.57421    10890.368 
     630    278.55709    6.0977366    75.909269   -184.65179   -741.35069    10890.368 
     640    268.95128    6.3117653    80.397126   -181.36144   -320.02476    10890.368 
     650    288.00691    7.0118765    79.739695   -177.53978    381.80091    10890.368 
     660    287.82198    6.3847152    77.206654   -173.06196    1645.2787    10890.368 
     670     299.7735    5.5404353    76.958902   -168.14606    433.50717    10890.368 
     680    315.27019    7.0003966    78.443711   -162.95168    1667.0753    10890.368 
     690    298.81793    8.8535632    87.799446   -157.38458   -145.16146    10890.368 
700        0.98125743222663053267 10.155793001994705804 1 65 -290.66170142273387
     700    305.70502    10.284568    84.054956   -152.15191   -896.06939    10890.368 
     710    318.13789     9.155977    86.078103   -149.14512   -3458.5893    10890.368 
     720     340.9689     8.620817     80.78856   -145.54261    775.83689    10890.368 
     730    331.27513    8.1349367    85.642742   -142.81747   -797.56358    10890.368 
     740    325.97094    9.3892553     91.34422   -140.75137    885.52535    10890.368 
     750    325.77013    8.1575134    92.260031   -139.68584    -976.6782    10890.368 
     760     330.7199    9.1661688    94.104207   -137.82355    8949.8699    10890.368 
     770    328.32647    10.061407    90.380627   -138.44628    1356.6872    10890.368 
     780    314.01668    12.256435    81.057423   -140.26807    59.231717    10890.368 
     790    323.17915    8.2770399    77.427115   -142.56708   -6112.6589    10890.368 
800        0.9805216381489536559 10.142295666642599627 1 66 -289.04034187024427638
     800    317.47942    7.2336807    77.362984   -145.19577    1405.6862    10890.368 
     810    302.56989    6.4131895    95.755973   -147.90631    2204.3168    10890.368 
     820    317.99437    9.6003714    77.239013    -150.7099    1537.3016    10890.368 
     830    276.36924    9.9949661     86.78402   -153.58114   -3706.0369    10890.368 
     840    309.41087    11.209803    77.108365   -156.12171    849.48973    10890.368 
     850     298.4151    8.9404076    85.048061    -158.6695   -631.95151    10890.368 
     860    316.88758    8.9745956    72.256901   -160.94717   -573.18358    10890.368 
     870    290.46191    7.7119012    79.201869   -162.86825   -3662.6027    10890.368 
     880    295.50428     6.829875    75.427309   -164.19703    -1960.525    10890.368 
     890    322.83223    6.0037212    70.257171   -165.31272    3542.1151    10890.368 
900        0.97841995766426403947 10.156425916808785814 1 64 -310.42023935139513924
     900    316.67647    6.3582478    80.290541   -166.93947    5470.1319    10890.368 
     910    299.91456    10.078535    68.328927   -168.65685   -1979.7724    10890.368 
     920    275.58448    9.3943087    85.704906   -169.99087   -976.34909    10890.368 
     930     286.0889    7.4003442    78.630665   -170.62642   -1920.0821    10890.368 
     940    333.98401    6.3243815    68.730494   -170.94172    3425.7786    10890.368 
     950    307.11989    6.0349653    74.894039   -171.35912    1012.8919    10890.368 
     960    305.15943    6.2145026    69.667246   -171.51141   -1595.2903    10890.368 
     970    277.23528    4.7338886    72.912329   -171.19637     539.8728    10890.368 
     980     311.4786    6.4651583    72.752241   -170.22232   -62.959492    10890.368 
     990    293.57307    8.2686312     80.90462   -168.84525    1669.2505    10890.368 
1000        0.96785019600489752278 10.214069402035857337 1 66 -299.8424651205855298
    1000    292.58703     7.551193    80.447185   -167.27622   -553.33473    10890.368 
    1010    293.18243    8.3402534    78.748663    -165.5658   -3607.2181    10890.368 
    1020    308.97483    7.1142554    70.551323   -163.65541    2158.7868    10890.368 
    1030    310.94166    4.3148322    78.904259   -161.56227   -273.72894    10890.368 
    1040    298.75874    5.0809142    83.018739   -159.32379    6357.3494    10890.368 
    1050     289.3635    4.5185773    86.060747   -157.42229   -4375.1102    10890.368 
    1060    278.06458    4.8401675    85.864574   -155.53471   -4177.7067    10890.368 
    1070      323.296    3.4839994    74.608019   -153.10515   -4193.4958    10890.368 
    1080    309.51749    3.1434356    82.387883   -150.78889    751.47507    10890.368 
    1090    303.95325    3.8076134    80.958763   -148.77358   -291.97538    10890.368 
1100        0.96900740515325611835 10.202072649443461927 1 67 -290.0165470529735785
    1100    316.59555    4.9551716    78.747434   -146.57244    946.50772    10890.368 
    1110    312.86266    5.1419664    83.195691   -144.57518    1929.3643    10890.368 
    1120    315.98666    7.2423819    80.173808     -142.641   -526.54526    10890.368 
    1130     307.8683    8.2523813    89.337757   -141.14401   -1599.8004    10890.368 
    1140    335.96803    7.6746944    81.173452   -139.88672   -1045.4246    10890.368 
    1150    308.95456    9.8206045    81.794696   -139.43909    -129.9781    10890.368 
    1160    325.72955    6.1561053    87.193834   -139.33294   -56.530369    10890.368 
    1170    310.31569    6.8390947    86.168472   -140.11377    2871.3833    10890.368 
    1180     314.6581    7.9844181    78.881979    -141.2929    1214.1942    10890.368 
    1190    297.01711    9.8782774    91.884928    -142.9785    1698.2252    10890.368 
1200        0.97242840464280544399 10.193033263398667998 1 69 -283.48503716884960113
    1200    305.15522    6.8521396    80.834841   -145.22436   -4352.0294    10890.368 
    1210    306.20265    5.1614567    86.340403   -147.58488   -818.82358    10890.368 
    1220    317.37658    5.7827068    84.198476   -150.49382    856.53657    10890.368 
    1230    280.25645    6.3816279    89.715541   -153.41124   -2004.4102    10890.368 
    1240    304.00723    4.5152432    79.402164   -156.60541    1451.0112    10890.368 
    1250    268.39742    5.1844826    86.432626    -159.5701   -1224.8421    10890.368 
    1260     291.7906    9.2100691    78.790237     -162.256    1176.0806    10890.368 
    1270    289.25213    9.1634143    81.220064   -164.89159     3247.008    10890.368 
    1280    308.12841    8.1038212    69.735016   -167.32833   -1049.0123    10890.368 
    1290    246.69823    8.9694707    84.194736   -169.54655   -1273.8014    10890.368 
1300        0.98392992476302476579 10.149893839959711173 1 68 -309.4648098834103962
    1300     306.4406    7.9442203    63.112602   -170.62174   -3478.1506    10890.368 
    1310    276.81717    6.1567215    78.497418   -171.32153    2495.5577    10890.368 
    1320    297.90834    6.1293505    65.264472   -171.29731    2625.3301    10890.368 
    1330    260.77886    8.3832323    77.182495   -170.57364   -2947.1358    10890.368 
    1340    294.46908     8.086053    75.501616   -169.31325   -1101.7805    10890.368 
    1350    306.07644    7.7516462    74.390826   -167.66661     1300.768    10890.368 
    1360    293.27847    7.1000541    79.970784   -166.43518    1493.2616    10890.368 
    1370    293.98362    7.8261464    70.150299   -164.99974   -2565.2258    10890.368 
    1380    267.18458    6.7564209    82.747875    -163.1484   -25.316255    10890.368 
    1390    315.22922    6.9732455    73.965913   -160.20005    1735.0654    10890.368 
1400        0.98980028464422686874 10.106046861008421089 1 66 -294.53101804941962882
    1400    302.28059    8.1874145    82.848502   -157.57278    998.28054    10890.368 
    1410    323.67841    8.7557834    78.064777   -155.16982   -1693.4332    10890.368 
    1420    315.47962    10.484005    74.220614   -153.40648   -317.43865    10890.368 
    1430    307.25074    8.3696168    82.228704   -151.55766    3369.0219    10890.368 
    1440    285.35438    8.5851888    90.395446   -149.77358    2643.6519    10890.368 
    1450    294.50021    7.6245051    81.235134   -147.63052   -2019.6468    10890.368 
    1460    286.85379     10.63421    92.612345   -145.86329    -2450.644    10890.368 
    1470    334.40727    10.323211    71.367276   -144.34599   -1568.2002    10890.368 
    1480    291.29985    7.7877723    88.312062   -143.30226    2120.5809    10890.368 
    1490    305.20461    7.2584675    89.216077    -142.4321   -435.52193    10890.368 
1500        0.98997371525514821222 10.109189628378874914 1 67 -280.33528391738025221
    1500    305.04468    6.4579542    85.195683   -142.12469   -1212.0407    10890.368 
    1510    333.92138    5.1478234    80.674385   -142.54278    303.39434    10890.368 
    1520    320.10917    6.6363297    77.160368   -143.73551    305.45596    10890.368 
    1530    317.85016    7.6487534    76.182113    -145.5189   -489.32361    10890.368 
    1540    313.44274    9.5326718    76.307433   -147.46022    1273.9068    10890.368 
    1550    277.45697    6.4422805    89.822682   -149.41822    4322.6177    10890.368 
    1560    302.68375    7.2762262    77.954143   -151.29782    5079.3518    10890.368 
    1570      318.552    6.3887395    76.409564   -153.43258   -295.24038    10890.368 
    1580    320.66825    5.1208377    71.862333   -155.66944   -5840.0182    10890.368 
    1590    333.43438    7.8509465    57.661932   -157.94093   -3846.6677    10890.368 
1600        0.98985466698380975004 10.108442742669440761 1 68 -285.72308071421070963
    1600    277.45108    7.3757517    91.424698   -160.01468    2468.6109    10890.368 
    1610    294.14898    7.1203911    72.354468   -161.75071     3837.752    10890.368 
    1620    291.52062    4.9432967    75.446223   -163.40534   -2523.0971    10890.368 
    1630    317.62279    6.4256294     68.77171   -164.82239   -3074.1226    10890.368 
    1640    309.16614    6.7131415    70.479657   -166.25288     1180.673    10890.368 
    1650    297.35638    4.2042399    72.997957   -167.70007    2692.0645    10890.368 
    1660    273.34373    5.2097114    73.593579   -168.47895   -1681.6511    10890.368 
    1670    285.02063    7.2509851    76.459702   -168.46753    -2075.845    10890.368 
    1680    272.03564    8.8218161    75.740325   -168.13122    3519.5154    10890.368 
    1690    296.87459    10.214822    71.610678   -167.17411    4164.4884    10890.368 
1700        0.98675013533604127858 10.131993372249068486 1 67 -297.82147049542447803
    1700    292.05837    12.091824    72.788563   -165.49475   -95.358707    10890.368 
    1710    311.80343    9.8270687    68.908466   -163.55961   -4441.3252    10890.368 
    1720    300.69708    6.8813917    72.196021   -161.35051   -2023.5215    10890.368 
    1730    313.73928    7.5792939     72.69102   -159.22964    1399.6409    10890.368 
    1740    288.98895    5.1343264    77.739547   -157.22017    1447.4806    10890.368 
    1750    277.25887    5.6670355    79.475814   -154.76252   -1418.6212    10890.368 
    1760    309.76173    3.3483013    85.443537    -152.0698   -280.35556    10890.368 
    1770    297.08236    6.0129925    87.167858    -149.5668   -1641.3453    10890.368 
    1780      313.758    6.2406143    77.559961   -147.60982    492.05632    10890.368 
    1790    303.42716    6.0052439    77.795782   -145.87152   -2100.0595    10890.368 
1800        0.98327811381624186104 10.140295834711954726 1 67 -274.87839449817283821
    1800    287.93287    6.6512399    85.339005   -144.42087   -1398.7567    10890.368 
    1810    319.77226    7.2903398    84.287643   -143.14009    1715.2021    10890.368 
    1820    296.22039    10.803323    85.645963   -142.81004    2825.6082    10890.368 
    1830    341.79715    10.239048    75.986452   -143.07608    3839.3726    10890.368 
    1840    310.05748    7.6120846    82.693314   -144.10716    852.00734    10890.368 
    1850    321.39688    4.9865408    78.350563   -145.71225   -2407.1132    10890.368 
    1860    293.82615    2.7894145    79.154476    -148.1204   -1946.0741    10890.368 
    1870    293.18557    6.2226864    81.393238   -150.97426   -4869.3297    10890.368 
    1880    287.61026    5.7440531    82.650731   -153.74312    3307.0419    10890.368 
    1890    284.13151    6.6846419    65.679798   -156.15915   -3221.3174    10890.368 
1900        0.98288988187778636441 10.146693185211182353 1 66 -289.7640717896090905
    1900     290.9359    5.8107158    73.252275   -157.94593    622.45066    10890.368 
    1910    296.84903    5.8934127    79.644025    -159.4013   -1173.6209    10890.368 
    1920    302.71461    7.3846657    76.951917   -161.09911   -1726.6924    10890.368 
    1930    312.68764     6.898849    69.293286   -163.17674    3471.0317    10890.368 
    1940    273.37319     7.522536    76.548953   -165.35789     3269.703    10890.368 
    1950    286.93969    8.0847596    69.211472   -166.90767    3265.9918    10890.368 
    1960    275.87709    7.5401357    75.896698   -167.74398   -3717.1657    10890.368 
    1970    299.78994    6.9143701    74.471409   -168.18553   -3214.7467    10890.368 
    1980    297.17468     6.110942    75.400511   -168.73849    621.17276    10890.368 
    1990    280.29081    6.9214075    73.848493   -169.40241    -358.3646    10890.368 
2000        0.98394476587736456885 10.136869956873660215 1 68 -306.71659452071696705
    2000    302.21757    4.7633339    64.097635   -169.78691    746.98535    10890.368 
    2010    277.47698    4.4467559    75.590408   -169.53695    2084.6666    10890.368 
    2020    289.66021    4.6488442    64.509678   -168.24534    114.44866    10890.368 
    2030    277.05895    5.5012584    76.808684   -165.75642   -1117.8338    10890.368 
    2040    305.36868    6.4309854    64.819722   -161.90592   -3014.5383    10890.368 
    2050    300.00528    7.9386558    74.804986   -157.64594    -2519.121    10890.368 
    2060    305.84178    8.8600877     73.80379    -153.3109    1722.6407    10890.368 
    2070    316.21971    7.6340281    73.030877   -148.99874    3508.2921    10890.368 
    2080    296.20425    9.1949312    82.692225   -145.56287    1369.5772    10890.368 
    2090    280.56027      11.8426        85.16   -142.72243    -1894.961    10890.368 
2100        0.98945700278412618278 10.093116183769206273 1 70 -283.27141161968302185
    2100    315.64385    11.555154    74.630775   -140.25851     2525.138    10890.368 
    2110    308.79705    12.272626    79.893452   -138.20115    5258.3813    10890.368 
    2120    326.58751    12.021197    80.243784   -136.93811   -628.13723    10890.368 
    2130    315.19494    15.795644    86.560438   -136.60429   -4071.1546    10890.368 
    2140    302.02483    10.640556    81.144352   -137.60588   -3203.9982    10890.368 
    2150     293.1636    9.3635893    87.306865    -139.1612     3529.841    10890.368 
    2160    326.47359    8.1122552    78.475728   -140.86988    935.08484    10890.368 
    2170    315.73765    8.5647684    75.421075   -143.05826   -625.38247    10890.368 
    2180    321.82109    8.7720799    75.204502   -145.49267   -2488.4376    10890.368 
    2190    305.37599    8.0802599    78.117509   -148.29388    2735.8495    10890.368 
2200        0.99003712970661372772 10.095680935570156223 1 67 -291.4836794648722389
    2200    310.84007    7.2457689    70.925809   -150.64729    2153.5758    10890.368 
    2210    310.82044    7.2653813    74.685405   -152.83856   -1621.4341    10890.368 
    2220    303.06731    8.4795897    72.547994    -154.5215   -2213.0077    10890.368 
    2230    302.63919    9.1786391    77.567058   -155.75529     2245.718    10890.368 
    2240    297.79988    10.499731    77.174292   -156.49907    5557.7405    10890.368 
    2250    290.65013    9.6081887    71.300818   -156.99452   -263.36091    10890.368 
    2260    291.42486    9.3451404    69.772952   -156.96897   -5297.6102    10890.368 
    2270    309.18724    6.8083538    67.331099   -156.61882   -3220.5389    10890.368 
    2280    288.41637    7.6698436    79.551698   -156.23557    2122.2663    10890.368 
    2290    310.33729    4.4565669    71.010672   -155.48018    1735.4659    10890.368 
2300        0.98614071320072915761 10.133459311369829692 1 68 -292.26412183744179174
    2300    303.44264    4.3608834    76.833719   -154.77938   -3162.0023    10890.368 
    2310    322.41626    4.8909527    68.432623   -154.34697   -322.55327    10890.368 
    2320    301.01822    7.8869172    79.023637   -154.17525    2950.4385    10890.368 
    2330     327.6799    8.7441915    63.638677   -153.86882    2761.1431    10890.368 
    2340    294.65667    5.7339541    72.571756   -153.63456   -2723.8555    10890.368 
    2350    286.78885    5.2680464    82.196846   -153.17499   -1821.0966    10890.368 
    2360    274.79279    4.0415322    81.512132   -152.46757    396.80427    10890.368 
    2370    294.40044    6.2215428    70.196584   -151.06927   -2716.6869    10890.368 
    2380    329.65303    7.0464164    74.554853    -148.2562   -1715.5166    10890.368 
    2390    319.03574     7.020387    75.626837   -145.10679    3760.2117    10890.368 
2400        0.98138521379089005414 10.155481565694669754 0.99735449735449732689 70 -281.1950540063227777
    2400    308.11922    10.742832    84.727555   -141.59143     3877.971    10890.368 
    2410     303.8907    12.107473    79.034104    -138.3544    1467.2329    10890.368 
    2420      332.708    7.5381308    76.345347   -134.96897   -4392.6431    10890.368 
    2430    345.36222    5.5368667    72.077616   -132.11996    1489.2535    10890.368 
    2440    355.27818    6.4758234     75.64688   -130.27781    829.16238    10890.368 
    2450    315.95978    9.2452505     83.07937   -129.75621    321.17924    10890.368 
    2460    295.33286    11.236284    92.583971   -130.35506   -1233.7317    10890.368 
    2470    292.37104    8.9593052    87.547723   -132.24502   -2818.1431    10890.368 
    2480    300.71366    8.9944326    84.293493   -135.42975    972.77801    10890.368 
    2490     317.0258    6.8194065    74.886392   -139.55133    2118.3779    10890.368 
2500        0.97857592437751161896 10.166880627320338704 1 69 -274.79828306458477982
    2500    289.00729    7.4454529    81.541691   -143.85396   -973.57158    10890.368 
    2510    302.35241    4.0073446    67.707355   -147.90952   -1187.6268    10890.368 
    2520    282.50064    3.2023475    78.084467   -151.56128    1872.8206    10890.368 
    2530    288.84128     4.153605    78.328732   -154.52537    1748.2532    10890.368 
    2540    281.14104    7.2486364    72.178975   -156.86583   -2971.0542    10890.368 
    2550    289.74924    7.8648488    70.882213   -158.52382   -8252.7704    10890.368 
    2560    319.31777    7.0260982    65.258101   -159.65181    194.26257    10890.368 
    2570    287.13294    6.2807943    82.163028   -160.70885    6155.9243    10890.368 
    2580     310.8866    5.4759003    68.552326   -161.79874     2503.275    10890.368 
    2590    286.25246    4.3770395    69.053718    -163.0391   -1320.1073    10890.368 
2600        0.97876859748321465293 10.164150225432729613 1 65 -288.15461965840904668
    2600    274.66593     5.266194    69.821316   -163.70812   -428.74277    10890.368 
    2610    284.79932    6.7280739     67.28072   -163.58651    541.28963    10890.368 
    2620    277.40345    5.9396888    80.180112   -163.05808   -408.57644    10890.368 
    2630    299.02396    8.7674887    66.560113    -162.2409   -1483.3926    10890.368 
    2640    289.11039    8.0890872    68.446783   -161.13257   -3604.6427    10890.368 
    2650     306.2585    9.7531039     67.02702   -159.65912    4945.7363    10890.368 
    2660    281.78773    8.9513854    75.131423   -157.87164    214.82688    10890.368 
    2670    311.53136    6.7901684    65.147612   -155.58979   -276.62937    10890.368 
    2680    298.81812    9.0090831    67.279736   -152.93163   -1697.4153    10890.368 
    2690    324.85152    9.1287535    65.317903   -149.77934   -521.16593    10890.368 
2700        0.98096404428628980465 10.162395949936543715 1 68 -296.41507345492578906
    2700    330.94553    8.8393118    65.863349   -146.46924    2246.7952    10890.368 
    2710    334.49188    9.4901682    63.356305   -142.67252    1877.9601    10890.368 
    2720    300.65126    10.463626    75.723836   -137.53815   -1612.3944    10890.368 
    2730    311.46541     8.758785    75.224425    -129.4619   -240.13241    10890.368 
    2740    315.03035    6.6320457    91.646308   -119.94967   -1831.8503    10890.368 
    2750    366.16293     6.283038    74.413231   -112.61017    4335.1372    10890.368 
    2760    359.73354    4.2502443     72.43752   -109.11279   -2532.9287    10890.368 
    2770    354.46377    4.0190647    75.564738   -108.10765   -858.46467    10890.368 
    2780    319.70934    4.8857067    92.576387    -109.0247    -1754.658    10890.368 
    2790    304.87159    7.1099056    85.735849   -111.21379     2833.304    10890.368 
2800        0.97534661421303814333 10.174168338104646381 1 66 -257.20586627663146828
    2800    316.03762    7.6254328    76.593415   -114.01455    18.893295    10890.368 
    2810    330.64734    8.3539335     76.07589   -117.37241    3039.3313    10890.368 
    2820    335.17329    7.2340634     77.83891   -121.25818    254.11224    10890.368 
    2830     336.1603    4.0681243    78.429931    -126.1829   -1403.1685    10890.368 
    2840     303.8866    1.8937883    86.847359   -131.75993   -5212.3462    10890.368 
    2850    291.70054    1.8674851    78.650324   -136.81984   -1533.7307    10890.368 
    2860    280.92708    3.9508065      85.3256   -141.00865    831.87704    10890.368 
    2870    313.06247    8.0727513    66.573161   -144.16162    381.45674    10890.368 
    2880    321.30415    8.1158428    65.267841    -146.9276    3154.3449    10890.368 
    2890    308.35607    9.5304669    66.617761   -149.50735    824.78014    10890.368 
2900        0.97353858234811718741 10.173883570198613668 1 68 -288.06378886361557079
    2900    300.92313    13.110656    69.095964    -151.7206    1666.8404    10890.368 
    2910    310.41967    13.352288    71.764242   -153.88295   -803.33378    10890.368 
    2920    320.87104    10.087448    63.201374   -156.45316   -3762.5524    10890.368 
    2930    311.76205    5.1590352     70.86163   -159.80734    1157.8663    10890.368 
    2940    281.37003    4.7083451    64.499306   -165.01598    197.97581    10890.368 
    2950    258.88115    4.4983235    74.222753   -167.47647    1331.6924    10890.368 
    2960    268.64375    5.3864637    63.406979   -168.89552    1441.2004    10890.368 
    2970    273.05832    4.2516667    69.225363   -169.44508    2023.5219    10890.368 
    2980    262.29089    5.0541758    61.831435   -169.06666    1590.6912    10890.368 
    2990    256.41428    5.4824406      64.7923   -167.48771   -4411.5806    10890.368 
3000        0.97047157509675685549 10.180657059188312985 1 65 -280.35283374737872464
    3000    259.87846    6.2629561    67.874501   -162.60629   -2152.4213    10890.368 
    3010    286.68365    5.5382162    68.810501   -158.44787   -306.31278    10890.368 
    3020    287.10415    6.2691052    70.235061   -154.07619    938.44509    10890.368 
    3030    280.61145    5.5057512    72.159545   -150.30276   -286.85674    10890.368 
    3040    318.54337     5.011064    68.335025   -146.88996    1249.8619    10890.368 
    3050    311.50545    5.7253615    69.929731    -144.4758    2491.4492    10890.368 
    3060    330.17369    5.9706263    66.815501   -143.33719    123.74487    10890.368 
    3070    302.30866    9.1582213    76.335291   -143.31891     6.926651    10890.368 
    3080     311.8491     11.23434    67.410137   -143.85752   -1437.5819    10890.368 
    3090    292.04313    12.438763    80.012487   -144.73483   -1497.3177    10890.368 
3100        0.97326551080075651701 10.175331189982248503 1 65 -287.80044193344940595
    3100    313.43832    10.121706    72.787236   -145.78683    99.902901    10890.368 
    3110    306.22533    8.3592293    67.029561   -147.11616   -1728.1323    10890.368 
    3120    300.50905    7.6436715    70.914223   -148.46539   -572.49873    10890.368 
    3130    306.61932    7.9517952    73.229753   -149.65567    502.94929    10890.368 
    3140    304.67699    9.0516443     65.34756   -151.17149    3092.0573    10890.368 
    3150    274.19903    8.7630371     77.45488   -152.83705    1393.7001    10890.368 
    3160    286.04633    7.2991791    69.144726   -154.22464    827.47336    10890.368 
    3170    290.38082    5.6573875    69.423488   -155.49422   -3429.7769    10890.368 
    3180    289.64476     6.902123    71.103098   -156.62423   -1696.6451    10890.368 
    3190    328.39316    6.8785444     58.90865    -157.6214   -3610.6689    10890.368 
3200        0.97522541659776296186 10.197636124776852995 1 68 -300.38587015472279518
    3200    310.90241    5.9660904    62.739822   -159.52123   -872.77488    10890.368 
    3210    300.20516    4.8382614    61.090004   -162.35204    438.17822    10890.368 
    3220    280.05027    7.6544732    62.156847    -165.9222    1052.0561    10890.368 
    3230    286.97439    7.1926981     60.66908   -169.63253    2073.0582    10890.368 
    3240    295.47608    7.1124147     57.94158     -173.585    816.87291    10890.368 
    3250    282.57925     6.354181    57.668207   -177.28581    -714.3965    10890.368 
    3260    274.13743    6.1878777    55.549961    -180.3177    1031.8061    10890.368 
    3270     248.0284    5.7847481    64.818983   -182.10342   -779.96746    10890.368 
    3280    273.96542    4.9243657    52.557637   -182.30682    1558.3209    10890.368 
    3290    267.79757    5.0074716    57.546049   -181.05515    -2057.374    10890.368 
3300        0.97938886941255032248 10.177801661896348051 1 69 -305.74302608490023658
    3300    281.29093    5.6948194    57.605168   -178.29485    1817.9484    10890.368 
    3310    283.42707     6.907493    68.037322   -173.97665   -38.539613    10890.368 
    3320    280.24426    8.2108251    70.841799   -169.04487   -1764.9229    10890.368 
    3330    291.41125     9.380736    66.261832    -164.0424   -2711.0244    10890.368 
    3340    278.12548    10.156368    65.940285   -159.80505    1367.9272    10890.368 
    3350    286.77148    7.3311023    63.387944    -156.3272    1081.1404    10890.368 
    3360    290.36555     7.924789    74.119262   -153.24484    859.25432    10890.368 
    3370    294.20335    6.5262909    70.598584   -151.08775     -4350.09    10890.368 
    3380    277.68024    4.9333148    72.245605   -149.81009     2960.484    10890.368 
    3390    314.73433    3.7870366    64.579369   -148.88394    1094.6916    10890.368 
3400        0.98356403609101139551 10.131244130577785612 1 69 -291.38658065736535718
    3400    315.73511    4.6746447    56.568512   -148.33233    1403.3574    10890.368 
    3410    307.98713    4.3087996     64.87329   -147.89445    237.70239    10890.368 
    3420     289.6458    3.7258002    72.224516   -147.36465   -830.04174    10890.368 
    3430    288.70496    3.4676357     73.80438   -146.62742   -716.19704    10890.368 
    3440    319.68693    4.8219882    64.252396   -145.52974   -2535.9484    10890.368 
    3450    305.79495    7.7506946    63.421655   -144.43164   -2439.7362    10890.368 
    3460    310.97805    9.6238761    64.919757   -143.22041     1963.114    10890.368 
    3470    299.01931    8.2152137     73.11386    -141.7663   -249.89831    10890.368 
    3480    311.58137    7.9139195    75.945183   -140.41527    5161.1783    10890.368 
    3490    314.28653    9.4080994    61.967482   -139.53571    480.05397    10890.368 
3500        0.98745094486497997366 10.098627035080461667 1 69 -275.38378444976888204
    3500     300.6217    8.2611996    72.826124   -139.17716   -446.04549    10890.368 
    3510    337.89894    8.0547915    67.673361   -138.86193   -245.40131    10890.368 
    3520    343.96849     9.194159    61.507465   -139.47151   -549.85139    10890.368 
    3530    317.27503    9.0288662    71.032401   -141.65854   -1195.9547    10890.368 
    3540    300.16464    9.5431905    65.745287   -144.72466   -2107.8351    10890.368 
    3550    289.20018    6.7293416    69.319065   -148.07236    1251.6371    10890.368 
    3560    296.25071    6.8681515    67.922731   -151.84297    2378.8401    10890.368 
    3570    290.36598    7.1078114    63.486485   -155.89639   -590.11989    10890.368 
    3580    273.43503    9.0824334    63.625838   -160.00889   -1164.5693    10890.368 
    3590    265.68341    10.282099      66.4243   -162.83887    14.269479    10890.368 
3600        0.99069906307663169187 10.098632577350304729 1 72 -295.79319254711185749
    3600    289.28156     10.16423    59.888861    -164.7246      2950.83    10890.368 
    3610    286.16475    12.191447    68.427521   -166.03383    2471.7916    10890.368 
    3620    288.32718    9.6522577    60.484911   -166.90709   -3430.4895    10890.368 
    3630    267.07416    8.6837743    69.982878   -167.38251   -933.29866    10890.368 
    3640    282.07633    8.3150927    68.280878   -167.31429   -1027.9513    10890.368 
    3650    296.68882    7.4517455      62.2084   -166.82329    3170.9418    10890.368 
    3660    288.93783    7.8645953    65.636608   -165.94525   -2686.7493    10890.368 
    3670    299.39175    8.1153289    59.163611   -164.34223    515.31839    10890.368 
    3680    294.74729    6.5622325    71.314714   -161.76993    2493.0043    10890.368 
    3690    293.68276    6.5264027    65.162115   -158.15781    4492.0591    10890.368 
3700        0.98824532075211657389 10.118573061460191198 1 66 -298.37843532047759254
    3700    320.48494    6.5898377    62.671114   -153.17212   -1360.5405    10890.368 
    3710      310.416    10.108993    67.456776   -147.67918   -2838.7864    10890.368 
    3720    297.79578    9.3761825    72.126017   -142.27237    -534.7925    10890.368 
    3730    287.36461    8.3141338    68.402468   -137.05621   -842.09649    10890.368 
    3740    298.39085     8.884263    72.361562   -132.33952   -1157.3628    10890.368 
    3750    312.04202    6.8872977     69.08361   -128.72734   -1112.7728    10890.368 
    3760    304.85755    7.5234383     68.43103   -126.31899    2602.8866    10890.368 
    3770    321.77896    8.7992734    71.688889   -124.57986    1898.2821    10890.368 
    3780    298.22991    10.942198     73.43967   -123.46129    1261.4827    10890.368 
    3790    321.09173    8.7079442    81.456441    -123.0209   -3829.8802    10890.368 
3800        0.9775724052807323039 10.160394547772435558 1 67 -270.61285635349099721
    3800    323.98893     7.039575    80.544261   -123.81894   -2296.7373    10890.368 
    3810    330.88296    7.4451677    71.334568   -126.17904   -744.23558    10890.368 
    3820     326.1816    5.6203713    73.843563   -129.67972    1834.7514    10890.368 
    3830    324.63015    4.0512819    69.044196    -133.8208    300.40255    10890.368 
    3840     340.6352    3.2496896    58.369904   -138.44972   -1697.6906    10890.368 
    3850    296.22456    4.1379989    76.625175   -142.99941    3811.3435    10890.368 
    3860    304.07604    5.5554812    69.527734   -146.40754    2707.3976    10890.368 
    3870    312.42602    6.7218842    60.358166   -149.12384   -2077.7224    10890.368 
    3880    308.53078    8.1813366    57.829259   -151.00325   -2177.8537    10890.368 
    3890    313.55676    9.1865556    55.208204   -152.21582   -1719.6968    10890.368 
3900        0.97076974905312751751 10.190894988285801759 0.99735449735449732689 67 -271.61717870275964515
    3900    262.21111    8.8472863    72.952326   -152.81375    474.86379    10890.368 
    3910    283.29022    7.2371074    66.551865    -152.8204    -3555.293    10890.368 
    3920     272.5392    6.5674912    71.678133   -152.52267    1221.5584    10890.368 
    3930    316.28092    3.6221237    62.092828   -151.86566    2532.7613    10890.368 
    3940    285.26122    4.0509902    70.389716   -151.26597    2849.0015    10890.368 
    3950    294.72062    4.6406681    64.990926   -150.56563   -690.42156    10890.368 
    3960     280.1186     5.237607    75.394698   -149.72597   -180.24775    10890.368 
    3970    295.83345     6.763315    66.575246   -148.76841    -4295.821    10890.368 
    3980    281.74153    7.0950595    66.423633   -147.44632    -4022.257    10890.368 
    3990    287.57792    5.3289015    63.105958   -145.29775   -284.21958    10890.368 
4000        0.9716370287617076551 10.181065497878950765 0.99470899470899465378 64 -274.31983041436268422
    4000    292.54831    5.0029134    72.700758   -141.77113    1810.2249    10890.368 
    4010    309.54135    4.1584043    64.826903   -137.40003   -1257.0975    10890.368 
    4020    307.26079    6.7956255    71.829609   -132.60773    1396.7904    10890.368 
    4030    334.26664    6.8070009    70.202042   -127.55785    4585.1843    10890.368 
    4040    321.41404    6.5974969    77.922201   -123.18633    4795.7205    10890.368 
    4050    317.49023    5.5855954    72.127224   -120.20241   -4277.6762    10890.368 
    4060    320.34779    5.8946904    73.207198   -118.69506   -2288.3761    10890.368 
    4070    330.02783    6.4872406    73.628141   -118.17955   -1727.3443    10890.368 
    4080    329.82529    7.8397385    67.227551   -118.65332    1211.4743    10890.368 
    4090    328.13165    8.6001766    68.257419   -119.64848     -3456.74    10890.368 
4100        0.98121113543672511259 10.12944850938675323 1 66 -268.80722454743010985
    4100    324.90536    9.8050576    75.584028   -121.59809    1745.0724    10890.368 
    4110    324.31266    10.129444    71.488649   -124.87763    1456.6146    10890.368 
    4120    317.10565    7.6677006    76.532011   -130.10179   -1126.4766    10890.368 
    4130    312.37348    5.2825872    68.933807   -136.28687     -808.566    10890.368 
    4140    307.96585    4.6362087    62.528748   -142.13838   -2125.0579    10890.368 
    4150    304.73872    4.7194086    65.898068   -146.23523    678.95243    10890.368 
    4160    299.26052    4.4130413    65.308724   -148.50645    1904.0473    10890.368 
    4170    292.36992    2.7136222     73.36395   -149.74519    3458.6269    10890.368 
    4180    285.22239    4.0405991    80.387794   -150.65098    2771.8916    10890.368 
    4190    300.71526    6.7774662    61.418993   -151.38847   -5052.6053    10890.368 
4200        0.98638936463600335181 10.104143864246571738 1 66 -294.98074185424059124
    4200     315.8507    9.8193928     61.98803   -151.87412    -3607.762    10890.368 
    4210    318.84437    8.3088317    68.536535   -152.53271    2853.5126    10890.368 
    4220    321.46611    8.1391651    68.583434   -153.97465   -62.330113    10890.368 
    4230    291.03177    7.0714626    74.543467   -156.20228    3067.5888    10890.368 
    4240    292.84031    5.1019389    69.704546   -158.58248    476.83656    10890.368 
    4250     290.2606    5.2140855    70.344557   -160.69663     4202.456    10890.368 
    4260    280.87444    5.7330288    63.086034    -162.7388   -2223.9841    10890.368 
    4270    291.93386    7.9460088    55.443591   -164.05752   -4182.5936    10890.368 
    4280    274.83295    7.0152787    60.219103    -164.4556   -886.87119    10890.368 
    4290    309.81992    7.5099922    57.816495    -164.1451   -521.47429    10890.368 
4300        0.99017988988428984332 10.082989993347378999 1 65 -298.71147745246412342
    4300    297.80806    8.6015423     63.60235   -163.77967    944.64007    10890.368 
    4310     303.5617    7.2293393    56.966963    -163.5518    4590.6663    10890.368 
    4320     291.0876    6.5689689     61.32593   -163.05591     886.8425    10890.368 
    4330    301.01002    6.7641707    62.724694   -162.07172    1565.7512    10890.368 
    4340    306.76275    7.1378356    58.257709   -160.58922   -4039.7853    10890.368 
    4350    309.39915    6.1469863    65.397934   -158.81185    854.75229    10890.368 
    4360    281.66046    6.4774669     66.94149   -156.84135    95.239834    10890.368 
    4370    283.21474     6.487015    66.305049   -154.19128   -2038.7553    10890.368 
    4380    316.48097    6.7231377    64.983659   -150.30861    1163.3124    10890.368 
    4390    327.15029    7.4750678    69.210634   -146.13592    2140.6692    10890.368 
4400        0.98988650583147919093 10.109830001853168824 1 66 -280.63833202649277609
    4400    304.37412    9.2954046    69.870213   -142.73155    240.28566    10890.368 
    4410    320.16822    11.249034    66.014522   -140.04639    1849.4217    10890.368 
    4420    332.26692    15.256565    65.173183   -137.92106    717.69047    10890.368 
    4430    293.97205    13.848654     67.43941   -136.43485   -860.98889    10890.368 
    4440     303.9016    13.876156    65.299324   -134.81303   -4547.1304    10890.368 
    4450    318.52564    12.539942    70.921543   -132.95175   -4285.4479    10890.368 
    4460    343.54711    9.0323194     62.96074   -131.86678    1290.7736    10890.368 
    4470    302.79163    7.7052986    76.209344   -132.12837    2829.5259    10890.368 
    4480    321.69846    7.1831361    59.472921   -133.14318    1284.7338    10890.368 
    4490    307.23362    8.9086081    66.284667   -134.58706    2604.6036    10890.368 
4500        0.98585964347924803786 10.134764337335827378 1 66 -280.79262210194468707
    4500    318.26535    9.4414012    63.605335   -136.59196    1418.1123    10890.368 
    4510    292.68218    10.175223    66.275345   -139.96833    1183.9804    10890.368 
    4520    274.87174    8.6011201    71.097084    -144.1316   -3903.4599    10890.368 
    4530     301.5441    8.3741473    57.647746   -148.46437   -876.40298    10890.368 
    4540    309.84686    9.6226086    62.594214   -152.96915   -2498.2839    10890.368 
    4550      320.639    7.8022454    51.786005   -157.38792   -1352.2452    10890.368 
    4560    281.11046    8.1139776    66.798601   -161.10907    2156.2047    10890.368 
    4570    298.37199    9.6917969    54.342949   -163.98311    1502.1107    10890.368 
    4580    283.96701    10.089673    67.939452   -166.23253    726.14429    10890.368 
    4590    298.87676    7.6063168    53.908349    -168.0572    843.31037    10890.368 
4600        0.98028397700848035612 10.147567724119374688 1 67 -293.77604817392750647
    4600    274.73073    4.9559937    56.013786   -169.30019   -3411.2925    10890.368 
    4610    298.04206    4.6658985    61.057792   -169.74545   -92.641719    10890.368 
    4620    295.73141    7.8931581    55.905907   -169.94399   -1448.1121    10890.368 
    4630     287.4182    7.3953235    60.834625   -169.81839     3341.916    10890.368 
    4640    287.47451      6.02133    60.972665   -169.11926    593.17085    10890.368 
    4650    280.59537    5.7288074    58.550535   -167.83546    709.80491    10890.368 
    4660    282.08334    6.4698694    59.665046   -165.62772   -279.00533    10890.368 
    4670    281.38271    5.2578027    62.240516   -162.37217    1529.7282    10890.368 
    4680    304.08741    5.0378168    60.976367   -158.23521   -2595.3583    10890.368 
    4690    272.00135    4.1728364    62.633183   -153.71723   -1397.5674    10890.368 
4700        0.97253539314735715227 10.174778835698560897 0.99735449735449732689 65 -282.83131225855566981
    4700    296.23511    5.6064789    66.196384   -148.61218   -4094.5185    10890.368 
    4710    298.81338    6.0796661    74.751765   -142.95325   -1091.7947    10890.368 
    4720    319.63939    6.9521971    61.980457   -138.95199   -52.412828    10890.368 
    4730    308.19446    9.1810786    70.015558   -136.85105    2464.0752    10890.368 
    4740    307.70665     8.565883    67.134449   -135.97391    2998.3791    10890.368 
    4750    319.23327     6.532415    67.088969    -135.6176    1314.1121    10890.368 
    4760    308.88944    8.2654379    70.279699   -135.85154    3070.1443    10890.368 
    4770    294.10528    7.6452776    72.976085   -136.53876   -2100.6471    10890.368 
    4780    289.61278    8.9644332    67.733627   -137.87322   -1068.8186    10890.368 
    4790    285.89076    9.4976907    68.449562   -139.26573   -4112.2526    10890.368 
4800        0.97133319349818825206 10.178743765652487951 1 67 -286.01700863535512553
    4800    321.70603    12.235707    59.503939   -140.25744   -837.62708    10890.368 
    4810    334.92724    10.432546    61.874775   -141.44318    2757.2844    10890.368 
    4820    301.37619    10.000988    67.411061   -143.66928    1635.2148    10890.368 
    4830    286.06669     9.040291    66.222596   -146.05733    1473.6171    10890.368 
    4840    311.50919    9.4176152    57.579912   -148.09448     1522.682    10890.368 
    4850    282.63026    6.7057447    66.392724   -149.80196    -576.0908    10890.368 
    4860    286.19019    4.7767587    65.783073   -151.12329   -1993.8122    10890.368 
    4870    280.15306    4.0308152    63.947195   -152.29276   -1899.3661    10890.368 
    4880     297.8607    3.8888209    56.984733   -153.30063    1461.9879    10890.368 
    4890    300.77093    5.2950161    57.623481    -154.0505    319.23399    10890.368 
4900        0.97016665829438364366 10.192088717011239751 1 66 -282.71110999717154755
    4900    283.30694    6.1807692    60.025763   -154.34952   -2711.4717    10890.368 
    4910     294.8321    6.6831851    60.503095   -153.91181    2629.1747    10890.368 
    4920    289.16687    8.2945799    69.317086   -152.89756    1149.3489    10890.368 
    4930      304.996    8.5039264     63.92721    -151.7821    243.11044    10890.368 
    4940    303.83765    6.1449538    61.710267   -150.65995   -2497.4493    10890.368 
    4950    300.41929    5.1419779    67.352006    -149.3507    133.66816    10890.368 
    4960    297.77182    6.1740292    67.568181    -147.6912    504.00338    10890.368 
    4970    281.84087    7.6612573    74.798106   -145.90469   -811.66365    10890.368 
    4980    325.79341    7.9787959    59.982741   -144.03972    2095.0465    10890.368 
    4990    327.67026    8.9205097    62.356832   -142.72706   -785.10594    10890.368 
5000        0.96943395658569075923 10.203813219793950395 1 68 -280.49606798268541752
    5000    306.33058    9.4299134     62.09587   -141.70285   -304.51305    10890.368 
    5010    293.53835    8.2329359    66.662288   -140.47462   -1849.0198    10890.368 
    5020    274.00082    7.2783113    77.593226   -139.26767    1604.9479    10890.368 
    5030    290.56807    9.8630736    75.105027   -138.13096   -43.115595    10890.368 
    5040    326.36502    9.2228903    64.595243   -137.35018   -2800.3453    10890.368 
    5050    329.98241    6.2664066    64.807798   -137.45759    -2299.386    10890.368 
    5060    318.72035    7.2585213    67.439913   -138.55629   -315.24915    10890.368 
    5070    315.45076     7.642238    68.188749   -140.77789     565.2152    10890.368 
    5080    301.55963    9.5864915     64.57999   -144.14687    1254.7126    10890.368 
    5090    317.08846    8.3598057    59.524267   -148.55972   -417.93143    10890.368 
5100        0.97513645863532738556 10.186692428413866907 1 69 -279.54942677955233421
    5100    278.78518     7.494365    72.420714   -153.23656    559.13685    10890.368 
    5110    271.41481    9.6621203    66.267952    -157.2841    1337.8946    10890.368 
    5120    257.88797    8.1537505    66.094886   -159.89624   -2519.7975    10890.368 
    5130    289.92441    8.8049208    60.884434   -161.34482   -1856.4435    10890.368 
    5140    271.14705    8.7493458     63.84678   -162.09223    -2123.076    10890.368 
    5150    263.16212    7.8844574    67.781875   -162.16523    3948.8354    10890.368 
    5160    255.97186    7.1379514    70.170523   -161.37768    4463.6579    10890.368 
    5170    294.26045    5.4541724    55.027735   -159.78637    149.76872    10890.368 
    5180    259.41164    5.6445889    76.648347   -157.80294   -1822.0595    10890.368 
    5190      309.809    5.2276445    56.125572   -154.97424   -4666.7283    10890.368 
5200        0.97719369626527130546 10.167809546430117251 1 67 -292.17277017170550835
    5200    309.25087    4.6133101    72.792473   -152.05642    2767.9527    10890.368 
    5210    308.87514    4.9230086    72.998593   -150.13054    3127.9789    10890.368 
    5220    305.47864     5.474199    64.042941   -149.00494   -2986.5703    10890.368 
    5230    307.42934    5.8153307    65.551471   -148.47214   -3910.3291    10890.368 
    5240     275.4622    7.6391568    65.078757    -148.3016   -319.79084    10890.368 
    5250    281.07076     7.857121    66.485501   -147.68891    3664.2443    10890.368 
    5260    289.53045    8.0333472    70.210425   -146.10518    2105.5856    10890.368 
    5270    312.35318    8.4984125     61.07454   -143.39551   -1491.3585    10890.368 
    5280    308.67607     9.322859    64.353365   -139.31732    1309.4963    10890.368 
    5290    300.95895    8.8721253    61.989345   -133.99834   -1737.2858    10890.368 
5300        0.97352879724619267865 10.175648501860816708 1 68 -274.49262872050587703
    5300    323.56747    7.7084079      61.5377   -127.88967   -2955.7293    10890.368 
    5310    315.68627    6.6955141    70.467977    -122.3367   -1521.0027    10890.368 
    5320    335.32222    4.2946605    70.402028   -118.21206    314.73833    10890.368 
    5330    333.59324     3.857891    76.750756    -115.7199    3687.0685    10890.368 
    5340    338.81212    2.1052403    74.571691   -115.09189    3714.0709    10890.368 
    5350    371.16483    2.1244552    62.617167   -116.89805   -364.55485    10890.368 
    5360    339.75484    2.8557224    67.106754   -120.93889   -1677.7072    10890.368 
    5370    334.34143    4.2042046    57.668357   -125.50479   -1696.5929    10890.368 
    5380    302.08914    7.4144764    73.683801   -130.04897    1743.0689    10890.368 
    5390    297.94139    10.450119    70.082267   -134.15228    13.012613    10890.368 
5400        0.9793103019000730658 10.126727738441594795 1 64 -276.71582765042933261
    5400    307.13116    13.348083     62.96977   -137.55988   -290.39331    10890.368 
    5410    310.17228    14.555198    60.679898   -140.37292   -619.86513    10890.368 
    5420    288.61927    12.494632    60.914889   -142.57465    2516.5087    10890.368 
    5430    302.45271    9.9053925    64.426163    -144.1187    2280.7194    10890.368 
    5440    300.82639    6.2767962    58.462201   -145.27348     3049.581    10890.368 
    5450    308.78991    5.4620977     65.03926   -146.52279   -1238.6581    10890.368 
    5460    304.86899    7.2258508    65.785493   -148.09198    1202.5645    10890.368 
    5470    327.31217    7.8771767    51.438001   -149.72289   -2367.5828    10890.368 
    5480    308.00076    8.4397065    63.850801   -151.71315    1917.4617    10890.368 
    5490    302.81325    9.4128529    66.290386   -153.84845    598.66349    10890.368 
5500        0.97091107159812872762 10.182454475368814428 1 65 -288.74322232043056147
    5500    292.18336     8.001849    59.882589   -156.35987   -195.04517    10890.368 
    5510    298.71522    5.7021918    54.061276   -158.67804   -1122.0287    10890.368 
    5520    289.10493    4.2953148    52.029376   -160.76487   -2129.9787    10890.368 
    5530    260.59323     2.951729     59.45274   -162.06289   -543.51869    10890.368 
    5540    263.07865     2.372522    61.523497   -162.20831   -1542.3794    10890.368 
    5550    270.89569    2.5212151    62.222865   -161.21898   -3214.5218    10890.368 
    5560     292.6267    3.4903908    59.680065   -158.98955    -3720.141    10890.368 
    5570    304.75057    5.0487425    60.103628   -155.35112    425.87376    10890.368 
    5580    315.69193    7.5090391    59.106906   -149.75898    2349.8176    10890.368 
    5590    333.45121    6.3070745    51.678561   -142.66567    1620.6431    10890.368 
5600        0.9748380481849971968 10.166869605089326356 1 65 -280.51670915186588218
    5600    318.63036    5.1954814    72.530816   -136.15067   -2421.5976    10890.368 
    5610     327.3653    6.4612497    61.998339    -131.8155    729.63592    10890.368 
    5620    319.60346    7.5418466    69.912472   -129.61767    337.95543    10890.368 
    5630    321.41275    7.4722209    64.304342   -128.51772    3864.1271    10890.368 
    5640    326.39616    7.6104641    67.347933   -128.10038    2960.3046    10890.368 
    5650    338.11365    10.226076    61.527178   -128.72937    2702.0381    10890.368 
    5660    334.14532    10.414272    62.802413   -130.81513   -560.55614    10890.368 
    5670    310.14245     7.872823    69.285187    -133.6241    662.17848    10890.368 
    5680    332.30817    8.4484441    55.781126   -136.48554    495.38933    10890.368 
    5690    295.72075    7.6625297    70.172469   -139.42971    1076.5194    10890.368 
5700        0.97135898281417087929 10.184635949303322278 1 65 -285.24220226831113223
    5700    316.11039    7.2816688    57.866626   -142.01792   -4178.1656    10890.368 
    5710    299.72223    5.6358995    65.808734    -144.4461   -2736.9971    10890.368 
    5720    309.52043    7.0284413    59.718745   -146.80502   -3226.7726    10890.368 
    5730    302.48357    5.1916991    63.217454   -149.04313     217.3516    10890.368 
    5740    303.96918    5.8578664    65.432672    -150.7428   -1491.8296    10890.368 
    5750    316.63959    8.0053134     58.69835   -152.40212    849.12138    10890.368 
    5760    278.73112    8.8178006    67.518346   -153.92796   -2792.3562    10890.368 
    5770    298.39413    9.2375838    55.407871   -154.84357     3984.623    10890.368 
    5780    288.35908    10.397023    59.212856   -155.13075    2379.6357    10890.368 
    5790    305.41923    8.8835481     56.68455   -154.86591    1463.9543    10890.368 
5800        0.97104010363886661406 10.185193315795041613 1 71 -276.00500743404126069
    5800    268.14678    8.6283348    70.657835   -154.51222   -2739.9132    10890.368 
    5810    253.90259    7.4434359    67.761145   -153.91658     85.72158    10890.368 
    5820    244.22645    3.9773056    69.825719   -152.74845    1421.2948    10890.368 
    5830    283.07291    3.8877639    54.368816   -150.79495   -1949.5353    10890.368 
    5840    291.47483    3.9252781    61.374333   -148.24502   -3302.7078    10890.368 
    5850    311.91982    4.5683357    62.255049   -146.08174    2397.3493    10890.368 
    5860    301.05634     5.401442    62.402768   -144.57975    2570.1682    10890.368 
    5870    298.62729    7.2330956    64.926464   -143.86459     2846.668    10890.368 
    5880    285.46874    7.7126216    69.671984    -143.4467   -5293.4467    10890.368 
    5890    298.00059    7.4909171    65.182102   -142.98767   -1016.7331    10890.368 
5900        0.98180317416970996902 10.154157638937393315 1 66 -284.76735348953855009
    5900    313.67461    8.0472312    62.953867   -142.64668   -983.31458    10890.368 
    5910    311.38311    10.694596    58.454855   -142.46194     1293.331    10890.368 
    5920    298.53985    10.514006    64.002967    -142.4262    1288.7983    10890.368 
    5930    311.78691    9.0676967    58.027546   -142.22688     2792.691    10890.368 
    5940    322.38614    6.7729586    56.615621   -142.15809    2315.4183    10890.368 
    5950    291.09117    6.2240111    70.327863   -142.73442   -1163.4488    10890.368 
    5960     303.5521    5.2705913     63.64129   -143.55563   -2675.4755    10890.368 
    5970    308.43002    5.3725119    60.163107   -144.61252   -2341.9714    10890.368 
    5980    304.86887    4.2181368    63.089965   -145.95321   -2034.3996    10890.368 
    5990      307.204    4.1885048    58.778209   -147.53429     3160.467    10890.368 
6000        0.98526453501789312828 10.102464941143669108 0.99735449735449732689 66 -283.74128823802777788
    6000     295.9898    5.3342373    58.712276    -149.6333    1784.6586    10890.368 
    6010     283.4424    6.0844032    62.326861   -152.16348    364.66979    10890.368 
    6020    270.44358    6.1481464    58.601664   -154.61139    346.84433    10890.368 
    6030     276.7523    5.3270331    57.634662   -157.21737     517.0648    10890.368 
    6040    288.64663    8.1172527    59.651838   -160.61944   -566.76666    10890.368 
    6050    262.55586    9.6685673    56.356625   -164.66716   -4120.6245    10890.368 
    6060    280.78599    8.8452106    50.532451    -168.4036   -795.14041    10890.368 
    6070    292.11624    6.7138949     57.40425   -171.95482    2727.1325    10890.368 
    6080    278.20982    4.2967532    50.888349   -175.32916   -63.613404    10890.368 
    6090    261.10852    3.6688703    56.688996   -177.59724   -410.71957    10890.368 
6100        0.984032867240780873 10.127478825265061602 1 71 -306.37463281480347632
    6100    281.79639    3.5406719    54.054412   -178.69744   -930.32535    10890.368 
    6110     276.9028     5.027491    50.560848   -179.05409   -286.19594    10890.368 
    6120    276.72068    6.2849681    53.164693   -178.58184   -2148.9517    10890.368 
    6130    257.20375    9.7365311    55.946898   -176.99605    1923.7613    10890.368 
    6140    256.34799    13.054248    52.279138   -174.06124     3038.096    10890.368 
    6150    255.31542    9.4958994    71.288628   -169.40888    4887.8257    10890.368 
    6160     290.0239    8.1689629     59.40015   -163.59828    110.09761    10890.368 
    6170    301.90169    9.4946599    59.033238   -158.30913   -2871.5243    10890.368 
    6180    303.73387    9.9344613    57.825741   -154.54047   -2801.7879    10890.368 
    6190    280.17095    4.6872213     67.08865   -151.81669    1310.5143    10890.368 
6200        0.98260070824886625029 10.123633230983708486 1 71 -283.88318569974626371
    6200    296.46417    4.4417787    63.425134   -149.56027    2142.9725    10890.368 
    6210    291.97957    7.9052299    63.801979   -147.62436   -175.17967    10890.368 
    6220    308.26835    8.1175077    59.345851   -146.08293   -661.69516    10890.368 
    6230    304.78848    5.8449834    62.102241   -144.68749    2476.4781    10890.368 
    6240    321.40398    6.3815369    56.222381   -143.54648    989.94406    10890.368 
    6250    308.16019    6.0688756    58.308143   -142.80277   -1777.2062    10890.368 
    6260    323.47583    6.2492904    60.572038   -142.05334   -3691.6501    10890.368 
    6270      336.543    6.8664789    58.839956   -141.72158    1319.8105    10890.368 
    6280    307.38531     6.731718     69.82956   -142.51952    2649.2303    10890.368 
    6290    316.10865    6.3869389     64.18879   -144.32796    2284.2399    10890.368 
6300        0.9830799326172189323 10.139853439457249706 0.99735449735449732689 69 -282.4685168051457822
    6300    299.45066    6.4560533    62.265528   -146.79248   -3637.8139    10890.368 
    6310    312.77102    5.5897318     56.21002   -149.59835   -3540.0023    10890.368 
    6320    300.17035     7.382001    65.878137   -153.14321    -1620.295    10890.368 
    6330    285.12957     9.920136    56.982665   -156.92382   -1109.2882    10890.368 
    6340    285.92757    10.853233    60.477676    -160.2854   -15.345385    10890.368 
    6350    286.98897     9.326432    57.493291   -163.23131    3301.6882    10890.368 
    6360    295.46044    7.6472715    48.339458    -165.4753    1849.1492    10890.368 
    6370     290.4355    6.3242462    57.799437    -167.0759    980.43382    10890.368 
    6380    293.28258    6.7461573    52.100246   -168.21374   -4165.7186    10890.368 
    6390    264.39951    8.5381395    61.313038   -168.86022   -2244.9201    10890.368 
6400        0.97993091114487163029 10.14513989594081167 1 69 -295.9908356521616497
    6400    281.19127    10.784808    53.391501   -168.58782    456.01009    10890.368 
    6410    280.54838    9.9791799    52.293458   -167.43087    2041.0841    10890.368 
    6420    280.76026    8.5500659    54.804371   -165.33064    4209.5532    10890.368 
    6430    267.81056    7.9104064    60.024952   -161.34524    3301.2198    10890.368 
    6440    289.00121    8.8006717     62.33465   -154.96715   -383.82911    10890.368 
    6450    307.45509    6.8916546    66.514579   -146.54778   -2179.4422    10890.368 
    6460    333.91595    6.0898333    61.834376   -140.02929   -4576.5577    10890.368 
    6470    325.22606    5.5893903    63.780786   -136.83791   -4441.4577    10890.368 
    6480    318.43419    5.5304898    68.085295   -135.68782   -2638.5583    10890.368 
    6490    325.13239    5.2800038    57.868124   -135.55576    1596.6182    10890.368 
6500        0.98153527260667972065 10.14948955498903338 1 70 -264.85083744746816592
    6500     284.3937    6.3892481    74.064237   -135.99685    1744.5629    10890.368 
    6510    295.49766    9.7481714    60.570507   -136.25667    4315.9802    10890.368 
    6520     295.0546    7.5572279    69.579051   -136.46278    2775.6674    10890.368 
    6530    308.01463    8.3851871    59.598638    -136.9252    2960.2779    10890.368 
    6540    301.23137    9.2353319    69.259067    -137.5707   -3367.0157    10890.368 
    6550     335.5676    7.4344071    56.176788   -138.85371   -3968.1346    10890.368 
    6560    297.34758    6.7211843     72.13916   -141.42923   -1330.2279    10890.368 
    6570     298.5932    7.7815926    64.361888   -144.53269    469.28456    10890.368 
    6580    288.26109     7.979396    68.799717   -148.03424    409.60357    10890.368 
    6590    314.95661    6.9221406    57.789769   -151.68978   -1133.7786    10890.368 
6600        0.98040725603048195502 10.117584954398346042 1 68 -284.2275624195385717
    6600    283.74169    10.606929    57.490089   -155.66899    1449.3247    10890.368 
    6610    273.88478    9.4395766    65.228933   -158.79414    2277.8739    10890.368 
    6620    253.50611    11.098635     60.36716   -161.10193    11.502297    10890.368 
    6630    272.12938    8.2508613    52.718337   -162.04734   -908.54275    10890.368 
    6640    266.17355    8.7518132    56.665933    -161.8883    3988.8115    10890.368 
    6650    271.41826    7.5230004    60.638541    -160.7841   -308.38239    10890.368 
    6660    284.59507    4.7156053    67.559439   -158.86507    5.2910758    10890.368 
    6670    294.70297    5.8808828    51.824764   -156.67599    -2666.454    10890.368 
    6680    283.24572    7.3568336    63.222349   -154.21159    73.117254    10890.368 
    6690    274.87203    9.0810552    63.386373   -151.68813    169.16188    10890.368 
6700        0.979486409016811721 10.134168690156354131 1 71 -287.24820646672776547
    6700    305.56275    9.3850319     56.16067   -148.80288    1501.9593    10890.368 
    6710    306.05139    9.0881782    63.028775    -146.4453    2577.3923    10890.368 
    6720    320.44413    7.7999023    58.156515    -145.0653   -67.631547    10890.368 
    6730    315.34018    8.7875352     62.08861   -144.75434   -572.57192    10890.368 
    6740    319.11429    9.9176687    56.502166   -144.93324   -2836.2982    10890.368 
    6750     310.3583    11.728356    54.416299   -145.33398   -1453.1147    10890.368 
    6760    308.92677     8.388283    57.762953   -145.68125    -230.5319    10890.368 
    6770     325.9065    6.3060248    51.642549   -145.95568    3428.6341    10890.368 
    6780    328.19621    8.7020928    50.461879   -146.42303      2223.62    10890.368 
    6790    305.31547     8.355635    59.086845   -147.14934   -292.58249    10890.368 
6800        0.97370343566801342838 10.186795483844125698 1 68 -296.10207725996355066
    6800    327.11988      6.15464    53.585221   -147.88958    264.45246    10890.368 
    6810    295.76001    5.4266556    60.738493    -149.0042    1568.7687    10890.368 
    6820    299.65028    6.6614438    59.082267     -150.026   -2957.0732    10890.368 
    6830    307.00347    7.1032571    53.302732    -150.8331   -4766.5805    10890.368 
    6840    299.63466    7.7989471    54.473404   -151.52086   -456.38664    10890.368 
    6850     303.4271     6.881892    58.285177   -152.05794    2148.4764    10890.368 
    6860    286.74037    6.4975047    57.945244   -152.50022     1438.653    10890.368 
    6870    296.67724    3.3802436    56.521375   -152.71436   -1257.8465    10890.368 
    6880    311.72583    3.5305517    53.638461      -152.79   -2530.0133    10890.368 
    6890     307.0165    5.3032742    56.129392   -153.17585   -1658.1508    10890.368 
6900        0.96841938754254230926 10.202251378169778562 1 68 -275.76249402779467346
    6900    269.32557    6.6383842    62.498949   -153.73562   -553.12869    10890.368 
    6910    307.81012    9.3168669    52.808914   -153.88651   -453.28441    10890.368 
    6920    289.00137    9.5277149    58.119375   -153.66756    950.22041    10890.368 
    6930    313.36108     9.851889    52.675179   -153.05055    2042.8768    10890.368 
    6940    260.08927     13.13929    66.747732   -152.19023    3332.0393    10890.368 
    6950    284.34688    16.802937     59.86629   -150.56632    1052.4249    10890.368 
    6960    287.51712      14.2797    54.681561   -147.91772   -1361.5549    10890.368 
    6970    296.53036    9.5219101    59.226398   -144.67133   -2286.4883    10890.368 
    6980     300.2612    7.8082331    66.047733   -140.99068    213.00051    10890.368 
    6990    327.07183    8.6220165    60.376593   -137.37266    665.69948    10890.368 
7000        0.97672164663076532776 10.174458629212519867 1 68 -270.11179164342399872
    7000    299.46934    9.0077541    68.704719   -134.42729   -2233.9181    10890.368 
    7010    311.97735    7.0466826     70.17493   -132.12395    1454.0581    10890.368 
    7020    293.77454    6.8279092    74.401251   -130.63646    4045.5769    10890.368 
    7030    311.93349    6.6093418    61.448701   -129.87451    2262.3753    10890.368 
    7040    298.09896    5.2045805    66.479244    -129.5201   -4323.6578    10890.368 
    7050    302.65961    4.6211295    67.846684   -129.42637    -4984.843    10890.368 
    7060    297.48889    4.4194659     72.46011   -129.99217   -900.20209    10890.368 
    7070    306.78696    5.3466918    64.913856   -131.41154     83.81276    10890.368 
    7080    293.20464    6.4604583      61.1248   -133.30023    1243.1339    10890.368 
    7090    297.65083     7.544249    68.457419   -135.44823   -336.38422    10890.368 
7100        0.98220213780658416347 10.151068219042036489 1 68 -266.81421983563154754
    7100     283.1825    8.4284431    68.959239   -138.50901    4406.6196    10890.368 
    7110    284.03768    7.4251815    67.735065   -142.33385   -352.32875    10890.368 
    7120    312.60631    7.1136179    58.960624    -146.8054    -1944.884    10890.368 
    7130    309.40917    7.3766421    58.352671   -152.24305    -913.4968    10890.368 
    7140    299.06054    6.2200623    64.164958   -157.45543   -172.46967    10890.368 
    7150    283.52471    7.3885729    59.322569    -161.9786   -131.92647    10890.368 
    7160    274.65389    8.8421149    59.585547    -164.8401    -83.04153    10890.368 
    7170    278.94839    8.2398509    53.943489   -166.49191     2065.688    10890.368 
    7180    276.29982    8.1272642    56.611154   -167.17444    3496.0739    10890.368 
    7190    278.42121    7.8456525    60.597341   -166.78692    1229.1786    10890.368 
7200        0.98265809812807314305 10.1485759729987155 1 66 -303.60562322164292937
    7200    304.10637    9.0122554    52.284628   -165.82016    -3518.002    10890.368 
    7210    275.06406    7.3289962    56.195986   -164.87547   -2368.1444    10890.368 
    7220    281.54468    5.2701686    52.694678   -163.41512   -4563.1454    10890.368 
    7230    277.09003    3.9656611     58.28554   -161.17889    743.54294    10890.368 
    7240     297.9452    2.3419082    50.278402    -158.2374    372.06085    10890.368 
    7250    289.44585    3.4468238    54.775159   -154.97966   -903.48575    10890.368 
    7260    310.97878    4.9542708    49.989935   -151.49919    1823.1544    10890.368 
    7270    310.38862    7.9820282    61.136525   -148.54339    7356.1324    10890.368 
    7280    301.07979    10.757075    54.263229   -146.44705    2779.3129    10890.368 
    7290    289.22573    11.342272    58.049973   -144.62272   -2434.6671    10890.368 
7300        0.97944415981543420102 10.148036669165199086 1 66 -276.96765932565051571
    7300    296.23998     9.336129    61.113195   -142.74632    -2263.351    10890.368 
    7310    318.96879    6.1819383    60.945266   -140.65678     706.6154    10890.368 
    7320    319.82917    6.4775209    71.149486   -139.27697    1036.8274    10890.368 
    7330    315.98941    5.8703501    57.454949   -138.87034   -3661.6781    10890.368 
    7340    316.01596    5.4825154    63.992041   -139.37743   -1146.2903    10890.368 
    7350    319.14751    5.8799756    58.758352   -140.39772    4433.2575    10890.368 
    7360    310.95873    8.6211808    56.875378   -141.95543    2133.6505    10890.368 
    7370    325.67919    9.7506403    57.621789   -143.68132    227.22312    10890.368 
    7380    317.95946    8.0374394     64.15478   -146.25624   -3421.5932    10890.368 
    7390     281.7969    8.5362809    62.362099   -149.11589   -2861.4319    10890.368 
7400        0.97516039460427195174 10.16015401191574874 1 64 -272.30306988843608451
    7400    267.21672    8.9814749    64.747355   -151.23168     -1272.94    10890.368 
    7410    282.01828    9.2465723    57.893425   -152.42306    -1309.931    10890.368 
    7420    298.34681     8.477988    56.945882   -153.11093   -326.58211    10890.368 
    7430    294.53962    8.3318368    53.489423    -153.6479     3217.202    10890.368 
    7440    268.03142    6.7035171    65.501935   -153.85785    2569.6108    10890.368 
    7450    278.48803    6.8237799     58.10191   -153.32323    1837.5279    10890.368 
    7460    286.20998    6.3923444    63.697324   -152.00984   -760.94222    10890.368 
    7470    299.54584    6.3337347    55.001627   -149.98423   -1326.5952    10890.368 
    7480    276.78601    6.3979417    61.555309   -147.04491   -291.28084    10890.368 
    7490    314.58801    5.9016854    50.728363    -142.1104    790.75869    10890.368 
7500        0.97031373252576724742 10.178279093977037562 1 68 -273.15932120682685991
    7500    305.87549    6.8199314    66.235244    -134.5723    1621.5159    10890.368 
    7510    353.65865    9.6695447    55.592615   -126.26917    809.92483    10890.368 
    7520    334.79724    10.324413    64.292999   -119.81239   -3077.5341    10890.368 
    7530     315.0977    10.763964    72.858302   -117.06272   -394.84194    10890.368 
    7540    331.98148    7.9979105    60.068298    -116.0837   -396.11595    10890.368 
    7550    313.62575    6.9114023    72.156853   -116.31287   -2373.9064    10890.368 
    7560    344.12121    5.5062087     57.52184   -117.31014   -904.04373    10890.368 
    7570    310.72838    4.8933684    63.912001   -119.37183   -2322.8035    10890.368 
    7580    328.28193    3.6962369    59.000454   -121.69608    1989.5702    10890.368 
    7590    283.81754     3.987482     67.85044   -124.06063     1200.072    10890.368 
7600        0.96737941872190935655 10.189587903761998078 1 68 -267.97006743150188868
    7600    312.63671     4.468041    65.124454   -126.31965    4573.0637    10890.368 
    7610    301.15165    8.8672339    62.398719   -128.71073    614.77204    10890.368 
    7620    321.65488    8.9152883    58.640873   -131.12955   -4452.9411    10890.368 
    7630    305.95614    6.5513106     69.05952   -133.87802    -1898.909    10890.368 
    7640    271.34658    5.8477738    64.641445   -136.78916   -3946.3294    10890.368 
    7650    279.67169    6.6599031    61.051313   -139.23975    1772.3503    10890.368 
    7660    303.26577     5.388975    59.319756   -141.27714    1772.8362    10890.368 
    7670     283.1835    4.5928115    59.347117   -143.06731    1333.1029    10890.368 
    7680    288.10854    3.6142639     54.88622   -144.33271   -55.810833    10890.368 
    7690    256.08069    4.1592979     68.41332   -144.96261   -1509.8937    10890.368 
7700        0.9743583669904964939 10.187001138184596627 1 71 -276.86682522731535983
    7700    291.70987    5.2616009    57.438137     -144.698    1137.0537    10890.368 
    7710    305.85028     6.330292     57.89647   -143.95129    1312.8707    10890.368 
    7720    314.80133    5.8323681    56.173269    -143.0892   -1328.2978    10890.368 
    7730     317.7989    7.6408739    57.985835   -142.04711    2145.8088    10890.368 
    7740    304.32767    10.122185    60.382924   -141.00123   -40.728484    10890.368 
    7750    305.81619    10.533946    59.071355   -139.74144    -835.1273    10890.368 
    7760     299.1001    12.862819    56.245771   -138.01785   -788.96152    10890.368 
    7770     327.5003    9.7312021    57.642487   -135.48847    -345.7394    10890.368 
    7780    315.36318    8.7430954    63.227601   -132.57767    2413.8141    10890.368 
    7790    353.46038     7.952144    46.534252   -129.23033   -4345.2365    10890.368 
7800        0.97923732989094369739 10.178738188285635147 1 68 -271.28995885132349031
    7800    318.91748    8.1687202    66.391107   -126.79383   -1767.6608    10890.368 
    7810    336.72106    9.2504234    64.204851   -124.75512    382.93371    10890.368 
    7820    327.99811     7.486107    63.020003   -123.58489    1351.2012    10890.368 
    7830    318.72266    7.0279806      68.0139   -123.51673    1453.1953    10890.368 
    7840    337.80088    5.6244843    55.161884   -124.49916   -251.10438    10890.368 
    7850    305.49446    6.5221696    60.042852   -126.33437   -2099.2201    10890.368 
    7860    302.11706    7.1675757    63.112927   -128.74785   -711.32282    10890.368 
    7870    303.72647    7.6833841    66.094811   -131.57481    5678.6866    10890.368 
    7880    306.98335    7.5810481    61.979734    -134.9054    4409.6361    10890.368 
    7890    306.39003    6.3628985    58.820529   -138.39996    -453.6044    10890.368 
7900        0.98352808463438623487 10.134400288906961762 1 65 -281.34553589261810203
    7900    308.38816     4.587468     49.47875   -141.62006   -4980.5695    10890.368 
    7910    283.71534    4.8206316    66.839674   -144.65567    1084.8583    10890.368 
    7920    288.83971    5.9201215    61.072155   -146.98545   -1994.6588    10890.368 
    7930    286.69645    5.8580993    61.850155   -148.79889   -1223.1943    10890.368 
    7940    280.94661    5.6217813    63.179007   -150.31311    2294.9844    10890.368 
    7950    288.39978     5.763759    56.301732   -151.39351    3545.3331    10890.368 
    7960    286.96887    6.4647277    58.988591   -152.40493    776.40297    10890.368 
    7970     291.6029    7.5750444    54.916535    -153.3385   -1574.0472    10890.368 
    7980    279.00953    8.0715919    62.241056   -153.99145   -3466.1341    10890.368 
    7990    288.17458    7.0127771    59.863187   -154.25231    752.83466    10890.368 
8000        0.98213201101814406879 10.125471863562870212 1 67 -290.07451850800964621
    8000    299.98338    5.5680701    60.606835   -154.15711   -676.23546    10890.368 
    8010    289.99211    6.2667197    64.311957   -154.12634    2531.2876    10890.368 
    8020    279.58149    6.6943605     59.29482   -153.97567   -1558.2241    10890.368 
    8030    286.06747    6.4679609    61.415038   -152.94589   -1328.2481    10890.368 
    8040    311.38117    7.0899849    58.902714   -150.88331   -176.84996    10890.368 
    8050    286.82286    7.8213254       61.775   -148.12507   -28.302283    10890.368 
    8060    292.99491    7.4934421    64.111218   -144.80823    1972.2777    10890.368 
    8070    291.45633     7.241851    57.026593   -140.66787   -4170.0771    10890.368 
    8080    301.84135    6.4508397    68.066692   -136.39446   -3982.8621    10890.368 
    8090     298.2856    7.2772172    70.009534   -132.45714    2718.8189    10890.368 
8100        0.97560762298166037176 10.164066673965852061 1 66 -271.84412043578038265
    8100    315.40992    6.4463182    67.020006   -128.93721    4290.3748    10890.368 
    8110    335.61399    5.0815973    66.586868   -126.05083    1623.4434    10890.368 
    8120    321.46583    3.7811655    73.400846   -124.29785   -1605.7336    10890.368 
    8130    333.16091    2.8145076    62.156048   -124.00314   -2720.9487    10890.368 
    8140    278.93581    5.5341752    78.725508   -124.86891    112.58105    10890.368 
    8150      330.935    6.2432162    59.378536    -126.0975   -914.30018    10890.368 
    8160    330.18657    5.6884801    65.486399   -128.27569    3624.5311    10890.368 
    8170    346.49675    5.9129834    59.714077   -131.95426    81.638997    10890.368 
    8180    316.65963    8.8965375    66.906932   -137.12457    3294.2146    10890.368 
    8190    304.91633     7.826204    65.410079   -142.71118    2089.5979    10890.368 
8200        0.97571194079329526261 10.181512938859409445 1 67 -290.97268004101704264
    8200    315.34309    5.3368671      64.0746   -148.09605    -3442.307    10890.368 
    8210    323.01359    5.8144438    58.201445   -152.54499   -5395.7174    10890.368 
    8220    300.51307    6.6619432    62.179409    -156.2642   -528.59716    10890.368 
    8230    278.39958    6.7171383    62.414478   -158.74577    5718.9528    10890.368 
    8240    270.52338    8.4030319    59.830448   -160.19165    937.94032    10890.368 
    8250    278.06835    7.9990085    50.265769   -160.78176   -5164.6832    10890.368 
    8260      299.604    7.5199222    51.452327   -161.16736   -2748.3781    10890.368 
    8270    296.21977    7.5010405    49.539808   -160.04729    3621.9544    10890.368 
    8280    260.53614    10.073978     63.48195   -158.28268    1472.8577    10890.368 
    8290    283.33941    11.059429    57.818211   -155.42346   -185.29206    10890.368 
8300        0.9822936418278011006 10.144970703900641595 1 68 -286.49471869203819097
    8300    296.86196    10.911477    69.513312   -151.99157   -1584.3892    10890.368 
    8310    326.23744    13.536323      51.8257   -147.94428    1167.5392    10890.368 
    8320    299.46619    11.596219    69.112411   -145.44853    930.32089    10890.368 
    8330    313.90639     8.962657     59.05341   -143.53754   -213.17193    10890.368 
    8340    299.31591    6.4771116     66.14173   -142.07242   -3105.1791    10890.368 
    8350    333.80991    5.1231862    56.070355   -140.98078   -879.40576    10890.368 
    8360    308.62574    6.2282245     68.17703   -140.83961   -511.02307    10890.368 
    8370    321.44903    5.4929213    58.683381   -141.60706    2958.9378    10890.368 
    8380    283.87926    8.2500401     59.08055   -143.00048   -2742.8307    10890.368 
    8390    308.31722     7.576304    53.476444   -144.13482    1882.7739    10890.368 
8400        0.98633578811431832367 10.091250006242210802 1 65 -282.06973134023405692
    8400    302.18026     7.769586    63.475472   -145.15696    5396.8439    10890.368 
    8410    315.10577     9.929905    57.047057    -146.3493    3643.0103    10890.368 
    8420    302.86778    9.5409543    62.410415    -148.2019   -4675.3512    10890.368 
    8430     286.9553    8.1790933    60.064863   -151.01288   -3624.9757    10890.368 
    8440    302.84693     6.097967    59.117399   -154.74932     792.9335    10890.368 
    8450    290.97081    5.6659821    57.538727    -159.5595   -118.81186    10890.368 
    8460    282.81741    7.0345308    57.371287   -164.12795   -2853.4163    10890.368 
    8470     270.0459      7.85781    63.440941   -167.90488    621.13411    10890.368 
    8480     274.7845    8.0995035    61.870656   -170.70436    1470.2546    10890.368 
    8490    284.31646    7.7968541    58.060675   -172.82682    2055.2219    10890.368 
8500        0.98308065385998066876 10.134438137604085739 1 65 -295.78422814753741932
    8500    267.92123    9.3362656    56.885396   -174.39364    2008.5014    10890.368 
    8510    263.06239    8.5671617    54.142024    -174.8454   -940.53326    10890.368 
    8520    283.10322    8.6784903    55.667543   -174.05722    366.93256    10890.368 
    8530    295.81327    8.5106547    53.582153   -172.37979   -924.81816    10890.368 
    8540    299.61332    8.4699429     53.86428   -170.14688    379.12171    10890.368 
    8550    281.96655    9.4537845     61.37551   -167.60874   -1554.2622    10890.368 
    8560    291.30351    10.101061    52.262361    -164.4483   -568.16906    10890.368 
    8570     291.7955     6.568745    59.403035   -160.40304    4006.7646    10890.368 
    8580     300.7928     4.686334    54.193661    -155.8012    1686.7974    10890.368 
    8590    263.07953    6.0405128    67.103285   -151.27461   -2940.1477    10890.368 
8600        0.97777331500230812988 10.170630354892162828 1 65 -274.56410877652945146
    8600     281.1471    8.9986309    65.011874    -147.1811   -2709.8771    10890.368 
    8610    300.56106    7.2499654    56.239151   -144.01659    1248.9356    10890.368 
    8620     311.7034    7.4153238    59.933139   -142.06167    1984.6593    10890.368 
    8630    308.65148    9.5429709    68.846665    -140.8031    1873.3271    10890.368 
    8640    326.37593     10.94311    61.232923   -140.02824   -1380.1865    10890.368 
    8650    320.03242    9.0430528    64.880767   -140.18422   -610.61402    10890.368 
    8660    308.42426    8.7377378    66.994425   -141.21481    823.96018    10890.368 
    8670    298.28577    10.568961    61.970746   -142.52824   -1975.5878    10890.368 
    8680    289.66816     8.191338    69.495444   -143.67654    643.04353    10890.368 
    8690    309.87352    6.4386147    58.813912   -144.80013   -1694.0637    10890.368 
8700        0.97698915870271152428 10.18379125571501298 1 64 -277.76656514460717062
    8700    289.97691     6.385434    62.720542   -146.38292   -817.46332    10890.368 
    8710    286.38753    5.7156388    59.388679   -147.96949    -2416.367    10890.368 
    8720    279.08367    7.3676804     64.10048     -149.306    726.38269    10890.368 
    8730    290.37553     7.219883     61.35904   -150.06309    1710.4317    10890.368 
    8740    297.37572    7.3873414    62.662673   -150.86247   -608.50688    10890.368 
    8750    292.44374     5.296274    61.399244   -151.73969   -322.89199    10890.368 
    8760    294.86589    6.8348661    59.589838   -152.53855   -2366.2186    10890.368 
    8770    287.43954    6.6776422    66.295115   -153.21623    1236.9937    10890.368 
    8780    305.49411    7.5306952    55.534791   -153.88793    2423.0118    10890.368 
    8790    305.62965    6.7381968    59.879527   -155.09156    -800.7621    10890.368 
8800        0.97828579657974024109 10.168678377763002985 1 67 -290.30164750117046424
    8800    294.08728    6.3072649    59.681585   -157.05566    122.84136    10890.368 
    8810    314.47264    5.8250736    55.961971   -159.93507    1209.7453    10890.368 
    8820    289.90818    6.7752732    58.368627   -163.44435    1581.4325    10890.368 
    8830    284.11484    5.4771565    54.913366   -166.90364   -880.46852    10890.368 
    8840    248.35719    6.1541688    61.648292   -169.49821   -2828.9319    10890.368 
    8850    275.54605    8.1699921     56.02814   -170.85096    2481.5008    10890.368 
    8860    278.29958    9.1601972    58.086112   -171.40402    624.81514    10890.368 
    8870    288.90664    9.3778371    52.707381   -171.12169   -440.83034    10890.368 
    8880    293.33148    7.5739189    51.960252    -169.9847   -2612.1285    10890.368 
    8890    287.65734    6.2227629    57.824214   -168.01692   -4689.2125    10890.368 
8900        0.97503786045917084646 10.151636215457463308 1 65 -301.31039626735696402
    8900    300.98199    7.0483128    56.850091   -164.94054    2355.0215    10890.368 
    8910    278.99913    7.5779893    57.031527   -161.18173    857.53187    10890.368 
    8920    289.14737    6.7811328     59.06595   -156.35785    3220.6101    10890.368 
    8930    314.90831    8.0226119    63.933394   -150.86641   -250.64605    10890.368 
    8940    329.34528    9.7054461    60.156789   -146.33722    1240.6116    10890.368 
    8950    306.54893     7.296013    72.577566    -143.6253    1198.2011    10890.368 
    8960    296.78971    7.5030273    66.480072   -142.17987    2109.9874    10890.368 
    8970    311.72071    6.9471557    66.010943    -141.2608   -4015.4098    10890.368 
    8980    321.53922    6.7837317    63.295076   -141.01266     389.3792    10890.368 
    8990    302.88856    5.8477077    66.950552   -141.44365   -1616.2993    10890.368 
9000        0.97742589213292818684 10.113625777562610608 1 65 -268.47859735847538332
    9000    278.98361    6.1596866    71.572909   -142.07583    2307.5458    10890.368 
    9010    284.30202    3.9266978    67.013669   -142.34258   -556.95439    10890.368 
    9020    325.79524    4.2276374    55.630109   -142.43264     2907.508    10890.368 
    9030    323.77627    4.9361672    56.748102   -143.00735    1624.2767    10890.368 
    9040    306.98918     5.723146    63.295801   -144.02255    -1966.676    10890.368 
    9050    298.46381    5.7645288    66.687661   -145.27826   -1358.1081    10890.368 
    9060    293.95981     6.622398    70.004635   -146.67621   -2940.5546    10890.368 
    9070    291.82556    8.7452224    61.017119     -148.394   -1122.0086    10890.368 
    9080    273.45363    7.9582929    63.380941   -149.88787     1041.637    10890.368 
    9090    286.03223    8.0105236    54.963613   -150.87164    1255.4401    10890.368 
9100        0.98158469944169002286 10.138055613163899693 1 65 -277.88790689160845204
    9100    279.04788    7.6376398    67.087881   -151.45602    1834.1279    10890.368 
    9110    270.86711    10.757373    65.187127   -151.73892   -507.71213    10890.368 
    9120    289.95251     11.93509    60.021014   -151.56851    623.78261    10890.368 
    9130    302.06641     10.59065    64.316286   -150.62645    2274.2234    10890.368 
    9140    314.23096    7.7874182    60.613407   -149.20705    -1992.605    10890.368 
    9150    298.03618    6.5375068    65.801507   -147.76443   -4559.6345    10890.368 
    9160    308.91254     8.441019    66.701974   -146.40674   -3151.7295    10890.368 
    9170    315.78101    10.181835    64.573351   -145.21335   -1878.3336    10890.368 
    9180    341.30661    9.6406492    57.307303   -144.41141    2819.2396    10890.368 
    9190    318.29808    10.544966    68.269125   -144.69333    78.760615    10890.368 
9200        0.98694493019260842726 10.105642243335738684 1 62 -289.4318315586249355
    9200    316.99181     10.98559    62.534217   -145.80819    5505.5392    10890.368 
    9210    318.96029    9.1598272    57.169817   -147.70641    3397.9793    10890.368 
    9220     314.2269     6.268098    58.163629    -150.4635    3967.1741    10890.368 
    9230    298.46981    7.4467996    58.539804   -153.43936    1224.7296    10890.368 
    9240    284.25757    7.1910549     56.38255   -156.39059   -4529.6812    10890.368 
    9250    279.17661    6.6091248    62.921823   -158.63647   -2012.7603    10890.368 
    9260    278.90983     5.363896    57.822749   -160.19725   -1370.2412    10890.368 
    9270    278.62547    5.5288807     55.20813   -160.89659   -1712.4525    10890.368 
    9280    274.54418    7.2409634    56.383261   -160.59837   -2019.1051    10890.368 
    9290    279.78082    3.9221052    59.999848   -159.43901    42.136611    10890.368 
9300        0.98157461860126948849 10.150379099632232283 1 63 -288.32937316540312622
    9300    288.80104    3.9779723     58.47998    -157.4785    3248.8088    10890.368 
    9310    297.08564    5.5188962    56.476824   -154.66832    885.02869    10890.368 
    9320     326.8846    7.2386149    46.801446   -150.91953    3396.8756    10890.368 
    9330     293.7243    7.7255102    71.660908   -146.63714    1418.6125    10890.368 
    9340    291.88761    10.624581    59.807113   -142.58137   -2633.2323    10890.368 
    9350    297.37876    11.609577    73.883639   -138.60455   -2603.8688    10890.368 
    9360    345.25251    11.742395     60.08457   -135.10767   -1778.0501    10890.368 
    9370    355.94015    11.232413    58.126703   -132.79432    -752.6569    10890.368 
    9380    336.06077    9.5506358     67.65257   -132.04447   -741.66104    10890.368 
    9390    321.87652    9.8043465    65.247173   -132.51792    258.15969    10890.368 
9400        0.97366469081606221714 10.193823253240292814 1 63 -277.97020486512917614
    9400    317.89749    11.362806    70.844109   -133.93622    4769.2886    10890.368 
    9410    309.91002    10.553084     65.07792   -135.92705   -231.34407    10890.368 
    9420    317.79016     7.095724    62.239867   -138.04348   -3068.2945    10890.368 
    9430    319.64457     5.470127    62.722254    -140.4883   -2937.7977    10890.368 
    9440    295.85333    5.5935127    63.471092   -142.80073   -2044.9416    10890.368 
    9450    274.90854    6.3078894    68.274239   -144.29595    1659.2808    10890.368 
    9460    309.68304    7.7175959    58.038624   -144.81016    2309.2398    10890.368 
    9470     314.4213    7.7144898    63.977944   -145.10348    2115.8168    10890.368 
    9480    310.95523    9.2114583    65.111271   -145.69334   -912.51328    10890.368 
    9490    255.25031    9.8370521     74.10274   -146.37871   -2367.3388    10890.368 
9500        0.97247766182968453652 10.183652429774394221 1 66 -275.69165874596620824
    9500    285.46795    8.8900885    60.601634   -146.35095    1304.9419    10890.368 
    9510      308.876    6.7346814    58.994129   -145.69895    1230.7971    10890.368 
    9520    309.47653     7.849005    65.010185   -145.13913    1844.3121    10890.368 
    9530    304.91488    9.5638758    66.444223   -144.81316    198.54079    10890.368 
    9540    299.36055     13.59061    70.666774   -144.94837   -1141.8546    10890.368 
    9550    320.49735     8.985892    66.001339   -145.32745   -107.27625    10890.368 
    9560    321.35251    9.3001246    60.232155   -146.09764   -4634.2215    10890.368 
    9570    305.08386    7.5137925    58.907453   -147.49607   -1588.9415    10890.368 
    9580    274.34071    5.7667321    73.103251   -149.38813    1281.6276    10890.368 
    9590    288.22473    4.8691699    66.681578   -151.48932    2480.3976    10890.368 
9600        0.97311717663983199333 10.188166941714532854 1 67 -299.58248795636666273
    9600    320.99221    6.4774898    54.771705   -154.14633    3747.2567    10890.368 
    9610    290.24963    8.3549879    62.738363   -157.37349   -1663.7136    10890.368 
    9620     301.2209    8.7701085    54.225015   -161.02749   -3368.0176    10890.368 
    9630    267.40739     8.965478    64.842048   -164.71966   -401.83438    10890.368 
    9640    296.28408    7.7944975    60.228786   -168.83004    1097.3807    10890.368 
    9650    263.97444     9.685454    59.583755    -172.8407   -521.74895    10890.368 
    9660    274.39719    6.2509605    55.702654     -175.886   -4303.4817    10890.368 
    9670    285.07043     4.921835     44.69537     -177.838   -3143.6222    10890.368 
    9680    266.69795    5.9318418    54.274727   -178.41701    2563.8045    10890.368 
    9690    279.79905    6.6740254    55.092174   -177.70963    3108.6615    10890.368 
9700        0.98246217929373536037 10.143613297070515955 1 64 -304.70739971784263389
    9700    284.23177     8.219069    59.821858   -175.92678   -3041.0346    10890.368 
    9710    285.89939    9.3807688    56.496129   -173.19976   -280.39689    10890.368 
    9720    284.49142     9.701833    62.071614   -169.75567    2679.7285    10890.368 
    9730    294.64368    9.6241764     61.83358   -164.84292    6585.3634    10890.368 
    9740    307.05076    9.7125459    59.367177   -159.33465   -864.65455    10890.368 
    9750    299.20148    10.975452    67.831724   -153.60983   -4619.5489    10890.368 
    9760    293.74965    10.729633    66.723121   -149.17089   -2045.0869    10890.368 
    9770     305.4611    11.858553    68.407611   -146.21745   -374.61961    10890.368 
    9780    309.45109    12.227053    65.784104   -144.63509    2040.2937    10890.368 
    9790    314.43086    9.0736413     65.24256   -144.11333   -1619.1581    10890.368 
9800        0.98609516537810970593 10.113408565323451782 1 68 -281.81832117436636054
    9800    303.53143    7.8467113    71.502653   -144.29335    1340.6018    10890.368 
    9810    306.53916    10.148024    58.213406   -144.65929    2791.9042    10890.368 
    9820    313.16817    8.9693822     63.75021   -145.00322    1530.7545    10890.368 
    9830    328.72778    7.9891148    57.218195   -145.67955    243.63229    10890.368 
    9840     290.8075    8.5101505    65.137337   -146.61845   -4810.0686    10890.368 
    9850    280.71886    9.7808937    61.278323   -147.27807   -894.96868    10890.368 
    9860    280.21693    8.4481223    65.781868   -147.22063    3556.0538    10890.368 
    9870    311.29578    8.2289494    62.003104   -146.66425    4250.2755    10890.368 
    9880    320.85445    7.1497631    64.835868   -146.20491    1747.2174    10890.368 
    9890    322.22623    6.4411149    55.020002   -146.04818   -1373.0437    10890.368 
9900        0.98355971102621497781 10.113169915206812632 1 70 -281.86746125450019917
    9900    299.05057    6.1472634    64.639493   -146.37269   -4484.0217    10890.368 
    9910    306.02462      4.56332    68.698734   -146.95194   -1505.2408    10890.368 
    9920     291.4512    8.2016644     67.72583   -148.28342   -43.236594    10890.368 
    9930    292.63734    12.068119    64.713895   -150.08824    1127.9409    10890.368 
    9940    293.23756    13.929243    56.079168   -152.03103    1210.2251    10890.368 
    9950    285.84741    12.414918    62.654413   -153.90924    2203.1819    10890.368 
    9960    294.22667    8.5513258    56.572473   -155.80772    2887.4331    10890.368 
    9970    285.92788     4.818773    65.588775   -157.80928   -504.46872    10890.368 
    9980    299.91003    4.4987499    60.803572   -160.37526   -724.98461    10890.368 
    9990    291.64901    5.3268792    59.334599   -163.39847   -3908.1312    10890.368 
10000        0.98423217415704455924 10.122760597921812931 0.99735449735449732689 67 -299.96758304534318995
   10000      294.475    7.9664648    51.501737   -166.54593   -4888.4965    10890.368 
   10010    272.47453    8.6033002    56.827696   -169.18148    2994.9339    10890.368 
   10020    290.94312    7.6850907    54.062272   -171.27922      1867.67    10890.368 
   10030    293.44249     5.887877    57.389342   -173.29434    2847.2893    10890.368 
   10040    281.32462    5.1123177    62.530128   -175.12184    -1821.501    10890.368 
   10050    282.90063    5.7315912    43.545067   -176.27568    98.238618    10890.368 
   10060    258.30154    2.7058572    63.102309   -176.44367    2829.5994    10890.368 
   10070    267.20648    4.2311315    60.831451   -175.44201   -3106.9872    10890.368 
   10080    281.23072    6.9553626    52.456367   -173.35789   -1163.2843    10890.368 
   10090    285.47669    10.102862    56.836976   -170.00538    880.46507    10890.368 
10100        0.97973885308416031048 10.139342469072861519 0.99206349206349198067 70 -304.63870849900882831
   10100    308.42125    6.3624072    53.572245   -164.89824    5740.8939    10890.368 
   10110    309.73717    6.2507515    55.460743   -159.04331    1398.8997    10890.368 
   10120     290.0265    7.7332489    58.516663   -153.25674   -5831.8984    10890.368 
   10130     277.3747    5.7572413    73.750193   -148.82102   -3096.9609    10890.368 
   10140     286.4445    4.9690896     69.95661    -145.4434    1527.2356    10890.368 
   10150    292.60353    4.2256893    70.442913   -142.98095    628.96404    10890.368 
   10160    324.71426    7.0627424    53.782029   -141.07867   -1458.2122    10890.368 
   10170    304.80873    6.0296311    68.839349   -139.90563   -2399.2988    10890.368 
   10180    330.08167    6.9266655    65.732001   -139.14276    3530.1171    10890.368 
   10190    301.20739    8.5812576    68.600817   -139.18009    3843.0858    10890.368 
10200        0.98085632339278505665 10.156730500291342167 1 68 -272.90377351015763452
   10200    293.91523    6.8810479    67.422841   -139.73574   -764.13502    10890.368 
   10210    274.51207    6.1112376    74.971144   -140.01434   -2169.0548    10890.368 
   10220    288.08584    7.5915957    64.339698   -139.83427   -3446.3757    10890.368 
   10230    302.67739    9.0028824    69.283158   -139.40862    2699.8353    10890.368 
   10240    289.91123    7.8370568    69.633715   -138.81821   -1124.2052    10890.368 
   10250    333.05123    6.9767755    61.275479   -138.35961    1500.1987    10890.368 
   10260    306.03328    7.0918949    74.946213   -138.72611   -2939.4621    10890.368 
   10270    309.73285    7.1646629    61.849772    -140.0044    1388.4803    10890.368 
   10280    290.04999    5.6423493    73.801108   -142.24663    1943.2249    10890.368 
   10290     308.5025    6.9395885    63.161816   -145.46054    3275.8144    10890.368 
10300        0.98077215987169807931 10.159505070588753739 1 65 -289.20079361707712451
   10300    307.29981    7.4645099    66.260115   -149.96844    346.28676    10890.368 
   10310    297.29753    6.4243624    61.961501   -155.34199   -1952.1408    10890.368 
   10320    297.24928     7.603429    58.560253   -160.23918   -2434.9338    10890.368 
   10330    284.47135    8.0394754    57.738337    -164.5791   -2567.2322    10890.368 
   10340    263.70302    5.6579578    60.902081   -167.53734   -4786.4666    10890.368 
   10350    259.03002    5.0359568    63.072873   -169.16866   -690.03517    10890.368 
   10360    277.92919    6.1666048    55.604764   -170.88772    1343.4169    10890.368 
   10370    269.02986    4.5753291    57.471199   -170.42631    5438.2695    10890.368 
   10380     277.8005    3.5723236    59.749441    -169.1542    4351.4298    10890.368 
   10390    282.19174    4.1489553    59.608902   -167.45102    305.82177    10890.368 
10400        0.97919309033236390238 10.146324429172709713 1 70 -296.82748726162537878
   10400    289.55883    5.9029849    61.967885   -165.63327    -4733.929    10890.368 
   10410    315.83538    7.3954797    50.486865    -164.0031   -1980.0258    10890.368 
   10420    312.42955    8.0235026    62.081826   -162.64446    928.81091    10890.368 
   10430    301.41574    10.487324     58.42813   -161.59017    3600.0095    10890.368 
   10440    286.44411     12.89945    61.786556   -160.79828   -560.92483    10890.368 
   10450    271.64585    11.469729    67.159823    -160.0525      685.987    10890.368 
   10460    285.14196    7.8750157    59.818499   -158.92489    2105.2876    10890.368 
   10470    309.33356    8.2128887     51.47777   -156.98504    324.35535    10890.368 
   10480    308.99642    7.1039269    56.715758   -154.54018   -4470.7743    10890.368 
   10490    286.15165    6.5331702    62.170569   -151.78971   -2227.5631    10890.368 
10500        0.97848233827605557433 10.139325636956696641 1 69 -283.99587115999554499
   10500    300.15827    6.1235661    62.897284   -147.99923   -469.27138    10890.368 
   10510    301.92567    8.0819808    69.263526   -142.54591    1319.8303    10890.368 
   10520    344.93443    9.8287631    58.928856    -135.2342    1021.3587    10890.368 
   10530    313.63723    10.541852    73.098751   -127.14772    890.95591    10890.368 
   10540    340.19588    11.012961    70.790164   -122.00795    1273.1602    10890.368 
   10550    325.17548    7.8892029    68.742611    -119.1181   -999.28123    10890.368 
   10560    316.07192    5.6233723      73.5905   -118.11747   -1180.9594    10890.368 
   10570    323.86491    5.2435521    63.282574   -118.38461   -2648.7804    10890.368 
   10580    297.19852    6.5199471    66.966334   -119.22391   -19.564743    10890.368 
   10590    312.71371    6.1643127    64.553289   -120.12175    2887.9333    10890.368 
10600        0.97441755850252143034 10.130617447864279868 1 70 -261.32857883816569711
   10600    309.31982    5.0015042    69.929034   -121.18099    3263.8235    10890.368 
   10610    316.43803    5.7914209    63.771241   -122.46294   -967.00903    10890.368 
   10620    309.77899    6.3549012    68.298886   -124.28558   -865.29578    10890.368 
   10630    297.05659    7.1079624    74.933241   -126.45291    1260.5841    10890.368 
   10640    314.46617    6.7557303    65.455368    -129.0257    1578.5266    10890.368 
   10650    317.34264    7.1795205    62.146779    -132.1495   -2193.2552    10890.368 
   10660    302.92186    7.8169908    56.362007   -135.22459   -3546.4394    10890.368 
   10670    304.41506    7.3780655    61.427519   -137.87711   -1532.8258    10890.368 
   10680    297.09385    8.3589887    62.219788   -139.85278    660.09986    10890.368 
   10690     293.3484    8.5328565    64.668133   -141.44926   -2376.0366    10890.368 
10700        0.97246679283303472108 10.138336206911727544 1 67 -273.90886344485556947
   10700    288.93443    7.3630727    64.004216   -142.99755   -368.42779    10890.368 
   10710    268.35597    7.3072946     66.59909   -144.18086    1987.4806    10890.368 
   10720    291.36041    7.1845615    57.668743   -144.61939    4760.2375    10890.368 
   10730    303.77461    7.2659779    58.271604   -144.60439    1520.7077    10890.368 
   10740     297.3096    8.6109656    57.471647   -144.42998    1064.0494    10890.368 
   10750    295.04774    5.7525894    61.007994   -144.16838   -2435.3334    10890.368 
   10760    292.67316    5.7489372    58.758118   -143.50623   -2115.3401    10890.368 
   10770    303.63252    5.1109076    63.439064    -142.4837   -1944.9708    10890.368 
   10780    284.02022    6.1910992     68.38274   -141.38648   -1215.3974    10890.368 
   10790    298.99994    7.9470762    59.260885   -140.01179   -3770.7266    10890.368 
10800        0.97416760621358500227 10.159569343269065911 1 67 -276.14754104219139208
   10800    303.39089    7.5262253    62.203727   -138.68625   -1860.2906    10890.368 
   10810    308.45147    9.3045598    66.530788   -137.38353    2502.0889    10890.368 
   10820    334.91971    9.6605648     53.08704   -136.05791    4398.1486    10890.368 
   10830    306.33786    8.3542758    69.543786   -134.75295    3559.3269    10890.368 
   10840    328.55423    5.1923123    60.958575   -133.13171    3460.3076    10890.368 
   10850    317.43689    3.9708418    67.980452   -131.75516   -3336.8694    10890.368 
   10860    346.72162    4.0960453    53.565185    -131.1647   -3307.4551    10890.368 
   10870    307.80275    4.8165378    63.732248   -131.57217   -3739.7294    10890.368 
   10880    330.63119     6.266132    60.046285   -132.65729   -697.04583    10890.368 
   10890    313.77419    7.8629906     63.88665   -134.95638    218.05454    10890.368 
10900        0.97501158278392474621 10.159534073281996314 1 66 -274.56898386822467728
   10900    301.10017    9.2258477    63.042537   -138.14558    3132.5228    10890.368 
   10910    312.71832    8.2108609    59.938115   -141.66522    2300.9469    10890.368 
   10920    322.63235    6.3200748    67.112101   -145.53965    1060.4458    10890.368 
   10930    320.33026    9.0216592    63.100872   -150.15224   -984.63101    10890.368 
   10940    308.77995    8.0266454    61.237258   -155.22816   -1528.3977    10890.368 
   10950    278.29195     8.433521    61.947418   -159.72006   -1607.9243    10890.368 
   10960    272.71063    8.7301036    59.864981   -162.70708    3305.6812    10890.368 
   10970    265.38049    8.5246685    62.434441   -164.43405    3010.9913    10890.368 
   10980    269.74766    8.6290074    57.950235   -165.08178    804.87761    10890.368 
   10990    283.70324    10.196156    52.886882   -164.89916   -3436.8313    10890.368 
11000        0.96841031202221206087 10.202932140525426519 1 68 -287.87839148799770328
   11000      273.317    12.107223    64.013946   -164.04307    1004.4174    10890.368 
   11010     303.8445    12.147688    50.746205   -162.51999    2718.2918    10890.368 
   11020    280.92245    8.7566688    64.879271   -160.61271   -580.53665    10890.368 
   11030    308.57344    7.0950411    58.504393   -158.38034   -1389.9136    10890.368 
   11040    308.42575     5.784737    59.552681   -156.16547    116.26637    10890.368 
   11050    306.79604    5.8658131    63.478961   -154.44924    846.41518    10890.368 
   11060    320.13476    5.1894681    52.523308   -152.97467   -3335.0257    10890.368 
   11070     284.4087    6.0805267     63.50464   -151.73242   -3411.9448    10890.368 
   11080    279.87498    8.6206504    60.062551   -150.08481    55.882996    10890.368 
   11090    279.99099    9.5574686    65.424747   -147.38976    1302.2872    10890.368 
11100        0.97219524805747992158 10.197528508656073853 1 70 -296.35884017420221426
   11100    337.45845    7.9040934    62.183122   -143.46211    1854.5951    10890.368 
   11110    318.18168    5.7163067    67.651963   -139.53807   -174.35372    10890.368 
   11120    317.60615    6.2479711    65.610191   -136.60682   -3118.3416    10890.368 
   11130    317.41891    5.9426604    59.997255   -134.14267   -1582.4027    10890.368 
   11140    303.15939     4.603826    68.514703   -132.16796    904.41997    10890.368 
   11150    328.65147    5.9272568    56.806758   -130.05386    256.84492    10890.368 
   11160    305.97707    5.2593484     67.37746   -128.34393   -595.02485    10890.368 
   11170    298.77029    5.3342188     66.56951   -126.66398   -201.27988    10890.368 
   11180    295.20633    4.9260272    70.404496   -124.57647    3153.1455    10890.368 
   11190    297.23757    4.9219347    72.331207   -121.88143    23.006749    10890.368 
11200        0.97513232107498015733 10.16040518533947612 1 72 -269.20671389315634769
   11200    332.10758    4.7622936    68.485243   -118.73437   -2197.6228    10890.368 
   11210    328.84988    6.6705015    72.488562   -115.96592   -115.27623    10890.368 
   11220     328.1727    9.9900051    67.104554   -114.36694    1704.0343    10890.368 
   11230    321.87571    11.399091    72.299231   -113.95023    444.71249    10890.368 
   11240    343.88868    10.473717    66.646049   -114.84894    2542.9248    10890.368 
   11250    329.22647    9.9240622    68.519001   -118.01038    1986.0309    10890.368 
   11260    338.45327    13.179849    58.185674   -123.00827    2610.0559    10890.368 
   11270     325.2423     11.98706    65.039698   -129.36976   -2363.1147    10890.368 
   11280    343.71394    9.5851664    56.661411   -135.61776   -1977.0148    10890.368 
   11290    318.79124    5.7231946    59.589736   -141.42421   -3764.0265    10890.368 
11300        0.97435353948228764498 10.16840009155651714 1 70 -276.31691606848153242
   11300    288.12538    3.4583737    70.484585   -145.77217   -1910.5341    10890.368 
   11310    284.96086    5.1327559    54.267629   -148.50361   -1940.6147    10890.368 
   11320    282.32185    4.9616426    61.640541   -149.86566     1459.283    10890.368 
   11330    315.65411    4.6566905    49.270989   -150.36758    1711.0698    10890.368 
   11340    307.20158    3.9239398    60.711795    -150.5737   -802.16167    10890.368 
   11350    318.83905    4.7503273    54.979239    -150.7822    1039.2992    10890.368 
   11360    296.68484    6.3600912    60.988805   -151.37199   -213.04275    10890.368 
   11370    315.07414    6.7323566    57.595696   -152.16952    2965.3226    10890.368 
   11380    294.18775    7.6393591     56.76887   -153.18899   -1551.2873    10890.368 
   11390     290.9236    9.1523687    56.880314   -153.93964    1905.8553    10890.368 
11400        0.98026316436129135035 10.134564408413718084 1 71 -288.28954342798209609
   11400     295.6152    7.7799171    58.384171   -154.35128     2046.023    10890.368 
   11410    278.97268    8.1307314    58.623853   -154.49984    4476.3997    10890.368 
   11420    302.69261     6.945832    53.335645   -154.19897     595.8201    10890.368 
   11430    303.59759    5.6011066    61.005464    -153.6714   -519.83333    10890.368 
   11440    306.86669    5.0032411    50.166577   -152.92283   -2635.2929    10890.368 
   11450    294.85446    6.0640371    58.848963   -151.81543   -784.66198    10890.368 
   11460    295.60425    5.9320524    62.204381   -150.12457   -2468.3944    10890.368 
   11470     281.1319    8.8643826    61.782453   -147.85282   -5142.1592    10890.368 
   11480     309.6011    10.503657    56.575953   -144.97924   -2040.0835    10890.368 
   11490     325.0787    12.058111    60.164555   -141.60023    4847.5009    10890.368 
11500        0.98284957967354991126 10.14571679650775593 1 71 -276.04471612057221819
   11500    303.51365     11.04647    61.750412    -138.5278    3000.1231    10890.368 
   11510    313.32643    12.236728    61.522686    -135.2093     1109.174    10890.368 
   11520    316.81017    11.836835     66.53549   -132.01887   -2219.9711    10890.368 
   11530    329.99228    12.494799    63.503256   -129.43945   -813.30948    10890.368 
   11540    316.68809    8.7055203    66.702015   -128.00931   -2110.6803    10890.368 
   11550    328.32255    9.6802112    61.463969   -127.41787   -999.17302    10890.368 
   11560    320.96758     12.37039      63.7464   -127.53601    23.026261    10890.368 
   11570    333.03322    11.754295    52.114422   -128.13285    416.22814    10890.368 
   11580    306.90814    7.5754929    65.471073   -129.31626    212.70968    10890.368 
   11590    305.85318    9.5330507    63.757003   -131.47441    1466.7707    10890.368 
11600        0.98577322680616918937 10.122853936243233264 1 70 -270.88316558908377374
   11600    300.44492    8.9099708     62.92373   -134.75664     2155.862    10890.368 
   11610    317.65695    6.8981581     55.96575   -139.48553   -351.83685    10890.368 
   11620    300.57826    5.4212379    56.298661    -144.6467   -480.46009    10890.368 
   11630    307.02516    7.8322328    51.716539   -149.46545    224.78444    10890.368 
   11640    309.37808      7.36879    53.316849   -153.53016     576.0474    10890.368 
   11650    304.52134    5.7040416    51.767342   -156.92696   -1029.3259    10890.368 
   11660    297.67692    6.2333787     58.13138   -159.35062    1042.6879    10890.368 
   11670    306.38264    6.6592635    50.919447   -161.14448   -951.40374    10890.368 
   11680    292.85158    5.6278731    56.212636   -162.63647   -745.03285    10890.368 
   11690    283.88665    4.5528425    59.804115   -163.69872    1603.4893    10890.368 
11700        0.98443909534806706141 10.140261713375949171 1 68 -297.04720270125318393
   11700    293.35652     4.543176    53.253054   -164.13232    1155.1466    10890.368 
   11710    292.04735    6.7214717    52.439947   -164.21834   -768.94711    10890.368 
   11720    277.05759    8.3735179    67.557825   -164.16701   -2447.9102    10890.368 
   11730    286.60354    10.111954    61.053633   -163.84002   -1313.6198    10890.368 
   11740     274.3472    7.8308073    65.631846   -163.42746    81.618793    10890.368 
   11750    262.77891    7.6247983    58.928758   -162.59788   -911.56488    10890.368 
   11760    264.72746    6.4318209    58.187603   -160.89217   -965.13033    10890.368 
   11770    260.32014    7.6886613    61.622457   -158.27483   -428.29714    10890.368 
   11780    259.39735     8.183216     61.36565   -154.42853   -695.14485    10890.368 
   11790    283.66696    8.5768125     58.93108   -149.39883    1603.0653    10890.368 
11800        0.98554384968149055801 10.108381540809515897 1 68 -278.89567830177315955
   11800       297.59    10.853934    59.244777   -144.06267    509.45865    10890.368 
   11810    313.29929    8.8418962    62.413545   -140.15413    1999.4026    10890.368 
   11820     340.9065    5.9524505    61.998106   -138.11471    2524.1409    10890.368 
   11830    326.49538    6.7846964    62.015611   -137.90683   -1292.7329    10890.368 
   11840    305.64523    9.3277816    63.457655   -138.33516   -3053.2394    10890.368 
   11850    308.81141     8.837953    60.801186   -138.78563   -2609.1079    10890.368 
   11860    293.78207    6.7996038    67.336318   -139.31437    614.95446    10890.368 
   11870    293.29157    7.7990919    60.686826   -139.61508   -2424.4954    10890.368 
   11880    281.62648    7.2882613    66.869129   -139.64403    267.83708    10890.368 
   11890    300.14652    8.2311022    57.408697   -139.45462    1545.8168    10890.368 
11900        0.98447126131148554595 10.084999772299779508 1 69 -277.50902774355176916
   11900    305.25921    7.2021581    60.132178   -139.20123    4575.4002    10890.368 
   11910    338.47883    6.8844724    51.234097   -139.05741    3541.8613    10890.368 
   11920    307.15744    7.9124005    59.448811   -139.33721    1485.2524    10890.368 
   11930    295.30453    8.2318086    61.762376   -139.65949    12.546599    10890.368 
   11940    294.10166    6.9516916    60.251883   -139.84393   -1283.1725    10890.368 
   11950    298.33835    5.6146827    66.385797   -140.10556   -2100.0283    10890.368 
   11960    308.26613    6.9190675     63.02102   -140.44894   -2212.8287    10890.368 
   11970    311.50876    6.0473544    57.099443   -141.13537   -2754.1806    10890.368 
   11980    313.64038    6.6289952    63.202499     -142.285     2019.054    10890.368 
   11990    308.43534    6.7683917    60.999453   -144.30989    4778.8966    10890.368 
12000        0.98803319556020841041 10.095697052649967418 1 69 -286.84456437244182325
   12000    307.99897    6.2285111    65.145758   -147.29543   -297.81777    10890.368 
   12010    299.13017    7.2864951    58.902226   -151.72201   -194.82231    10890.368 
   12020    283.24957    6.8928802     59.68262   -156.42648   -298.02081    10890.368 
   12030    285.74819    7.0077902    58.645839   -160.74692    2899.9057    10890.368 
   12040    274.76799    5.7138186    59.516767   -163.82969   -992.41724    10890.368 
   12050    293.81745    5.9614899    56.916687   -165.95824   -727.32937    10890.368 
   12060    267.91055    7.1489931    59.630593   -167.37533    1437.1597    10890.368 
   12070    294.78496    9.0868161    53.693081   -168.07693   -217.24913    10890.368 
   12080    277.78302    9.6918418     54.95253   -168.10446   -2620.8474    10890.368 
   12090    316.47469    9.5477857    47.270715   -167.50601   -4030.1259    10890.368 
12100        0.98364639183551239032 10.12822354557079052 1 68 -300.20139980623633846
   12100    294.58266    9.8221044    60.122455   -166.73097    1273.7746    10890.368 
   12110      308.543    6.6685151     52.45979   -165.90446    1262.0286    10890.368 
   12120    308.25093     5.113397    52.111614   -164.95625   -527.54459    10890.368 
   12130    298.53148    6.9722532    53.376074   -163.36272   -3155.3574    10890.368 
   12140    298.27031    4.4863194    49.756665   -160.64956   -711.75009    10890.368 
   12150    277.48712    4.8508361     63.71273   -156.23048   -1259.2798    10890.368 
   12160     304.6341    6.0045774    54.884251   -149.70639     2155.597    10890.368 
   12170    296.45853    10.003033     59.43367   -142.48573    1033.9248    10890.368 
   12180    300.05097     9.674006    61.178274   -136.68692    1156.3283    10890.368 
   12190    302.95441    6.5513257    64.064361   -132.74882    5801.0722    10890.368 
12200        0.98079139940929360719 10.110505624124746404 1 69 -270.26799204088541728
   12200    308.76932    5.6337821     68.44007   -130.36982    3687.0607    10890.368 
   12210    323.97907    6.2882297    61.821808   -128.96753     1297.878    10890.368 
   12220    324.92736    6.2102645    64.687248    -128.3978   -3729.3882    10890.368 
   12230    319.07183    7.9106195    65.291011   -128.53952   -890.71715    10890.368 
   12240    299.13491    8.6352825      73.0257   -129.40231   -492.65571    10890.368 
   12250    281.20719    9.9937743    74.604256   -130.95953   -2488.7379    10890.368 
   12260    300.51341    11.264037    64.522066    -132.5347   -216.00105    10890.368 
   12270    313.71717     8.852565    64.190147    -134.3013    445.24533    10890.368 
   12280    315.22662    6.4667824    65.688168   -138.17084   -741.42203    10890.368 
   12290    307.11951    6.8862602    62.409154   -140.92664   -573.60672    10890.368 
12300        0.98168606064335961481 10.131542719925953122 1 70 -279.96923824546070136
   12300    299.49952    5.4948267    62.559492   -144.27106   -394.85309    10890.368 
   12310    300.75189    5.8682489    58.890399   -147.78986    3106.5442    10890.368 
   12320    282.35612    6.6770332    60.376194   -151.06524   -1521.5842    10890.368 
   12330    291.58121    7.4349553    55.241472   -153.43433    403.85935    10890.368 
   12340     309.6907    7.5117103     53.17391   -155.30021    546.13998    10890.368 
   12350    308.34075    6.0263615    64.124235   -157.15866    2681.9502    10890.368 
   12360     309.4114    6.3020073    60.273247   -159.57902   -1177.0294    10890.368 
   12370    257.34799    7.1972046    63.316823     -160.355   -4768.2852    10890.368 
   12380    279.08911    7.5899276    50.934963    -161.8915    -1574.175    10890.368 
   12390    288.69751     4.675484    54.934108   -162.25567    2111.9213    10890.368 
12400        0.97709129595912591615 10.157738060190306228 1 68 -297.44765204923004376
   12400    299.16357    6.0160628    50.725708   -161.90169    3703.3994    10890.368 
   12410    269.29669     6.940103    60.732443   -161.08659    1274.2273    10890.368 
   12420     284.4956    7.5090507    59.313161   -159.46657    797.76597    10890.368 
   12430    288.86781    6.5674726     53.41635   -156.70425     915.0066    10890.368 
   12440    304.61832    7.6116423    58.588301   -151.80812    262.93523    10890.368 
   12450    302.41212    10.121445     66.33352   -144.60357      -1961.6    10890.368 
   12460    307.57959    10.968067      68.2453   -136.73626   -2600.1103    10890.368 
   12470    329.07502     7.607372    64.690501   -130.64185   -737.45621    10890.368 
   12480    332.73296     5.777285     58.25535   -127.40183   -2053.5826    10890.368 
   12490    322.81963    5.4460972    61.441279   -125.84356   -469.31565    10890.368 
12500        0.96814143578532585455 10.208729143097137637 1 65 -265.514973672675751
   12500      309.777    4.9774987    76.588462   -125.16024    290.87636    10890.368 
   12510    336.04059    6.0288272    64.057171    -125.2605    2790.0594    10890.368 
   12520    341.83139    7.2927408    67.432212    -126.8423    3300.0602    10890.368 
   12530     329.7852    7.2663682    69.771525    -129.7626    1625.6668    10890.368 
   12540    338.49766    6.6771198    60.645533    -133.8085   -2661.0187    10890.368 
   12550    307.44867    6.9229567     62.23707   -138.35951   -2548.9778    11935.902 
   12560    293.02403    9.1236318    59.012292   -142.14459    1038.2453    11935.902 
   12570    287.33759    11.229089    62.130028   -144.76552    2245.0845    11935.902 
   12580    284.78042    8.3009265    62.161634   -146.50622    -783.1094    11935.902 
   12590     309.7754    4.7137704    60.202608   -147.79085   -306.59401    11935.902 
12600        0.95719253753991140332 10.239648893325862034 1 65 -287.04960255725097795
   12600    304.33855    3.8253337    60.064703   -149.15894   -912.60137    11935.902 
   12610    286.10986    4.5153098    63.108323   -150.47379   -965.31443    11935.902 
   12620    299.48908    4.8298275    54.288191   -151.27439   -1476.4402    11935.902 
   12630    311.51167    4.1791289    54.872969   -151.83384     2036.458    11935.902 
   12640     315.5958    4.4961854     56.03039   -152.34719    2164.9299    11935.902 
   12650    295.06291    6.1167281    56.271179    -153.0733   -383.53427    11935.902 
   12660     279.6257    7.1259324    58.899307   -153.84238    -2874.625    11935.902 
   12670     283.1932    7.2749244    59.688557   -154.24103    247.85692    11935.902 
   12680    286.29361    7.6961937    55.638362   -154.11653   -2465.1756    11935.902 
   12690    292.88882    7.5632242    52.570848   -153.15637   -437.20007    11935.902 
12700        0.94667978373796923819 10.269009702348336432 0.99735449735449732689 67 -288.30177218032059727
   12700    302.81629    6.5748922    60.885884   -151.10082    286.65502    11935.902 
   12710    296.61673    5.5014554    64.216297   -148.00665    5447.4747    11935.902 
   12720    313.36506    3.7468171    63.267103   -144.33105    484.06494    11935.902 
   12730    294.18547    2.0323282    67.218049   -140.60691   -1986.6133    11935.902 
   12740    304.75793    2.8679813    65.012921   -137.07993   -2669.9469    11935.902 
   12750    314.36207    4.4564115    64.749239   -133.41568     185.7266    11935.902 
   12760    305.99509    4.7976516    68.232781   -130.02315   -1807.5854    11935.902 
   12770    314.64825    6.7895367    60.194133   -127.13686   -2218.1784    11935.902 
   12780    315.44448    7.3444875     72.03198   -124.74901    -1713.254    11935.902 
   12790    363.52403    6.2731675    58.402576   -123.40418    2262.5656    11935.902 
12800        0.94573732560199808006 10.262886370453475848 0.99206349206349198067 67 -261.6802365914091979
   12800    304.48611    6.5346515    70.323351   -123.72272   -695.06439    11935.902 
   12810    281.83567    6.1384902     73.03588   -124.97853    1771.9821    11935.902 
   12820    276.83228    7.1421488    73.072196   -126.31323    449.75379    11935.902 
   12830     285.0625     7.629719    67.797856   -127.64899    2092.0209    11935.902 
   12840    300.51445    7.5229156    59.199828   -128.93805   -208.29163    11935.902 
   12850    293.69072    6.5732546    67.277278   -130.19678   -545.73843    11935.902 
   12860    331.83393    5.2307183    66.514251   -131.98084   -454.29026    11935.902 
   12870    315.51808     3.337309    61.908446   -135.45493   -707.03572    11935.902 
   12880    296.68759    2.9035621    63.849878    -140.4104   -1308.1252    11935.902 
   12890    304.23545    3.4719819    62.599738   -145.97332   -126.00036    11935.902 
12900        0.95017214185029219564 10.247674097455242048 0.99735449735449732689 64 -283.586734746698653
   12900     291.4455    7.8014952     61.28703    -151.5377   -1576.7571    11935.902 
   12910    296.65539    12.996497    58.836271   -156.35698     322.0062    11935.902 
   12920    282.48113    12.615736    61.840367   -160.18875    1533.3892    11935.902 
   12930    296.03027    8.9114346    60.637341   -163.04699    958.70744    11935.902 
   12940    282.68463    9.0400627    54.900007   -165.01442   -3206.3351    11935.902 
   12950    287.23681      6.90449    57.211932   -166.09505   -4750.9622    11935.902 
   12960    284.29386    7.3532621    54.778153   -166.37372   -2191.9109    11935.902 
   12970    282.65139    5.8723446    58.268519   -166.03015    159.81096    11935.902 
   12980    290.74791    6.3862794    56.143958   -165.12441    1956.3599    11935.902 
   12990    293.73893    6.0841134    60.326665   -163.91298    4008.0794    11935.902 
13000        0.97478141649862815044 10.162916966549282449 1 65 -294.87482232626479117
   13000     291.5967    6.9076915    58.704515   -162.75728    3096.5083    11935.902 
   13010    303.99261    5.7887552     57.37646   -161.47271   -1099.3003    11935.902 
   13020    309.81657    6.3893529    57.703594   -160.12129     1294.661    11935.902 
   13030    309.61101    9.4441619     58.04931   -158.65923    26.909956    11935.902 
   13040    289.14933     12.43884    55.287015   -156.93558   -1988.0655    11935.902 
   13050    313.99691    9.4795955    56.894062   -154.41651   -1373.2496    11935.902 
   13060    306.04015    6.6242011    68.837593    -151.3519    198.64303    11935.902 
   13070    296.04635    5.9659476    70.371985   -148.06106    3189.8459    11935.902 
   13080    282.32515     6.107027    63.544591   -144.54372    171.52884    11935.902 
   13090    301.29848    7.6758384    72.719293   -139.99862    920.14165    11935.902 
13100        0.98619255378930381628 10.120616208659683366 1 66 -280.76211383652696441
   13100    322.40979    9.9797045    65.361086   -134.68368    183.41541    11935.902 
   13110     311.6211    11.270109    68.657278   -129.56619   -3063.0173    11935.902 
   13120    330.34656     12.06299    64.582157   -125.39932     -2550.41    11935.902 
   13130    319.24129     11.80208    71.812097   -122.61129    408.36357    11935.902 
   13140    330.35848    10.358792    67.324011   -121.27224     1079.243    11935.902 
   13150    329.36731    8.0187175    69.758553   -121.25182    3135.0524    11935.902 
   13160     341.0268    8.6064523    54.137926   -122.17076   -778.87055    11935.902 
   13170    329.66831    8.5101892    63.362251   -123.45885    2344.3608    11935.902 
   13180    327.08698    10.750994    57.828718    -125.1285    778.52429    11935.902 
   13190    295.00098    8.6938061    62.604343   -126.91723   -244.18495    11935.902 
13200        0.98473694022076674326 10.081704071096121211 1 68 -254.6750343770993652
   13200    278.81193    7.5076346    72.771741   -128.35005    903.05209    11935.902 
   13210    264.15319    7.4043155    71.909004   -129.30879   -2541.7395    11935.902 
   13220    280.24396    8.0872703    73.161768   -129.60276     1669.673    11935.902 
   13230    319.67489    8.7525744    60.944516   -129.57629    -159.9324    11935.902 
   13240    300.93513     8.031442    71.681598   -129.91046    2139.7986    11935.902 
   13250    317.42879    8.8367494    63.192482   -130.56712    645.09246    11935.902 
   13260    292.23408    10.440601    66.581089   -131.44276   -904.70316    11935.902 
   13270    323.27537     10.02232     66.70565   -132.41883    1918.7795    11935.902 
   13280    308.61526    10.522458     65.63484   -133.86968   -390.63312    11935.902 
   13290    297.90293    9.8973785    68.329469    -135.5495   -5053.3967    11935.902 
13300        0.98401648420628096137 10.097433695896071981 1 64 -264.54814695977017891
   13300     281.9037    10.607903    64.591256   -136.82234   -1481.3198    11935.902 
   13310    286.02626    11.542572    59.389061   -137.72308    -206.9238    11935.902 
   13320    293.81135    13.213542    65.121162   -138.28315    6499.4227    11935.902 
   13330     302.8901    13.624473    58.502367   -138.66418   -726.53078    11935.902 
   13340    330.61146    10.546233    55.713267   -139.11033    302.68641    11935.902 
   13350    321.31509    5.8705236     67.12516   -140.32013   -628.42728    11935.902 
   13360    314.93046    4.8569361    65.707763   -142.79204   -2103.6545    11935.902 
   13370    288.87958     4.378058    72.265657   -146.43411   -4802.6766    11935.902 
   13380    274.42558     4.438966    61.576304    -150.0558   -1173.8568    11935.902 
   13390    277.37691    5.3956811    57.977917   -152.99666   -899.60439    11935.902 
13400        0.97902190099865271655 10.098751054297052221 1 63 -275.52755014609829232
   13400    266.50301    7.7087772    64.191208   -154.77953    1037.3464    11935.902 
   13410    308.56185    7.6777579    51.787291   -155.91764   -40.683967    11935.902 
   13420    284.79518    6.8961553    59.286625     -156.945    3770.7268    11935.902 
   13430    292.19067    6.0548915    59.461093   -157.92424    2277.5633    11935.902 
   13440    284.59702    8.2665466     60.23081   -158.77009     1079.636    11935.902 
   13450    291.56662    4.8087574    57.912512   -159.29712    1982.0427    11935.902 
   13460    267.67198    4.9171614    60.070745    -159.3474   -1864.6056    11935.902 
   13470    259.30026    8.6668331    55.889503   -158.16858   -3147.2265    11935.902 
   13480    261.45288      10.4058    65.114007   -154.78881    1626.4258    11935.902 
   13490    300.43114    8.6012184    65.537458     -148.611    2399.6457    11935.902 
13500        0.97373434689189564128 10.111985990279848124 1 64 -277.58600979555058075
   13500    301.51957    9.0708958    65.485454   -140.97258     2793.759    11935.902 
   13510    326.24077    7.9135733    58.984914   -134.92847   -2618.7879    11935.902 
   13520    305.82298    6.9174485    63.482166   -130.29517   -3023.1001    11935.902 
   13530    353.09168     5.861314    53.447235   -127.39867     -222.803    11935.902 
   13540    302.44392    8.6068714    72.741842   -125.90644   -1822.1341    11935.902 
   13550    315.96436    6.5984983    63.241447   -125.16643   -484.78153    11935.902 
   13560    302.50902     4.532224    65.923817   -124.58578    1072.7975    11935.902 
   13570    313.63869    2.3341125    70.290895   -123.96437   -1644.4082    11935.902 
   13580    316.10255    2.9323685    67.469429    -123.6997    992.32332    11935.902 
   13590    285.95076    5.1910562      72.4267   -124.13188   -3558.1038    11935.902 
13600        0.97356299098188603391 10.123732140697207171 0.99735449735449732689 67 -270.01751691507320174
   13600    319.80794    6.8564294    62.741747   -125.11794    -554.6145    11935.902 
   13610    335.89376    5.6369343    60.028566    -127.0613   -578.38389    11935.902 
   13620    320.16498    7.7690371    57.431201   -130.09819    2224.7282    11935.902 
   13630    294.35256    7.1220448    68.315966   -133.63203    911.39891    11935.902 
   13640    302.72449    5.2711905    62.892282   -137.41028    427.66645    11935.902 
   13650    286.90422    2.5850884    61.099429   -141.12794    345.90342    11935.902 
   13660    300.62969    3.7229344    61.181287   -144.29624    2906.4199    11935.902 
   13670    290.50882    7.5543504    60.994852   -146.92589   -3011.4806    11935.902 
   13680    282.03437    8.2819287    57.243073   -149.03592   -1519.2944    11935.902 
   13690    262.91149     8.412397    70.749721   -150.64705   -1337.8565    11935.902 
13700        0.97842085966814529296 10.119259955164842779 1 70 -285.71712176737628397
   13700    296.24346    9.2878444    58.907618   -151.49421    5875.7918    11935.902 
   13710    277.68379    9.0797254    61.056992    -151.9326    3226.4909    11935.902 
   13720    306.11051     7.177778    49.295386   -151.76476   -373.39623    11935.902 
   13730    288.32701    6.8618515    64.934603   -151.09434   -2972.1995    11935.902 
   13740    302.58984    6.6203008    63.484221   -150.41164   -2119.9817    11935.902 
   13750    300.26459    6.9862962    58.953317   -149.87855   -3033.0186    11935.902 
   13760    272.91498     9.400217    71.517929   -149.41926    1144.3704    11935.902 
   13770    279.41292    9.1417836    63.008337   -148.20182   -485.59629    11935.902 
   13780    292.84113    11.452373    65.246239   -145.09465    3229.7408    11935.902 
   13790    339.15205     8.848046    55.256529   -139.42592    1318.4094    11935.902 
13800        0.98411464341998000638 10.0953005726873144 1 69 -281.9680867013111083
   13800    330.28924    10.016794    62.307473   -132.31961    2039.4798    11935.902 
   13810    324.62378    9.3179152    63.630957   -125.59817    789.31326    11935.902 
   13820    337.61847    7.6853665    58.221985   -120.52306   -2344.2459    11935.902 
   13830    318.21093    7.4918608    73.301066   -117.71523   -777.74655    11935.902 
   13840    333.90073    8.5242918    60.183493   -116.52721   -2360.6058    11935.902 
   13850    314.39239    6.4771123    68.300471   -116.27648   -2045.7781    11935.902 
   13860    339.81737    3.5683949    67.263746   -116.80285    1507.8765    11935.902 
   13870    328.56649    3.4623641    64.073394   -118.88447    604.45755    11935.902 
   13880    306.31856    7.5633491    68.581501   -122.13302    4091.5136    11935.902 
   13890    293.99274    11.421478    68.436363   -125.82118    548.24811    11935.902 
13900        0.98590154872976121236 10.132653579808289734 1 69 -271.61056088220186666
   13900    314.21776    10.362193    56.092623    -129.2438   -1805.3485    11935.902 
   13910    320.41062    8.3978774    59.556614   -132.60231    -232.8258    11935.902 
   13920    336.47359     6.509795    55.428373   -136.38142   -4033.5795    11935.902 
   13930    324.76892    6.0460398    56.140107   -140.08239   -1025.2845    11935.902 
   13940    316.21597    4.9343412     59.42496   -143.39412   -586.14877    11935.902 
   13950    292.71013    5.6149351    62.570324    -145.6999    771.28138    11935.902 
   13960    307.89945    7.7179144    58.388977   -147.32491    1370.5162    11935.902 
   13970     297.9547    9.9983044    65.137089   -148.69353    446.67189    11935.902 
   13980    322.59401    10.803784    55.975243   -149.82469    456.81555    11935.902 
   13990    319.35043    9.9008575    61.575523   -151.19339   -52.347129    11935.902 
14000        0.99061435019700927462 10.10358471906558897 1 69 -300.5863083262543114
   14000    325.52971    8.9940884    58.244662   -153.09429   -1201.4939    11935.902 
   14010    301.34004    7.6484693    62.739778   -155.43564   -1948.6194    11935.902 
   14020    267.14208    9.7989337    64.640403   -157.42854   -2406.4766    11935.902 
   14030     263.1127     9.638162    59.193244   -158.50275    1320.5801    11935.902 
   14040    276.04753    11.183885    57.355852   -158.63366    2791.3584    11935.902 
   14050    297.83023    10.889969    55.490565   -158.16345    3946.3885    11935.902 
   14060    289.66811    10.433936     63.15774    -157.4681    2589.7429    11935.902 
   14070    304.37128    11.154677    55.098196   -156.48962    56.141198    11935.902 
   14080    286.95814    11.116553    65.530899   -155.37949   -658.02937    11935.902 
   14090    301.20088    10.323394     53.33894   -154.04213    434.38541    11935.902 
14100        0.99058620756751702974 10.105755734691690861 1 72 -277.34681396193786895
   14100    276.53625    9.4725162    68.264854    -152.0529   -1328.0742    11935.902 
   14110    313.81358    9.7557411    54.378731   -149.03486   -1379.9862    11935.902 
   14120    318.40377    9.1442172    57.302314   -145.30215   -2380.4349    11935.902 
   14130    315.33405    9.3702157    57.920178   -141.11038    1997.5812    11935.902 
   14140    322.90341    7.2801637    52.784243   -136.11897     749.2565    11935.902 
   14150    331.53662    5.5734856    61.734944   -130.30494    278.54388    11935.902 
   14160     333.0255    3.1761862    66.134182   -124.83423    1592.7278    11935.902 
   14170    328.73022    2.8032561    64.506578   -121.17601    3505.0944    11935.902 
   14180    341.55669    3.9417714    62.715714   -118.98738   -1494.1468    11935.902 
   14190    311.84437    5.1880713    73.994492   -118.09695   -3009.7907    11935.902 
14200        0.97433772975436894193 10.170541079709050081 0.99470899470899465378 69 -265.53800054800126418
   14200    325.49234    10.489073    61.329603   -118.06291    -3067.562    11935.902 
   14210    293.65985    10.975282    74.589469   -118.55915     1476.638    11935.902 
   14220    309.28623    9.1673054    69.546897   -118.98163   -191.61628    11935.902 
   14230    336.62933    6.9851581    63.739637   -119.94311    1851.4161    11935.902 
   14240    326.31114    5.2075796    67.176932   -121.53354   -455.60616    11935.902 
   14250    332.20947    5.5885647    65.013034   -123.60003    551.23466    11935.902 
   14260    322.65186    6.3664567    62.339037   -125.67046     -1913.42    11935.902 
   14270    322.28504    6.2217938    59.443104   -127.50336     561.7301    11935.902 
   14280    306.42599     6.553768    73.196414   -129.30276   -1043.4918    11935.902 
   14290    317.42916    6.6731143    59.618045   -131.37704   -351.57473    11935.902 
14300        0.96828570310501049789 10.172852395980918061 0.99470899470899465378 73 -278.57929674475275306
   14300    318.73881     5.942618    68.270371   -134.16412    771.41346    11935.902 
   14310     312.1434    6.2075333    57.704965   -137.15551     2297.064    11935.902 
   14320    310.37895    6.7678011    62.334227    -139.8379   -508.83244    11935.902 
   14330    298.63627    6.6876349    62.442104   -142.19715   -505.75923    11935.902 
   14340    290.39047    6.7418257    61.662084    -144.5513   -203.28299    11935.902 
   14350    290.10587    4.7862963    64.331263   -146.77518     1602.132    11935.902 
   14360    292.01478    5.2970777    56.486311   -148.53597   -1597.7099    11935.902 
   14370    287.83942    5.6315236    53.303478   -149.69788     1994.394    11935.902 
   14380    289.97333    6.2648752    59.869119   -150.11954     -1318.65    11935.902 
   14390    292.55656    7.5831786    61.406865   -149.97237   -743.80169    11935.902 
14400        0.96353254440594682251 10.212266464786589282 1 70 -289.1582111904078829
   14400    307.63695    7.6656754    58.504539    -149.7731   -3025.1867    11935.902 
   14410    283.59929    5.9976201    67.245613   -149.74735     3129.908    11935.902 
   14420    301.45318    5.2307651    56.925002   -149.59156   -13.681045    11935.902 
   14430    287.19444    5.3042106    58.635672   -149.03933    395.74164    11935.902 
   14440    289.30409    5.6213903     60.39298    -147.6766   -1220.5802    11935.902 
   14450    318.57224    4.4651756    61.036552   -145.38384   -1626.2452    11935.902 
   14460    306.21871    5.1339091    63.877681   -142.73833   -3702.5201    11935.902 
   14470     345.2172    6.7003625     56.60282   -139.74886    739.01598    11935.902 
   14480    317.96643    9.2925933    59.280795   -137.15161   -586.34985    11935.902 
   14490     322.0409    10.764767    59.432956   -135.16929    2212.5151    11935.902 
14500        0.97086114860042405095 10.186619295983627254 1 69 -275.00875519840070638
   14500    312.62415    10.522031    66.408546   -133.36403      1711.14    11935.902 
   14510    314.62971    10.077158    61.968608   -131.60148    2202.1669    11935.902 
   14520    316.61002    6.8225478    69.877976   -129.92475    210.31834    11935.902 
   14530    295.83116    7.2868809    66.300464   -128.68163   -2314.9807    11935.902 
   14540    347.27254    10.003044    56.028436   -127.70464   -3261.6064    11935.902 
   14550    332.93537    11.096777    63.939843   -128.02356    2348.1574    11935.902 
   14560    323.00108    10.276666    62.696013   -129.85341    793.65587    11935.902 
   14570    311.82424     9.975899    61.069049    -132.8997    1183.1511    11935.902 
   14580    323.38127    8.5616434      53.6929    -136.6818    -2101.474    11935.902 
   14590    309.26863    8.2782899    61.472785    -141.0821    3557.1684    11935.902 
14600        0.97278187066876420364 10.183906028877551364 1 72 -278.7941236393720601
   14600    293.36897    6.7862678    70.272709   -145.87359   -735.93582    11935.902 
   14610    292.32343    9.0840013    56.728839   -150.35338   -497.85045    11935.902 
   14620    312.73709    10.826862    57.568785   -154.33814   -2192.3969    11935.902 
   14630    309.19647    11.502243    51.982483   -157.73355    240.90013    11935.902 
   14640    302.28835    9.4704182    64.088371   -160.60558    1989.5465    11935.902 
   14650    296.32295    9.2555516    58.214443   -162.67377    2948.3233    11935.902 
   14660    277.94032    6.5532662    59.983805   -164.05049    2865.4632    11935.902 
   14670    285.25482    6.4983836    56.601644   -164.90156    -2219.948    11935.902 
   14680    261.34013    4.5936874    62.173121   -165.20884   -2436.6964    11935.902 
   14690    294.54621    6.7276567    46.599429   -164.70763    1737.6329    11935.902 
14700        0.97350030834579126537 10.180988122886306613 1 64 -286.05902635600745043
   14700    270.65909    8.0856991    61.594931   -163.42796    1189.5124    11935.902 
   14710    288.21353    6.5176939    53.317672   -161.33124   -2223.9023    11935.902 
   14720    282.19725    6.2498247    53.301276   -158.47855    -4442.766    11935.902 
   14730    275.73166    6.5870969    63.270107   -155.16738    324.51354    11935.902 
   14740    303.77329    6.8916444    54.539611   -151.46915    724.00832    11935.902 
   14750    302.75357    7.6383069    60.236171   -148.08947   -106.97055    11935.902 
   14760    322.32278    7.5237272    52.571982   -145.50137    325.52997    11935.902 
   14770    304.54513      5.63202    61.408193   -143.67007   -835.54586    11935.902 
   14780    317.65518    3.2319997     60.61417   -142.47586    549.48005    11935.902 
   14790    286.37761    4.7976044    66.818606   -141.85897   -1715.0608    11935.902 
14800        0.96734583207391211523 10.190337741810601813 1 68 -278.24598301080555984
   14800    302.36561    5.7186488    64.561693   -141.24923   -105.32435    11935.902 
   14810    284.49383    4.2284052    67.170424   -140.56505    117.38001    11935.902 
   14820    296.99171    4.6945173    60.188547   -139.51074   -223.05379    11935.902 
   14830    299.45527    5.2023119    67.542401   -138.24242    2264.1578    11935.902 
   14840    317.24178    3.9278225    65.882633   -137.42208    1602.1598    11935.902 
   14850    307.58975    4.3629544     60.53314   -137.22347    2107.0086    11935.902 
   14860    317.81384    5.4690828    61.797823   -137.26869    206.35981    11935.902 
   14870    318.15378    5.2249856    61.155712   -137.54463    1470.5681    11935.902 
   14880    311.90289    5.4561486    58.788379   -138.38151    1006.2334    11935.902 
   14890     300.8857    5.2565839    59.335528   -139.46619   -3589.1864    11935.902 
14900        0.96809346383387329116 10.202627727369053545 0.99735449735449732689 69 -279.61526609638332275
   14900    306.67539      2.61558    58.665074   -140.66582   -2254.0864    11935.902 
   14910    308.84153     2.575024    58.645463   -142.04276   -2017.8214    11935.902 
   14920    333.62114    2.9924585    52.557949    -143.9719    2410.7939    11935.902 
   14930    308.59983    3.7634394    61.103353   -147.09202    2478.4205    11935.902 
   14940    321.75681    4.5333306    54.826455    -151.8808   -1131.1303    11935.902 
   14950    286.70072    7.2092141    56.489791   -158.08921   -1081.9806    11935.902 
   14960    284.88274    8.7090912    54.587493   -163.99244   -2655.1453    11935.902 
   14970    276.21545    9.0559289    57.920492   -168.42272    2129.4467    11935.902 
   14980    287.41008    9.2824231    48.765754   -171.08806     296.7662    11935.902 
   14990    284.53785    8.5661885    55.315062   -172.52573   -456.12908    11935.902 
15000        0.96820813993799892394 10.191933348195362896 1 67 -303.96579123444018933
   15000    288.94858    6.4270228    54.401415   -173.04807   -1001.5618    11935.902 
   15010    277.84278    6.1097205     50.58713   -172.93477     2261.406    11935.902 
   15020    266.79267    4.2770493    59.238591   -172.15824    2523.9942    11935.902 
   15030    292.81747    4.6441387    51.740552   -170.42396   -1373.4657    11935.902 
   15040     304.1348    5.7805689    49.512736   -167.88032   -1538.1374    11935.902 
   15050    309.54591    6.8353286    50.280256    -165.0042   -666.59017    11935.902 
   15060    309.10955    8.3014622    52.511036   -162.01063    1808.3311    11935.902 
   15070    300.19176     7.030254    56.430711   -159.15668   -253.32278    11935.902 
   15080    301.15066    7.0102285    52.623121   -156.51926   -986.71745    11935.902 
   15090    292.13132    7.6506932    58.408519   -153.98424    69.784409    11935.902 
15100        0.9686959447962477654 10.19141654439307132 1 65 -287.11429295968002862
   15100    299.26398    7.8110283    54.530617   -151.52283    1845.7123    11935.902 
   15110    306.82047    5.6121086    64.430051   -149.34222    586.88066    11935.902 
   15120    307.59832    6.0846071     57.33288   -147.74501   -1930.7956    11935.902 
   15130    325.31315    7.0777298     55.64848   -146.62909   -3900.4499    11935.902 
   15140     294.4043    6.3600976    66.652359   -145.97621    1285.9405    11935.902 
   15150    316.73791     6.111399    57.079253   -145.57345    1037.7244    11935.902 
   15160    286.45772     6.401969    65.344214    -145.4987     2723.511    11935.902 
   15170    313.84471    4.9831474    55.475465   -145.43298    -2850.051    11935.902 
   15180    303.81033    5.6508153    55.151607   -145.60174   -1537.8568    11935.902 
   15190    277.84315    6.0015528    66.966225   -145.86485   -296.59938    11935.902 
15200        0.97473467186104711946 10.179859899644855048 1 67 -278.05446860353390548
   15200     292.2131    8.8768762    59.515279   -145.65764    218.80336    11935.902 
   15210    296.86731    9.2193324    62.803724   -144.92119    33.559078    11935.902 
   15220    326.23672    7.0780874    58.577003   -144.19629    1651.4563    11935.902 
   15230    297.76693    7.4257631    59.504196   -143.86595      -271.88    11935.902 
   15240    306.19092    5.3744845     53.91286    -143.3541   -726.63206    11935.902 
   15250    294.07867    4.4296303    65.693679   -142.60005   -1284.6193    11935.902 
   15260    310.04571    3.6999298    58.484077   -141.98502     618.9122    11935.902 
   15270    305.97542    3.2597361    67.168843    -141.5842    1112.8814    11935.902 
   15280    310.49658    6.9095954     53.18278   -141.08432   -967.40579    11935.902 
   15290    282.15518    9.9858073    63.278467   -140.33847   -133.64757    11935.902 
15300        0.97826367343104692065 10.159803641420991127 1 65 -277.12108653441327988
   15300    305.20663    9.8950734    58.600637   -138.83711    1278.6055    11935.902 
   15310    298.78193    7.7011019    58.796695   -136.82203    2472.5667    11935.902 
   15320    314.87503    6.5482341    51.864952   -134.43233      1667.21    11935.902 
   15330    319.68367    4.0509166    58.223923   -131.71165   -1881.0857    11935.902 
   15340    332.78232    2.1840298    60.054633   -129.18233    -191.0272    11935.902 
   15350    334.90455    3.5581519    61.903246    -127.5778    206.77842    11935.902 
   15360    328.06127    5.2858786    63.621811   -127.11795    1389.4359    11935.902 
   15370    332.53225    7.6201972    56.440368   -127.65997   -1290.4268    11935.902 
   15380    310.48188    8.0112351     62.29741   -129.05303   -3232.8585    11935.902 
   15390    320.47933    6.7206902     64.60505   -131.30223    -1521.052    11935.902 
15400        0.98051467237230172103 10.168149760085665179 1 69 -277.1419757090117173
   15400    314.99331    6.8643248    61.796279   -134.42382    1017.1776    11935.902 
   15410     319.8922    8.5837348     54.27857   -138.42961    1458.0191    11935.902 
   15420    295.39908    9.4587669    60.002961   -142.05656   -175.75788    11935.902 
   15430    311.09542    10.653066    50.874516    -145.2089   -1488.7529    11935.902 
   15440    306.75755    10.926912    64.749923   -148.38743     2098.775    11935.902 
   15450    301.16326    9.4833868    56.667997   -151.85208    1405.0959    11935.902 
   15460    295.91474    8.6553912    58.729497   -154.90362   -1234.9168    11935.902 
   15470     314.2922    7.4518102    53.749596   -157.55549   -3265.4852    11935.902 
   15480    303.83095    7.1199962    56.929811   -160.30302    971.98478    11935.902 
   15490    299.24074      7.66682    60.873882   -162.88866    99.106266    11935.902 
15500        0.98564403917607323891 10.146727110595339383 1 66 -293.64390815661687384
   15500    284.16293    8.2351829    52.474416   -164.89448    1366.1831    11935.902 
   15510    283.73554    8.0809915    55.132684    -166.0864   -598.63306    11935.902 
   15520    267.26381    6.7255836    57.552482   -166.53314    843.30253    11935.902 
   15530    269.39157    8.7616809    54.769757   -166.06407   -801.51086    11935.902 
   15540    296.68747    10.218644    48.099215   -164.73827     580.8832    11935.902 
   15550    301.99738    9.6746077    55.993597   -163.15129   -671.94795    11935.902 
   15560    295.47026    10.301939    53.988033   -161.77379      2290.61    11935.902 
   15570    276.68885    9.3304648    64.241183   -160.55552    -193.8078    11935.902 
   15580    275.53782    9.5829418    62.961454   -159.05382    173.67652    11935.902 
   15590    294.20527    10.158109    54.764137   -157.35739   -3283.8084    11935.902 
15600        0.98623856338543569588 10.122927975472421736 1 67 -281.39675717253385301
   15600    277.16644    8.3524375    66.608928   -155.81732    405.44359    11935.902 
   15610    287.54623    6.2660383    57.136905   -154.21466   -1516.2073    11935.902 
   15620    265.76168    5.3117934    63.301483   -152.52641    3310.7002    11935.902 
   15630     279.4788    8.1693434    71.331388   -150.78527   -240.64324    11935.902 
   15640    282.42814    11.073801    64.144698   -149.21793     228.2832    11935.902 
   15650    306.55018    10.656175    61.543615   -148.12448   -262.58504    11935.902 
   15660    291.12206    11.202611    60.791514   -147.53397    48.901716    11935.902 
   15670    282.68839     9.262549    67.434171   -147.15026   -1672.2468    11935.902 
   15680    288.86995    9.2384361    66.108938   -146.79439    889.50609    11935.902 
   15690    295.70952    7.7862748    67.485858   -146.66142   -2652.0877    11935.902 
15700        0.98606629670095691242 10.10965274110902179 1 69 -294.09918116136373101
   15700    325.36766    10.133511    50.662157   -146.68058    252.50024    11935.902 
   15710    303.49011    10.905339    65.602813   -147.17457    219.33447    11935.902 
   15720    306.43794    9.4325215    60.127779   -147.94271    1448.4415    11935.902 
   15730    278.31057    7.7630657    68.988154   -148.78007   -2050.4782    11935.902 
   15740    300.11684    6.1710196    57.592249   -149.67661     2890.257    11935.902 
   15750    264.99278    7.6035341    66.724608   -150.41094    1839.8485    11935.902 
   15760    304.41055    6.4013155    56.334397    -150.7766     1907.386    11935.902 
   15770    279.95585    7.8176957    57.494764   -151.02262   -1520.8178    11935.902 
   15780    259.57046    12.149498    61.338679   -150.88554    576.05633    11935.902 
   15790    271.10312    12.670833    67.505304   -149.71561    -1543.609    11935.902 
15800        0.98813865004260825753 10.112114748808728848 1 68 -276.0428028989213658
   15800    284.59625    11.544033    61.678303   -147.09704    1570.4498    11935.902 
   15810    311.68232    8.2105528    56.610983   -143.01309   -216.49897    11935.902 
   15820    310.86145    6.6441882    67.839906    -137.2853    2682.3377    11935.902 
   15830    333.68194    6.9591264    57.364711   -131.39733   -1068.6714    11935.902 
   15840    306.93572    5.5648594    70.695576   -126.61683   -1157.3722    11935.902 
   15850    310.84475    5.9795531    71.456959   -123.39875   -393.80115    11935.902 
   15860    331.11398    9.8710556    65.628749   -121.05641    351.77215    11935.902 
   15870    338.11827    11.717111    67.288854   -119.89113    -1520.968    11935.902 
   15880    362.62555    9.6185126    61.632956   -120.20554   -1111.0843    11935.902 
   15890    334.81542    10.116229    69.910071   -122.26953   -257.49288    11935.902 
15900        0.98708420196397883561 10.11097601217382902 1 69 -277.85691734392185026
   15900    335.52472    7.1080644    57.808388   -125.83633     2448.584    11935.902 
   15910    284.98757    7.2288585    66.413691   -129.68964   -3598.1493    11935.902 
   15920    313.26133    5.3884924    56.818964   -132.96809    2854.1925    11935.902 
   15930    294.61739    7.2840521    66.472315   -135.58743    1367.9026    11935.902 
   15940    300.52844    6.7109715    62.153424   -137.51801    2212.4314    11935.902 
   15950    314.97724    6.2256963    58.699159   -139.01816   -2177.4181    11935.902 
   15960    291.49621    5.8532304    64.515659   -140.35578   -1987.9235    11935.902 
   15970    284.84853    6.4017007    63.599101   -141.30554   -639.35827    11935.902 
   15980    283.39852    5.9768379    59.141033   -141.69664   -3047.2068    11935.902 
   15990    301.36581    6.1997554    55.700214    -141.5742    442.48395    11935.902 
16000        0.98306603527097868866 10.121271356157592436 1 64 -279.29260280384096404
   16000    304.78241    6.8492041    59.085726   -141.20084    1742.7093    11935.902 
   16010    317.10069     8.248123     51.52159   -140.82912    1740.1684    11935.902 
   16020    291.98751    6.4997092    65.519444   -140.67598    1831.2271    11935.902 
   16030    295.50046    7.3606613    64.341494   -140.70601   -2088.0287    11935.902 
   16040    297.96619    7.5784874    65.721359   -140.95484   -1369.6527    11935.902 
   16050    304.03858    6.9469757    60.117428   -141.64839   -578.90297    11935.902 
   16060    306.87831    8.0109427    59.904492   -142.70692    2692.7501    11935.902 
   16070    306.60584    7.8486164    61.660957    -143.8875    2376.2677    11935.902 
   16080     302.9882     8.041348    60.445747   -145.53286   -3401.8412    11935.902 
   16090    272.90623    6.7533499     66.97682   -147.48894   -36.636526    11935.902 
16100        0.98629567026423237142 10.1149342528202002 1 64 -285.85140406438455329
   16100    300.17367    6.1435136    60.406524   -149.84778    2266.4455    11935.902 
   16110    298.58308    6.2138701    59.439064   -153.12575   -516.64805    11935.902 
   16120     281.4687    7.0482376    56.408337   -157.34932   -3230.6831    11935.902 
   16130    278.69802    6.3629301    53.411579   -162.13241   -3461.5677    11935.902 
   16140    287.58652    6.5159286    62.394552   -167.39303    1785.2936    11935.902 
   16150    286.89994    7.7835678    52.200563   -172.84681    379.55782    11935.902 
   16160     277.7329    7.8874064      54.1219   -177.32218   -792.20376    11935.902 
   16170     266.5545    7.2413812    57.116254   -180.39209    1713.6861    11935.902 
   16180    274.38263     6.192967    50.745596   -181.98885    1902.3515    11935.902 
   16190    254.87829    7.3688926    56.910973   -182.20834    2736.9357    11935.902 
16200        0.9842512087950238131 10.109799296371964061 1 65 -309.09325615045270297
   16200     282.1758    7.2776299    50.858759   -181.24416    657.40872    11935.902 
   16210    266.54207    7.7676291    60.393514   -179.56339   -1521.1621    11935.902 
   16220    268.15199    6.8549886    57.841529    -177.5491   -3695.0613    11935.902 
   16230    255.38093    8.2764384    57.422641   -175.26291   -1458.5849    11935.902 
   16240    274.74266    9.5468438    57.190389   -172.33784   -1450.7235    11935.902 
   16250     305.4341    10.352175    48.590976    -169.0882   -183.50178    11935.902 
   16260    277.68432    9.4084877    57.499121   -166.08871    1893.6236    11935.902 
   16270    260.76459    8.0524854    62.373665   -163.48906     3451.822    11935.902 
   16280    284.54832    8.5088514    61.536624   -160.68186    2009.0593    11935.902 
   16290    311.54812     6.865226    61.360544   -158.06377   -1609.2878    11935.902 
16300        0.98002334813302727223 10.129297944225514883 1 64 -295.09660919276075219
   16300     306.3329    6.2448751    55.824894   -156.30234   -5407.6063    11935.902 
   16310    290.29742    6.1619613    61.543458   -155.01608   -2033.3903    11935.902 
   16320    295.59343    9.0377286    61.338047   -153.89477    3376.5031    11935.902 
   16330    279.35496    9.1506114    66.546507   -152.93682    1954.4514    11935.902 
   16340    275.61563     7.373147    62.110174   -151.90719    2096.9454    11935.902 
   16350    276.80067     7.015535    66.409423   -150.61698    895.45567    11935.902 
   16360    315.34082    8.1426071    52.842467   -148.84669    2529.6546    11935.902 
   16370    306.02264    6.7519638    64.754963   -147.09728   -375.25453    11935.902 
   16380    319.00825    6.7573515    56.388243   -145.47631   -3046.3276    11935.902 
   16390    281.12283    6.5247578    61.101652   -143.90546   -2012.3331    11935.902 
16400        0.98036511464697939644 10.13028405391241904 1 67 -282.89017205079983341
   16400    311.22851    5.1209872    56.177467   -141.87778   -3593.7396    11935.902 
   16410    314.25002    4.0260707    74.409898   -139.94653    3251.3218    11935.902 
   16420    319.75085    3.3194202     63.49602   -138.79349     931.4516    11935.902 
   16430    294.03511    4.2594223    68.713302   -138.83894     713.3905    11935.902 
   16440    301.43098     5.264253    61.954643   -139.29556    1140.2876    11935.902 
   16450    331.12504    7.4926698    48.996132   -140.26509    1206.1671    11935.902 
   16460    302.94837    6.3123101    60.779967   -142.02081    992.11232    11935.902 
   16470    272.15707    6.9758677     64.55451   -144.47641   -2694.4936    11935.902 
   16480    272.00169    6.2616401    57.459411   -146.89819   -1576.8395    11935.902 
   16490    303.54328    4.9375213    57.192746   -149.20257     578.3225    11935.902 
16500        0.98004021329384527483 10.135735192802384219 1 67 -289.30896146297175164
   16500    303.34728    3.4660226    52.045842   -151.86743    2077.2763    11935.902 
   16510    285.72875    3.3464065    55.402268   -154.34063   -798.70949    11935.902 
   16520    295.76507    3.5237022    55.044645   -156.50216    531.20548    11935.902 
   16530    301.34999     4.247007    54.970515   -158.42678   -708.60406    11935.902 
   16540    287.06993    5.5119877    60.983716   -160.52666    3093.0271    11935.902 
   16550    277.34623    6.3397968    53.987327   -162.52187    1425.9301    11935.902 
   16560    274.40097    3.6998304    59.234314   -164.20513    1240.4947    11935.902 
   16570    292.47157    3.1320392    51.810993   -165.28422    -3221.824    11935.902 
   16580     274.4713    3.9924369    57.539277   -165.71567   -4237.0873    11935.902 
   16590    294.94843    6.1201824    51.173693    -165.5262   -3074.1313    11935.902 
16600        0.9718971455109083335 10.196115980996266259 1 68 -289.03458610758491432
   16600    274.29225    7.6340587    61.090082    -164.7574   -334.30856    11935.902 
   16610    287.02651    8.9516127    56.741385   -163.31772    1206.9943    11935.902 
   16620     264.7654    7.9400645    58.809241   -161.03549    546.23625    11935.902 
   16630    296.85525    9.3350248    52.763316   -157.21479    3219.8338    11935.902 
   16640    295.83953    7.9482446      61.9775   -152.07378    2067.8735    11935.902 
   16650    315.69031    7.3224865    54.423431   -147.04006    697.58663    11935.902 
   16660    318.51699    5.9284787    59.981785   -142.66686   -3129.2484    11935.902 
   16670    321.62754    6.9136573    56.365689   -139.38177   -2431.8414    11935.902 
   16680    318.96076    5.0243097    66.633272   -137.27818   -2620.9776    11935.902 
   16690    310.66943    4.7091372    65.944537   -136.50716    26.454816    11935.902 
16700        0.96817370089724830162 10.195696687868750274 0.99735449735449732689 72 -270.64290003509159988
   16700    296.00603    5.5583899     63.01778   -136.52756    428.58607    11935.902 
   16710    291.47756    6.3064672    61.971679   -136.61164    2152.8367    11935.902 
   16720     287.6861    6.7408734    61.987688   -136.23832    2861.6377    11935.902 
   16730     287.5011    6.6271336    69.191357   -135.61001    3052.5031    11935.902 
   16740    287.40597     6.780112    70.415913   -134.84228   -2382.3619    11935.902 
   16750    310.18743       5.8923    53.461848   -134.03868   -3143.3777    11935.902 
   16760    319.54855    4.1398856    63.658734   -133.51137   -1868.1534    11935.902 
   16770    315.48248    5.0418219    64.500886   -133.53053    1475.9529    11935.902 
   16780    285.27414    7.0141239     59.14099   -133.90404   -1276.4582    11935.902 
   16790    312.82918    8.4203197    54.933126   -134.28309    1688.0108    11935.902 
16800        0.96451860032510727816 10.202740312489952501 0.99735449735449732689 72 -266.27890911208476155
   16800    290.00484    7.7086965    68.101392   -134.88261   -230.04473    11935.902 
   16810    349.01071    8.1843661    50.355851   -136.16986    1880.2575    11935.902 
   16820    317.88633     7.276754    60.167322   -139.84554    48.214704    11935.902 
   16830    322.69555    8.5190042    58.553441   -145.96792   -596.04351    11935.902 
   16840    305.67367    10.077293    58.489797   -153.04566      -1318.1    11935.902 
   16850    275.48639    9.4453288    57.345553   -159.24646   -872.41145    11935.902 
   16860    265.80327    7.4870489    66.538711   -163.34009    1837.0199    11935.902 
   16870    263.93338    8.7038755     58.15691   -165.89075     1815.352    11935.902 
   16880     282.1518    10.819261    56.178158   -167.06902    111.12831    11935.902 
   16890    289.61851    10.339463    51.019353   -167.49712    996.93851    11935.902 
16900        0.96374258641099630474 10.199668065034177999 1 72 -291.21877452016047982
   16900    273.71812    9.3360493    58.319688   -167.20171    503.07778    11935.902 
   16910     287.4534    8.0430773    60.506899   -166.13957    2101.1669    11935.902 
   16920    285.69066    9.0909419    57.206707   -164.77544   -670.50584    11935.902 
   16930    283.61133    9.6239138    60.726647   -163.01242   -2271.4136    11935.902 
   16940    298.14703    9.8131239    56.286354   -160.84715   -687.81903    11935.902 
   16950    303.29841    9.3092345    54.356126   -158.01154   -1096.1849    11935.902 
   16960    294.41883    8.8066792    56.472808    -154.9438   -1404.2889    11935.902 
   16970    303.34153    8.6942819    57.481918   -151.53273   -1067.5495    11935.902 
   16980    313.71441    7.1184716    59.735406   -148.12681   -405.15883    11935.902 
   16990    330.84043    5.8973242    53.923032   -145.61773    1656.9594    11935.902 
17000        0.96375704615638024819 10.206818054971737553 1 73 -288.83387971946217476
   17000    319.54291      5.45302    62.913052   -144.05438    1829.1943    11935.902 
   17010    300.82876    7.0855912    67.503037   -143.17923   -337.63433    11935.902 
   17020    297.73638     8.224872    62.702617   -142.54614    538.35631    11935.902 
   17030     289.6849    7.8521339    64.654834   -141.86805   -750.16338    11935.902 
   17040    317.79764    6.8215569     52.21902   -141.06483   -1859.9911    11935.902 
   17050    339.92416    6.4224769    53.445264   -140.26669    1019.4401    11935.902 
   17060    332.94607    4.9598438    58.950829    -140.0936    2657.4226    11935.902 
   17070    295.57696    5.0639996    61.857181   -141.01682    747.44833    11935.902 
   17080    299.87936    5.0947686    66.273227   -142.73613   -4145.8688    11935.902 
   17090    278.08972    5.4945367    66.548144   -145.52656   -306.73364    11935.902 
17100        0.96918915477457290297 10.196777085166536025 1 71 -286.4447004116249218
   17100    301.93258    4.0818169    56.245837   -149.64414   -1056.6439    11935.902 
   17110    265.59302    5.3554729    61.708553   -153.93603   -1055.7938    11935.902 
   17120      299.941    4.9862805    46.242022   -157.72917   -1441.9505    11935.902 
   17130    278.45756    6.4459149    54.548329   -160.98491    1031.4719    11935.902 
   17140    259.09454    8.2465135    57.979081   -163.47224    1483.3044    11935.902 
   17150    262.19766    8.9431535    56.051359   -164.85474    4618.2964    11935.902 
   17160    285.12444    6.7906659    56.261093   -165.36429    1742.3094    11935.902 
   17170    302.21598    5.8826069    50.853618   -165.51279    -1928.069    11935.902 
   17180    289.58901    6.1248919    47.073373   -165.52224   -3763.6128    11935.902 
   17190    290.49177    6.8483022    51.222658   -165.09876   -1745.7531    11935.902 
17200        0.9821783446558753905 10.138148964540413033 1 68 -292.33539552889965307
   17200    282.97527    6.9477715    60.862464   -164.12407    -725.5697    11935.902 
   17210    283.55066    8.8683375    55.014451   -162.92577    2104.8799    11935.902 
   17220    264.41641    9.7343037    60.412879   -161.15026    1564.2621    11935.902 
   17230    307.62957    8.3034238     52.24246   -157.96122     1827.036    11935.902 
   17240      309.945    5.2021539    55.739897    -153.8628   -258.26133    11935.902 
   17250    319.34592    4.3308989     57.61849   -149.39662   -1790.0608    11935.902 
   17260    333.53827    4.2266425    52.788664    -145.1345   -3761.7852    11935.902 
   17270    333.70912    6.4626971    54.412847   -141.52992   -240.18878    11935.902 
   17280    325.13103       12.023    61.938581   -139.10372    3604.2393    11935.902 
   17290    329.28433    13.846484    56.675589   -137.57694     3516.329    11935.902 
17300        0.98781533749637340236 10.110490706308610243 1 67 -280.69491909731686974
   17300    317.55105    10.683274    57.833523   -136.81789   -1267.9035    11935.902 
   17310    303.03779    11.634517     58.98917   -136.37976   -2854.2123    11935.902 
   17320    290.75879    9.6600823    65.897545   -135.77321   -1117.0998    11935.902 
   17330    293.32312     10.50016     64.43216    -135.1771    3391.9769    11935.902 
   17340    301.17128    8.4532293    55.382007   -134.48723    437.19779    11935.902 
   17350    304.71253    6.5895476    63.294581   -133.67255       1121.3    11935.902 
   17360    316.09975    5.3812647     55.25192   -133.06315    85.580053    11935.902 
   17370    300.39855    7.2799312    65.581722   -132.85296    441.80513    11935.902 
   17380    325.29347    8.9849544    64.073311    -133.0684   -1591.3319    11935.902 
   17390    309.05321    10.276347    71.030535   -134.30732   -3507.7573    11935.902 
17400        0.98073520453612839098 10.145700247947489814 0.99735449735449732689 66 -275.75871138293229023
   17400    306.18526    10.566486    61.881175   -137.03133   -151.81465    11935.902 
   17410     310.4734    11.461282    57.593253   -140.83173    1485.6089    11935.902 
   17420    307.27615     11.70023     53.80951   -145.29835    3538.7024    11935.902 
   17430    290.86767    10.189575    52.405697   -149.38305    136.85636    11935.902 
   17440    269.58959    8.3614662    65.469416   -152.88454   -2174.0492    11935.902 
   17450    281.87257    9.1832473     56.68107   -155.36462    -1326.567    11935.902 
   17460     262.0902    8.9832242    56.469589   -156.69085    149.96933    11935.902 
   17470    328.51026    10.747388    44.668702    -157.2015   -1612.9867    11935.902 
   17480    308.83225     12.08892    49.370159   -158.04052   -547.96326    11935.902 
   17490    308.31793    12.825939    46.330759   -159.23255    2244.7887    11935.902 
17500        0.97926249249489605297 10.150450886211997314 1 70 -286.57487696038958802
   17500    278.99729    9.7398689    54.355099   -160.16591    3552.0825    11935.902 
   17510    271.54319    7.1822359    58.888805   -160.56444   -174.36948    11935.902 
   17520     295.9841    5.5411187    52.142726   -160.35003   -3315.7729    11935.902 
   17530    304.27443    6.5797687    51.849781   -159.61823   -2847.0735    11935.902 
   17540    299.59392     4.762165    55.673502   -158.46589    2303.4756    11935.902 
   17550     294.7851     5.391595    51.526638   -156.79802   -887.63242    11935.902 
   17560    276.02592    6.8701683     52.91183   -154.33772   -13.435961    11935.902 
   17570    284.61975    7.3606491    55.402884   -150.64431   -418.29698    11935.902 
   17580    267.89007    7.7613909    61.520805   -145.64859    2822.9989    11935.902 
   17590    279.30097    7.4719958    55.953981   -139.87637    2491.8569    11935.902 
17600        0.97342852167832294441 10.172750289730620565 0.99735449735449732689 68 -271.961964949168987
   17600    304.24924    7.4079261     57.28264   -134.11177   -407.98968    11935.902 
   17610    324.35674    5.4982591    56.407445   -129.54196   -5206.0044    11935.902 
   17620    327.03577    3.5821391    59.436782    -126.8625   -2449.6796    11935.902 
   17630    300.27101    3.9445903    67.987974   -125.74964    931.46375    11935.902 
   17640    320.69897     4.010005    56.385471   -125.74791    3540.0041    11935.902 
   17650    316.98887    5.7958884    60.491436   -126.78307   -485.43871    11935.902 
   17660    302.25085    7.4398662    57.601176    -128.3645   -263.16753    11935.902 
   17670    297.70711    6.7056461    63.029814   -129.85778   -1472.7614    11935.902 
   17680    287.79025    5.5993791    67.401866   -131.50703   -1052.3926    11935.902 
   17690    292.07931    8.9774926    58.384859   -133.19348   -1569.4998    11935.902 
17700        0.97633821566440237572 10.166774980352606406 1 68 -275.6860362578238437
   17700    310.81304    8.9607399    57.465131   -134.86189    1404.3312    11935.902 
   17710    311.57304    6.9295615    57.343166   -137.06597   -373.50127    11935.902 
   17720    309.50149    6.6840268    60.233707   -139.81709    885.39506    11935.902 
   17730    293.39384    7.7369943    60.894187   -142.79732    1167.2877    11935.902 
   17740    264.44504     8.261478    65.837631   -145.50654   -739.19618    11935.902 
   17750    276.58184     6.708341    61.209269   -147.59862    -1576.261    11935.902 
   17760    286.71331     6.167972    56.508243   -149.54139    -127.6291    11935.902 
   17770    286.18151    5.5160415     63.33099   -151.67394    1574.1803    11935.902 
   17780    275.64152     6.158085    55.361175    -154.0143    1053.7643    11935.902 
   17790    265.05822    5.6964151    58.336193   -156.27655   -713.45311    11935.902 
17800        0.9795207712115542309 10.144441676803523933 1 68 -275.4937559730861949
   17800    259.12083    4.9440303     56.98718   -158.09048    -376.2435    11935.902 
   17810    287.99422      3.62755    52.733865   -159.46647    1334.6282    11935.902 
   17820    266.01366    5.2607211    55.431452   -160.73302    942.22206    11935.902 
   17830    269.65044    5.5228708    55.036023   -161.64655   -1731.3762    11935.902 
   17840    275.78779    4.7306097    53.250803   -162.11687   -2735.3517    11935.902 
   17850    269.15896    5.1824348    52.658477   -161.94852   -3503.0478    11935.902 
   17860    289.14654    5.1857923    53.506469   -160.78912    1529.2759    11935.902 
   17870    284.63449    6.2339925    54.511466   -158.87718    44.500463    11935.902 
   17880    290.53913    6.4909001    58.637788   -156.16158    1902.6117    11935.902 
   17890    294.47648    6.3066621    59.572788   -152.58159    202.54876    11935.902 
17900        0.98438750783521766774 10.123980848587130765 1 71 -281.68534825161486879
   17900    292.89168     8.449885    54.858363   -148.98107   -932.62243    11935.902 
   17910    305.46818    7.3602515    60.314564   -145.25055   -683.07501    11935.902 
   17920     309.0583    4.5505737    57.623676   -141.79534   -1017.6749    11935.902 
   17930    310.21732     5.620219    65.942313   -138.89642   -1053.4457    11935.902 
   17940    323.87441    7.3375068    56.923356   -136.97402    1524.9636    11935.902 
   17950    301.82084    11.182265    61.150071    -135.7695    1431.0318    11935.902 
   17960    305.24906    12.126459    64.996314   -134.97897    4317.2401    11935.902 
   17970    304.93169    12.294014    62.199201   -134.86579   -866.28653    11935.902 
   17980    325.40984    8.1987956    63.673325   -135.73132   -266.66308    11935.902 
   17990    313.15864    7.4110294     58.31687   -137.96785    71.464597    11935.902 
18000        0.98909402554214453929 10.092530375327765313 1 71 -268.65263899316897778
   18000    281.70639    6.3412832     67.14497   -141.01623    -664.4279    11935.902 
   18010    291.76442    8.8072466    61.165931   -144.07524   -702.78867    11935.902 
   18020    298.13226    9.1956629    56.442872   -147.18644   -990.57263    11935.902 
   18030    299.60476     9.243983    60.163684   -150.64572   -1203.0316    11935.902 
   18040     289.3611    11.973596    53.467075   -154.03821   -113.93933    11935.902 
   18050    290.11876    17.127602    49.005676    -156.8299    2478.1002    11935.902 
   18060    287.98451    15.481629     55.97397   -158.99324    3737.3902    11935.902 
   18070    287.08201    15.122069    56.816362   -160.58102    1031.8206    11935.902 
   18080    296.35284     10.62255    51.839723   -161.82183   -687.24393    11935.902 
   18090    289.98553     10.74805    52.149028   -162.77953   -1158.4607    11935.902 
18100        0.98823108834330419814 10.092902563744221567 1 69 -296.50134183904407337
   18100    293.89127    11.217513    49.131796   -163.34417    655.91927    11935.902 
   18110    288.20851    11.680201    56.670559   -163.75771   -354.68861    11935.902 
   18120    288.24131    12.425654    48.919262   -163.94478   -1440.0044    11935.902 
   18130    272.80579    11.278903    58.006386   -163.53413    1765.7918    11935.902 
   18140    286.76802    13.182116    50.942889   -161.98645    2868.8436    11935.902 
   18150     310.6144    10.687744     48.73801    -158.8683     131.8096    11935.902 
   18160    311.75069    9.3450293    56.430272   -154.72803    -548.5125    11935.902 
   18170    334.01491    7.3335264    58.173369   -150.39356   -2999.8669    11935.902 
   18180    313.43403    5.6266643    62.569923   -147.12792   -1399.3931    11935.902 
   18190    323.42044    6.0642372    54.012074   -144.77031   -2649.1119    11935.902 
18200        0.98293394706700620844 10.139164074646883407 1 67 -287.94181759385020314
   18200    320.58593    5.9140094    57.586299   -142.68974    2230.2617    11935.902 
   18210    330.59026    6.6724676    63.799129     -141.269    2400.9043    11935.902 
   18220    317.84463     8.858067    53.207831   -140.95938    64.358844    11935.902 
   18230    314.52666    6.5089106    58.774474   -141.43137    735.77513    11935.902 
   18240    300.31225    6.9002585    58.502638   -142.40345    405.73007    11935.902 
   18250    309.91194    9.9368653    57.547437    -143.8802    2024.4437    11935.902 
   18260    280.64062    10.764606    62.466504   -145.46251   -218.20512    11935.902 
   18270    304.85251    10.600955     60.74147   -146.79787   -133.80319    11935.902 
   18280    306.27072    9.5441131    58.877699   -148.24183    363.02457    11935.902 
   18290    322.43278    7.5416256    49.820915   -151.08302   -1819.4586    11935.902 
18300        0.97505758917408402731 10.189907139178298934 1 67 -293.68549060198796496
   18300    309.64361    6.2790512    51.404869    -153.3912   -1508.4866    11935.902 
   18310    308.04261    4.5209724    53.612623    -156.4916   -598.63138    11935.902 
   18320    290.31806    4.7108364    61.228508    -160.1226    2214.5485    11935.902 
   18330    264.36588    5.0495093    60.921013   -163.88151   -1059.7024    11935.902 
   18340    270.07368    5.2156058    54.874696   -167.16279   -3067.9492    11935.902 
   18350      280.785    4.2625872    53.570147   -169.58451   -1809.3587    11935.902 
   18360    295.21886     5.138929    44.509161   -171.46858   -769.86807    11935.902 
   18370    273.37467     5.239329    46.751839   -172.70916    2349.4905    11935.902 
   18380     247.3918    4.8069967    56.169996   -172.98659    1951.7583    11935.902 
   18390    268.98696     4.369463    56.102751   -170.89023    927.09284    11935.902 
18400        0.97343382430930114335 10.175601222223333409 1 67 -288.46423714572989638
   18400     265.2022    5.1742599    52.422211   -168.30559   -1071.0065    11935.902 
   18410    279.16817    5.7445884    54.252424   -164.11394   -1538.3452    11935.902 
   18420    289.51347    6.0892018     59.34074   -157.94028    2191.0325    11935.902 
   18430    315.25673    7.3824148    56.175247   -151.21427    3053.9769    11935.902 
   18440    321.65807    6.9628792    51.736275   -146.16448   -719.23216    11935.902 
   18450    330.22062    6.3430734    59.504023   -143.48403   -1399.7141    11935.902 
   18460       325.01    4.7534574    55.207568   -142.54601   -2896.2474    11935.902 
   18470     300.8208    3.7383027    58.529479   -142.68334   -1986.8698    11935.902 
   18480     294.2734    5.2929985    63.649105   -143.04536    164.79998    11935.902 
   18490    282.92254    7.9035093    61.577819   -143.46683    2634.4585    11935.902 
18500        0.9704622953406309982 10.190020294070386342 0.99470899470899465378 68 -272.73984578810228641
   18500    285.04213    7.8051799    59.504281   -143.59207    1859.0758    11935.902 
   18510    309.43769    10.310252    58.655512   -143.58739     809.9984    11935.902 
   18520    320.37498    10.321739    62.992682   -144.13083   -3655.4134    11935.902 
   18530    308.77588    11.692662    59.585899   -145.61774   -1949.3348    11935.902 
   18540    292.66752    8.2593247    62.754589   -147.72142   -2082.0675    11935.902 
   18550    292.46935    7.8556762    62.772199   -150.17388    876.66895    11935.902 
   18560     301.4238    8.3113893    57.052338   -152.80734   -709.75431    11935.902 
   18570    287.97302    11.237129    58.061461   -155.58292    2623.6462    11935.902 
   18580    286.53877    11.092035    56.807237   -158.03594    1113.0739    11935.902 
   18590     292.6413    8.4036137    56.180128   -160.25575    1018.4377    11935.902 
18600        0.97172567016669952888 10.153419309701375184 0.99470899470899465378 70 -297.4574870742437156
   18600    297.65941    6.8493506    57.325077   -162.59303    2444.1737    11935.902 
   18610     289.4074    7.0371839    50.022282   -164.88348   -15.499823    11935.902 
   18620    277.83183    7.6159674    51.110145   -166.82379    538.27665    11935.902 
   18630    272.52526    6.8711146    56.145468   -167.75533   -1612.3618    11935.902 
   18640    265.55882    7.7707468     54.40884   -167.54889   -3403.2194    11935.902 
   18650    279.67119    8.1941788     57.45585   -166.04391   -2322.4338    11935.902 
   18660    286.78215    8.2874198    55.666252   -162.93361    1852.9615    11935.902 
   18670    278.33657    9.1827859    59.280126   -158.52016    1939.6652    11935.902 
   18680    304.36077    10.645699    48.369566   -152.43607    2037.2892    11935.902 
   18690    287.46397     11.30018    61.137305   -145.72784   -2239.9652    11935.902 
18700        0.97003423003466981989 10.143717951556171286 0.99470899470899465378 71 -277.81676736720174858
   18700    304.41458    7.7742258    58.042694   -139.89166   -586.64076    11935.902 
   18710    312.85981    6.5594039    64.280759    -135.7548   -1105.9345    11935.902 
   18720    318.22186    5.3260445    65.504073   -133.75054    3534.0255    11935.902 
   18730    330.86225    3.8247591    58.777341   -133.07233   -264.82576    11935.902 
   18740    291.01325    5.1378285    65.139304   -133.24614   -1091.7198    11935.902 
   18750    310.61246    7.0836746    64.468256   -133.46852    627.82237    11935.902 
   18760    306.32576    9.8595858    63.750041   -134.12826   -1326.2657    11935.902 
   18770    319.57827    9.9306671    58.968056   -135.37496    1635.5997    11935.902 
   18780    310.35284    7.4926584     60.40351   -137.18742    3117.3285    11935.902 
   18790     329.4875    8.1970525    51.261324   -139.53081    1592.9108    11935.902 
18800        0.96583966250185415703 10.151778164494910328 0.99206349206349198067 66 -282.45037679930601371
   18800    308.28669    4.8838073    61.043846   -142.77088    669.09305    11935.902 
   18810    278.41955    3.9853828    59.970786   -146.21634   -4244.7668    11935.902 
   18820      280.156    5.6106008    54.476853   -149.05014   -616.63372    11935.902 
   18830    289.53956    4.8941157    51.100261   -150.98279    82.053419    11935.902 
   18840    302.45749    4.9861022    49.350821   -152.30612   -2473.0174    11935.902 
   18850    283.26551    6.4849634    61.327314   -153.09676     28.23792    11935.902 
   18860    279.48311    5.2087968    56.516627   -153.47932   -3004.8053    11935.902 
   18870    299.06742    2.5607109    64.958238   -153.50588    2397.8475    11935.902 
   18880    312.06934    2.9537214    58.958324   -153.86137    592.19107    11935.902 
   18890    301.82109    4.2551875    54.346646   -154.77666    1217.4365    11935.902 
18900        0.965983340069522467 10.168656599584705802 0.99735449735449732689 64 -289.56787150502339045
   18900    294.27983    4.9294876    55.251719   -156.23465   -715.87833    11935.902 
   18910    299.39498    6.2870036    50.969927   -158.33516    543.68017    11935.902 
   18920    297.20529    6.7162127    56.667387   -161.18731    927.44954    11935.902 
   18930    305.48252    8.3110531    48.042531   -164.80923    3060.9883    11935.902 
   18940    287.43553    7.3081464    55.324984   -168.73107   -2223.1946    11935.902 
   18950    268.24923    5.2496928     56.22959   -172.35775    2212.3769    11935.902 
   18960    259.88169     4.643799     55.26941    -175.0831   -4426.9717    11935.902 
   18970    265.89238     5.950696    54.186103   -176.79904    1814.8524    11935.902 
   18980    267.41037    8.4109253    52.002979   -177.58262    489.98431    11935.902 
   18990    263.69042     11.36713    55.742739   -177.35016    2730.8967    11935.902 
19000        0.96407089151614011602 10.216939916574421687 1 70 -303.14247209235514902
   19000    280.24127    12.298295    50.564448   -176.16988   -1648.9173    11935.902 
   19010    265.60568    11.300622     53.43926   -174.18652    -1727.517    11935.902 
   19020    282.04085    7.6275018    50.085155   -170.99407   -1615.5939    11935.902 
   19030    283.59648    6.1507682    52.812319   -166.69996     617.3623    11935.902 
   19040    319.30527    4.6501104    47.256939   -161.60791   -651.69734    11935.902 
   19050    292.90812    3.1236664    63.128222   -157.07131    2011.7461    11935.902 
   19060    290.95916    4.3235741    61.959432   -153.39092    2823.0675    11935.902 
   19070     262.9791    3.7735349    71.078511   -150.44631     462.8116    11935.902 
   19080    295.72515    3.1762911    58.327734   -147.99294   -2411.4509    11935.902 
   19090    291.48842    4.9173104    63.642548   -146.11872   -4673.0162    11935.902 
19100        0.96004857025002054982 10.234365149796136762 1 67 -280.40807393342043952
   19100    299.35493    6.6167828    61.289793    -144.7754    586.09911    11935.902 
   19110    280.32059    8.1644299    69.637898   -143.68522   -316.57022    11935.902 
   19120    300.41164    8.8522251    62.017197   -142.53928    1467.2897    11935.902 
   19130    305.51924    8.7352383    60.237442    -141.6469   -3433.6125    11935.902 
   19140    328.26751    4.9851849    57.459552   -141.33756   -241.92729    11935.902 
   19150    305.57789    4.6437069    60.412991   -141.61235    1062.0505    11935.902 
   19160    290.98327    4.8585619    60.190966   -142.10227    1170.6934    11935.902 
   19170    267.69979    5.6421882    69.927779   -142.33835    720.32437    11935.902 
   19180    313.21924    4.3173133    60.436272   -142.30627   -898.29614    11935.902 
   19190    284.42519    8.3332725     67.81172   -142.63173    2072.9777    11935.902 
19200        0.95653365847133764444 10.220760770195152389 0.99735449735449732689 69 -279.52103026919144213
   19200    300.82605    10.776805    63.335984   -143.22182    1475.3481    11935.902 
   19210    303.12587    10.642102    59.242125   -144.06052    -1899.597    11935.902 
   19220    305.94071    9.4800071    51.681313   -145.27058   -4976.5932    11935.902 
   19230    294.26104    9.2881711     58.15348   -146.62624   -3539.5527    11935.902 
   19240    300.79592    8.4572066    61.299306   -148.39776    1083.1554    11935.902 
   19250    308.95146    6.7657362    59.348981   -150.85232    3049.4039    11935.902 
   19260    267.94779    4.7301155    64.317003    -153.9716    1456.7825    11935.902 
   19270    265.68764    5.0941128    62.870635   -156.78951    1252.3638    11935.902 
   19280    268.46858    5.9128411    59.994195   -158.97627    683.64594    11935.902 
   19290    288.80646    6.3886474     58.36151   -160.75641    979.69505    11935.902 
19300        0.96768311937731643635 10.210500383889334231 1 67 -289.00214854954350585
   19300    279.56844    6.4076067    67.135836    -162.3344    -3403.696    11935.902 
   19310    308.83111    4.8314978    45.121716   -164.05797   -4504.6108    11935.902 
   19320    288.19057    6.1458791    53.336196   -165.81942   -1241.2815    11935.902 
   19330    286.89134     6.774683    56.200902   -167.05583    3396.3843    11935.902 
   19340    256.84604    6.1914209    59.187138   -167.68415    3667.7084    11935.902 
   19350    306.59482    5.9937523     52.80976   -167.56061     3311.606    11935.902 
   19360    289.70111    5.1301756    62.260532   -167.15123   -1022.4387    11935.902 
   19370     317.1964    6.0010184    53.082741   -166.49064   -1453.0267    11935.902 
   19380    298.55786    4.9759279    53.506135   -165.73474   -1515.2905    11935.902 
   19390    276.14996    4.8711949    66.609246   -165.00923   -250.63803    11935.902 
19400        0.97816077154684410999 10.171035621794864312 1 68 -287.63809951566418022
   19400     273.9219    5.2629368    58.310765   -163.52871    1927.6922    11935.902 
   19410    269.82159    5.6145662    60.427479   -160.89615   -387.91221    11935.902 
   19420    329.95395    4.8412511    46.837046   -156.63028   -253.93095    11935.902 
   19430    299.64449    3.2115164    57.274319   -151.82397   -2241.3132    11935.902 
   19440     283.0437    4.6442861     57.20887   -147.35929   -216.85835    11935.902 
   19450    295.37645    5.7459655    63.111626   -142.90382   -2170.9942    11935.902 
   19460    308.66491    5.2051413    58.977011   -138.95752   -303.09592    11935.902 
   19470    310.51172    8.2398656    61.765274   -136.11221   -244.52777    11935.902 
   19480    307.62872    12.884506    58.477532   -133.97821     2085.315    11935.902 
   19490    325.31215    15.891119    50.679212   -132.07312    1724.1377    11935.902 
19500        0.98041802812916389875 10.133907095606826232 1 68 -271.31129832877411445
   19500    310.22874    10.601548    66.511916   -130.75189    1418.4091    11935.902 
   19510    314.26926     7.413998    65.692144   -130.24404   -3683.7172    11935.902 
   19520    320.06668    6.7865398    68.357552   -130.88588   -3861.5419    11935.902 
   19530    341.49742    5.4269399    64.006523     -132.622    541.60452    11935.902 
   19540    342.44392    4.5463021    54.545067   -135.66508    4106.4532    11935.902 
   19550    319.47154    5.1728492    58.433959   -139.72323    1363.7303    11935.902 
   19560    281.94674    7.7945538    53.234003   -143.44382   -1340.5736    11935.902 
   19570     277.1391    8.3865514    59.676919   -146.10354    828.43837    11935.902 
   19580    282.69667    8.0593505    62.494794   -147.71941    2745.4071    11935.902 
   19590    304.78664     7.110087    52.167793   -148.64578   -1475.4817    11935.902 
19600        0.98225449239468443086 10.112085850164804768 1 68 -272.48807594957435185
   19600    272.07489    6.5182303    68.634349   -149.21553   -1477.3913    11935.902 
   19610    318.33895    6.2665801    55.412521   -149.44003   -1849.5468    11935.902 
   19620    300.03336    4.4289354    59.671034   -149.74057      3899.87    11935.902 
   19630    304.50868    4.3678495    52.175978   -149.88662    2346.9606    11935.902 
   19640    278.83168    6.1344061    57.711196   -149.58818   -2514.5206    11935.902 
   19650    259.38146    6.3031302    62.054172   -148.70418   -467.93035    11935.902 
   19660    262.36347    6.2260262    62.863346   -147.02822    2386.4729    11935.902 
   19670    267.15781     5.258368    67.960583   -144.55847    3287.8511    11935.902 
   19680     298.6864    3.0319894    65.952559   -142.02979   -3082.7293    11935.902 
   19690    297.55659    2.7834944    63.979052   -140.45546    -2474.022    11935.902 
19700        0.98731345805520542847 10.086172405631852911 0.99470899470899465378 70 -282.1913453956497051
   19700    314.65811    4.1709447    55.113718   -139.62507   -86.502132    11935.902 
   19710    301.69996    6.3626142    62.055432   -139.12278    2549.0007    11935.902 
   19720    307.90926    10.137296    59.863372   -138.61182    389.19434    11935.902 
   19730    284.10927    12.693817    65.005343   -138.35891   -3351.7338    11935.902 
   19740    290.60709     12.70133    66.096436   -138.25013    820.16872    11935.902 
   19750    330.70699    9.2420715    56.962057   -138.44157    691.79017    11935.902 
   19760    335.39276    10.316411    59.552227   -139.40913    1653.4672    11935.902 
   19770    335.90663    12.816273    54.120097   -141.48516   -1569.4306    11935.902 
   19780     315.7431    16.270243    61.553241   -144.42461    511.50632    11935.902 
   19790    291.82279    13.403515    72.379988   -147.60105    1773.7877    11935.902 
19800        0.99193758460357017714 10.069258503030567908 0.99735449735449732689 67 -291.86911279140764464
   19800    311.49468    14.053423    56.109664   -150.73613   -504.48195    11935.902 
   19810    295.62378    14.546765    62.871759   -153.64215    414.61149    11935.902 
   19820     306.4346    13.506308    55.221235   -155.90829   -2375.0497    11935.902 
   19830    288.12519     12.80463    55.738657   -157.32178     -1885.08    11935.902 
   19840    302.01618     10.28601    58.859717    -158.0704   -664.33117    11935.902 
   19850    282.42485    11.685679     60.39877   -158.50547   -668.56086    11935.902 
   19860    293.42473    10.391795    60.061349   -158.72249    202.97145    11935.902 
   19870    294.62692     10.34604     55.21727   -158.67917    1207.0862    11935.902 
   19880     304.7028     9.373194    50.187836   -158.26747    2046.6593    11935.902 
   19890    288.84182    8.9065017    55.018355   -157.55665   -1217.1946    11935.902 
19900        0.99179617894039340253 10.073958862132048608 1 69 -287.41218779472586675
   19900    289.04355    11.246798    61.413519   -156.45143   -208.66025    11935.902 
   19910    280.25393    8.3361247    70.364526   -155.29292    2605.0721    11935.902 
   19920    291.98516    8.9948102    56.545353   -154.29728      1826.13    11935.902 
   19930    302.73083    7.1679731    61.345679   -153.15371    885.59523    11935.902 
   19940    304.77681    7.0904405    59.441724   -151.75702   -564.73183    11935.902 
   19950    322.15906    5.7375764    47.527688   -150.28545   -352.06976    11935.902 
   19960    316.09307    5.0963033    66.185155   -149.25955   -439.80098    11935.902 
   19970    313.31183    3.5684544     62.22204   -148.87812   -1231.3834    11935.902 
   19980    311.41209    5.3418006    52.281064   -148.94904    578.51151    11935.902 
   19990    282.20725     5.249177     67.38598   -149.37715   -291.22934    11935.902 
20000        0.98829366270599328104 10.089179269412692719 1 73 -282.6194644888238372
   20000    292.97627    6.5719778    57.906303   -149.87686    445.55168    11935.902 
   20010    292.83795    8.2234676    57.847585    -150.0399   -233.20598    11935.902 
   20020     283.8828     7.304236    58.022457   -149.38479   -1240.9965    11935.902 
   20030    282.78411    6.7463294    60.389831   -147.13688    1367.2436    11935.902 
   20040    280.40832    7.2065347    68.582987   -142.52996   -1542.8709    11935.902 
   20050    301.56074    8.7965602    64.335135    -136.2542   -329.39934    11935.902 
   20060    336.14152    8.2100769    61.342241   -129.77283    518.59273    11935.902 
   20070    307.46523    7.3302027    69.176975   -124.96343    3158.3485    11935.902 
   20080    335.78669    7.4163517    61.407082   -121.68281    2717.2283    11935.902 
   20090    308.13768    10.262175    75.092176   -119.73729    863.91693    11935.902 
20100        0.98074452064264172613 10.111990726081685921 1 71 -273.99881103889299538
   20100     341.6283    11.693896    69.192233   -119.21279   -956.20514    11935.902 
   20110    337.29089    10.657813    67.896112   -120.55068   -1482.4825    11935.902 
   20120     337.0442    10.050038    65.199079   -123.71239   -3090.4099    11935.902 
   20130    312.43496    8.9600535     68.69691   -127.91255    1429.0558    11935.902 
   20140    283.33907    10.397048    73.717363   -132.07424   -305.21367    11935.902 
   20150    290.56154    7.6255248    63.804256   -135.47766    2612.9663    11935.902 
   20160    297.40772    6.8038241    62.291486   -138.06883     1314.469    11935.902 
   20170    307.46209    7.0101472    67.631956   -140.38128    136.16276    11935.902 
   20180     319.6719     7.387335    58.735572   -142.67188   -3263.5744    11935.902 
   20190    310.79544    5.2392668    63.659841   -145.27635   -2396.7139    11935.902 
20200        0.98194626674805007838 10.147579184115778972 0.99735449735449732689 69 -278.58945008627711104
   20200    289.05922    4.4031381    62.940177    -147.6216   -919.83704    11935.902 
   20210    300.41199    7.0666832    62.990629   -149.44878    605.69457    11935.902 
   20220    286.38435    6.1655429    62.913941   -151.01966   -3112.2119    11935.902 
   20230    294.20206    5.5950625    57.536369   -152.16067    2504.9793    11935.902 
   20240    272.01935    5.5118139    68.134518   -152.92879   -2806.5284    11935.902 
   20250    279.51024      7.76456    60.643753   -153.21838    268.17749    11935.902 
   20260    299.64404    8.0233493    63.543672   -153.03185   -523.23541    11935.902 
   20270     306.0797    6.6090827    67.413307   -153.10388    3246.4405    11935.902 
   20280    309.94921    3.9573127     53.98377   -153.62862    2508.4811    11935.902 
   20290    287.28835    5.2170113    61.047463   -154.22295   -252.98075    11935.902 
20300        0.98970371240999277518 10.11800596618176229 1 69 -293.18082539187116708
   20300    306.08186    5.6444483    57.778868    -154.5003   -2211.5429    11935.902 
   20310     298.9016    5.0703397    58.220933   -154.89246   -1757.3427    11935.902 
   20320    267.84516    8.6452464    64.122216   -155.56844   -2619.8053    11935.902 
   20330    305.22234     8.644161    56.765262   -156.05446   -2002.4122    11935.902 
   20340    272.86873    6.4008788    63.303433   -156.76939    -798.8401    11935.902 
   20350    281.46141    5.7724308     63.37612   -157.32232    2951.9892    11935.902 
   20360    267.50481    9.5329247    67.900718   -157.40821    4065.3729    11935.902 
   20370    293.67179    9.3355044    57.960364   -156.72982    3317.4662    11935.902 
   20380    297.96231    9.0075989    58.499862   -155.22409    399.73763    11935.902 
   20390    292.96836    9.8264431    58.542341   -153.19261   -1020.7596    11935.902 
20400        0.99081332994876170073 10.085838109086839864 1 68 -281.65443579605340574
   20400    289.16502    10.741816    65.339809   -150.63865   -1383.2581    11935.902 
   20410    310.11106    7.4592524    63.006283   -147.95449   -574.00378    11935.902 
   20420      315.449    5.9633359    69.816695     -145.576   -2494.5595    11935.902 
   20430    336.06355    6.3764271    52.682005   -143.90458     1421.786    11935.902 
   20440    312.07964    7.1528331    64.723175   -143.16497    1073.1242    11935.902 
   20450    317.22394    7.2069622    64.139038    -142.9128    1769.8197    11935.902 
   20460     311.1426     8.282977     65.93607   -143.37057   -4765.3622    11935.902 
   20470    324.27255    10.252633    59.692131   -144.57669   -478.82792    11935.902 
   20480    304.92584    5.8196508    67.522163   -146.67571    2113.4065    11935.902 
   20490    281.60374    5.5234522    62.287024    -148.8505    814.58009    11935.902 
20500        0.99092113191322162002 10.067639411775838099 1 68 -272.13370725061224675
   20500    267.48631    9.9100729    60.911385   -150.94017   -1275.5066    11935.902 
   20510    259.96127    10.741232    70.720343   -152.03398   -1480.7303    11935.902 
   20520    314.66798    11.582797    55.795569   -152.46328    2387.0782    11935.902 
   20530    307.04849    11.404866    59.237094    -152.9758     2400.651    11935.902 
   20540    327.82797    13.080069    53.775662   -153.96387    1931.2486    11935.902 
   20550    301.33155    11.048928     61.01294   -155.93312   -634.44823    11935.902 
   20560    301.63366    7.5461469    53.767813   -158.51056   -1407.0081    11935.902 
   20570    275.60281    5.5786455    60.902425    -161.4453   -607.03235    11935.902 
   20580    292.72647    6.2167641    52.546541   -164.15509   -587.86414    11935.902 
   20590    279.37702    8.1383391    62.340545   -167.07143    1200.2283    11935.902 
20600        0.98939897601607618149 10.099641302255848885 1 66 -289.6397186687033809
   20600    264.65878    8.7154447    62.580059   -169.72729    1150.2317    11935.902 
   20610    275.41413    8.8837749    49.662123   -171.62821    1068.5283    11935.902 
   20620    285.02004    7.2590343    53.791983   -172.84124    2715.3262    11935.902 
   20630    271.54623    5.5656217    54.122789   -173.32077    -1258.352    11935.902 
   20640    264.58469     5.183538    57.205022   -172.89787   -3208.4797    11935.902 
   20650    259.41673    5.1120014    57.577726   -171.18189   -1453.8732    11935.902 
   20660    289.23048    3.4548514     59.01985   -167.49938    537.85639    11935.902 
   20670    295.08728    4.7814031    55.792661   -162.20346    3105.7829    11935.902 
   20680    293.86133    6.5359659    60.537285    -156.4012    659.61824    11935.902 
   20690    318.13901    6.5016439     61.01533    -151.0021   -339.77961    11935.902 
20700        0.98442808364895928452 10.14956696259180724 1 66 -289.27694966474763305
   20700    313.88667    7.1935809    61.744835    -147.0602   -1952.5773    11935.902 
   20710    310.57682    8.1946518     64.70061   -144.73774   -2071.1252    11935.902 
   20720    292.00353    8.1085798    64.142187   -143.27246   -442.48522    11935.902 
   20730    296.82048     6.763316    64.953472   -142.06913    410.48297    11935.902 
   20740    324.03164    5.9344069    60.536048   -141.25429     146.1216    11935.902 
   20750     310.4914    7.9368184    61.443176   -141.29631   -889.91432    11935.902 
   20760    310.91532     11.14697     61.31354   -141.92796    1445.3303    11935.902 
   20770    312.76311    9.4915567    62.821979   -143.10301     3405.458    11935.902 
   20780    303.96619    9.5833735    64.277698   -144.92133    1099.6764    11935.902 
   20790    316.90169    8.5849845    61.355589    -147.0824   -2483.5949    11935.902 
20800        0.97184314537923810473 10.196945873054046316 1 63 -285.43249137426977313
   20800    298.99326    6.3550133    60.370372   -149.96369   -4844.4869    11935.902 
   20810    281.37615    4.1252027    63.696384   -152.70767    -4644.345    11935.902 
   20820    294.00032    3.9356829    54.733391   -155.16288   -297.94498    11935.902 
   20830    295.50212    5.1297431    57.265727   -157.38947    1917.3845    11935.902 
   20840    290.71333    5.8000326    60.403671   -159.27232    4224.2603    11935.902 
   20850    296.86407    8.0311816    57.430443   -161.05868    3122.9688    11935.902 
   20860    267.47714    7.0230577    60.451738   -162.84527   -1782.6646    11935.902 
   20870    281.52836    6.9349801    58.829656   -164.12372   -1810.9478    11935.902 
   20880    283.11988    7.0468863    65.846762   -165.20144   -1790.0555    11935.902 
   20890    297.33596     6.835668    52.115806   -166.53309    1043.3714    11935.902 
20900        0.95274006598717453365 10.227155420898158766 1 63 -296.14748687682464379
   20900    281.49538    9.5247669    60.223163   -168.60668     2947.808    11935.902 
   20910    287.28522    11.468008    55.926398   -171.38633   -432.68439    11935.902 
   20920    281.68516    8.6932264    52.004927   -175.02861   -1057.0933    11935.902 
   20930    257.77443    5.4915826    55.054786   -178.45244    1646.7125    11935.902 
   20940    263.05788    4.0016324    52.098172    -180.8041   -451.57389    11935.902 
   20950    273.68381    3.4302759    52.058857   -182.01264     1063.061    11935.902 
   20960    277.55649    5.1558337    47.553641   -182.30366   -2921.8553    11935.902 
   20970    284.62612    4.7633513    51.312581   -181.78435    555.85538    11935.902 
   20980    257.63147    4.1027696    52.735237    -180.2784   -2995.6545    11935.902 
   20990    256.85066    4.4162495    45.064913   -177.30871   -3282.0846    11935.902 
21000        0.94714843333776943535 10.25057429074078108 1 65 -286.09515972615929513
   21000    250.68466    5.2887139    58.372967   -172.51417   -23.173261    11935.902 
   21010    268.14687     7.880574    58.244483   -166.87578    1758.2484    11935.902 
   21020    280.80283    8.7236717    57.619297    -161.4492    4158.4263    11935.902 
   21030    283.67969    7.7250562    56.618665   -157.15416   -1928.0018    11935.902 
   21040    305.22305    7.5202194    58.949443   -153.71582   -3850.4775    11935.902 
   21050    318.33632    5.2800508    54.538152   -150.98328    913.08579    11935.902 
   21060    312.54512    5.0283886    57.367036    -149.1131    1508.6994    11935.902 
   21070    298.91898    4.8058729    58.959672   -147.58917    4497.2472    11935.902 
   21080    294.48025     5.306175     57.15886   -146.11341   -1999.4978    11935.902 
   21090    296.64405    6.0866625    62.990803   -144.41124   -233.51487    11935.902 
21100        0.94232515483459988737 10.24211114416413082 0.99206349206349198067 62 -290.45535109157651732
   21100     326.3301    7.0851948    54.720468   -142.60069    1685.1635    11935.902 
   21110    324.05212    8.5173775    56.565029   -141.17093    1717.7356    11935.902 
   21120    338.98586    6.9509689    53.040718   -140.28349    322.93231    11935.902 
   21130    312.43061     8.031381    57.787867   -140.12987   -902.98185    11935.902 
   21140    303.32562    7.5788487    59.485501    -140.3053   -3009.2305    11935.902 
   21150     294.5436    7.9093963    60.831861   -140.57673   -358.15255    11935.902 
   21160    298.36887    7.3443773    61.646671   -140.71852   -2048.2896    11935.902 
   21170    320.84589    7.1716808    50.507773   -140.95248    1534.2939    11935.902 
   21180    276.64701    7.2315977    58.510478   -141.45752   -19.976625    11935.902 
   21190    262.79038    5.9935412    61.943741   -141.40717     2426.476    11935.902 
21200        0.94748271763709424054 10.245885885321426301 0.99206349206349198067 66 -270.70493526072766599
   21200    287.67835    4.8463051    58.283052   -140.36273    1106.9984    11935.902 
   21210    288.97787    4.8487496    62.588649   -138.52708   -1548.2861    11935.902 
   21220    321.63334    5.9222473    51.840902   -135.97009   -631.90471    11935.902 
   21230    297.08484    5.3760972    62.399282   -132.94605   -563.08099    11935.902 
   21240    286.54046    6.0568618     63.63684   -129.19046    -1214.234    11935.902 
   21250    307.63976    8.3395909    61.158638   -124.44088   -2403.7694    11935.902 
   21260    302.87145    6.5252457    71.355726   -119.89459   -1100.7844    11935.902 
   21270    318.53218    6.4935791     65.18849   -116.29374    1766.3498    11935.902 
   21280    348.17133    5.4279126    59.348137   -114.07772    4341.7941    11935.902 
   21290    331.73652    6.4075525    65.028308   -113.41185    1497.3314    11935.902 
21300        0.95000015223858902402 10.22976695688951132 0.99735449735449732689 67 -267.63038397848174554
   21300    339.36775    7.4130702    58.835264   -113.86858    441.51412    11935.902 
   21310    310.63194    6.7279356    69.107739   -115.37327   -2071.3971    11935.902 
   21320    307.09623    4.6717156    70.204596   -117.64695   -2066.6255    11935.902 
   21330    322.31876    4.3796297    60.567293   -120.78722   -1441.0781    11935.902 
   21340    308.78653    4.2280696    60.889148   -124.54796   -2968.5077    11935.902 
   21350    325.19168    4.7235687    56.200974   -128.30031    939.16609    11935.902 
   21360    309.86664    6.3875858    57.801739   -132.11198    1680.2784    11935.902 
   21370    290.99336    7.7384668    59.281093   -135.13968    4226.5838    11935.902 
   21380     306.4936    7.5724233     57.16488   -137.61907    2619.6327    11935.902 
   21390    275.95793    6.2878822    63.896368   -139.21294    61.607556    11935.902 
21400        0.95398277754345173207 10.220890125719364505 1 70 -291.00515909596117581
   21400    333.65926     5.652994    49.741111   -139.82978   -210.15202    11935.902 
   21410    316.76668     3.992518    58.674883   -140.61075   -2209.6862    11935.902 
   21420    319.41863    3.6582928    61.328293   -141.73128   -1711.2052    11935.902 
   21430     296.3265    3.2213595    58.361305   -143.36794   -1256.8806    11935.902 
   21440     258.2799    3.1649884    63.094281   -144.62049    68.364139    11935.902 
   21450     281.3227    4.4917671    62.470793   -144.79096    218.34795    11935.902 
   21460     310.9951    6.8665734     49.13928   -144.31227    1085.1957    11935.902 
   21470    303.55088    5.4753046    60.471126   -143.76841    3483.9193    11935.902 
   21480    315.60527    7.0846902    60.408488   -143.45788    2306.8526    11935.902 
   21490    290.80064    8.3496679    63.678911   -143.66964   -1114.2579    11935.902 
21500        0.95165070537845153353 10.255530510078745721 0.99470899470899465378 72 -279.06922442895529457
   21500    298.32087    10.012444    61.646783   -143.90507   -4851.4267    11935.902 
   21510    308.46495    8.5681775    61.647834   -144.21788   -1357.2133    11935.902 
   21520    307.42406    8.4054309    58.131159   -144.71586   -124.49035    11935.902 
   21530    301.85393    8.0899076    52.101492   -145.46147   -365.22576    11935.902 
   21540    295.29027    6.1622312    63.421636   -146.50214   -2600.8719    11935.902 
   21550    313.50888    4.4264878    62.092042   -147.89034     1338.846    11935.902 
   21560    311.97619    5.2771025    57.686491   -150.45541    3179.4374    11935.902 
   21570    295.68173    5.5355701    57.542864   -154.01595    228.31788    11935.902 
   21580    293.66444    7.2249338    53.028361   -158.04809    -1520.708    11935.902 
   21590    272.31147    7.5633432     58.06079   -161.82243   -3446.7674    11935.902 
21600        0.96690979009380995102 10.180550256312915991 1 71 -294.68063469809266053
   21600    285.74585    6.6601728    55.435709   -165.21401    1231.2278    11935.902 
   21610     276.7788    7.8403709    56.896502   -168.48185    2107.6174    11935.902 
   21620    266.37411    9.3676988    58.864334   -171.00319    5384.8515    11935.902 
   21630    269.29312    8.8044191    50.494445    -172.4418   -771.83103    11935.902 
   21640     276.4046    8.0473738    46.156718   -172.78941   -589.30462    11935.902 
   21650    276.03183    7.5431843    55.378215   -172.16023   -635.13551    11935.902 
   21660    282.85626    7.2638542    47.254572    -170.6088    -2284.474    11935.902 
   21670    258.26697    9.0901216    59.604869   -168.12383   -1142.6845    11935.902 
   21680    288.65009    8.8768651    52.420369   -166.37089     406.6163    11935.902 
   21690    281.82946    7.2891305    57.065556   -161.66843    1417.2994    11935.902 
21700        0.97125956236967936341 10.173455958430878354 1 71 -298.12977639404260799
   21700    311.95734     6.413147    48.903936   -156.78717    1048.8238    11935.902 
   21710    289.63395    7.9911048    53.069233   -152.29547    -1308.011    11935.902 
   21720    271.48953    8.7492499    66.374591   -148.83995    1061.5755    11935.902 
   21730    283.56719    8.4711292    58.393962    -146.0535   -2173.5418    11935.902 
   21740    290.40119    8.2699709    62.399613   -143.99219    1489.7503    11935.902 
   21750    328.46738    9.3782575    51.678998   -142.45486    3276.3968    11935.902 
   21760    314.33096    10.229537    59.821378   -141.67898    512.66615    11935.902 
   21770    314.68909    6.5817123    50.958779   -141.61609    -123.2259    11935.902 
   21780    306.19763    5.3648361    57.141295    -141.7802   -3546.1951    11935.902 
   21790    312.48305    4.9749717     54.88489   -140.20875    1515.9431    11935.902 
21800        0.98328306934471554346 10.144123171995682142 0.99735449735449732689 70 -276.40478561649280209
   21800    299.99838    5.9047481    59.660329   -140.48058   -1725.4461    11935.902 
   21810     297.5293    8.0803642    57.212378    -140.7223   -2378.9958    11935.902 
   21820    298.06675    9.0161872    60.592982    -141.0859   -981.12133    11935.902 
   21830    321.19678    7.4451192    56.433571   -141.79886    1002.4697    11935.902 
   21840    314.53332    6.2602715    60.280378   -143.74459   -1189.4134    11935.902 
   21850    295.17335     6.224209    57.421053   -146.28433    924.46891    11935.902 
   21860    307.69426    7.5947097    52.039758   -149.19152     3621.012    11935.902 
   21870    300.61498    7.3161253    53.076684   -152.15401    3270.4428    11935.902 
   21880    281.57219     6.568236    52.489312   -154.99308   -425.46259    11935.902 
   21890     296.1853    6.1875821      49.3646   -157.22871    445.44436    11935.902 
21900        0.98642463728665363831 10.121064059984147931 1 71 -291.36065877164980975
   21900    291.37672    6.8489277    51.099119   -159.34278    -2895.987    11935.902 
   21910    275.27035    6.4178566    56.213179   -161.09844   -1938.7258    11935.902 
   21920     266.0106    7.1376321    54.510079   -162.25799   -371.61501    11935.902 
   21930    271.21937    6.5432805     57.18434   -162.69337   -660.54634    11935.902 
   21940     284.5188    4.1352842    51.596626   -162.22823   -677.95047    11935.902 
   21950    270.82238    2.8945102    57.461194   -160.76214    474.91415    11935.902 
   21960    285.24713    6.1549254    53.299583   -157.69336    2429.5879    11935.902 
   21970    299.20267    6.8892929     55.57109    -152.5821     460.6503    11935.902 
   21980     309.3832    6.3217727    58.510683   -146.61059    1005.9041    11935.902 
   21990    339.09957    4.6990619    53.129555   -140.59943   -1962.5678    11935.902 
22000        0.98794551030950394921 10.078607042597536037 0.99470899470899465378 66 -280.35205087701871207
   22000     318.0199    7.2512893    61.019794    -136.2626    437.80318    11935.902 
   22010    316.43117    7.7212921    65.595238   -133.63716   -1795.0672    11935.902 
   22020    314.11283     5.786777    63.663408   -133.62241   -306.07681    11935.902 
   22030    328.19511    6.6013477    61.993939   -133.02928   -655.07934    11935.902 
   22040    316.26545    7.2645318    57.416261   -131.73047   -866.25781    11935.902 
   22050    316.74912    7.4935824    59.313011   -132.32106    1332.9962    11935.902 
   22060    312.23429    6.5531105    61.594558    -133.3418    3145.4946    11935.902 
   22070    303.45189    7.5868586    68.632181   -134.93282    2841.1862    11935.902 
   22080    305.44937    7.2981898    62.169945   -137.14034    1406.0419    11935.902 
   22090    312.55187    8.2464646    55.699287   -139.97615   -1651.7345    11935.902 
22100        0.98662037644211397769 10.072915804366667558 0.99206349206349198067 68 -281.52320246319595753
   22100    305.92474     8.702812    58.083137   -142.91386   -1085.9692    11935.902 
   22110    317.72995    8.3007232    50.912585    -146.0098    361.01875    11935.902 
   22120    299.47649     7.611659    58.668672   -149.17284    671.87145    11935.902 
   22130    295.81686    7.6517774    54.159338   -152.49852   -1963.4032    11935.902 
   22140    280.78052    7.8601677    57.661887   -155.54832    -457.7178    11935.902 
   22150    289.87015    6.6075643    58.833068   -158.26031    820.61086    11935.902 
   22160    288.77231    6.9580964    45.736887   -160.33116      783.093    11935.902 
   22170    250.89217    8.0161115    58.059523    -161.4075   -4638.5369    11935.902 
   22180    242.93559     6.893597    64.238217   -161.02296   -2225.9262    11935.902 
   22190    266.92971     6.257339    64.401533   -159.20275    2067.1253    11935.902 
22200        0.98873438314604500388 10.046521519252769039 0.99470899470899465378 69 -287.67997352773915054
   22200    289.20552    7.0304435    58.228954   -156.64583     6863.421    11935.902 
   22210    307.40751    8.1333662    52.364427   -153.72099    498.26473    11935.902 
   22220    300.55991    10.600821    48.355364   -150.04294   -2782.5317    11935.902 
   22230    321.02233    11.006269    54.957366   -144.47227     -2197.57    11935.902 
   22240    304.31469    9.8605934    69.662204   -137.01021    243.53463    11935.902 
   22250    313.91904    7.3118087     64.46121   -128.27442    187.10783    11935.902 
   22260    310.47652    8.0889392    71.217919   -121.64405   -497.05483    11935.902 
   22270     354.5037    9.6435471    61.386946   -117.84568   -945.32193    11935.902 
   22280    326.34028    9.4617367    61.826024   -117.00638   -797.41733    11935.902 
   22290    341.54263    7.4272714    58.911837   -117.54268    1139.8992    11935.902 
22300        0.98878530750341042665 10.043185742829802365 1 64 -248.54792609779619283
   22300    287.23169    6.1347396    79.281809   -118.40809    4863.4222    11935.902 
   22310    342.53631    6.1479579     54.63345   -119.35239   -1019.3102    11935.902 
   22320    299.58517    6.5483657    77.293469   -121.34031   -981.41691    11935.902 
   22330    344.73081    9.2686118    60.100854   -124.41904   -5026.9649    11935.902 
   22340    298.08105     11.91434    59.965925   -128.41599   -48.240328    11935.902 
   22350      317.797    12.728338    58.661542   -132.05464    437.90233    11935.902 
   22360    295.84063    16.970371    63.196663    -135.3305    4406.3572    11935.902 
   22370    317.68421     20.63228    57.263544   -138.56421    3896.3192    11935.902 
   22380      306.217    15.318483    57.123352   -142.22104    115.54478    11935.902 
   22390    289.17793    9.7238343    55.556185   -145.63114   -2260.9736    11935.902 
22400        0.98801652708159448668 10.04058181998973609 1 67 -278.67367472201851797
   22400    288.07902    6.5279848    57.672833   -148.14993   -1472.0759    11935.902 
   22410     302.2803    7.2171877    60.112389   -150.07534     88.56978    11935.902 
   22420    289.91033    8.8091188    56.687565   -151.70225   -124.79701    11935.902 
   22430    305.73041     8.409056     49.96299   -152.79588    1956.5385    11935.902 
   22440    306.40973    10.281239     56.33753   -153.78196    425.71508    11935.902 
   22450      300.853     10.89725    53.774306   -154.67406   -1407.5588    11935.902 
   22460    296.73288    8.8541719    58.518806    -155.5578   -2281.9283    11935.902 
   22470    289.59411    8.6761561    57.307239   -156.51629    1009.7826    11935.902 
   22480    275.01708    7.6426739    63.134601   -157.03938    3324.7586    11935.902 
   22490    305.75232    6.1470206    49.156602   -156.96415    409.91099    11935.902 
22500        0.98555887028438327047 10.058577229169767264 1 66 -278.6414445284852377
   22500    269.55348    6.1119604    66.844648   -156.51131   -3315.1821    11935.902 
   22510    305.51105    6.5740853     51.27148   -155.35297   -2370.0911    11935.902 
   22520    291.72818    7.6875937    63.443103   -153.48694    1251.3811    11935.902 
   22530    300.95478    8.6724091    63.983021   -150.76687    2362.4347    11935.902 
   22540    300.64896    9.9658213    58.933232   -146.86774   -56.473337    11935.902 
   22550    277.59224    8.0941737    77.645704   -142.54507   -579.20556    11935.902 
   22560    294.76119     6.944068    66.229643   -137.86784    325.56881    11935.902 
   22570    327.04095    7.0601269    61.464197   -133.03771     3782.706    11935.902 
   22580    309.82065    11.621264    74.659308   -129.20388    1332.3457    11935.902 
   22590    319.27967    13.951155    55.561938   -126.62934   -3243.5884    11935.902 
22600        0.9852458292064015799 10.100349293462816291 1 66 -264.73700534515455729
   22600      308.887    11.852209    61.238082   -124.78552   -2507.4206    11935.902 
   22610    324.81113    9.4565087    65.578572   -123.49919    526.17316    11935.902 
   22620    343.00083     9.251067    64.814886   -123.07947    1483.9958    11935.902 
   22630     337.2624    7.2266998    61.880185   -124.45509    1409.7701    11935.902 
   22640    314.16708    7.0403096    58.123576    -126.7662   -2205.1057    11935.902 
   22650    295.42083    6.5971405    64.719007   -129.28455    958.89314    11935.902 
   22660    302.44857    5.8711031    67.495987   -131.71853   -605.45709    11935.902 
   22670    293.18207    6.3577874    64.500918   -134.67428    209.54304    11935.902 
   22680     288.5099    7.6965264    63.923304   -137.82474   -3004.7614    11935.902 
   22690    288.56212    6.1464854     61.24679   -140.73142   -3193.5953    11935.902 
22700        0.97839051430193879622 10.152364883338183432 0.99735449735449732689 66 -279.22548182996183641
   22700    300.31315    7.5169344    62.557937   -143.15866     332.6366    11935.902 
   22710    307.52849    9.4717518     60.63372   -145.80167   -1250.0184    11935.902 
   22720    306.05264    13.905715    57.402776   -148.79359    109.38702    11935.902 
   22730    305.74181    11.965881    55.169435   -152.09783    4753.9348    11935.902 
   22740    299.12125    8.5753926    57.528086   -155.30513    4358.6385    11935.902 
   22750    310.15537    7.5930331    54.701284   -158.60475     5491.285    11935.902 
   22760    273.35167    6.1710573    56.059711   -161.74578   -3512.2174    11935.902 
   22770    268.87314    5.0111331    52.380777   -163.76832   -3662.5187    11935.902 
   22780    252.73813    7.5747322    59.432639   -164.56382   -1484.8312    11935.902 
   22790    292.72857     9.103111    56.633556   -164.18447   -563.75176    11935.902 
22800        0.9747661516102326118 10.178918968145696411 1 67 -294.61027683638087638
   22800    290.26592    8.6091199    63.035976   -163.09568     1116.735    11935.902 
   22810    317.78821    7.8788165    54.219618   -161.33192   -1016.0567    11935.902 
   22820    299.55915    7.4154074    58.473682   -158.01582   -485.65293    11935.902 
   22830    296.52394    7.0575678    62.270838   -152.34629    151.80082    11935.902 
   22840    320.18406     5.839195    60.034602   -144.11791   -1072.5591    11935.902 
   22850    310.40212    6.4727101    66.059137   -137.10314    1608.1033    11935.902 
   22860    306.04674    6.6669719    70.840748   -132.41273    347.03446    11935.902 
   22870     304.3963    6.6281151    66.975327   -129.18722   -524.86845    11935.902 
   22880     321.0221    5.4448892    62.311585   -126.77813   -3923.6051    11935.902 
   22890    302.16361    6.2617162     70.68332   -125.12169   -1619.6699    11935.902 
22900        0.97044567590116437295 10.186942240110745672 1 66 -275.23951153979555784
   22900    334.32763    5.8317562    59.021701    -123.7613    2500.2008    11935.902 
   22910    310.05191    6.4089715    63.753375   -123.10598     1141.906    11935.902 
   22920    307.38488     5.603257    61.841562   -122.88835     180.7899    11935.902 
   22930    312.72887    4.9067008    66.835526   -123.03599   -96.099948    11935.902 
   22940    332.84406    5.5571969    62.402372   -124.08909     -4.81625    11935.902 
   22950    321.31204    4.7624298    66.396916     -126.397    -2250.356    11935.902 
   22960    320.58521    5.6736559    66.435955   -129.73077   -2991.2793    11935.902 
   22970    321.92995    6.1668283    69.845927   -133.91017   -1902.0844    11935.902 
   22980    336.76482    7.4345014    55.950827   -139.25434    3782.3733    11935.902 
   22990    287.70661    5.6020037    71.854767   -144.73997    2583.2826    11935.902 
23000        0.96656787463598059507 10.203453564916413754 1 63 -293.32236919352760651
   23000    318.00796     5.132761    55.121669   -149.23833     1225.169    11935.902 
   23010    303.52208    6.7669882    64.573649   -153.19787   -2323.8067    11935.902 
   23020    334.83479    6.3364021    53.171785   -156.68327    1393.2487    11935.902 
   23030    285.56194    7.3088468    60.081077   -159.50531    550.11916    11935.902 
   23040    275.15719    8.0217186    54.910167   -161.08696    578.26432    11935.902 
   23050    268.61871    7.4378609    64.334863   -161.56437   -3294.1561    11935.902 
   23060    282.72788    4.9570531    56.179274   -161.23019   -1430.6035    11935.902 
   23070    304.13333    2.7944713    53.976145   -160.47038   -712.86945    11935.902 
   23080    302.82391    3.7188663    61.010323     -159.616    3227.1059    11935.902 
   23090    286.40771     7.216537    56.320565    -158.7525   -115.24679    11935.902 
23100        0.97399101260951725934 10.159991963533492765 1 67 -279.70655384571711011
   23100    269.76477    9.7011215    60.543306   -157.48069   -294.00377    11935.902 
   23110    296.22111    7.4728329    56.837086   -155.41994     3051.276    11935.902 
   23120    290.80605    6.1296089    69.624022   -152.89076    5026.9986    11935.902 
   23130    303.40697    5.5154492    60.632867    -150.0365    432.34719    11935.902 
   23140    295.65532    7.0907462    62.392172   -147.06899   -7420.7354    11935.902 
   23150     321.3644    4.7351186    61.480585   -144.20301   -4161.1574    11935.902 
   23160    334.35774    3.6044265     61.41045   -141.93989   -574.01077    11935.902 
   23170    327.70337    5.6448986    57.976938   -140.80533    1020.1067    11935.902 
   23180    320.35039    9.9763336    63.612816   -140.76235    1452.3596    11935.902 
   23190    305.38633    12.749797    61.274235   -141.68746    3579.9533    11935.902 
23200        0.97067813531273838823 10.182796368890555172 1 66 -270.80930569608733549
   23200    281.42122    9.8764602    72.624031    -143.3021    3916.8033    11935.902 
   23210    309.48063    8.0728429    57.394483       -145.5     2010.004    11935.902 
   23220    288.60516    6.1978284    65.718276   -148.72126    -3884.907    11935.902 
   23230    317.80889    5.5908132    50.925245   -152.79327   -2053.9622    11935.902 
   23240    260.89504    5.1035672    64.158729    -157.3933    247.29121    11935.902 
   23250    278.08008    4.7298965    50.806896   -160.84959     2617.783    11935.902 
   23260    253.58516    6.1280163    60.021412   -163.35881   -3191.5326    11935.902 
   23270     291.1606    7.2637777    51.118428   -164.50306   -2748.9923    11935.902 
   23280     294.4784    5.7426972     57.48492   -165.09177    -719.8998    11935.902 
   23290      279.868    7.9952918    59.377719   -165.35671    3472.8805    11935.902 
23300        0.96557525681703681997 10.197472685880423882 0.99735449735449732689 68 -289.97013542116530971
   23300    275.68326    8.7139093    59.045558    -165.0627    76.787846    11935.902 
   23310    296.78473    6.7702322    61.711092   -164.29241   -738.21442    11935.902 
   23320    298.21857    6.6898051    51.668061   -163.32275   -190.29113    11935.902 
   23330    279.50491    7.3329098    53.775144   -162.05784    401.25625    11935.902 
   23340    307.60734    7.3506208    51.652673   -159.58569    497.25073    11935.902 
   23350     300.2644    5.3308858    54.486589   -155.89935    1086.1952    11935.902 
   23360    315.71275    4.4011864    60.244631    -151.1557   -1019.9984    11935.902 
   23370    277.60597    7.3382664    67.636037   -146.49244     1058.817    11935.902 
   23380    302.64618    7.8167118    60.672585   -141.82865   -88.612401    11935.902 
   23390     301.1743    5.4863122    63.684248   -137.51121    254.02083    11935.902 
23400        0.96153015703206423659 10.211403917839511735 1 66 -279.83511611654989792
   23400    322.32803    4.6131283    55.688976   -133.79372   -669.61704    11935.902 
   23410    316.68586    3.3945853    66.859121   -131.23051    266.60372    11935.902 
   23420    312.70725    3.0078689    67.586075   -129.74959   -206.50865    11935.902 
   23430    307.44736    3.6726963     69.18867   -129.09604   -4494.9785    11935.902 
   23440    303.03124     4.450341    74.166941   -128.97077   -638.62302    11935.902 
   23450    321.10538    3.7356143    63.736857   -129.35476    2464.4776    11935.902 
   23460    308.67334    4.7522738    66.783887   -130.34018    2563.3539    11935.902 
   23470    309.52282     8.398533    60.092735    -131.4555    930.30967    11935.902 
   23480    289.04063    7.1884217    69.793252   -132.59194    180.25395    11935.902 
   23490    301.06113    6.8963013    61.644827   -133.55854    1418.6002    11935.902 
23500        0.96032011782327519889 10.20459917594587651 0.99735449735449732689 65 -288.6121270736945803
   23500    338.88687    6.0810326    63.122046    -135.0682   -1363.6703    11935.902 
   23510    314.77645    7.0677486    68.649527   -137.67011   -2667.2873    11935.902 
   23520    312.27653    6.9946444    58.634894   -140.56476   -1921.7052    11935.902 
   23530     286.4987    6.3718638    61.477688   -143.02583    1621.1295    11935.902 
   23540    304.38048     6.136506    57.796942   -144.62211     902.8229    11935.902 
   23550    290.12767    8.4220874    64.359368   -145.73148    3984.5264    11935.902 
   23560    327.37884    8.9657882    52.548142   -146.58211   -783.11497    11935.902 
   23570    297.32188    7.1094095    68.305303    -147.8475    1602.5961    11935.902 
   23580    316.16808    4.9175538    62.044696   -149.12201    -540.1418    11935.902 
   23590    302.73343    5.1814026    62.174225   -150.38942   -1969.5928    11935.902 
23600        0.9557375705827149126 10.231260489787070256 1 62 -286.95294334694153804
   23600    299.09224    7.9081443    56.351969   -151.43929    -3706.185    11935.902 
   23610    293.08688    6.6421201    53.792138   -151.96275   -1721.5174    11935.902 
   23620    300.46173    5.8917063     55.67151   -152.04627    1621.8223    11935.902 
   23630    288.60249    5.4591059    62.924013   -151.80555    1259.5324    11935.902 
   23640    310.58716     4.049273     64.42101   -151.47022   -2163.0131    11935.902 
   23650    299.29794    3.4570604    63.236208   -151.62776    954.58333    11935.902 
   23660    293.80061    4.6739397     63.58761   -152.04421   -2295.4116    11935.902 
   23670    278.24324    8.0640462    62.489973   -152.29495    1285.2352    11935.902 
   23680    270.49376    9.9383885     65.22327   -151.96181    795.11521    11935.902 
   23690    285.15722    6.7102283     60.11543   -150.92371    2424.6008    11935.902 
23700        0.96684855287270188295 10.201502575898352632 1 67 -276.92712007134565511
   23700    281.59282    6.9812336    62.483447   -149.34216     1533.389    11935.902 
   23710    299.94107    6.8712445    61.455349   -147.11958   -1051.2738    11935.902 
   23720    287.10321    6.6723995    66.934481   -144.65516   -1576.3125    11935.902 
   23730    305.20791    4.7528071    64.610696   -141.94396   -368.41474    11935.902 
   23740    319.75409    5.4775128    64.269589   -139.27821   -1717.4018    11935.902 
   23750    329.27361    7.0827206    64.642577   -136.60664   -1095.8225    11935.902 
   23760    333.31846    6.3755811    60.201454   -134.33428   -2019.0434    11935.902 
   23770    302.60843    6.3046935    69.126973   -132.68497    122.04395    11935.902 
   23780    318.68735    6.6261372    56.129098   -131.14203    1487.8723    11935.902 
   23790     313.1221    7.7610447    68.367485   -129.14393    2010.1137    11935.902 
23800        0.96796420185798304203 10.208787363357414435 1 68 -267.37033498949551813
   23800    310.01959    9.3740699    69.218457   -126.90569    936.87925    11935.902 
   23810    337.87664    9.1705394    62.676622    -124.3485    -2330.189    11935.902 
   23820    351.18488    7.7416134    67.316399   -122.44917   -1998.1316    11935.902 
   23830    365.82299    7.3457846    56.537242   -121.84295    902.69058    11935.902 
   23840    333.12005    7.2219654    67.533876   -123.19619    476.64532    11935.902 
   23850    337.30825    7.0824351    68.917698   -126.31488    993.39858    11935.902 
   23860    329.33766    9.5330693    60.779261   -131.17342   -939.20854    11935.902 
   23870    335.45263    9.3541798    61.201228   -137.66144    1911.4388    11935.902 
   23880    311.68845    6.6177732    61.552847   -144.17581   -817.39878    11935.902 
   23890    309.13515    6.8984536    60.692618   -149.40585   -3312.2015    11935.902 
23900        0.97594487986426448067 10.173038228698651153 1 68 -300.50748872042237281
   23900    324.73887    8.0011686    52.340569   -153.37379    1160.3704    11935.902 
   23910    294.38069    10.181089     59.67544   -156.47808     2239.778    11935.902 
   23920      295.016    8.4975513    53.307424   -158.59324    2455.9759    11935.902 
   23930    289.68198    5.8335366     55.23897   -160.04027    469.40102    11935.902 
   23940    290.80718    6.7986904    59.078561   -160.93398   -123.77389    11935.902 
   23950    314.57913    7.2362666    55.581688   -161.84444    486.76617    11935.902 
   23960    278.74498    8.4280344    63.230301   -162.95087   -1508.9527    11935.902 
   23970    301.64352    8.9571656    53.832818   -163.84037   -1347.7502    11935.902 
   23980     276.2166    11.068966    58.597285   -164.42263   -338.52794    11935.902 
   23990    283.37376    11.036436    58.175526   -164.40984    -5418.457    11935.902 
24000        0.98202184965256289484 10.141368608562919107 1 66 -293.13505701128883629
   24000    285.60946    7.2438676    62.292289   -163.73023    2580.9311    11935.902 
   24010    297.48801    5.7351536    60.578735   -162.46046    673.44269    11935.902 
   24020    310.58532    6.3647958    58.161615   -160.89299   -1822.6794    11935.902 
   24030    302.40225     7.756652    58.617164   -159.19242   -1820.2229    11935.902 
   24040    308.18722     8.365081    58.617341   -157.21165    4292.4097    11935.902 
   24050     284.5533    6.9994042    68.978376   -155.34865    5374.4438    11935.902 
   24060    294.84775     6.596833    51.446698    -153.5094   -541.56817    11935.902 
   24070    290.60913    5.7427061    58.876121   -151.16146   -3737.5741    11935.902 
   24080     287.7383    4.4530417    57.560857   -147.96749    427.29662    11935.902 
   24090    289.31858     4.792579    54.033072   -143.92887     777.2606    11935.902 
24100        0.98392738202523277735 10.113919542444451238 1 66 -269.50412257821096773
   24100    287.87324    5.3086741    60.677594   -139.07362    1273.9023    11935.902 
   24110    324.13431    4.5610418    60.828499   -133.38896   -5430.1563    11935.902 
   24120    333.92686    6.5344453    64.732112   -129.05515   -335.39372    11935.902 
   24130    328.46885    7.2318862    66.560284   -127.00091    1312.6152    11935.902 
   24140    333.24027    6.8225049      59.4269   -126.39126    2732.4601    11935.902 
   24150    321.09331    6.9919896    64.512864   -126.63565   -322.16514    11935.902 
   24160    321.00932    6.9653455    55.582545    -127.5487    85.882875    11935.902 
   24170    297.96577    4.6005332    63.221378   -128.62692   -2232.8221    11935.902 
   24180    310.92071    3.4272609    64.797631   -129.74542    3641.4645    11935.902 
   24190    320.65298    4.3904546    66.369274   -131.30102   -2538.3544    11935.902 
24200        0.98534260218877267601 10.085716097595291529 1 64 -289.02128518017673287
   24200     342.7869    6.9024809    57.471123   -133.71032   -1376.3313    11935.902 
   24210    339.07906    9.5745536    58.273852   -137.14119   -2092.5676    11935.902 
   24220      304.609    10.222831    64.448347   -141.32785    2910.5519    11935.902 
   24230    292.62872    11.305809    65.777557   -145.28161     4424.266    11935.902 
   24240    292.90995    12.098356    64.865761   -148.27395    1847.9867    11935.902 
   24250    301.18124    9.0838219    59.075804      -150.72   -1864.1005    11935.902 
   24260    276.31867    7.2785254    72.069592   -152.71123      2135.41    11935.902 
   24270    287.29774     8.570807    61.007365   -153.99052   -1254.8125    11935.902 
   24280    280.62114    7.6719825    63.471139    -154.8191    802.25656    11935.902 
   24290    286.45305    7.6327516    61.509462   -154.98823   -709.87491    11935.902 
24300        0.98430982030012625916 10.08149388699307103 1 70 -293.65693460656513025
   24300     306.5231    8.6368756    63.901565   -154.77649     2119.313    11935.902 
   24310    293.28031    9.7070673    59.200016   -154.72917   -1116.5941    11935.902 
   24320    280.65624    12.112426    62.648795   -154.86912   -2131.3234    11935.902 
   24330     262.4874    13.884096    60.841341   -154.70984   -1426.2385    11935.902 
   24340    278.63283     12.79481    58.654104   -153.40981   -182.72928    11935.902 
   24350    297.65482    8.7171184    53.079721   -150.86227     -2281.53    11935.902 
   24360     281.4547    6.4883371    70.189408   -147.71793    -695.1451    11935.902 
   24370    316.36551    6.6815711    60.963666   -144.28907   -472.73746    11935.902 
   24380    298.65656    5.8086871    62.707154   -141.53943    1971.0296    11935.902 
   24390    313.48469    6.3713632     58.42016   -139.28656    955.60937    11935.902 
24400        0.97964174245926260998 10.119426319252436741 1 71 -272.72469558361581221
   24400    299.08703    7.0079473    58.784629   -137.21341    629.67893    11935.902 
   24410    313.73993    7.2988587    62.937943   -135.17926    405.72746    11935.902 
   24420    316.62591     5.225179    61.944183   -133.27022    1023.1681    11935.902 
   24430    311.24451    5.4506643    68.020332   -132.15003    356.72842    11935.902 
   24440    337.41468    5.0192032    66.471766   -131.77651   -307.43748    11935.902 
   24450    330.29339    5.8827852    62.820754   -132.62937   -3380.2314    11935.902 
   24460    335.55145    4.7504363    59.723164   -134.25931   -1578.9274    11935.902 
   24470    321.92043    5.1235629    58.835832    -136.8435   -44.022026    11935.902 
   24480    318.08713    6.7325017    55.364236   -139.95899   -550.88614    11935.902 
   24490    309.95485    6.4924995    62.919842   -144.12565    1096.8908    11935.902 
24500        0.98145441530925237039 10.119186761293505583 1 68 -280.24273034610342847
   24500    289.43785    6.7508859      56.7341   -149.10332   -1294.2232    11935.902 
   24510     286.4774     7.209674    57.274129   -154.70711    2267.5724    11935.902 
   24520    274.30457    9.5553192    61.532116   -159.84576     787.3243    11935.902 
   24530    310.52028    8.3820705     47.46331   -164.11822    86.690797    11935.902 
   24540    276.23971    8.1670523     59.01004   -167.23096   -1398.0466    11935.902 
   24550    271.45094    8.4300853    54.338468   -168.51178    -440.1928    11935.902 
   24560    269.94895    7.8178966    59.518778   -168.47725    1005.4214    11935.902 
   24570    295.25307    6.3171593    52.873197   -167.97546   -1058.6373    11935.902 
   24580    281.65454    6.3734517    60.934425   -167.31167    426.94116    11935.902 
   24590      303.626    8.1664198    46.575028   -166.24746    936.66187    11935.902 
24600        0.98580486642736231406 10.066208790824756392 1 69 -291.79233988253736243
   24600    280.54851    8.3507718    59.626944   -164.68054    575.89126    11935.902 
   24610    290.57935    10.036614    51.739685   -162.46674    359.20449    11935.902 
   24620    282.58344    9.0884614    63.786031   -159.87089   -344.49912    11935.902 
   24630    293.80826    8.6262555    58.664953   -156.96873    2401.4367    11935.902 
   24640     295.4326     6.519424    66.364714   -153.90537    1799.0698    11935.902 
   24650    317.02169     6.735558    60.685603   -150.77147   -1130.2911    11935.902 
   24660    314.02613    8.6511175    58.278524   -148.18148   -2983.4319    11935.902 
   24670    290.79893     9.107907    65.587675    -146.0553   -3503.6926    11935.902 
   24680    284.56464    9.1017271    70.003601   -144.10383   -2744.8077    11935.902 
   24690    300.22793     11.77821    56.963792   -141.99133    552.85211    11935.902 
24700        0.98825913905829765316 10.051951838034636211 1 69 -274.25165196334103257
   24700    296.18146    14.633859     59.47549   -140.05683    2585.0412    11935.902 
   24710     318.8942    11.778413    61.649178   -138.05449    3275.7175    11935.902 
   24720    319.77908    8.1551475    65.205952   -136.75913     596.1609    11935.902 
   24730    312.82407    7.7504149     61.81734    -136.2343   -1416.1919    11935.902 
   24740    312.71585    7.6354113    72.259759   -136.15873   -1333.5905    11935.902 
   24750    327.39007    6.8939527    57.618507   -136.80837    1184.5615    11935.902 
   24760    301.73769     5.912584    73.225988    -138.6862   -145.81899    11935.902 
   24770    317.71509    5.5722329    55.789104   -141.33036   -391.98446    11935.902 
   24780    301.96525    5.4121365    57.072864   -144.93036   -1670.3812    11935.902 
   24790    317.85015    6.8990477    57.305354   -149.81968      5089.92    11935.902 
24800        0.98907278405602061522 10.033685678823484722 1 70 -281.48016475799477121
   24800    278.82426    8.9746083      60.5109    -155.1496    920.80108    11935.902 
   24810    283.39321    10.892247     50.66029   -159.55308    513.17067    11935.902 
   24820    258.61474    10.942263    60.035137   -162.56484   -3973.2689    11935.902 
   24830    259.63976    10.321633    56.315571   -164.09008    460.90828    11935.902 
   24840    292.15024     6.551537    55.102973    -164.4456   -1594.5193    11935.902 
   24850    295.67496    7.2551679    53.452482   -164.19576     1394.401    11935.902 
   24860    278.56274    8.6219961     62.79296   -163.61484    1116.9973    11935.902 
   24870    282.46994    5.3789218    57.031479   -162.60931     3972.604    11935.902 
   24880     282.9355    6.6769858    59.339256    -161.1582   -410.85675    11935.902 
   24890    299.31204    6.9118485    53.069526   -159.25183    237.55695    11935.902 
24900        0.99109527042656975215 10.046093617374447504 1 70 -281.85662586388428963
   24900    275.55116    7.6316954    66.867814   -157.00905   -2036.4084    11935.902 
   24910    303.98847    6.6023388    56.557776   -154.71984    54.564219    11935.902 
   24920    274.01567    7.6403966    73.137137   -152.81343   -1804.0005    11935.902 
   24930    295.63441    9.2114975    58.652035   -151.05736    67.953499    11935.902 
   24940    293.70832    9.8845855    60.707094   -149.65775   -800.38672    11935.902 
   24950    287.55668    10.371116    59.168978   -148.51963    1515.8706    11935.902 
   24960    315.73177    9.1890853    56.866829   -147.49727    5422.3858    11935.902 
   24970    303.57845    8.5525663    65.486565   -147.04148    3166.0207    11935.902 
   24980    323.29825    9.4437077    57.902285   -147.18928   -1301.3877    11935.902 
   24990    279.02545    5.6164166    67.653775   -147.37854   -2893.5408    11935.902 
25000        0.98989785661836593444 10.087031069835479258 1 69 -280.52952801859026977
   25000    294.26547    4.3410192    59.601922   -147.20281   -4021.4774    11935.902 
   25010    299.12575    4.5805404    59.599844   -147.06901   -1683.5521    11935.902 
   25020    295.17463    6.7685299    62.608231   -146.92744    144.48518    11935.902 
   25030    315.69394    7.4784391    61.432784   -147.08996    1820.3271    11935.902 
   25040    282.90231    7.5428269    59.381441   -147.68269    4104.1968    11935.902 
   25050    292.43136     10.39325    56.705813   -147.88302    269.46465    11935.902 
   25060    284.08432    8.7534975    61.835471   -147.54438   -373.56859    11935.902 
   25070    301.20141    8.3263918    62.500295   -146.99041    570.17449    11935.902 
   25080    317.72807    7.4167537     55.01621   -146.73404    942.81414    11935.902 
   25090    296.97779    8.4232513    54.919741   -146.45441    1164.1628    11935.902 
25100        0.98696878997553061375 10.127363386508328347 1 71 -288.15743891438756918
   25100     314.7731    9.6711834    48.412428   -145.53906   -2639.4993    11935.902 
   25110    317.74687    8.6628755    66.568331   -144.13087   -1803.1925    11935.902 
   25120    350.89882    8.1839409    54.982169   -143.25335    1439.9376    11935.902 
   25130     329.0681    7.4218906    60.857451   -144.03195    2029.0017    11935.902 
   25140    316.59829    7.9466653    57.818892   -146.56108   -2249.8433    11935.902 
   25150    304.03554    8.4878092    58.235906   -150.06812   -1827.0165    11935.902 
   25160    297.64593    9.1171954    56.536404   -153.97594    326.94705    11935.902 
   25170    272.96118    10.686965    64.908403   -157.65879    690.92959    11935.902 
   25180     304.5803    7.0484091    52.344148   -160.66773   -257.61583    11935.902 
   25190    264.58645    4.7926204    69.170766   -163.37491   -883.05722    11935.902 
25200        0.9756775321238319032 10.189628773186086619 0.99735449735449732689 69 -298.88172462771655091
   25200    295.02562    5.0826831    49.827945   -165.21059    1508.4095    11935.902 
   25210    277.19498    3.5900683    59.367636   -166.36266    2120.9151    11935.902 
   25220    298.26175    3.9666264    54.116043   -167.02022    1095.3309    11935.902 
   25230     271.6713    5.7025193    63.770914   -167.28661   -3443.0828    11935.902 
   25240     276.4436    6.2883486    53.985144   -166.97501   -4001.9981    11935.902 
   25250      273.534     7.164513    64.726071   -165.84343   -2771.4752    11935.902 
   25260    291.59557    4.6297024    59.154292   -163.72703    2957.3075    11935.902 
   25270    307.93925    7.4976997    59.219128   -160.77778    -705.3344    11935.902 
   25280    312.90135    10.609371    50.359588   -157.20005    977.57625    11935.902 
   25290    289.68627    8.0438116     66.25902   -153.80099    3112.3313    11935.902 
25300        0.97059427235341755313 10.188253094310832481 1 69 -292.94814267531364749
   25300    315.41888     9.149907    55.959151   -150.03717    5110.1177    11935.902 
   25310    309.88641    6.3840236    66.685609   -146.59228   -361.93699    11935.902 
   25320    336.08079    5.3865683    52.459016   -143.56427    -2871.881    11935.902 
   25330    305.20515    5.4743176    61.489305   -141.26986   -3416.0433    11935.902 
   25340    318.44212    5.7015906    60.153127    -139.4315   -1778.1431    11935.902 
   25350    300.62486    6.0592727    68.811524    -137.8602    2767.7942    11935.902 
   25360    323.27645    8.4164818    65.159444   -136.45967    1468.0444    11935.902 
   25370    302.70866    10.668162    64.793086   -135.14156   -580.20736    11935.902 
   25380    315.89172    9.7899834    58.403752   -133.86132    1429.0465    11935.902 
   25390    318.62413    9.0052511    64.366084   -131.97895     2205.475    11935.902 
25400        0.95992761294661632654 10.224011822254825077 0.99735449735449732689 68 -286.79410240266633991
   25400    346.73887    7.1314453    62.672973   -129.69257   -65.115613    11935.902 
   25410    311.51283    6.5253876    68.744464   -128.07505   -4401.8972    11935.902 
   25420    305.34139    6.2845177     74.64324   -126.73276   -879.99713    11935.902 
   25430    349.22735    6.9164285    62.457586   -125.14082    1149.0465    11935.902 
   25440    321.40449    8.8402804     72.22334   -124.51949   -572.64623    11935.902 
   25450    323.13934    7.4367585    64.736679   -124.98027   -2879.6471    11935.902 
   25460    319.92782    8.1478767    66.271716    -126.5463     233.7328    11935.902 
   25470    318.70357    9.1659202    68.042327   -129.29417   -112.15941    11935.902 
   25480    328.95856    8.5927233    68.280557   -133.67558    3479.5644    11935.902 
   25490    310.89632    8.1364914    66.448286   -138.98122   -1228.4433    11935.902 
25500        0.95156208406846098935 10.247943477048464089 0.99735449735449732689 69 -286.30714062029841216
   25500    312.79055    8.3397638    63.656033   -144.58702    742.83746    11935.902 
   25510     286.1654     8.464701    62.770212    -149.2681   -1873.5572    11935.902 
   25520    307.49441    8.5100647    55.454662   -153.10394    520.12323    11935.902 
   25530    298.78735    6.0993831    55.988638   -156.24842   -2141.9417    11935.902 
   25540    305.06264     5.758118    51.011498   -158.39752   -339.46925    11935.902 
   25550    297.57798    7.2243744    52.138382   -160.04453    4127.4506    11935.902 
   25560    283.26654     6.732271    56.842902   -161.02942    1903.9449    11935.902 
   25570    267.58625    6.9038781    59.948886    -161.5295   -1066.0732    11935.902 
   25580    279.28868    7.8556039    59.238171   -161.30255   -4262.5827    11935.902 
   25590    273.24294    8.9516398    62.673874   -160.21243   -1922.5018    11935.902 
25600        0.95004654730878812519 10.275406959511517613 0.99735449735449732689 67 -293.00766994714223301
   25600    296.70292    7.0731533    58.340348   -158.57659    598.23062    11935.902 
   25610    278.07871    4.9755731    65.235343   -156.37566   -2857.9632    11935.902 
   25620    287.18747    6.3182179    62.849961   -153.56309    121.85793    11935.902 
   25630    283.13161    7.1383036    67.595259   -150.11632   -585.14398    11935.902 
   25640    316.21612    5.6120489     62.44294   -146.09221    1616.1193    11935.902 
   25650    321.26415    6.0833614    62.816035   -142.50794    450.06958    11935.902 
   25660    309.70043    8.0721297    61.715557   -139.75061   -878.98366    11935.902 
   25670    317.30894    7.5509423    60.153863   -137.47831    87.872115    11935.902 
   25680    317.52225    7.0085793    58.329046    -135.2082    232.82752    11935.902 
   25690    303.14108    5.4605837     60.54876   -133.31619    279.08433    11935.902 
25700        0.95772045789711912622 10.230629922585391611 0.99735449735449732689 65 -270.05365660805682637
   25700    305.17137    5.6286572    69.309959   -131.78566    1445.0823    11935.902 
   25710    297.45311    7.4216564    70.184471   -131.00496   -2188.9293    11935.902 
   25720     321.9181    7.4703076    61.726552   -130.71582    848.14567    11935.902 
   25730    326.87052     5.932243    63.510241   -131.11111    3328.8502    11935.902 
   25740    310.36045    7.0504907    65.712652   -132.21215    1254.8563    11935.902 
   25750    298.05125    6.9216811    69.806134   -133.80309   -2155.9722    11935.902 
   25760      304.685    5.2920749     70.60783   -135.69663   -681.03844    11935.902 
   25770    328.90846    4.5948574    59.960238    -138.1562    1494.5924    11935.902 
   25780    303.78621    5.2399046    64.195963    -140.9426    1967.3289    11935.902 
   25790    317.51292    4.8979175    51.241803   -143.14713   -2452.9241    11935.902 
25800        0.9621566179833225263 10.206552175882231737 0.99735449735449732689 66 -272.91322975564554554
   25800    283.30709    6.2149348     71.71601   -144.55157   -1293.7056    11935.902 
   25810    321.76325     8.502866    60.620877   -145.39242   -638.06748    11935.902 
   25820    294.48097    11.978032    67.457484   -146.26253    -259.4409    11935.902 
   25830    313.00644    11.408698    56.298911   -146.93989   -1224.2282    11935.902 
   25840    274.37925    12.134022    69.369907   -147.48228   -419.42517    11935.902 
   25850    288.27633     9.635109    58.706328   -147.53166    185.47615    11935.902 
   25860    309.46319    6.7440647    58.633151   -147.39688    1985.6243    11935.902 
   25870    304.30636    6.0102546    58.921015    -147.5069    1624.5286    11935.902 
   25880     305.6021    7.2295746    50.622723   -147.75555   -2106.0191    11935.902 
   25890    307.17173    6.2957465    59.485887   -148.06905   -723.17418    11935.902 
25900        0.9672550608242463932 10.200502200976021783 1 66 -293.0037544957737623
   25900    318.39644    6.8134446    55.539602    -148.7437    1653.2166    11935.902 
   25910    282.77921    8.9079028    57.409314   -149.70827   -2330.8378    11935.902 
   25920    283.92016    9.8581875    61.977258   -150.20061   -126.19084    11935.902 
   25930    307.78655    9.7575163    60.486153   -150.40306    2671.3193    11935.902 
   25940    295.19267    9.3011603    62.776558   -150.79355    3434.8615    11935.902 
   25950    271.36676    7.5563377    60.674428   -151.15537   -1084.0785    11935.902 
   25960    267.41504    7.4597477    62.341629   -150.85246   -1368.4517    11935.902 
   25970    301.23946    5.3088419    55.831633   -149.46104   -2128.4045    11935.902 
   25980    318.31944    4.4837088    63.653129   -147.45006    555.48176    11935.902 
   25990    293.64022    2.9927229    66.546406   -145.48286   -1569.0277    11935.902 
26000        0.97369478799243425193 10.174327126168648761 1 64 -278.17630628892226241
   26000    297.49908    4.3687197    65.670406   -143.38449   -1351.5151    11935.902 
   26010      326.758    7.7867662    65.578759   -141.28103    796.70975    11935.902 
   26020     325.0527     8.979411    63.819839   -140.08443    -1148.949    11935.902 
   26030    323.30374    7.8785534    63.972993   -139.79595    1893.3249    11935.902 
   26040    294.51417    8.3197704    70.923065   -140.19319    1660.6477    11935.902 
   26050    303.99799    6.6137235    65.993024   -141.14507     2111.397    11935.902 
   26060    302.78845    5.3984408    63.670904   -142.58625   -2081.0322    11935.902 
   26070    302.91171    4.6056586    57.343297   -144.59736   -2472.6559    11935.902 
   26080    296.25141    4.0158014    67.408628   -147.34924   -3383.2232    11935.902 
   26090    312.17681      6.75888    48.984006   -150.87326    1795.9321    11935.902 
26100        0.96724297582128626605 10.163760551817473399 1 67 -282.58308447114711726
   26100    282.36591    8.8044851    56.156992   -154.64786    4929.4858    11935.902 
   26110    252.68567    7.3355665     59.70483    -157.4307    3172.0856    11935.902 
   26120    273.51338    7.5657261    55.135748   -159.07963   -1857.4731    11935.902 
   26130    277.55432    5.6611771    56.637258   -159.74695   -955.00527    11935.902 
   26140    284.05028    3.1146793    57.316676   -159.65923   -994.00309    11935.902 
   26150     272.2151    2.2007939    59.397845   -158.80143    330.68947    11935.902 
   26160    300.48449    2.2007758    59.340911    -156.8496   -576.05905    11935.902 
   26170    319.91993    4.3523405    56.841803   -154.22727   -1078.6459    11935.902 
   26180    320.40751    6.1883813    61.225125    -151.7533    3008.3897    11935.902 
   26190    294.46131    5.8106098    60.554734   -149.69816   -250.33323    11935.902 
26200        0.96493834740480777246 10.197439380340924231 0.99735449735449732689 66 -276.70501774000371142
   26200    285.98429    5.8721985    57.475215   -147.13036   -560.79621    11935.902 
   26210    290.81498    5.9051555    59.226656   -143.51707   -682.49154    11935.902 
   26220    311.56731    5.0032251    64.047233   -138.83988    4205.1811    11935.902 
   26230     308.6842    5.5956447    67.575957   -134.05051     1952.954    11935.902 
   26240    326.59814    8.5301264    61.091089   -129.74292   -1788.1036    11935.902 
   26250    324.61043     9.024654    61.500098   -126.28536   -4856.3236    11935.902 
   26260    331.84696    6.9722372     72.77331   -124.04883   -2933.2414    11935.902 
   26270    304.26512    4.8840384    75.135186   -123.47161    2118.3856    11935.902 
   26280    317.14888    5.4211647    62.668279   -124.04757    285.01332    13177.545 
   26290    320.82013    4.9669155     59.82823   -125.20147    245.71947    13177.545 
26300        0.96622123924039271525 10.204948347294006794 0.99735449735449732689 67 -274.33081850157623194
   26300    324.88277    4.6200223    57.384953   -127.13192   -1458.2968    13177.545 
   26310    318.54507    4.0127883    62.377187   -130.07903   -562.07392    13177.545 
   26320    326.42981    4.4358693    54.794788   -134.94748   -841.66397    13177.545 
   26330    278.04703    3.9910563     68.92848   -140.72555    166.98092    13177.545 
   26340    320.13737    5.0044912    57.188754   -146.58697   -549.61145    13177.545 
   26350    294.92886    5.2408548    59.874004   -152.27712   -1089.0896    13177.545 
   26360    300.21518    6.9802447    48.862992   -156.04925   -2265.1128    13177.545 
   26370    266.86548    6.0496247    60.462146   -157.88925   -939.54423    13177.545 
   26380    299.22784     5.591496      55.6461   -158.41585    372.85361    13177.545 
   26390    306.97324    4.8289333    56.805781   -158.78021    2490.2662    13177.545 
26400        0.97936437704142786931 10.157122596806450687 1 67 -289.41429449660455475
   26400    287.59551    4.9124926    56.929373   -159.10962    678.00546    13177.545 
   26410    298.02196     5.858622    56.732994   -159.00171    1064.2188    13177.545 
   26420    299.69858    5.3655484    56.610133   -158.67319    2262.0638    13177.545 
   26430    294.21234    4.3686571    53.178577   -158.32239    264.99081    13177.545 
   26440    280.34678    6.0863621    59.316678   -157.59987   -1433.9025    13177.545 
   26450    295.60795    10.696179    53.154089    -156.2681   -2391.5413    13177.545 
   26460    288.70003    14.991109    55.344809   -154.48931   -910.81271    13177.545 
   26470    311.49817    12.988443    57.723962   -152.28119    2418.3073    13177.545 
   26480    297.20207    11.960658    66.833327   -150.07062    1343.1576    13177.545 
   26490    301.24287    8.6021297    59.154474   -147.92912    2204.7322    13177.545 
26500        0.9884358356060726214 10.107456810104714862 1 71 -276.08675778543329216
   26500    287.43538    7.4608679    64.428189   -145.85464   -1617.9784    13177.545 
   26510    295.30815    6.0689052    64.723208   -143.66936    1872.6417    13177.545 
   26520    345.06211    8.0338911    56.728584   -141.40502    1055.9326    13177.545 
   26530    327.14521    11.018425    61.363588   -140.19132   -378.16083    13177.545 
   26540    291.17401    13.538198    63.900103   -139.67506   -1823.6138    13177.545 
   26550    303.02483    15.202675    60.127405   -139.05258   -189.78805    13177.545 
   26560    326.16085    13.039734    63.347028   -138.41666    1175.8311    13177.545 
   26570    334.95113    10.045745    54.594835   -138.84524    1244.6963    13177.545 
   26580    305.06077    7.6023467    61.095241   -140.60972   -1343.5833    13177.545 
   26590    302.91952    5.7151585    57.919885   -143.28594    1292.1727    13177.545 
26600        0.99263831830709436943 10.083549607882201116 1 67 -288.87834103086061077
   26600    312.79308    6.0873469    59.740638   -147.15707   -677.99992    13177.545 
   26610    289.93931    6.3242871    62.353385   -152.30015    441.99189    13177.545 
   26620    295.29616    7.4810645    57.837379   -157.63295   -1780.4013    13177.545 
   26630    284.65835     8.643274    56.120036   -161.94356   -1529.5725    13177.545 
   26640    284.97165    10.343146    50.499085    -165.1375   -1303.7108    13177.545 
   26650    271.34857    9.3573843    52.397417   -166.93811    113.66061    13177.545 
   26660     276.8878    6.5868451    51.153932   -167.43901    585.15486    13177.545 
   26670    287.64392    5.3734859    45.673676   -166.96052     2179.593    13177.545 
   26680    282.88848     6.449761    57.007786    -165.7311   -510.92546    13177.545 
   26690    295.45031    8.6132058    52.551568   -163.94672    559.88815    13177.545 
26700        0.9905335726673725194 10.073986621230096361 1 66 -291.3189238115438684
   26700    285.86908    11.389737     54.35014   -161.79647    1118.5688    13177.545 
   26710      293.754     10.20543    54.424701   -159.03636   -1378.9498    13177.545 
   26720    304.87704    7.4964613    53.987108   -155.75926   -2353.1028    13177.545 
   26730     312.9806    5.5975614    59.288845   -152.44589    -294.4369    13177.545 
   26740    292.72228    6.0308809    64.340827   -149.85035    2948.5539    13177.545 
   26750    305.96564    6.9108566    53.550337   -147.58403    2260.5679    13177.545 
   26760    303.88416     6.839916    55.077137   -145.54714    518.49273    13177.545 
   26770    311.90717    7.0444894     52.71876   -143.69691   -621.93662    13177.545 
   26780     314.5234    5.7400455    57.961353   -142.30031    354.54737    13177.545 
   26790    313.70128    3.9637302    63.433303   -141.35554   -716.86197    13177.545 
26800        0.9849381013075083624 10.057742534432154713 1 70 -277.59676468474174271
   26800    301.54699    5.2869111    63.110211   -140.97091   -1132.1693    13177.545 
   26810    289.46198    5.8927236    65.051866    -140.9689   -3406.3913    13177.545 
   26820    304.45506    7.5490552    60.405808   -141.20722    53.702154    13177.545 
   26830    308.27919    7.7600386    55.582094   -141.67102    824.72731    13177.545 
   26840    287.16953     6.656935    59.099546   -141.74713    2012.9071    13177.545 
   26850    311.22025     5.207318    55.211863   -141.41899   -960.13402    13177.545 
   26860     290.8606    5.4507723    61.887621   -141.19345   -3224.9611    13177.545 
   26870    297.78986     7.412308     59.87549   -141.24342    411.60404    13177.545 
   26880    292.32916    6.9745793    55.360329   -141.34504    1288.8318    13177.545 
   26890     317.1054    6.4489383     56.75523   -141.14522    1458.9352    13177.545 
26900        0.98715157442245349273 10.030503133633501989 1 69 -291.32542002885566035
   26900     331.7286    7.2859258    51.772357   -141.02479    1514.9764    13177.545 
   26910    314.24563    8.2162661    61.352522   -141.47006    998.58543    13177.545 
   26920    290.62779    7.9205992    68.050015   -142.60253   -684.30827    13177.545 
   26930    285.47599     8.247757    63.721829   -144.03242    551.88365    13177.545 
   26940    306.64413    8.6697898    63.296621   -145.56819    344.05447    13177.545 
   26950    325.08831    10.293067    48.790002   -147.73551   -240.55738    13177.545 
   26960    271.30215    12.853401    63.568895   -150.21267   -219.96027    13914.315 
   26970     306.1499    16.869746    50.876289   -152.35068    1286.7314    13914.315 
   26980    305.07673    15.608941    55.468585    -154.5781    1184.6936    13914.315 
   26990    297.69034    10.828243    55.047745   -157.02857   -200.78904    13914.315 
27000        0.98409999597343100763 10.055163228141916321 1 71 -290.77103476666195547
   27000    288.93459    7.9117711    54.527814   -159.85965     -2201.91    13914.315 
   27010     259.5503    8.0728114    59.432763      -162.81    1730.7423    13914.315 
   27020    273.26709    6.0621657    62.049289   -165.91602    677.60248    13914.315 
   27030    270.54652    7.2129892    56.080169   -169.03982    1968.3503    13914.315 
   27040    273.21028    9.4480317    58.172734   -172.46281   -2753.8101    13914.315 
   27050    274.63615    12.451502    48.856724   -175.87971   -2877.1653    13914.315 
   27060     276.1302    13.120669    52.352343   -179.32247   -2756.6287    13914.315 
   27070    287.10289    12.961182    54.873946   -182.75702   -148.73008    13914.315 
   27080    283.01525    9.5500822    48.639324    -185.8672   -356.67523    13914.315 
   27090    251.16821    7.4988332    52.371849   -188.36736    -56.58216    13914.315 
27100        0.98768931746273225247 10.071943811714847428 1 68 -309.31007489853931247
   27100    264.17237    5.7693714    46.175715   -189.61803   -33.984296    13914.315 
   27110    263.04151    6.4490983    45.681924   -189.55972    1617.3667    13914.315 
   27120    264.81066    7.9232657    51.405432   -188.01723    3540.0585    13914.315 
   27130    267.55987    8.2348264    48.449944   -184.54618   -626.62706    13914.315 
   27140    261.69367    8.2964557    48.007057   -179.14824   -1578.8791    13914.315 
   27150    283.76589    7.5139425    48.996594   -172.65175   -1408.6932    13914.315 
   27160    274.93954    4.4011183    57.848084   -166.80965    518.87715    13914.315 
   27170    282.19524    4.8373669    58.778265   -162.52392   -4.8477791    13914.315 
   27180    287.28454    7.2538687    55.712383   -159.49444    1229.9693    13914.315 
   27190    280.39369    12.297496    62.396934   -156.92833    689.09783    13914.315 
27200        0.98885746719477896072 10.082728812945155994 1 67 -291.84579714391531979
   27200    302.87684    13.594858    55.403013   -154.61741    1673.0006    13914.315 
   27210     282.8055    12.680439    61.613458   -152.38528   -206.41072    13914.315 
   27220    301.90709    10.107897    54.141497   -149.70261    457.89694    13914.315 
   27230    306.09244     8.765002    66.295828   -147.01895   -1351.6611    13914.315 
   27240    330.23844     7.963912    60.377796   -144.78994     440.2369    13914.315 
   27250    338.32938    8.6380997    56.844602   -143.60193   -60.518316    13914.315 
   27260    338.22497    8.5053047     58.22818   -143.61866   -33.338314    13914.315 
   27270    314.03693    7.8977402    59.522697   -144.94504   -452.48227    13914.315 
   27280    305.66188    7.3790002    58.263355   -147.16778    94.928918    13914.315 
   27290    288.13987    9.6604019    60.499727   -149.36427   -799.30976    13914.315 
27300        0.98920744484746703229 10.101727482522587565 1 66 -290.05513676667061418
   27300    305.74139    9.4877959    51.843675   -151.52887    609.62583    13914.315 
   27310    305.53263     4.869305     56.11242   -153.51282   -800.18897    13914.315 
   27320     289.9805    4.4733119    55.151822   -155.41563    604.56237    13914.315 
   27330    279.60333    5.4515062    59.040063   -156.74089   -1371.5083    13914.315 
   27340    276.65652    8.9297082    57.203531   -157.56682    876.77592    13914.315 
   27350    279.64275     7.302462    59.677155   -157.98082    3563.1015    13914.315 
   27360    304.03202    6.3518711    50.634799   -157.88215    2482.8143    13914.315 
   27370    293.30548    6.6529407    54.354412   -157.45581   -2480.0676    13914.315 
   27380    285.93417    6.7208763    55.312933   -156.26436   -3454.6521    13914.315 
   27390    293.64342    5.8648875    56.074608   -153.90465    -446.6105    13914.315 
27400        0.98488646176054828185 10.138629959905623323 1 69 -287.09233682071527483
   27400    301.19942    5.7146953    58.618353   -150.62396    371.86303    13914.315 
   27410    320.27546     6.154524    59.550205   -146.70581   -1103.6215    13914.315 
   27420    331.45726    5.6673871    53.460217   -142.79614   -540.67166    13914.315 
   27430    330.86402    4.4449289    56.294767   -139.37857    -1444.908    13914.315 
   27440     326.5067    5.0773708    60.496655    -136.6744    402.90519    13914.315 
   27450    320.46037    6.6950336    61.699438   -134.55436    1017.3043    13914.315 
   27460    319.03035    7.9909701    60.963864   -132.93756    2027.1308    13914.315 
   27470    307.72047    10.676784      64.0216   -131.67751    -146.0299    13914.315 
   27480    301.04581    8.2749447    60.407871   -130.58878    1356.7582    13914.315 
   27490     286.7525    6.6722591      68.4131   -129.37614    1084.9247    13914.315 
27500        0.97935938266754052339 10.158349984949451184 1 72 -272.87553650349832424
   27500    320.81491    5.7631622    54.353457   -127.51972   -554.45523    13914.315 
   27510     318.2563    6.1286043    56.547492   -125.39535   -2391.0715    13914.315 
   27520    329.57987    5.2118499     62.34982   -122.79748    1496.0747    13914.315 
   27530    324.84385     3.786757    71.040396   -120.45665    2762.9176    13914.315 
   27540    345.58821    5.6522699    67.583347   -118.96696    191.71831    13914.315 
   27550    356.92465    7.5533132    61.258156   -119.64329   -972.99263    13914.315 
   27560    319.00745    9.4576869    66.301533   -122.70539   -2880.9371    13914.315 
   27570    309.54746    7.9725013    58.825262   -126.93622      603.281    13914.315 
   27580    284.54385    6.9087021       67.064   -131.61348   -475.90209    13914.315 
   27590    316.30307    6.7887043    64.914838   -136.25717    2173.8374    13914.315 
27600        0.96421294129536327944 10.211197868948321599 1 70 -277.81068607220299782
   27600    301.76425    5.5970798    62.087821    -141.0864   -1317.5767    13914.315 
   27610    303.66713    6.3223926    56.371425   -145.18209    731.29926    13914.315 
   27620    294.70897    4.9034156    61.737607   -148.27324    -439.0435    13914.315 
   27630    300.73074     6.588669    60.212785   -150.74318    2643.9721    13914.315 
   27640    296.61857    6.4965174    57.160993   -153.07357   -1000.2205    13914.315 
   27650    278.60882    6.1350063    59.789688   -154.89637   -114.60792    13914.315 
   27660    316.43047    5.4233145    52.564238   -156.24287   -2885.3994    13914.315 
   27670    297.02339    7.7497266    57.848753   -157.66582    923.19506    13914.315 
   27680    307.05993    6.6965819    53.348582    -159.1725   -1358.9415    13914.315 
   27690    283.13234    8.0630153    58.114607   -160.40482    1121.5036    13914.315 
27700        0.95819954496049253301 10.227295522214371104 1 73 -288.92950467282219051
   27700     282.0651    8.3582557    53.901664   -161.13057   -652.02398    13914.315 
   27710    270.55249    7.8804041    60.674717   -161.29724    1447.8612    13914.315 
   27720    278.99155    8.3145008    58.288815   -160.96187   -1859.4226    13914.315 
   27730    300.33356    7.8980638    55.933702   -160.18609    985.58092    13914.315 
   27740    299.65142     8.071575    58.003998   -158.84122   -926.27491    13914.315 
   27750     325.5039    6.6053444    52.498719    -157.0268    467.25149    13914.315 
   27760    281.03536    7.1851502     68.09918   -155.35243   -2244.7895    13914.315 
   27770    284.36779    6.4904684    57.723859   -153.31471    521.96505    13914.315 
   27780    294.35699     6.234369    61.969383   -149.83605    300.74917    13914.315 
   27790    306.04573    6.3551937     55.74378   -144.96476    1040.7524    13914.315 
27800        0.95887380212583595007 10.211322855473461857 1 70 -278.44842120762587001
   27800    307.42947    6.4803372    62.129038   -139.15731    192.21297    13914.315 
   27810    294.99663    8.2983504    59.599959   -133.40233    1589.7369    13914.315 
   27820    302.11678    9.6779714    63.564208   -128.57918    3191.7383    13914.315 
   27830    310.46183    10.124739    67.560033   -124.75367    4065.5763    13914.315 
   27840    324.02664    11.339912    62.466071   -122.44075   -3780.3005    13914.315 
   27850    315.45198    10.693114    57.322859   -121.14147   -3849.4157    13914.315 
   27860    318.50536    8.4132513    67.555735   -120.55044   -1614.6142    13914.315 
   27870    311.27137    4.9092916    72.549593   -120.60981    3273.9588    13914.315 
   27880    294.05363    5.0352604    71.043175   -121.35475    2148.9918    13914.315 
   27890    305.72315    6.0094523     59.64139   -122.29806   -1957.2163    13914.315 
27900        0.95541330005514102375 10.240129420960432327 0.99735449735449732689 70 -267.84333486129179391
   27900    318.46332    6.2098154    61.792509   -123.55298    107.20024    13914.315 
   27910    327.05635     4.803919    60.849087   -125.38077    206.10257    13914.315 
   27920    350.07921    3.9612373    57.121855   -128.33339   -911.30771    13914.315 
   27930    311.99894    3.4967229    70.204544   -133.14027   -4412.7264    13914.315 
   27940    307.39645    4.5483343    59.587428   -138.48829   -4948.5553    13914.315 
   27950    298.00482    3.8664318    61.733733   -143.66743    1563.3753    13914.315 
   27960    288.83504    4.1935436    62.143546   -147.58365    3985.7814    13914.315 
   27970    304.29052    5.3806332    55.528378   -150.30902    1724.2241    13914.315 
   27980    285.18211    4.1131033    64.995869   -152.37974    325.41212    13914.315 
   27990    296.36126    5.2905041    51.294814   -153.67508   -358.00852    13914.315 
28000        0.95258975073400309341 10.236115353491710422 0.99735449735449732689 72 -275.49684402937748473
   28000    267.19198    6.9954818    63.699091   -154.43667    2259.2803    13914.315 
   28010    280.30582    7.8280965    53.374337   -154.37789      54.8542    13914.315 
   28020    273.27787    9.8421296     55.54431   -153.58185    -2354.756    13914.315 
   28030    271.10475    11.351196     52.96827   -152.06074   -1592.3596    13914.315 
   28040    288.43751     9.287069    53.168328   -149.47935   -915.12737    13914.315 
   28050    281.30861    7.8631263    69.312697   -146.29962    2807.1683    13914.315 
   28060    290.33271    7.6995986    57.233649   -142.90355    155.71347    13914.315 
   28070    289.51088    11.168585    62.404719   -139.47625   -2168.7757    13914.315 
   28080    321.96226    8.0084783    57.751238   -136.48858   -652.85775    13914.315 
   28090    315.60262    6.3612767    64.238964   -134.24003    1102.8552    13914.315 
28100        0.95197534799661653881 10.244758143470869882 0.99470899470899465378 70 -273.0011926243163316
   28100    309.32803    4.2877088    63.642259   -132.84988      2725.65    13914.315 
   28110    309.46378    5.0203601    65.022403   -131.85738   -1110.0349    13914.315 
   28120    308.73622    6.5190282    63.070298   -131.39016   -2505.6936    13914.315 
   28130    302.62286    7.1156076    65.007253   -131.57471     -1314.64    13914.315 
   28140    284.23884    8.3156576    67.738563    -131.9991    -674.4729    13914.315 
   28150    304.77783    7.7424038    63.954568   -132.11354    835.51741    13914.315 
   28160    304.64967    7.4468239     61.22941   -132.30059   -201.83693    13914.315 
   28170    316.38842    5.1316007    69.283373    -133.0481    689.95226    13914.315 
   28180    310.52109    5.0199139    59.536024   -134.85353    1444.0713    13914.315 
   28190    316.55423    5.3605804    53.340086   -137.35753    114.54947    13914.315 
28200        0.96091868940721625325 10.19245097297570446 1 70 -286.17747974563360458
   28200    320.62041    4.3504895    64.308033   -140.90978    1782.3967    13914.315 
   28210    330.04609    3.4230098    57.818872    -146.4428   -1435.8618    13914.315 
   28220    297.38682     4.056205    58.524244    -153.9314    358.11741    13914.315 
   28230    291.07041    5.4307048     55.43859   -160.90876    309.30431    13914.315 
   28240    270.95338    7.8416751    55.857315   -165.28769    2178.8585    13914.315 
   28250    286.62082    11.651397    46.910073   -167.37415   -1286.7861    13914.315 
   28260    272.49423    12.315645    51.459269   -167.83379   -1152.5979    13914.315 
   28270    285.04379      10.0306    54.074487   -167.18033     1012.574    13914.315 
   28280    287.86228    8.6781763    57.408551   -165.89712   -66.859552    13914.315 
   28290    286.11974    7.9076705    59.144265   -164.17827   -1158.1409    13914.315 
28300        0.96289647452431093022 10.192226196446277697 1 67 -297.04310812464927949
   28300    297.91491    5.7507926    49.478049   -162.06289   -2441.0584    13914.315 
   28310    290.73511    4.9826528    58.976575   -159.66544   -482.82109    13914.315 
   28320    324.29887    6.5243274    43.203839   -156.98789    1946.8666    13914.315 
   28330     303.7507    9.0669085    54.934231   -154.16638     2006.518    13914.315 
   28340    309.76274    8.8678278    53.318576    -151.3163    1140.0503    13914.315 
   28350    298.03939    6.1503273    58.019312   -148.38582   -2657.0278    13914.315 
   28360    328.27452    6.8953714    54.507604   -145.98176   -2180.5567    13914.315 
   28370    308.62397    8.4357643    56.044274   -144.29598    548.01023    13914.315 
   28380    309.18086    7.2952974    51.388706   -142.60747    625.11907    13914.315 
   28390    290.76197    7.9126435    60.023467   -140.46709    1628.7397    13914.315 
28400        0.96986201691620910204 10.174087626736165291 1 68 -279.19979169338080283
   28400     312.3215    5.7448935    54.540606   -137.69219    -28.24919    13914.315 
   28410    341.37183    5.3645337    57.820131   -135.00872    1802.6957    13914.315 
   28420    315.37605    4.9716529    63.691745   -133.40561   -356.32862    13914.315 
   28430    326.62548    5.8503687    51.480708   -132.58006   -3191.0024    13914.315 
   28440    304.73958    7.9310456    62.687222   -132.16623   -721.18456    13914.315 
   28450    333.24768    7.0889959     59.94893   -132.21657    569.99588    13914.315 
   28460    331.76296    6.6237504    65.041661   -133.61266    2170.9456    13914.315 
   28470    323.54875    8.2372271    60.576883   -137.22012   -886.81685    13914.315 
   28480    315.94309    9.1674076    60.809917    -143.2651   -1235.2318    13914.315 
   28490    290.52184    7.1779905    57.586969    -150.8771   -828.91052    13914.315 
28500        0.97241546343356588533 10.16462735114212812 1 67 -286.60237890652001624
   28500    285.59271    5.2919677     52.50436   -157.20514    640.72085    13914.315 
   28510    266.82647    5.8117166    60.271691   -161.39181    1627.4722    13914.315 
   28520    285.57334    6.6691245    55.191142   -163.63606   -1631.2506    13914.315 
   28530    279.77515    8.0691013    58.897409   -164.75114    -1449.153    13914.315 
   28540    281.00199    9.2770011    53.365695   -165.04728    1933.6211    13914.315 
   28550    265.83344    7.9676508    60.816776   -164.62466    4099.0102    13914.315 
   28560    264.92719    8.1974589    60.447587   -163.47344    783.22921    13914.315 
   28570    282.56555    9.3033321    57.939184   -161.61081   -2031.4938    13914.315 
   28580    283.84182     7.612301    57.891764    -159.2702    212.15832    13914.315 
   28590    294.80735    5.0481378    56.626988   -156.70924   -88.594661    13914.315 
28600        0.97243249652372598657 10.192062565880076974 1 70 -281.58199234790691889
   28600    281.67198    3.9292838    60.858589   -153.96117   -1635.5515    13914.315 
   28610    292.61619    4.1538844    61.956892   -150.98859   -1537.9925    13914.315 
   28620    319.94928    3.2198806     56.79863   -147.94143   -2717.8902    13914.315 
   28630    296.04175    4.5176843    67.188171   -145.53804    85.619859    13914.315 
   28640    309.77895    4.7560026    63.906139    -143.7193    -2397.496    13914.315 
   28650    323.75621    5.9288262    64.787006    -142.6346    878.18902    13914.315 
   28660    318.15801    6.9161969    63.631244   -142.52262     351.9803    13914.315 
   28670     290.6429    9.2413255    60.280313   -143.28834    2517.4822    13914.315 
   28680    299.14357    9.9622842    68.844289    -144.1533    1071.5463    13914.315 
   28690    313.88001    13.746786    60.792108   -145.23412    1727.2522    13914.315 
28700        0.97914463564277576246 10.151881988113649058 1 68 -294.06441612443205713
   28700    323.79775     11.10097     55.84783   -147.35712   -3732.3571    13914.315 
   28710    298.70204    9.5242666    62.201424   -150.93935   -60.588022    13914.315 
   28720    266.87931    9.2440229    65.760075    -155.3662   -1224.5929    13914.315 
   28730    283.38193     8.672321     59.81623   -159.94315    278.50679    13914.315 
   28740    291.56502    7.9651299    59.180706   -165.18967   -2164.2227    13914.315 
   28750    291.10259    6.9633331    53.492137   -170.28735   -204.31593    13914.315 
   28760    274.33089    7.0592124    52.124001   -174.34591     1176.478    13914.315 
   28770    274.49213    7.5752705    53.625945   -176.76082      2913.72    13914.315 
   28780    258.23228    8.8473439    52.465406   -177.70598    539.32129    13914.315 
   28790    274.73611    7.4373583    49.588947   -177.41699    1408.1632    13914.315 
28800        0.98344999845193115107 10.111149320234074978 1 70 -287.55674109084480961
   28800     245.7953    8.6764725    58.452182   -176.19104    770.08112    13914.315 
   28810    270.86728    7.2793532    56.338855   -174.20474   -1438.3419    13914.315 
   28820    287.83345    7.4655153    52.664565    -171.8053   -990.68786    13914.315 
   28830    306.94296     6.374622    48.909556   -169.57497   -533.38189    13914.315 
   28840    298.15601    7.6179563    49.692664   -167.60545    200.78685    13914.315 
   28850    285.21061    9.2267287    56.014711   -165.59268    1376.6998    13914.315 
   28860    284.10013    10.044213    52.922746   -163.59424    1030.1044    13914.315 
   28870    278.15662    9.8260886    60.768427   -161.47576    1655.3479    13914.315 
   28880    282.81114    10.324526    54.417745   -159.27228    983.91352    13914.315 
   28890    278.86418    10.510087     54.56006     -156.728   -1664.2247    13914.315 
28900        0.98799782965994664696 10.120801558571450585 1 70 -289.1733422754904268
   28900    298.67573    6.0575698    60.505456   -153.84841   -1804.3214    13914.315 
   28910    298.35315    7.1704804     58.09539   -151.11249   -1194.3044    13914.315 
   28920    303.67866    8.4938781    61.446695   -148.54596    987.97264    13914.315 
   28930    299.77806     6.989497    63.966795   -146.27879    794.95435    13914.315 
   28940    315.00102    7.0740874    56.772305   -144.39922   -726.48184    13914.315 
   28950    296.20359    8.3995616    62.215877   -142.99579   -1394.8711    13914.315 
   28960    324.35032     9.308601    51.866717   -141.96329    715.24653    13914.315 
   28970    291.66356    9.1190907    63.973826    -141.1207   -390.51854    13914.315 
   28980    338.33628    9.1746716    50.942665   -140.44736    332.56331    13914.315 
   28990    306.90071    9.0115197    60.233221   -140.41667   -318.67296    13914.315 
29000        0.98588141439441012714 10.081251020784767647 1 69 -283.57839238010438976
   29000    314.97466    8.9915403    60.401948   -140.86869    837.00422    13914.315 
   29010    301.49901    9.0730754    60.141824   -141.56329    1135.1117    13914.315 
   29020    295.29679    10.481157    60.907027   -142.42283    1177.9966    13914.315 
   29030    316.19959    10.281268    57.781933   -143.50373    2374.8302    13914.315 
   29040    314.01866    6.7987216    63.157062   -145.38642   -1303.5865    13914.315 
   29050    292.04979    8.3318633    56.141576   -148.36565   -2778.4978    13914.315 
   29060    287.59203    7.9410278    54.511491   -152.15607   -1159.4809    13914.315 
   29070    285.99158    7.2711782    60.918725   -156.32849    1114.7037    13914.315 
   29080    302.51693    5.9188658    50.578639   -160.94236   -1615.8374    13914.315 
   29090    257.37277    6.8491615    68.954046   -165.09251   -891.64166    13914.315 
29100        0.98401074709991220857 10.085829156392208006 1 66 -304.88915799662197514
   29100     301.4472      5.41995    49.434283   -168.30852   -1753.3911    13914.315 
   29110    276.32189    5.8037112    54.653341   -170.77169   -1746.6956    13914.315 
   29120    285.74605    9.1122341     48.83259   -172.33597     227.3882    13914.315 
   29130    252.75236    11.203138    58.219881   -172.88111    2809.8362    13914.315 
   29140    267.89137    10.764279    53.215166   -172.15401    4238.2067    13914.315 
   29150    290.93986    7.7030266    51.414486   -170.24246    3285.3409    13914.315 
   29160    299.28168    5.7822514    55.697492   -167.64744    139.08655    13914.315 
   29170    297.61524    5.8707479    60.752898   -164.96062   -428.14772    13914.315 
   29180    279.44376     7.499244    54.994581   -162.14135   -1847.8691    13914.315 
   29190    275.13247    8.5131259    50.947515   -158.66722   -2733.3725    13914.315 
29200        0.9805515782093153776 10.086200635685219851 1 69 -281.46992962914742975
   29200    280.71373    7.4732964     61.16627   -154.28328    -1518.127    13914.315 
   29210    290.74125    6.7218038    65.091904   -149.49152   -557.17165    13914.315 
   29220    304.43171    7.4987522    61.246989   -145.84904   -194.87808    13914.315 
   29230    303.01391    9.7549711    62.047111    -143.3691    623.31407    13914.315 
   29240    312.72462    10.375786    61.895117   -141.79648    1148.5235    13914.315 
   29250    294.27873    9.2905087    74.252489   -140.95058    2975.8395    13914.315 
   29260    321.03271    8.2059075    60.856659   -140.88659    2564.7792    13914.315 
   29270    290.03877    8.0003753    67.471237   -141.49179   -2490.8782    13914.315 
   29280    320.14318     9.915472    59.127829   -142.40641    -1549.188    13914.315 
   29290     285.2449    9.9061739    77.371019   -143.81685   -2226.9202    13914.315 
29300        0.98426450509926777244 10.046682394673464245 1 69 -285.78675794836226487
   29300     310.1402    11.701147    58.013317   -145.26747    -611.5744    13914.315 
   29310    294.03577    10.640084    63.042283   -146.85083   -1029.3127    13914.315 
   29320     306.2953    8.9204061      64.1241   -148.20394     1963.977    13914.315 
   29330    311.73475     8.032046    55.166397   -149.64361     1909.683    13914.315 
   29340    291.04188    7.2794726    54.963044   -150.98137    1028.4182    13914.315 
   29350      308.848    6.2398417    54.357372   -151.90376    1680.7063    13914.315 
   29360     302.5229    5.1666184    62.474138   -152.81691    2276.1787    13914.315 
   29370    289.99475    5.5005305    57.605962   -154.05159   -1438.5236    13914.315 
   29380    276.58562    7.1839344    57.508354   -155.28382   -1096.0262    13914.315 
   29390    293.78806    7.6366618    61.338687   -156.05786    52.282581    13914.315 
29400        0.98354573064657968562 10.08068688066323304 1 70 -289.18605949485510109
   29400    292.96546     7.524461    58.992535   -156.44835    185.60681    13914.315 
   29410    294.94951    8.1989191     54.72911   -156.53129   -3479.2915    13914.315 
   29420    287.29488    8.2868947    61.104938   -156.06956   -2089.3805    13914.315 
   29430    309.74599    7.4200523    60.107266   -154.73691   -1075.2642    13914.315 
   29440    294.81741    8.3874021    66.338361   -152.68606    3134.1741    13914.315 
   29450    284.98994    8.5833854    65.063823   -150.40769   -26.928056    13914.315 
   29460    274.12367    11.090814    65.059449   -147.82909    1652.4465    13914.315 
   29470    317.84056     11.43176    59.630092   -144.39997   -651.39429    13914.315 
   29480    307.35732    9.8775674    67.348339   -140.94538     2209.811    13914.315 
   29490    303.71987    7.6211572    70.319071   -137.88766    445.01507    13914.315 
29500        0.98640460554804398896 10.064245566736756743 1 67 -275.84188147123984436
   29500    309.62286    7.4102282    70.437955   -135.55699   -1031.9695    13914.315 
   29510    326.19938    7.8880507    70.714127   -134.10345   -1952.0902    13914.315 
   29520    326.15192    9.5304142    64.394736   -133.91423   -804.36319    13914.315 
   29530     300.7691    9.4133997    67.514577   -134.46871    1563.5363    13914.315 
   29540    288.70033    9.3131003    66.618788   -135.04608    3481.0728    13914.315 
   29550    306.68565    9.9620786    72.258239   -135.60854    1297.0041    13914.315 
   29560    294.18935    11.806438    69.326952   -136.70365   -1655.8306    13914.315 
   29570    299.07354    9.3367056    68.766908   -138.79038   -1228.7578    13914.315 
   29580    288.16658     10.13337    72.034961   -141.44593    108.59129    13914.315 
   29590    296.32284    8.6444879    64.052032   -144.76541    -270.8976    13914.315 
29600        0.98942191232308929205 10.077713408351829827 1 67 -277.18911690023725214
   29600    283.48823    8.6873223    63.084226   -148.74538    377.97464    13914.315 
   29610    291.13233    8.8520243    58.976096   -152.77928   -606.05548    13914.315 
   29620    290.19141    7.5149598    58.535023   -156.64658    487.56991    13914.315 
   29630    286.29504    5.9482613    53.990764    -159.8476   -1150.3567    13914.315 
   29640    259.72875    4.4303856    66.364472   -162.35975    1084.6857    13914.315 
   29650    263.46311    4.6674516    66.460695   -163.89984    2057.1826    13914.315 
   29660    281.56717    4.5111585    53.935432   -164.57683    1443.3353    13914.315 
   29670    280.51401     5.338379    57.758326   -164.47794    850.71416    13914.315 
   29680    290.40929      6.50121    53.801752   -163.64142   -2869.5173    13914.315 
   29690      272.356     5.146674    61.180454   -162.09775   -4312.9993    13914.315 
29700        0.98800416795704382178 10.101308468204837965 1 67 -292.28567642451139363
   29700    293.48458    4.2434769    54.255414   -159.31276   -896.29495    13914.315 
   29710      304.053     4.168086     60.86544   -155.25082    1702.1673    13914.315 
   29720    297.26005    4.6862641     62.61875   -149.98671    3167.8643    13914.315 
   29730    328.06234    4.4557282    61.929752   -143.52259    724.48567    13914.315 
   29740    304.49785    4.0025059    64.590451   -137.69681   -721.12885    13914.315 
   29750    297.60292    4.1525739    62.151889   -133.37938   -39.843769    13914.315 
   29760    304.78687    6.1359878    64.404732   -130.29319   -1568.5316    13914.315 
   29770    313.26515      8.28979    64.766233   -128.26154    697.79723    13914.315 
   29780    319.58377    6.2050403    73.889645   -127.17269   -494.92254    13914.315 
   29790    309.32921     8.101257    69.210327   -126.92303    706.98563    13914.315 
29800        0.98090953725763463389 10.178175728462250049 1 70 -266.85635073889386604
   29800    307.96601    9.1584397    66.616475   -127.32215   -1542.9431    13914.315 
   29810    311.53266    9.5196384    69.817585   -128.34062   -73.382903    13914.315 
   29820    344.52492    8.9476074    59.562218   -129.90336   -2732.4418    13914.315 
   29830    320.23962    10.870043    67.480458    -132.1813    -241.1378    13914.315 
   29840    336.13653    12.943905    59.926942   -135.19211   -337.56641    13914.315 
   29850    292.58578    12.379559    77.693607    -138.7164     5427.755    13914.315 
   29860    322.04515    12.366815    62.608467   -142.54631   -614.16225    13914.315 
   29870    290.21397    13.098136     66.63728   -146.53936   -847.71594    13914.315 
   29880    296.65573     10.77904    61.712141   -150.05542    1112.7168    13914.315 
   29890    272.67616    14.089403    61.415812   -152.51434    941.60347    13914.315 
29900        0.9716274244690428219 10.205708837832078828 1 69 -279.10113068638702316
   29900    276.59825    13.207836    62.926892   -153.77913   -103.50432    13914.315 
   29910    293.44389    12.009743    56.135666   -154.35383    -1696.825    13914.315 
   29920    280.20465     7.306929    60.839453   -154.59799   -336.47005    13914.315 
   29930     267.6663    6.6700826    59.813749   -154.24632    995.97903    13914.315 
   29940    286.53357    5.8654526    60.848657   -153.12192   -1616.1033    13914.315 
   29950    307.89644    5.8794285    62.737708   -151.73976    2823.9998    13914.315 
   29960    324.01344    5.8605669    56.862848   -150.65833   -418.41465    13914.315 
   29970    311.89082     5.282913    55.649801   -150.11103   -520.59034    13914.315 
   29980    302.89419    6.8088424    57.470466   -149.82846   -3244.9313    13914.315 
   29990    296.82085     7.697777    56.744533   -149.40302    751.12794    13914.315 
30000        0.96917782237219518571 10.198615007121253129 1 71 -281.65002058677060859
   30000    294.27591    6.6462155    62.068384   -148.31857   -154.74357    13914.315 
   30010    303.47621    5.6435027    64.337466   -146.23348   -2521.7919    13914.315 
   30020    324.85846    4.3723781    63.528874   -143.65556   -263.80092    13914.315 
   30030    312.71183    5.5643933    66.259919   -141.23386    3245.2381    13914.315 
   30040    341.00079    4.4007121    56.226633   -138.89116    796.10863    13914.315 
   30050    297.34418    3.2360975     68.78929   -136.84047    91.218029    13914.315 
   30060    317.78257    4.0186545    64.854983   -134.77647   -2861.8024    13914.315 
   30070    307.00939    3.3702168    70.679653   -132.96983   -9.8828629    13914.315 
   30080     315.2946    3.2141315    66.106813   -131.74975   -22.169993    13914.315 
   30090    316.91893    4.7103044    62.552007   -131.33737   -136.16217    13914.315 
30100        0.96261608801471065799 10.205900872979551508 1 67 -277.92215359030137733
   30100    323.01964    5.7568804    56.275461   -131.56741    676.89116    13914.315 
   30110    301.05061    6.1544585    62.190508   -132.00184    591.33526    13914.315 
   30120    298.85301    4.4724842     59.05231   -132.46922     2075.518    13914.315 
   30130      299.058     5.537139     66.47456   -133.11451    1040.8983    13914.315 
   30140    289.64081    4.8449519    62.761646    -134.1834   -1717.4407    13914.315 
   30150    299.10897    4.6071364    56.769087   -135.31158   -3255.1582    13914.315 
   30160    305.48061    3.1956618      57.0852   -136.46656   -532.74607    13914.315 
   30170    295.49955    2.6769799    62.429115   -137.79536     912.7182    13914.315 
   30180     280.0814    2.6672357    67.976194   -139.04474     2548.522    13914.315 
   30190    295.80474    3.3504904     57.06605    -140.0601   -864.06929    13914.315 
30200        0.95603477166580363988 10.21566809581598001 0.99470899470899465378 63 -282.0247071265946488
   30200    311.13202    5.2954035    55.513738   -141.05604    1338.9869    13914.315 
   30210      315.203    5.4128818    56.359295   -142.64002   -169.03271    13914.315 
   30220    317.32831    4.5111119    54.428176   -145.09522    1404.7849    13914.315 
   30230    284.17853    2.4987779     62.26528   -148.07572   -743.39686    13914.315 
   30240    291.34402    2.1096986    58.146561   -151.27203   -913.46086    13914.315 
   30250    293.99451    3.4897707    56.017683   -154.34995   -2176.3985    13914.315 
   30260    307.71662    5.3091016    49.238182    -157.2378   -773.82569    13914.315 
   30270    273.99339    5.9520223    52.072473   -159.50549   -402.30653    13914.315 
   30280    259.94419    6.3921545    62.267556   -160.77861    1456.3286    13914.315 
   30290    262.25041     6.438602    60.749548   -161.19674   -710.94307    13914.315 
30300        0.95556556997336217218 10.228830257723888764 0.99735449735449732689 64 -288.0091738005426123
   30300    280.55291    7.5124118    57.855248   -160.89538    -304.6245    13914.315 
   30310    286.22284    5.3065289    58.227916   -159.91623    1191.5864    13914.315 
   30320      281.864    3.8796662    56.152134   -158.14602    424.22771    13914.315 
   30330    273.13057    4.2860149    59.470006   -155.09138    7.0821084    13914.315 
   30340    282.63007    5.5503468     62.23764    -150.4019   -3761.7236    13914.315 
   30350      303.353    7.3297913    62.829962   -144.30518   -66.837563    13914.315 
   30360     315.4447    7.2000454    58.924231   -138.16607    1789.2048    13914.315 
   30370    305.06178    7.6935745    61.747365   -133.59662    1803.8942    13914.315 
   30380     314.2592    7.3959538    60.201293   -130.54839     1127.747    13914.315 
   30390    316.24505    5.2935456    66.323693   -128.65553   -304.31385    13914.315 
30400        0.95476901924118662279 10.223744399245001446 1 64 -277.20960227989479563
   30400    329.71835    4.2473695     58.68656   -127.81978    1730.0209    13914.315 
   30410    323.01847    3.9397466    61.678926   -127.84542   -2343.2258    13914.315 
   30420    325.94635    6.1528895    64.534558    -128.8058   -1301.1866    13914.315 
   30430    325.99111    4.7959417     64.58087   -130.92621   -1894.0966    13914.315 
   30440    298.17175    6.4130054    66.713772   -133.61204    -78.88219    13914.315 
   30450    315.70321    4.1006102    56.728659   -136.38461    676.59337    13914.315 
   30460    332.36295    3.2906334    51.457993   -139.09009    3010.7234    13914.315 
   30470    326.53275    4.1302605    52.690361   -142.13308    28.087902    13914.315 
   30480    312.80022    6.2940924     55.22165   -145.07023    -507.4894    13914.315 
   30490    310.00334     6.567877    53.820377   -147.54909   -1938.1446    13914.315 
30500        0.96124988731997140778 10.219623774312870168 0.99735449735449732689 70 -269.21033247780263764
   30500    264.22782    7.1709621    62.927125   -149.49316    32.941122    13914.315 
   30510    268.36974    10.245731    60.546948   -150.44795    1126.8415    13914.315 
   30520    271.35212    11.700365    58.453348    -150.5168    1126.6721    13914.315 
   30530    307.81178    12.134604    51.958132   -149.87903    749.18869    13914.315 
   30540    329.60064    9.6444403    56.322194   -148.96226    62.518372    13914.315 
   30550    325.56643    8.7529808    57.202832   -148.86067   -2444.8888    13914.315 
   30560    298.72565    6.0088466    63.305384   -149.62154   -1109.8355    13914.315 
   30570    296.78497    5.1683102    56.243899   -150.70946   -2619.1192    13914.315 
   30580    300.04762     5.166104    57.203146   -151.73422    330.80959    13914.315 
   30590    298.19642    6.8921013    56.056935   -152.69942    1738.6315    13914.315 
30600        0.95240994687603153235 10.242030499306842728 0.99470899470899465378 70 -285.39555183088373269
   30600    290.69608    8.8553362    56.063395   -153.68606    2250.1885    13914.315 
   30610    278.07979    9.3678199    62.919185   -154.51522   -817.28654    13914.315 
   30620     269.1302    10.086652    57.495991   -155.06185   -2843.7819    13914.315 
   30630    285.54507    7.4037561    63.199916   -155.25532    113.78862    13914.315 
   30640    283.42173    5.1099715    57.791208   -154.96111    1049.3403    13914.315 
   30650    276.68144    3.3929857    54.752649    -153.6774    -1476.943    13914.315 
   30660    278.95226    4.1491866    58.712005   -151.02465   -2426.5054    13914.315 
   30670     300.8885    3.6973658    63.842383   -147.20034    1182.4394    13914.315 
   30680    310.66513    5.2707261    62.328402   -143.56795    4258.7259    13914.315 
   30690    314.25384    7.0366801    63.696557   -140.58086     160.3339    13914.315 
30700        0.95838787750348952699 10.212080164818846839 0.99735449735449732689 69 -282.96289069615119161
   30700    318.99406    6.5530626    67.248261   -138.43206    873.43905    13914.315 
   30710    309.10646    6.3352162    67.800819   -137.28519    31.402924    13914.315 
   30720    311.68917     5.147605    62.648438   -136.95896   -1478.8408    13914.315 
   30730    303.88099    4.5523935    64.020811   -137.12437   -1083.2755    13914.315 
   30740    309.01834    4.6496518    60.016414   -137.61203    21.003844    13914.315 
   30750    300.52781    6.1740806    65.478648    -138.5746    1712.8947    13914.315 
   30760     310.5974    7.3261844    57.793494   -140.02777    -414.3059    13914.315 
   30770    310.69332    6.4555395    62.245831   -142.08077    2379.9923    13914.315 
   30780    292.82167    8.7372265    70.093924   -144.86357    1138.4752    13914.315 
   30790    287.10577    10.096111    57.371248   -148.09193    -1001.212    13914.315 
30800        0.96122964395834509244 10.208052156430373003 1 69 -283.00612251047573409
   30800    291.09341    7.7156918    59.705544   -151.11661    -1506.393    13914.315 
   30810    300.07773    6.1045955    56.376031     -153.999    2058.3505    13914.315 
   30820    284.45618    4.6672391    65.010519   -156.66492    70.173078    13914.315 
   30830    283.25369    4.6078831    61.475213   -158.95615   -2230.6594    13914.315 
   30840    293.20182    5.0183228    55.766287   -160.90175   -10.779454    13914.315 
   30850    296.22023    5.1830787     55.04371   -162.81667   -592.76715    13914.315 
   30860    293.81868    7.0496688    55.008025   -164.72838    874.49804    13914.315 
   30870    289.63686    8.0213235    53.413442   -166.47209    -15.69224    13914.315 
   30880    258.57875    6.5315205    54.954281   -167.69036    200.89157    13914.315 
   30890    252.61542    5.0818583    63.458281   -168.04815   -956.10638    13914.315 
30900        0.962500481380852424 10.201160604893271255 1 68 -292.09517804761037496
   30900    275.17462    3.8001855    57.396314    -167.4182   -2211.9138    13914.315 
   30910    288.81876    3.7393978    61.887993   -165.89952   -2974.9958    13914.315 
   30920    315.25122     3.409021    53.778818   -163.42607    1456.9454    13914.315 
   30930    292.62844    5.2226175    57.573328   -159.78576     1156.122    13914.315 
   30940    332.50647    7.8698302    49.019511   -154.86734    2276.8793    13914.315 
   30950    293.23446    10.848117    67.801292   -149.54786    120.71432    13914.315 
   30960    300.41112    11.987289     62.27999   -144.79573    1448.7992    13914.315 
   30970    270.99174    8.6647637    68.318536    -140.2972    449.38565    13914.315 
   30980     340.1929     8.900242    51.968118   -136.05103   -1265.8839    13914.315 
   30990    323.62972    8.2360417    65.320026    -133.0755     -2075.97    13914.315 
31000        0.97430716609339007572 10.179854763631386305 1 68 -286.67986198241362672
   31000    342.24067      8.49754    56.382169   -131.61639   -1328.8306    13914.315 
   31010    323.05113    6.5044421    56.729166   -131.13562    2449.9792    13914.315 
   31020    317.90386     4.702857     62.27167   -131.35954     3517.937    13914.315 
   31030    320.45264    5.5556008    63.239231   -132.22884    423.35343    13914.315 
   31040    312.90309    4.3941244    62.426288   -133.70915   -1385.8265    13914.315 
   31050    319.31917    3.2356479    62.678621    -135.8406      114.106    13914.315 
   31060    305.16513    4.4374057    66.596043   -138.78001    161.18729    13914.315 
   31070    295.62517    7.5318803    59.693674   -142.00036   -890.44923    13914.315 
   31080    292.60954     9.847071    55.561452   -145.25556   -3919.5225    13914.315 
   31090    293.95042    7.5755882     66.35729   -148.51667   -117.90356    13914.315 
31100        0.9831829346531947289 10.15997133232625238 1 69 -293.72863750722319764
   31100    312.74891    6.5595412     55.52237   -152.02739    1835.1034    13914.315 
   31110    300.05161    7.0250565    58.028928    -155.2278    1118.1588    13914.315 
   31120    310.20681    7.8705673    55.808357   -157.95384    469.27219    13914.315 
   31130     281.7086    8.0862941    63.393461   -160.20875   -310.06242    13914.315 
   31140    297.57898    8.9974365    55.609795   -161.70922    166.43365    13914.315 
   31150    271.25564    9.2345997    56.729902   -162.62522   -1247.9426    13914.315 
   31160    276.93212    7.6656538    54.137759   -162.75403   -3546.9197    13914.315 
   31170    269.48518    6.4618403    56.478102    -162.0951   -858.33652    13914.315 
   31180    289.06329     6.872817    55.406199    -160.8105    525.20858    13914.315 
   31190    297.51574    8.6036205    54.883608   -159.29165    2771.0486    13914.315 
31200        0.98404419437892898248 10.134005453976950406 1 69 -288.20209771006165056
   31200    287.78579    9.2068012    53.576666   -157.81121   -1227.1319    13914.315 
   31210     285.9855    7.6554285    58.051581   -156.32585   -784.30708    13914.315 
   31220    307.64203    8.6534378    54.357191   -154.76893    188.26705    13914.315 
   31230    321.44603    10.228573    53.232008    -153.2773    971.98762    13914.315 
   31240    312.10919    10.277902    57.533046   -152.28979    2128.1202    13914.315 
   31250    303.08498    11.122413    55.473171   -151.74716   -1358.6027    13914.315 
   31260    286.16702    10.651724    61.586594   -151.24445   -996.11405    13914.315 
   31270    312.13804    9.1323101    52.590748   -150.44429    475.16785    13914.315 
   31280    328.26946    8.3752567    53.105585    -149.7115    -765.7157    13914.315 
   31290    326.87341    6.6636659    52.557037   -149.84072    2933.7771    13914.315 
31300        0.98894303920541848374 10.058094686638861859 1 68 -279.25926680577254047
   31300    284.16709    6.6555754    66.032094   -150.50795   -441.03656    13914.315 
   31310    295.00826    7.1553325    57.110797   -151.08371    1145.2146    13914.315 
   31320     278.1455    9.4094729    63.896937   -151.52117   -1261.2461    13914.315 
   31330    307.41477    6.6110103    55.511394   -151.89815    329.01782    13914.315 
   31340     318.0544     6.631302     58.12227   -152.67745   -435.77862    13914.315 
   31350     311.7248    7.3577119    49.225305   -154.12988   -1380.7004    13914.315 
   31360    305.90736    9.9493188    55.809227   -156.21136    3262.8699    13914.315 
   31370    293.02649    10.396828    55.498811   -158.68993    948.65149    13914.315 
   31380    289.93273    11.604028    55.800467   -161.49176   -2259.8907    13914.315 
   31390    292.07386    10.025422    56.883292   -164.28248   -2328.5806    13914.315 
31400        0.98601984751463955803 10.033435868069600971 1 69 -306.51662982711150107
   31400    307.04663    9.2480169    49.780634   -167.39898   -327.60301    13914.315 
   31410    261.83359    8.1253029    55.871375   -170.09981    2142.1319    13914.315 
   31420    261.16279    8.6503592     49.20722   -171.35841    -448.5381    13914.315 
   31430    229.76623    9.2807136    58.470647   -170.91058   -1220.7487    13914.315 
   31440    279.75925    9.9093807    50.924177   -168.68076    1893.5196    13914.315 
   31450    258.03374    9.6061678    66.949738   -165.36768    3459.4944    13914.315 
   31460    303.62729    9.1667556    50.482098    -161.3973    1243.5421    13914.315 
   31470    280.63643    9.5301391    56.840307   -157.22143   -2398.6484    13914.315 
   31480      318.186    10.574049    49.927722   -153.07608   -2638.6139    13914.315 
   31490    293.55331    9.5821061    60.202721   -149.61475   -67.526726    13914.315 
31500        0.98184381428658862312 10.000404504125823379 1 65 -282.19458496296056182
   31500    298.23479    8.1282321    59.648142   -147.06943    1450.0487    13914.315 
   31510    287.46276    4.9531979    66.940475   -145.12808    1469.2502    13914.315 
   31520    295.06649    4.6723335    63.228161   -143.46031    2664.3657    13914.315 
   31530     279.6052    4.8598214    66.506399   -142.04013    1383.5268    13914.315 
   31540    260.08244    6.9564231    62.180322   -140.35774   -145.73567    13914.315 
   31550    263.45233       7.9727    64.597618   -138.11508   -3835.6738    13914.315 
   31560    297.75613    10.256123    59.565234   -135.13019   -71.985692    13914.315 
   31570    295.83916    9.0822411    64.035177   -132.52866   -919.93454    13914.315 
   31580    290.94886    10.625948    65.564306   -130.29944    1146.5024    13914.315 
   31590     322.1758     6.959102    60.523143   -128.54407    1700.0146    13914.315 
31600        0.98413202568900171041 10.040735854988280806 1 71 -266.26680661463780098
   31600     305.7072    6.7421501    67.285377   -127.75603    1103.4775    13914.315 
   31610    335.33432    5.1524576    60.304124   -127.92696    526.70327    13914.315 
   31620    310.87603    6.2563725    57.260754   -128.86065    -2398.229    13914.315 
   31630    333.24221    6.1696845    50.476395   -130.06761   -1292.7458    13914.315 
   31640    313.48758    7.1227009    64.024323   -131.79923    1283.6904    13914.315 
   31650    316.90147    7.1052411    63.275871   -134.12274   -1279.0737    13914.315 
   31660    295.63254    9.1401756    61.152718   -136.93733   -132.22753    13914.315 
   31670    315.50709    8.9414538    52.883481   -139.37839   -1358.2648    13914.315 
   31680    313.47885    7.5055336     57.61813   -141.81126    2447.8907    13914.315 
   31690    290.75151    6.2402574    61.455821   -143.80657    1269.9067    13914.315 
31700        0.98574211760133523264 10.116041573870397485 1 66 -283.03150270685284795
   31700    304.28494    8.5575595    57.005594   -145.16513   -1360.1112    13914.315 
   31710    309.72076    10.488048    59.890121    -146.1809    -2829.149    13914.315 
   31720    303.84096    9.3721453    65.157086   -147.19492   -1734.9497    13914.315 
   31730    299.00982    7.5137555    63.993797   -148.27475    812.68552    13914.315 
   31740    293.16471    8.6334607    65.353253   -149.33368    2157.0414    13914.315 
   31750      302.127    6.3640321      61.5281   -150.29398   -685.85421    13914.315 
   31760    321.81832    4.7000968    57.208234   -151.35354    108.51901    13914.315 
   31770    296.44659    4.4725184    60.962017   -152.76336   -2057.5713    13914.315 
   31780    295.59542    5.5612185    67.173435   -154.08113    1145.0625    13914.315 
   31790    291.50965     6.942492    61.872879   -155.43522    2685.0359    13914.315 
31800        0.99051987591297174784 10.08162364586690174 1 74 -288.61280687492831021
   31800    290.88784     8.482298    58.116451   -156.81644    1818.2802    13914.315 
   31810    291.86919    9.9374831     55.37626   -158.09493    361.40398    13914.315 
   31820    274.87747    11.532231    60.737038   -159.04364    125.80278    13914.315 
   31830     285.4722    12.188119    63.185729   -159.49036    -1262.193    13914.315 
   31840    283.30147    13.496633    65.419933   -159.79688   -2626.8077    13914.315 
   31850    297.96849    11.046014    60.215708   -160.14453    253.06007    13914.315 
   31860    284.11047    9.9048097    66.941659   -160.51953    2124.2708    13914.315 
   31870    291.08713    9.7378429    62.589442   -160.80156    1407.7356    13914.315 
   31880    272.65511     9.252986    63.248196    -161.0319   -3381.9735    13914.315 
   31890    311.19561    8.1963781    50.445852   -161.04269   -1368.8026    13914.315 
31900        0.99249106646316109792 10.096411202141201358 1 71 -298.41120011156232295
   31900    303.67618    8.6125179    54.735168   -160.82065    262.78511    13914.315 
   31910    301.57898    9.9612899    55.524004   -160.28543    518.23395    13914.315 
   31920    298.00035    11.122552    57.273045   -159.28775    30.198299    13914.315 
   31930    274.42494    11.585992    61.680146   -157.91922    379.04474    13914.315 
   31940    298.91271     9.676188     56.83939   -155.80831    -216.3953    13914.315 
   31950    296.83243    7.4138132    63.530752   -152.94957    689.03095    13914.315 
   31960    315.22661     6.057507    55.437003    -149.8223   -1972.7344    13914.315 
   31970    304.79776    6.9468562    61.320803   -146.75469    1579.9695    13914.315 
   31980    313.09162    6.4039022    57.782695   -143.90512   -1669.2018    13914.315 
   31990    347.24342    4.3149789    57.085912   -141.26841    1544.8689    13914.315 
32000        0.98572509236530148069 10.124772474163302505 1 69 -292.88258483619631534
   32000    338.04127    5.0114345    60.593869   -139.72179    1004.2812    13914.315 
   32010     328.4906    5.2031639    61.753708   -139.36878   -877.73746    13914.315 
   32020    294.23947    7.2016848    69.130778   -139.87523    159.20483    13914.315 
   32030    305.44554    7.7420888    61.631891   -140.86679   -572.15913    13914.315 
   32040    301.38902    8.2024335     61.78545   -142.04467      998.639    13914.315 
   32050    318.21589    7.7560622    49.249174   -143.31414    1053.3385    13914.315 
   32060    303.60502    8.2811912    58.907876   -144.82455    -2241.067    13914.315 
   32070    309.97974     6.877912    57.825573   -146.96495    719.21855    13914.315 
   32080    306.47628    7.6336231    60.113702    -150.1119    373.25834    13914.315 
   32090    299.12434    7.2563261    55.737517    -153.9796    2810.9146    13914.315 
32100        0.98055893148836126283 10.124457691465483578 1 68 -295.0510010069897362
   32100    302.18282    7.8486822    50.879874   -158.13707    -1181.052    13914.315 
   32110     286.2158    6.6588094    52.752425   -162.06569   -75.201461    13914.315 
   32120    269.31052    6.9355822    59.847969    -165.3141    843.04645    13914.315 
   32130    289.86516    6.9886647    51.652525   -167.57857    499.11694    13914.315 
   32140    290.62614    7.7461217    52.292681   -169.40555    673.02651    13914.315 
   32150    288.59394     8.845763     56.57367   -170.78548    1116.8542    13914.315 
   32160    278.33815    8.7360888    60.748633   -171.73207   -2797.1888    13914.315 
   32170    287.35743    9.0688025    53.183363   -172.16508    282.78617    13914.315 
   32180    285.79922    7.6480883    55.753799   -172.02259     1716.021    13914.315 
   32190    285.91577    6.6741717     55.61548   -171.12845    2572.4509    13914.315 
32200        0.97582502749557864519 10.181181739918359952 1 67 -308.91903284731978374
   32200    308.28618     6.382744    51.710815   -169.23977   -1974.1622    13914.315 
   32210    301.65606    7.4475796    58.659205   -166.43154   -3359.3819    13914.315 
   32220    298.01724    6.2256576     59.07963   -162.34251   -1802.9651    13914.315 
   32230    298.13792    4.7292189    59.292425   -156.35547   -385.05823    13914.315 
   32240    329.44381    4.5110755    55.377755   -148.61159   -72.477529    13914.315 
   32250    309.58597    6.6920723    61.044795    -142.2471     705.5574    13914.315 
   32260    315.17884    8.4380143    52.140075   -137.78939    183.54959    13914.315 
   32270    304.31336    9.3185394    60.586005   -134.90287    1794.2833    13914.315 
   32280    318.75163    7.4142931    57.195107    -132.7238    740.91793    13914.315 
   32290    299.38914    4.7269407    64.806786   -131.44436    199.56805    13914.315 
32300        0.9610277754126754779 10.229477576302359765 1 69 -269.31054083520200493
   32300    306.05566    3.4065691    58.757633   -130.64188    -1514.081    13914.315 
   32310    318.93967    4.3495761    54.524784   -130.08579    1818.6669    13914.315 
   32320    317.44616    6.6444558    55.086184   -129.88084     2599.374    13914.315 
   32330    290.31094    7.8752405    66.974539   -130.02738   -1264.4376    13914.315 
   32340    302.13985    9.6599625    61.881095    -130.2681   -935.08295    13914.315 
   32350    316.90051    10.410227    62.972201   -130.77919   -1624.9909    13914.315 
   32360    324.88908     7.864309    61.663061   -132.12079   -738.18114    13914.315 
   32370    315.46102    5.9229616    65.984219   -134.68965   -1127.8962    13914.315 
   32380    299.99483    4.6565746    57.807417   -138.20724   -2213.6661    13914.315 
   32390    295.24337    5.5149677    60.596931   -142.34236   -2674.3034    13914.315 
32400        0.94433103421452779802 10.283758313480882762 0.99735449735449732689 70 -278.66944491043676635
   32400    291.26425    5.8608019    66.475403   -146.70253     1994.066    13914.315 
   32410    306.93774    5.9955228    53.455568   -151.16004    1568.0391    13914.315 
   32420    285.61723    7.1306416    60.070697   -154.95341    877.73365    13914.315 
   32430    288.30457    6.7345059    56.799368   -157.66754    405.08494    13914.315 
   32440    260.10994    5.5893341    59.403351   -159.37258   -1971.2564    13914.315 
   32450    264.73948    5.3355796    66.762922     -160.122   -192.09704    13914.315 
   32460    264.19157    7.0117114    67.654191   -159.98817   -962.48627    13914.315 
   32470     295.8904    8.4810609    53.095607   -160.61021   -2611.8094    13914.315 
   32480    282.91885    8.6496945    61.772477   -159.91943   -1572.3689    13914.315 
   32490    301.23735    7.7566975    51.023278     -159.015   -543.98457    13914.315 
32500        0.94299111359000920007 10.278912273057759563 0.99470899470899465378 69 -289.50509688025636024
   32500    290.16961    4.8078251    59.283899   -158.03414    3884.1658    13914.315 
   32510    297.16874    4.5024082    58.343796    -157.2072    291.93796    13914.315 
   32520    281.19937    4.3911061     58.43445    -156.6129    1119.1579    13914.315 
   32530    299.90001    4.5177248    59.075994   -155.92478   -60.855651    13914.315 
   32540    268.95103    6.7911731    61.771538     -153.918     923.7001    13914.315 
   32550    300.35617     5.765389    56.591964   -152.63336   -23.489133    13914.315 
   32560    286.10775    6.0487646    57.463098   -151.08739   -493.85857    13914.315 
   32570    317.07609    4.2767214    51.534159   -149.23758   -3515.7023    13914.315 
   32580    309.28223    5.5364982    63.115596    -147.5095     -690.206    13914.315 
   32590    322.96665    4.6742347    57.749138   -146.38949    1060.0891    13914.315 
32600        0.95380761028167904136 10.214537607553376475 0.99470899470899465378 69 -278.00091590095740912
   32600    291.68711    7.5991308    59.291434   -145.84241    2233.9354    13914.315 
   32610    297.78997    10.140662    57.770252   -145.03098    1186.3462    13914.315 
   32620    304.73983    11.014095    58.482879    -143.8335    1374.0029    13914.315 
   32630    313.82244    10.807742    58.298225     -142.582    356.98717    13914.315 
   32640     313.2008    10.814062    58.760861   -141.55127   -4041.1921    13914.315 
   32650    322.10472    7.9951977    56.440772   -140.79648   -3178.3561    13914.315 
   32660    290.46084     7.643982    64.126144   -140.32097    736.46187    13914.315 
   32670    286.69105    8.5107899    65.514108   -139.43778    1870.8543    13914.315 
   32680    311.69895    11.827437    57.239542   -136.77685    281.00987    13914.315 
   32690    332.46835    11.637505    57.912718   -132.03455    4258.4449    13914.315 
32700        0.95876377976962534611 10.183015272497947024 1 68 -279.64374115463255066
   32700    338.27639    12.195484    65.210911   -126.37642    628.15147    13914.315 
   32710    307.96873    14.399836    66.705615   -121.50632   -87.133682    13914.315 
   32720    326.85952    9.8818971    64.578765   -117.57125   -1178.5665    13914.315 
   32730    342.31247    5.9289483    61.562083   -114.65059   -934.89031    13914.315 
   32740    343.67017    4.9541172    67.678851   -113.35422   -292.83977    13914.315 
   32750    354.68654    6.2053892    56.067797   -113.77415   -1293.2359    13914.315 
   32760    318.05997    7.2551041     61.95609   -115.66333    154.62225    13914.315 
   32770    316.91749    5.3925152    61.234325   -118.36057     883.5909    13252.427 
   32780    282.52402    5.1060711     71.29371   -121.84073    2411.0257    13252.427 
   32790    318.64507    5.7252818    60.018204    -125.6867    1741.9463    13252.427 
32800        0.9673532115742479176 10.172184472889234996 1 72 -268.97005493244301988
   32800    306.69185    5.9760426    72.366589   -130.01315   -1860.1448    13252.427 
   32810    338.90814    6.2679169    57.345445   -134.61702    120.37724    13252.427 
   32820    310.57705    6.9315103    57.636671    -139.2772     892.4452    13252.427 
   32830    294.65701    8.9250067    64.878066   -143.15766   -551.19772    13252.427 
   32840    299.26578    9.6386327    53.717749    -145.9589   -1466.5607    13252.427 
   32850    309.91043    9.2833042     53.31234   -148.09946   -2566.6392    13252.427 
   32860    300.57366    6.7506233    58.569637   -150.04536    21.550159    13252.427 
   32870    287.24968    6.4265237    57.264142   -151.46383    4521.0515    13252.427 
   32880    296.44449    6.6683095    57.100871   -152.35224    1300.1251    13252.427 
   32890    315.26781    6.4131986    48.342724   -153.04755   -64.726902    13252.427 
32900        0.96838505312777800604 10.18968420952718823 1 71 -288.41142731428863044
   32900    297.20458    6.6002276    55.172538   -153.75305   -1327.5813    13252.427 
   32910    286.54555    6.6812219    65.313136   -154.63031    1493.8244    13252.427 
   32920    282.51582    7.0865493    60.317861   -155.63607    193.21257    13252.427 
   32930    287.42584    6.6220876    56.326931   -156.44319   -459.37426    13252.427 
   32940    275.96527    4.4567988    53.788512   -156.55909    341.76076    13252.427 
   32950    277.95554    5.7329741    53.518847   -155.50402    706.13377    13252.427 
   32960    308.78742    5.7417307    53.011429   -153.23666   -1893.2063    13252.427 
   32970    316.68525    5.1491827    60.577239    -150.3551    1884.9962    13252.427 
   32980    326.78379    5.6212851    55.017618   -147.13305   -1854.3692    13252.427 
   32990    319.15199    6.8445941    54.664795   -143.71384   -1705.1051    13252.427 
33000        0.9702579115992649994 10.19816081359190818 1 67 -287.11139412582826935
   33000    325.23762    7.2798346    55.415583   -139.75171   -362.60716    13252.427 
   33010    310.29391    7.7864928    59.452477   -135.32235    2329.1489    13252.427 
   33020    321.94765    10.809149    60.165073   -130.58403   -177.78491    13252.427 
   33030    325.06077    12.695593    59.014877    -125.9354   -3490.2257    13252.427 
   33040    346.86603    11.340333    60.417019   -122.15654    845.91121    13252.427 
   33050    320.91541     6.765007    74.829599   -119.94133     1984.892    13252.427 
   33060    316.21047    5.5373524    67.383842   -119.17156   -78.740215    13252.427 
   33070    305.07286    6.0601509    70.050841   -119.20374    108.19587    13252.427 
   33080    326.53643    7.1105757     62.36171   -120.11714   -1804.7259    13252.427 
   33090    340.72793    7.5493895    66.988676   -122.29136     647.2621    13252.427 
33100        0.97050288807074969188 10.198118508702119556 1 69 -275.86726577395540971
   33100     330.0674    6.5883235    64.716179    -126.3193   -821.80891    13252.427 
   33110    307.80604    6.0476828    62.754379   -131.80179   -2500.9815    13252.427 
   33120    296.36529    6.6480983    63.352313   -138.07652    1623.1906    13252.427 
   33130     300.8919    4.3154155    52.712643   -143.11156   -431.81927    13252.427 
   33140    312.76731     4.362313    56.426923   -146.65416     2034.596    13252.427 
   33150    298.08853     2.811101     61.73615    -148.8658   -361.45938    13252.427 
   33160    294.76669     4.553882    58.518828   -150.46552    735.05323    13252.427 
   33170    274.86076     5.800425    64.360362   -151.39985   -221.42108    13252.427 
   33180    292.13393    5.2825214    56.832347    -151.5658   -2549.4247    13252.427 
   33190    285.51038    4.6675762    67.660423   -151.25248   -1269.0383    13252.427 
33200        0.96926794557640849614 10.210950714730447686 1 67 -274.67596749248048127
   33200    273.59496    4.4762634    65.560444   -150.71471   -130.24498    13252.427 
   33210    264.80406    6.4501028    63.767453   -149.84694   -964.59617    13252.427 
   33220    291.66978    6.7163748    53.132463    -148.2685    327.32223    13252.427 
   33230    301.37718    6.0525586    61.017152   -146.18921    2257.9047    13252.427 
   33240    304.93484    5.6280363    68.012092   -143.94931    1681.7859    13252.427 
   33250    311.20079    7.0982633    53.998936   -142.02804    105.52641    13252.427 
   33260    288.57744     7.272417    66.888395   -140.50154   -3390.4483    13252.427 
   33270    314.57535    5.1771122    61.421817   -139.27626   -1306.8988    13252.427 
   33280    273.50649    6.3905842    76.876037   -138.39719    -3402.752    13252.427 
   33290    318.24515    9.7095204    54.882791   -137.64635    315.82869    13493.416 
33300        0.98163040435461790256 10.140656655129188124 1 68 -277.90461912581145043
   33300    310.59044     12.51229    60.396873   -137.18133    2331.2968    13493.416 
   33310    329.06576    13.155503    52.634288   -136.89853    3973.5474    13493.416 
   33320    312.88493    9.4658144    59.772231   -137.24585   -781.92594    13493.416 
   33330    301.39328    6.7408602    60.847168   -138.59513    1149.8305    13493.416 
   33340    274.79914    4.2472384    66.838412   -140.80311    940.60037    13493.416 
   33350    288.68958    4.2143861    58.793278   -143.02057   -1191.9473    13493.416 
   33360    280.01766    3.3401427    57.747768   -145.15576   -4537.5768    13493.416 
   33370     296.4091    5.2182933    53.377411   -147.24361   -2708.0931    13493.416 
   33380    266.11071    6.0584867    65.926932   -149.23587    1366.6042    13493.416 
   33390    282.77146    5.8367167    49.693302   -150.78807    1779.8193    13493.416 
33400        0.98714595866975551886 10.084540708139826393 1 69 -276.3781953987356701
   33400    274.54154    4.9510015    64.592418   -151.98806    486.50358    13493.416 
   33410    278.42896     4.925735    59.527989    -152.9954    2942.8337    13493.416 
   33420    273.62996    6.5181811    60.361944   -153.87575    956.90291    13493.416 
   33430    287.56646    8.2778311    51.763975   -154.42407    120.31613    13493.416 
   33440    272.63977    7.1750213    59.221748    -154.3338   -2614.1835    13493.416 
   33450    265.53766    8.8444251     60.73105   -153.32417   -2511.1967    13493.416 
   33460    285.07014    10.195443    56.523198   -151.37791    1961.3687    13493.416 
   33470    304.19192    13.494545     60.51621   -148.61166    3168.9483    13493.416 
   33480    321.34715    13.810515    58.005519   -145.40975    2051.9955    13493.416 
   33490    326.99328      11.2952    58.933771   -142.69851   -996.04142    13493.416 
33500        0.98782348910685513488 10.064197409513734982 1 67 -294.06891945853789139
   33500    338.14142    9.6972051    50.169145   -140.86275   -533.30728    13493.416 
   33510    331.69682    10.287366    60.649124   -140.24165    1868.8125    13493.416 
   33520    335.36779    9.9446463    55.089715   -140.70171   -1024.8135    13493.416 
   33530    310.57482    8.6313552    59.105237   -142.30612   -946.73721    13493.416 
   33540    301.90587     9.133286    54.752399   -144.51547   -1675.0204    13493.416 
   33550    277.26821    9.4900766      58.3662   -147.02676    981.03728    13493.416 
   33560    295.26406    8.5889505    51.310034   -149.24859    90.226242    13493.416 
   33570    288.10772    8.4693565    53.548684   -151.19657   -1417.2558    13493.416 
   33580    290.84368    7.4864531     53.61455   -152.98306    263.57124    13493.416 
   33590    297.77159    6.7998295    58.052357   -154.78826    1914.2711    13493.416 
33600        0.98942164880488558953 10.064703756551496738 1 70 -285.28831026718137309
   33600    283.54969    6.0019852    51.078178   -156.81673    665.00362    13493.416 
   33610    273.72545    6.7011298    49.424081   -158.46299   -1736.1629    13493.416 
   33620    278.80513    5.8644308     58.63292   -159.64877    -1387.324    13493.416 
   33630    290.17934    5.2606923    56.871364   -160.36358     2637.282    13493.416 
   33640    286.33159    5.8063733    55.458898   -161.05821    3445.5708    13493.416 
   33650    290.84481    6.2198831    55.408378   -161.74908   -2118.2497    13493.416 
   33660    276.75297    6.7284534     56.69138   -162.28821    -1597.583    13493.416 
   33670    301.23835    7.9142666    51.251371   -162.46552   -2512.4823    13493.416 
   33680    302.14674    12.396961    50.056053   -162.28917    1452.1437    13493.416 
   33690    294.73444    15.233114    53.500942   -161.91887    1523.2063    13493.416 
33700        0.99086268495802487521 10.071730314518950067 1 72 -292.52272360639000226
   33700     289.8336    12.976853    59.891652   -161.20401    1107.9189    13493.416 
   33710    302.83678    12.072269    58.913132   -160.45265   -78.004918    13493.416 
   33720    291.98116    10.272756    55.058676    -159.6769    766.27516    13493.416 
   33730    294.02321    7.3426833    51.650031   -158.34427    150.69371    13493.416 
   33740    317.52702    5.5472178    58.749843     -156.325    584.73791    13493.416 
   33750    321.22194    4.3977502     52.16828   -154.21735   -5401.4512    13493.416 
   33760    305.00267    5.6435539    52.980511   -152.65725    -1845.671    13493.416 
   33770    284.33625    7.1832201    59.553857   -151.12789   -279.37428    13493.416 
   33780    287.97026    6.7046269    57.968595   -149.08548    1965.6543    13493.416 
   33790    297.62919    9.6354445    57.502909   -146.52546   -325.70749    13493.416 
33800        0.98582337097507755086 10.09270323494270194 1 71 -273.62661063320859967
   33800    287.07822     9.093245    53.186615   -143.55631    857.89321    13493.416 
   33810    321.94452    7.2995963    47.628317   -140.05081    1740.7488    13493.416 
   33820     307.6906    6.7952719    56.309359   -135.97811    519.96142    13493.416 
   33830    306.53367    6.8932761     61.65224   -132.35995   -2369.9551    13493.416 
   33840    299.56296    8.5719758    67.485789   -129.36055    896.13314    13493.416 
   33850    324.91214    7.5520549    62.750071    -127.3961    1380.8067    13493.416 
   33860    332.85492    6.8303286    58.661436   -126.28644    2586.5973    13493.416 
   33870    325.75495    9.9095198    54.402455    -126.0269   -2520.5135    13493.416 
   33880    307.38092    11.390228    64.748106   -126.35588   -497.03558    13493.416 
   33890    300.41477    16.559316     66.56315   -127.26462   -2715.2756    13493.416 
33900        0.98507365074131536531 10.099457546090865989 1 77 -272.76567328343003282
   33900    317.65195    15.787549    57.937058   -128.84293    1669.3561    13493.416 
   33910    306.22432    11.559604    64.231582   -131.40949    1143.0637    13493.416 
   33920    312.43328    7.8997471    53.185041   -134.97577    2925.8813    13493.416 
   33930    296.35104    6.3245372    60.794678   -139.62905   -1605.9163    13493.416 
   33940    317.09589    6.8024233    51.604925   -145.66201     934.7874    13493.416 
   33950    309.04047    6.0242946    50.686005   -152.09784     246.3326    13493.416 
   33960    301.56663    5.4942695    53.187524   -157.83684   -1169.7141    13493.416 
   33970    273.17083    5.2586841    56.253831   -161.77361   -1637.0667    13493.416 
   33980    272.94175    5.0355156    52.123255   -163.95157    682.34689    13493.416 
   33990    261.87959    5.2318156    55.611336   -164.72544    1789.4564    13493.416 
34000        0.97987249000792076004 10.090941765534132912 0.99735449735449732689 72 -284.10631018073570431
   34000    264.57884     5.940206    51.004293    -164.2301    1320.4974    13493.416 
   34010    252.29382     6.660488    59.251948   -162.62518   -1359.7114    13493.416 
   34020    278.96819    7.3112497    51.976695   -160.02569    -1211.906    13493.416 
   34030    290.13171    5.7834744    52.779046   -156.66791   -1803.6936    13493.416 
   34040    296.55859    7.9706927    53.924321   -153.15976   -1802.3715    13493.416 
   34050    291.91087    7.9761188    58.887227   -150.00885    187.49894    13493.416 
   34060    314.67934    6.2465587    49.192252   -147.36452   -165.92833    13493.416 
   34070    297.86426    5.8821372    53.232522   -144.75744    3211.0951    13493.416 
   34080    311.68314    4.9551385    52.182254   -142.12283    2354.6438    13493.416 
   34090    298.17329    4.4380995    58.653832   -139.55527    956.16564    13493.416 
34100        0.9787943523523576772 10.092838282539204897 1 69 -273.51962349727062929
   34100    300.61125    6.1306611    58.161088   -137.31774   -985.72521    13493.416 
   34110    307.68693    7.1812167    55.926373   -135.01108   -2655.4879    13493.416 
   34120    318.28484    6.5173275    58.369289    -132.8515   -950.55388    13493.416 
   34130    328.31587    7.0398167    60.241315   -131.04724   -2072.2866    13493.416 
   34140    313.55186    9.7030107    61.600217   -129.79713    641.40308    13493.416 
   34150    315.89519    12.846482    56.215529   -128.88493    -1174.813    13493.416 
   34160    306.51153    10.375378    65.397646   -128.40102    1622.5043    13493.416 
   34170    317.39085    9.6790471    61.254912   -128.63172   -172.26142    13493.416 
   34180    312.66115    9.2745051    63.194977   -129.68409    1473.2298    13493.416 
   34190    334.04902    8.7785536     55.86175   -131.52819     1544.595    13493.416 
34200        0.97865336008048808836 10.08376804496928969 1 68 -278.45738372641767455
   34200    317.29733     5.928497    59.177941   -134.69532    3369.8485    13493.416 
   34210    307.55511    5.3348579    61.412661   -139.64386    438.77501    13493.416 
   34220    272.41583    6.0400442    58.920665   -145.50946    347.80928    13493.416 
   34230    274.62745    5.4288299    57.228813   -152.12917   -1145.1117    13493.416 
   34240    271.17434    4.1436567     59.36834   -156.26774    1634.8039    13493.416 
   34250    282.75387    4.1568319    59.370681    -159.0245    -972.6215    13493.416 
   34260    299.03881     6.477623    57.259302   -160.80587    -1076.501    13493.416 
   34270    282.94391    8.0501079    57.010085   -162.19188   -1138.7923    13493.416 
   34280    278.75716    8.0182681     57.06904   -163.00176   -511.83304    13493.416 
   34290    264.76533    9.2459628    58.178641   -163.05376    341.09555    13493.416 
34300        0.9792379163498975414 10.12116986770714 0.99735449735449732689 66 -281.03546676412986471
   34300    261.99912    6.5568853    57.255509   -162.32808    1131.7845    13493.416 
   34310    272.17441    6.4826157    64.239722   -160.80726   -168.12966    13493.416 
   34320    266.38535    6.0766803    62.286238   -158.85901   -2316.3635    13493.416 
   34330    283.32443    5.8898822     58.28395    -156.7997   -1888.9575    13493.416 
   34340    293.71737    6.1802426    55.159792   -154.38717   -6.3712628    13493.416 
   34350    296.89597    7.1472984    51.707667   -151.96658   -499.76259    13493.416 
   34360    288.49487    6.3737521    59.641957   -149.48904    2185.3903    13493.416 
   34370     291.0069    4.7581219    62.104491   -147.04394    431.42231    13493.416 
   34380    313.07342    5.7153089    52.266414   -144.93454    2032.4883    13493.416 
   34390    314.63244    6.7819389    57.269763   -143.40582   -2487.3067    13493.416 
34400        0.97939837737618962166 10.137144680972980382 1 66 -284.17512722376517331
   34400    312.61739    7.2323366    55.968206   -142.53346    2390.0535    13493.416 
   34410    305.95115    7.3748413    61.533798   -142.02715   -1752.8208    13493.416 
   34420    304.07302    6.9991979    62.233047   -141.89144   -682.71443    13493.416 
   34430    311.67609    7.5933247    61.743926   -141.74623   -1684.4313    13493.416 
   34440    307.51619    6.1493562    60.923307   -141.98353    1242.1722    13493.416 
   34450    309.45883    6.5260104    60.630482   -142.61681    118.04688    13493.416 
   34460    307.84935     8.643478    55.232915    -143.3548   -1827.0899    13493.416 
   34470    301.72413    9.7937805    52.849981   -143.96873   -278.16451    13493.416 
   34480    268.94311    9.2600927     67.91003   -144.01039   -2949.3167    13493.416 
   34490    296.12806    12.441832    50.334368   -143.30408    794.86755    13493.416 
34500        0.98012594285364118551 10.127394860396412568 1 67 -282.27857032798590353
   34500    309.61572    11.646345    56.154603   -141.99691    951.74798    13493.416 
   34510    322.40239    9.8346827    55.632356   -140.14132    1380.1443    13493.416 
   34520    286.39339    8.0376697    65.807927   -138.15905   -72.903208    13493.416 
   34530    295.39262    6.4543799    62.875406   -135.23057    2141.5631    13493.416 
   34540     306.8178    7.7110304    66.358576   -129.83778    2642.4275    13493.416 
   34550    346.86476    8.1104481      60.8255   -122.70244    2305.8215    13493.416 
   34560    349.31669    7.1418809    59.994717   -114.41762   -3025.5875    13493.416 
   34570    321.22652    8.5728706    70.825889   -109.55955   -3174.3466    13493.416 
   34580    341.97558    9.3139772    73.439292   -106.58301   -1474.6712    13493.416 
   34590     341.6464    8.6605199    76.483103   -106.08228    1431.0858    13493.416 
34600        0.98140060137979912014 10.127358261051909949 1 69 -267.41501625312878332
   34600    353.10283    7.6609332    67.706175   -107.43008    1096.6036    13493.416 
   34610    349.31813    7.0162969    58.978568   -110.28184   -790.55666    13493.416 
   34620    336.52484    9.5437168    58.988497   -114.31413   -632.39315    13493.416 
   34630    324.36723    10.407715    61.170546   -118.66862   -1084.4502    13493.416 
   34640    289.51412    11.676536    66.690462   -122.57102    1795.2232    13493.416 
   34650    346.04549    11.556498    49.190425   -125.89759   -805.62548    13493.416 
   34660    326.64502    9.2785518    60.137485    -129.3811   -716.88571    13493.416 
   34670    308.55411     8.269176     66.54777   -132.70635    4351.2832    13493.416 
   34680    307.20253    6.7853129    64.898293   -135.42191    2670.3424    13493.416 
   34690    309.54403    7.4679899    64.631062   -137.88267     671.8559    13493.416 
34700        0.97868416075185049596 10.145706994736414686 1 64 -282.79999790625856804
   34700    314.02808     9.377664     62.01973   -140.51917   -2828.8201    13493.416 
   34710    299.35678    11.820125    64.850661   -143.02968    -2358.068    13493.416 
   34720    281.44485    12.983504    61.430881    -145.2678   -4181.3068    13493.416 
   34730    289.05162    12.265822     61.64824   -146.82854    846.12336    13493.416 
   34740    290.79402    8.7521299    64.910191    -148.1903    1732.5711    13493.416 
   34750    310.60272     6.726869    53.654945   -150.30385    3757.8119    13493.416 
   34760    292.80751    7.4320343    55.686638   -151.76007    2322.3494    13493.416 
   34770    282.56452    7.0216174    62.975541   -153.00493    2459.5322    13493.416 
   34780    281.50166    5.5108292    59.086122    -153.7066   -1422.0326    13493.416 
   34790     262.1183    5.0640456    62.553144   -153.77872   -4057.5934    13493.416 
34800        0.97060070102510553891 10.165227607158479728 1 64 -278.21185859138938667
   34800    276.28187    5.5777442    61.778373    -153.0332   -1644.7913    13493.416 
   34810    276.48984    4.1063894    63.994611   -151.42008     1315.644    13493.416 
   34820    290.77419     3.106778    51.790317   -148.06058   -1396.5075    13493.416 
   34830    268.24571    4.5753022    64.520959   -144.22864    1459.2026    13493.416 
   34840    305.10743    5.0586288    55.318342   -138.63665   -1491.4725    13493.416 
   34850    278.19306      4.98901     70.51036   -132.46536    1480.3244    13493.416 
   34860    321.55368    4.1841057    56.504272   -126.92516   -1581.2711    13493.416 
   34870    315.94192    3.2859693    63.295966   -123.19093    2208.1637    13493.416 
   34880    343.94593    3.0737636     54.22003   -121.07868   -854.27861    13493.416 
   34890    304.11672    4.3090695    67.895167   -120.24218    1000.3458    13493.416 
34900        0.96150874428420496365 10.181080716930054564 1 64 -258.13468117346269537
   34900    304.95209    5.9697196    69.628396   -119.96603    1465.7335    13493.416 
   34910    315.60576     7.701165    63.322846   -120.06584    3725.2488    13493.416 
   34920     312.7062    7.4523734    71.036405   -120.68594    248.10119    13493.416 
   34930    334.70125    6.1161046    56.254966   -121.96883    -1888.269    13493.416 
   34940    321.62227    2.9181162    63.022394   -124.08765   -1601.1444    13493.416 
   34950    319.60467    3.5434924     54.05914    -126.8263   -964.96111    13493.416 
   34960    292.67718    3.1195876    62.479709   -129.65987   -2030.3384    13493.416 
   34970    304.74447    2.7623075    53.633079   -132.25078   -444.84795    13493.416 
   34980    310.23673    5.2836715    59.771225   -134.75417   -1368.2078    13493.416 
   34990    296.95002    6.7804327    60.345949    -137.4526    1055.3262    13493.416 
35000        0.94578772669818234053 10.238666822122146627 0.99206349206349198067 62 -269.67512846010470184
   35000    286.35289    9.5488144    59.843926   -139.93346   -1157.0334    13493.416 
   35010    276.95331    9.5479944    64.738348   -141.80015    814.35444    13493.416 
   35020     311.1454    8.7270391    56.893254   -143.18263    1993.5421    13493.416 
   35030    279.28803    9.8449826    63.142627   -144.64177    1456.3011    13493.416 
   35040    294.42983     8.419739    58.655283   -145.87853    1309.9628    13493.416 
   35050    291.32618     7.852086     51.97849   -146.98996    684.16828    13493.416 
   35060    279.26029    5.1487392    61.624697   -147.89877   -812.15591    13493.416 
   35070    295.11326    4.1978689    52.470558    -148.2484    -2317.455    13493.416 
   35080    296.45585    3.2249276    55.307621   -148.34389   -2754.6447    13493.416 
   35090     284.1797    2.6214288    58.802812   -148.47299    1967.5043    13493.416 
35100        0.94479894097699668176 10.265782816714544623 0.99735449735449732689 67 -276.04503302649214902
   35100     281.4421    3.3329704    65.163779   -148.52837   -1290.6265    13493.416 
   35110    286.55013    3.8508159    58.642165   -148.29967    1097.0223    13493.416 
   35120    292.24268    2.9329079    59.846604    -147.5199    -2525.757    13493.416 
   35130    290.61494    3.4317998    64.135195   -146.22497     798.5414    13493.416 
   35140    288.73869    4.6339846     61.38895   -144.48353    65.415058    13493.416 
   35150    287.70546    6.3342974    58.302277   -142.27948   -1607.1113    13493.416 
   35160    282.39024    5.3944178    66.155323   -139.56516    918.72686    13493.416 
   35170    276.11638    4.7012895    58.982286   -136.30447    -407.1013    13493.416 
   35180    284.78843     6.318896    61.068215   -132.38748   -1527.6713    13493.416 
   35190     300.9157    4.6443757     64.50645   -128.06252    395.57506    13493.416 
35200        0.94478966299287281405 10.256260252663990329 0.99735449735449732689 65 -262.36640650821402687
   35200    305.02402    5.4308216    65.362617   -124.16517    726.28202    13493.416 
   35210    317.04772    5.6901525    62.719438    -120.7715    68.632828    13493.416 
   35220    334.73368    8.0926396    66.353993    -118.3813   -1380.8916    13493.416 
   35230    346.70326    9.0544065    68.389401   -117.36323    725.86525    13493.416 
   35240    333.92725    6.9936197    71.027596   -118.66765    736.58162    13493.416 
   35250    312.90896    5.1986091    65.176746   -121.69082    843.09945    13493.416 
   35260    309.50994    4.0361472    57.990623   -125.40906    1253.3292    13493.416 
   35270    282.72115    4.5511689    71.543727   -128.87595    1072.4236    13493.416 
   35280    296.02759    5.7364818    64.817573   -131.91682   -167.38727    13493.416 
   35290    293.15043    5.3514923    62.960517   -134.80014   -1256.3099    13493.416 
35300        0.95222953959817013825 10.2582408009318371 0.99470899470899465378 70 -268.51915510525526543
   35300    288.96096      6.41912    62.712692   -137.59582   -3825.6206    13493.416 
   35310    290.68714    6.3473218    61.889446   -139.91662   -2871.7592    13493.416 
   35320    274.70835    6.1295781    61.637292   -141.77545    410.90098    13493.416 
   35330    279.55703    5.2796278    62.656547   -142.88007    -782.2276    13493.416 
   35340    298.83267    6.6923011      61.8639   -143.40971    1602.1976    13493.416 
   35350    309.66388    9.2569719    55.543156   -144.07927    2362.1095    13493.416 
   35360    281.83048    10.275357    64.430305   -144.88945     1940.559    13493.416 
   35370    292.05087    11.763829    63.084446   -145.58661   -209.56171    13493.416 
   35380    277.04959    10.237149    64.971652    -146.1563   -2132.2812    13493.416 
   35390    305.94111    8.1336856    60.831316   -146.65734   -757.23656    13493.416 
35400        0.96641284613912648016 10.202644086051821048 1 66 -284.21963597722049144
   35400    301.13229    7.5188182    54.931409   -147.78168   -444.29544    13493.416 
   35410    290.72635    8.3649564    61.908275    -149.7067    474.92052    13493.416 
   35420    299.46737      8.46285    56.812044   -152.28407    900.41581    13493.416 
   35430    288.62738    5.7570404    61.172215   -156.27486    -1237.729    13493.416 
   35440     298.3591    4.6806538    53.218968   -161.27447   -206.23065    13493.416 
   35450    278.82338    5.8788391    61.148817   -167.18292   -199.89873    13493.416 
   35460    273.23959    6.2624884    55.723704   -172.17153    1063.0908    13493.416 
   35470    281.10857    6.2969514    47.499561   -175.69165   -1697.8134    13493.416 
   35480    271.07529    6.5046325     49.92502   -177.89516   -2373.0121    13493.416 
   35490    264.11658    9.2638304    55.756634    -178.5574    1290.7434    13493.416 
35500        0.97208020757021862401 10.176910363009575633 1 68 -294.09448595210983513
   35500    256.31135     9.795201    50.768262   -177.96414     2510.363    13493.416 
   35510    257.52707    9.4689337    56.154251   -176.14219    726.18459    13493.416 
   35520    277.90438    7.5043908    50.869776     -172.917    1223.1657    13493.416 
   35530    280.55385    4.6179305    52.097802   -169.24916   -888.79799    13493.416 
   35540    276.60054    5.1134113    55.294913     -165.341     2333.933    13493.416 
   35550    279.16066    4.7941578    50.738722   -161.57659   -3797.0828    13493.416 
   35560    276.70594    5.3193285    59.746647   -157.87123    2143.6306    13493.416 
   35570    305.76724    5.6335663    53.723456   -154.37017     1444.938    13493.416 
   35580    293.82605    6.7922276    56.844287   -151.63153     2186.409    13493.416 
   35590     298.5369    6.5648315       61.552   -149.61709   -3365.7789    13493.416 
35600        0.98185414643044643945 10.146357779109283825 1 70 -276.3104491032227088
   35600    282.88325    7.0226156    58.726684   -148.14082   -2833.8223    13493.416 
   35610    291.08167    7.1348165     55.72477   -146.66917    -379.2188    13493.416 
   35620    285.43584     7.147166    63.529836   -145.10827    1185.9469    13493.416 
   35630    291.17558    8.2788315    62.976165   -143.43545   -557.44228    13493.416 
   35640    286.66854     8.410802    64.459681   -141.67841    2155.4261    13493.416 
   35650    310.14762    8.3300025    55.406892   -139.93883    -2622.914    13493.416 
   35660    319.01773    7.0053044    57.836145    -138.2258    815.50309    13493.416 
   35670    331.39006    7.3523743    57.735741    -136.8429    2761.9199    13493.416 
   35680    328.26585    9.2614007    63.595496   -136.20338   -763.69447    13493.416 
   35690    311.34803    9.6513321    67.860675   -136.80378    320.21072    13493.416 
35700        0.98026611620598147478 10.146931391604388395 0.99470899470899465378 70 -272.74766890554138854
   35700     296.3817    8.2185873    67.366806   -138.46212   -1278.4087    13493.416 
   35710    306.84753    6.8942969    57.513764   -140.64673     1038.862    13493.416 
   35720    284.21331    8.1958209    65.925402   -143.29636   -1741.0155    13493.416 
   35730    284.11647    9.4756151    58.469145   -146.18771    79.513679    13493.416 
   35740    300.61826    9.1052951     62.07774   -149.82705    1820.2068    13493.416 
   35750    275.41413    10.996568    63.093038   -154.20034    1991.2635    13493.416 
   35760    300.65748    11.680896    50.894486   -158.60262   -1503.3749    13493.416 
   35770    288.46927    8.6975728    57.605885   -162.69259   -537.21551    13493.416 
   35780    273.90763    6.2675208    60.013977    -166.3183   -2756.9939    13493.416 
   35790    272.53719    4.9748502    61.391913   -169.17666     2563.387    13493.416 
35800        0.9813282633422437673 10.127384422962073529 0.99735449735449732689 66 -294.15923210906584018
   35800    271.26149    4.2929388    60.463704   -171.25523    1293.0126    13493.416 
   35810    277.73931    2.6967165     57.37481   -172.74765    3625.0052    13493.416 
   35820    283.37721    3.8967831    54.963794   -173.52458    808.21264    13493.416 
   35830    274.99502    4.5200117    51.208275   -173.48672   -97.264633    13493.416 
   35840    250.63972    4.9085646     60.13853   -172.62129   -3512.5338    13493.416 
   35850    271.08482    6.9839056    56.563844   -170.69111   -1501.0288    13493.416 
   35860    280.19672    9.7453518    58.543282   -167.98319   -1439.7512    13493.416 
   35870     268.5482    11.104803    58.491314   -165.40478    1459.2349    13493.416 
   35880    305.41699    7.3041612    52.851701   -163.01591    451.91986    13493.416 
   35890    264.87491    7.0221086    64.551015   -161.07203    101.52072    13493.416 
35900        0.98153664533526396863 10.150515943931525342 0.99735449735449732689 69 -297.83308558545218148
   35900    305.95694    6.2643373    49.846641   -159.20916   -1603.1202    13493.416 
   35910     283.9795     5.001253    62.738913   -157.66213    999.29335    13493.416 
   35920    312.11581    3.9503327    54.762323   -156.37387    1655.3703    13493.416 
   35930    286.23469    4.0204446    61.018229   -155.49731   -92.735941    13493.416 
   35940    288.83604    6.7340364     55.65655   -154.56009   -2045.9936    13493.416 
   35950    306.93286     7.588325    54.740377   -153.04196   -510.68794    13493.416 
   35960    275.81829    6.6308344     62.72195   -151.38801    1206.6579    13493.416 
   35970    294.48718    6.0378368    58.933382   -149.34256   -1436.3498    13493.416 
   35980    309.79525    5.2661249    59.284014   -146.64764    -3658.351    13493.416 
   35990    315.81853    4.7182287    61.239974   -144.14061   -564.44418    13493.416 
36000        0.98575328971109033027 10.111724497180041737 1 68 -285.04859451394042935
   36000    315.39886    6.7551512    57.808606   -142.14669     1057.985    13493.416 
   36010    309.05063    8.6431789     56.56714   -140.48622    1794.5441    13493.416 
   36020    299.03759    9.9630908    57.230472    -138.9631    2455.6956    13493.416 
   36030    321.44823    9.9329379    58.013354   -137.23612    3793.0464    13493.416 
   36040    317.86493     9.122675    66.728645   -135.72513   -934.82567    13493.416 
   36050      329.869    7.7096807    53.757053    -134.7206   -2304.1829    13493.416 
   36060    305.79484    5.6782029    60.875465   -134.25525   -2894.4345    13493.416 
   36070    333.32223     5.980978    55.919215    -134.1073    1893.9116    13493.416 
   36080    312.92078    7.3849373    64.951954   -134.59914    917.36481    13493.416 
   36090    323.17625    10.273125    57.587389   -136.13536   -498.62783    13493.416 
36100        0.98610540579044747567 10.085148695745186131 0.99735449735449732689 67 -292.00799818629201354
   36100    337.47179     9.483285    58.426391   -139.10522   -662.33985    13493.416 
   36110    332.97141    8.4587361    58.727176   -144.72947     356.5015    13493.416 
   36120    308.96952     9.183622     56.91081    -151.4458    2422.8336    13493.416 
   36130    301.99813    7.8504582    59.261746   -157.77545    384.34183    13493.416 
   36140    286.99986    7.5119471    57.195874   -162.43852    300.89685    13493.416 
   36150    283.20386    4.5808531    58.946942   -165.66708   -2644.2687    13493.416 
   36160    263.21878     6.776873    54.773218   -167.46903   -1826.5555    13493.416 
   36170     258.7008    8.5283403    58.818335   -167.95696    -2977.819    13493.416 
   36180    282.16365     7.056054    51.102946   -167.25416    1707.3694    13493.416 
   36190    279.86171    8.7470083    57.137635   -165.73164    3290.6147    13493.416 
36200        0.98986673898509702774 10.087988618350212988 1 69 -299.03988071514186231
   36200    298.86805    10.084164    54.505221   -163.62781    4535.1093    13493.416 
   36210    301.74048    12.262382    53.657822    -161.2069   -578.50099    13493.416 
   36220     309.7484    11.375722    52.426709   -159.03835   -882.98335    13493.416 
   36230    304.97087     9.849147    57.763645   -156.86476   -4084.4738    13493.416 
   36240    320.50272    9.1672621    52.397636   -154.85739    1269.7386    13493.416 
   36250    301.21172    10.691875    59.792526   -153.13855    600.86929    13493.416 
   36260    308.15728     11.56212    52.677068   -151.81535    178.20715    13493.416 
   36270     304.7127    12.943429    60.103355   -150.29414    1759.3119    13493.416 
   36280     321.2153    11.681516    54.510373   -148.62683    2755.4605    13493.416 
   36290    307.61014    12.609918    62.164041   -147.22056   -1187.5725    13493.416 
36300        0.98987849600495547708 10.091384845066082576 1 71 -286.29779723206797826
   36300    309.21287    11.012224    55.854122   -146.19866   -3587.9392    13493.416 
   36310    275.90151    10.150119    67.431221   -145.51523   -1765.9403    13493.416 
   36320      297.577    8.6858163    59.394258   -144.16339      2777.64    13493.416 
   36330    293.92925    8.8466166    64.399718   -142.01368    2770.7364    13493.416 
   36340     335.6353    8.8187732    55.954579   -138.92123    632.99583    13493.416 
   36350    296.45706    8.3838955    69.117572    -135.5241   -41.574728    13493.416 
   36360    337.08694    7.0894282    59.194298   -131.73116   -725.40928    13493.416 
   36370    318.98144    6.8186507    74.799408   -128.38307   -385.74734    13493.416 
   36380    329.05748    6.0493869    57.738405   -126.35983   -2323.9454    13493.416 
   36390    349.22613    5.1026797    59.800007   -125.48034   -2545.6733    13493.416 
36400        0.98780623811908774279 10.107725629471426387 1 69 -293.37320922115554822
   36400      369.307     3.649465    59.146578   -126.04644    1112.1833    13493.416 
   36410    379.05691    5.7365301    51.331728   -129.36227    2741.0358    13493.416 
   36420    324.54217    8.0092488    66.754833   -135.20801    2150.1431    13493.416 
   36430    318.16451     8.381179    59.067233    -141.7805   -583.30761    13493.416 
   36440    305.56419    8.1577743    58.984014   -147.53029   -1243.2439    13493.416 
   36450    306.37577    8.2296651    53.900438    -151.3224   -1437.1708    13493.416 
   36460    303.23455     6.874213    53.142942   -153.89619   -1326.0378    13493.416 
   36470    284.12592    6.8665539    49.949711   -155.11207    -2230.559    13493.416 
   36480    293.76187    7.6999546     53.46934   -155.39695     237.1403    13493.416 
   36490    281.01194    7.7390318    53.163897    -155.0635    2264.7183    13493.416 
36500        0.98307015368899119956 10.129032134195357528 1 72 -288.60094088330362183
   36500    296.97049    6.3699078    51.728355   -154.04862    905.47608    13493.416 
   36510    268.99899    5.3054936    61.519266   -152.46502   -677.06328    13493.416 
   36520    299.50248     5.705792    54.774809   -149.95104    -1489.872    13493.416 
   36530    312.48414    7.1046814    56.970071   -146.94494    1540.2959    13493.416 
   36540    306.73432    5.6475473    59.817139   -144.32707    1711.5195    13493.416 
   36550    316.86619    6.6572922    55.447982   -141.69299   -1473.5747    13493.416 
   36560    311.84884    8.5227307    66.520906   -139.63288    1136.8274    13493.416 
   36570    339.18617    8.0866667    52.770396   -138.13914    153.12451    13493.416 
   36580    302.33877    6.4605818     67.91479   -137.40068    719.17863    13493.416 
   36590     323.7694    6.7151083    59.530289   -137.35657   -660.25441    13493.416 
36600        0.9809350364817132073 10.145218629218692996 1 69 -280.7430424855064075
   36600    315.01064     6.214172    65.967256   -138.01704   -1086.3137    13493.416 
   36610    323.18117    5.4837529    54.574782   -139.36819   -923.67063    13493.416 
   36620    304.18894    8.5985718    55.453718   -141.84449    808.39319    13493.416 
   36630    307.57917    8.3499003    58.777671   -145.07816    1265.6669    13493.416 
   36640    288.66003    6.9777526    65.160416   -149.43966   -1022.3769    13493.416 
   36650    308.16325    6.7677145    51.757648   -154.92317   -999.12489    13493.416 
   36660    295.13261    8.4881633    53.757307   -160.72718    73.509275    13493.416 
   36670    294.08047    11.367508    49.751704   -165.21852   -81.681016    13493.416 
   36680    272.23672    9.4957901    55.768007   -168.41079    695.55274    13493.416 
   36690    275.97677    7.1405194    52.408169   -170.11676    279.00475    13493.416 
36700        0.97848061343626568931 10.162464480052930682 0.99735449735449732689 68 -296.97165724694929168
   36700      278.708    8.5138626    57.361975   -170.69376    -679.7475    13493.416 
   36710     289.2171    9.3100438    58.183797   -170.50488    676.17672    13493.416 
   36720    319.65371      6.61811    48.419492   -170.17287   -1079.3172    13493.416 
   36730    289.30898    5.7195941    59.637586   -170.16169    1380.3143    13493.416 
   36740    279.55813    7.0719269     57.73697   -169.95414    1334.2936    13493.416 
   36750    296.79646    7.6735645    52.004611   -169.30057    243.99499    13493.416 
   36760    292.55155    8.7095316    49.455932   -168.32285   -2219.4814    13493.416 
   36770    292.71501     5.647185     51.41557   -167.13902    281.85029    13493.416 
   36780    282.62447    4.0341436    52.968475   -165.56352   -2435.9439    13493.416 
   36790    317.54211    4.3721754    47.363326   -163.33742    1504.6002    13493.416 
36800        0.97636693258573592491 10.178887236166277219 1 68 -286.07202703658816745
   36800    276.43515    7.5045208    60.716125   -160.82393   -142.22607    13493.416 
   36810    290.84278    11.641722    52.753046   -158.03642    1807.0129    13493.416 
   36820     287.1579    9.3932246    61.980752   -154.83364   -650.23071    13493.416 
   36830    303.56804     9.078141    57.373468   -151.52727    602.53157    13493.416 
   36840     287.2762    6.7601388    65.454315    -148.9131    637.63943    13493.416 
   36850     298.2474    8.9204876    58.461253   -146.95151     -3593.06    13493.416 
   36860    335.17875    8.1324259    59.263625   -145.88091   -1023.5724    13493.416 
   36870    307.52685    8.2212726     70.60841   -146.01983    3592.8043    13493.416 
   36880    316.05002    8.7206121    63.873677   -146.73681    1192.2073    13493.416 
   36890    307.12056    6.4854828    65.112097   -147.81994   -250.62344    13493.416 
36900        0.97266572232124370867 10.183925328106816721 1 67 -296.86363885292257692
   36900    326.04873     4.863623     55.44472   -149.13646   -5077.9336    13493.416 
   36910     283.7117    5.0919875    56.528162   -150.48909   -507.15225    13493.416 
   36920    290.43833    6.4764617    57.886304   -151.22667    631.51436    13493.416 
   36930    293.94741    9.3960173    61.807558   -151.60051    1806.8185    13493.416 
   36940    295.79734    10.521645    63.116548   -151.89431    1195.5662    13493.416 
   36950     293.5366    11.985831    58.220258   -152.09517    90.124937    13493.416 
   36960     279.0535    8.0915055    60.508195   -152.26647   -683.21543    13493.416 
   36970    299.01465    5.6162756    51.128473   -151.86143   -533.58148    13493.416 
   36980    299.25896    3.7044106    57.302162   -150.75691   -1630.1922    13493.416 
   36990    301.07033    4.3098427    62.067256   -149.33242    228.55143    13493.416 
37000        0.97334505022167905341 10.162649768798091898 1 64 -280.03180272343865909
   37000    292.19679    6.1520708     67.20765   -147.64237   -345.58508    13493.416 
   37010    307.79886    8.1638658    59.088921   -145.64798    3770.6638    13493.416 
   37020    326.15868    7.9678661    62.960864     -143.392    -65.70745    13493.416 
   37030     336.9127    7.4625211    57.025886   -141.30675   -1693.9793    13493.416 
   37040    331.11744    5.7942598    57.156251   -140.38654   -3667.7883    13493.416 
   37050    310.21391    7.2436771    61.106623   -140.48307    1548.8642    13493.416 
   37060    295.76184    7.3705679    65.494927   -141.17677    2553.2534    13493.416 
   37070    310.16067    7.9435327    61.472412   -142.03703     2570.583    13493.416 
   37080    303.22545    11.673261    58.713423   -143.41975    2110.1218    13493.416 
   37090     320.7372    11.663539    58.206632   -145.38512    2055.6154    13493.416 
37100        0.98262055775324852469 10.146214117973542557 1 62 -276.8729380808017595
   37100    284.23991    9.1066525    61.339986   -148.08863   -487.77158    13493.416 
   37110    293.25532    7.8692321    58.547578   -150.69283   -2034.6502    13493.416 
   37120    307.35633    5.8828952    59.016191   -153.57205   -2051.3458    13493.416 
   37130    313.65283    3.5690694    58.473338   -157.06822   -1998.8443    13493.416 
   37140    285.35462    3.8844377     60.99983   -160.53146   -3391.1593    13493.416 
   37150    276.32127    5.1690314    61.704634   -163.77863    492.59497    13493.416 
   37160     278.2668    9.0303116    57.384361   -166.14874    1540.3855    13493.416 
   37170    272.47692    8.3067011    60.564131   -168.01365    2000.7156    13493.416 
   37180    282.06766    8.0595147    58.707002   -169.19525     2439.428    13493.416 
   37190    294.01935     7.971222    54.573634    -169.7297    1154.3102    13493.416 
37200        0.97749345635836626389 10.154499565202240063 1 67 -307.30910875295666074
   37200    303.02359    7.3181322    52.580467   -170.01423    118.12948    13493.416 
   37210    288.58341    7.5137645    61.079298   -169.90167   -1078.9367    13493.416 
   37220    275.56617    8.6589331    54.811585   -169.24956    1352.2387    13493.416 
   37230    292.10665    7.1644922     53.49818    -167.7265   -843.59085    13493.416 
   37240    289.69472    5.3587349    59.220403   -164.89352    -1246.058    13493.416 
   37250    330.34458    8.0219622    46.437366   -160.98158    -2240.823    13493.416 
   37260    301.16542    6.9404582    58.070272    -156.0707    1082.3338    13493.416 
   37270    323.60143    7.0337351    51.261605   -150.63107    1964.6417    13493.416 
   37280    297.93046     7.670185    67.279751   -145.01401    2106.6554    13493.416 
   37290    326.57461    7.7815993    57.535601   -140.16215    403.18759    13493.416 
37300        0.9684446290071112573 10.211244290242314392 1 62 -277.86857652193032209
   37300    311.37601    9.1050259    63.412331   -136.78936   -2894.6771    13493.416 
   37310     349.7285    7.1797132     52.45437   -135.15938   -2199.2035    13493.416 
   37320    312.32304    6.5334404    64.589869   -134.87237    -1282.752    13493.416 
   37330    335.31148    6.6350328    52.186717   -135.33678   -1831.7174    13493.416 
   37340    301.15406    6.9527672    67.344344   -136.45131    902.85809    13493.416 
   37350    310.45078    9.5750131    59.765048   -137.49058    2984.7087    13493.416 
   37360    302.89369    8.6411126    65.373357   -138.77941    586.68292    13493.416 
   37370    337.88877    8.3194289    56.651571   -140.48842    1385.5641    13493.416 
   37380    336.98443    8.4451711    56.295891   -143.08913    635.80979    13493.416 
   37390    323.42584    10.115364      58.7716   -146.21965   -1379.9641    13493.416 
37400        0.96284296367217536705 10.228459240790643392 1 66 -290.09046423372916479
   37400    309.29532    8.4410715    61.186699   -149.95398    565.42402    13493.416 
   37410    294.01915    5.5999847    54.094583   -152.90759   -118.29572    13493.416 
   37420    281.03285    5.6897473    55.875895   -154.69993   -1809.6564    13493.416 
   37430     265.9037    6.1946278    67.709656   -155.47981   -2272.1069    13493.416 
   37440    304.93582    6.4461019    54.305238   -155.56561   -754.91186    13493.416 
   37450    284.62818    6.9585624    66.454681   -155.69196    2867.4533    13493.416 
   37460     308.3807    6.4997338    57.890666   -155.68564    1792.2178    13493.416 
   37470    294.49391    7.6441002    61.598962   -155.70644   -1251.3402    13493.416 
   37480    315.31136    5.1295502    59.530017   -155.87617   -874.40257    13493.416 
   37490    306.55336    3.9099328     55.16759   -156.16648   -2924.6717    13493.416 
37500        0.95405591851383597657 10.245867890128364408 0.99735449735449732689 65 -290.38438324773557042
   37500     296.0693    3.7301654    50.990548   -156.24038   -1622.0311    13493.416 
   37510    290.57852    4.1236379    58.506479   -155.67547    49.392778    13493.416 
   37520    282.48149    5.0798257    57.883505    -154.6719    3380.6079    13493.416 
   37530    279.73855    5.8117479    57.177163   -153.36294    376.50255    13493.416 
   37540     272.9659    6.0534293    59.046823   -153.01114    1266.2115    13493.416 
   37550    291.38724    6.5229028    61.638826   -151.03475    1335.7398    13493.416 
   37560    317.06279    6.6431877    56.969508    -148.9806     507.6708    13493.416 
   37570    305.66637    5.5762032    63.147884   -147.45786   -3985.2269    13493.416 
   37580    312.40037     4.649764     55.41373   -146.27868   -5120.6749    13493.416 
   37590     308.1488    4.3697918    64.735157   -145.58959   -3376.7302    13493.416 
37600        0.96679357418827216453 10.194870361331039632 1 69 -285.67809329691465337
   37600    309.35557    5.8777489    64.976484   -145.51431   -1153.2226    13493.416 
   37610    300.92138    6.5840782    62.296858   -146.07152     2039.157    13493.416 
   37620    294.13203    5.2369441    65.611325   -146.82075    4481.9177    13493.416 
   37630    303.01724    5.1813377    58.101694   -147.55886    5089.4929    13493.416 
   37640    303.02594    6.0782684    66.034159   -148.18836    2288.6151    13493.416 
   37650    312.88193    6.5411503    59.440358   -148.89568   -1968.8761    13493.416 
   37660    283.22806    5.4636692    65.318497   -149.64515   -3457.9039    13493.416 
   37670    289.66966    5.0782921     64.44697   -150.13102   -3693.6684    13493.416 
   37680    319.72263     7.348694    54.921605   -150.41358    182.03316    13493.416 
   37690    311.42647    9.2334863     57.77417   -150.88016    932.76577    13493.416 
37700        0.9784147538701096769 10.129718366297286281 0.99735449735449732689 66 -288.48242846282391838
   37700    302.24663    10.088746    59.030907   -151.53958    958.74517    13493.416 
   37710    267.83885    8.3273749    61.388618   -150.69635   -1346.2862    13493.416 
   37720    299.61086     7.129614    55.188071   -150.62089    1240.5859    13493.416 
   37730     298.4184     4.802118     55.34111   -150.31031    1170.9162    13493.416 
   37740    299.68718     5.116202    51.498945   -149.49102    1193.1385    13493.416 
   37750    282.49545    7.0441773    59.644955   -147.93701   -2477.2242    13493.416 
   37760    286.56806    5.7932157    64.632512   -145.76886    1228.2208    13493.416 
   37770    285.34456    6.0609345    69.492691   -143.36679    3600.5891    13493.416 
   37780    327.34295    5.4195601     60.01932    -140.7432    2975.1638    13493.416 
   37790    320.73102    4.8753661    60.216476   -137.88942    728.44382    13493.416 
37800        0.98159954640707869356 10.118831029796206522 1 67 -285.80452596122631803
   37800    332.77392     4.250807    59.794752   -135.03028   -1843.8111    13493.416 
   37810    328.33577    4.9386273     73.90463   -132.30023   -3628.2617    13493.416 
   37820    340.48283    7.0302022     66.21502   -130.64609   -644.23856    13493.416 
   37830    317.52552    8.0553091    72.887968   -130.64397   -195.87108    13493.416 
   37840    306.51649     9.809685    66.480285   -132.40974    2533.6437    13493.416 
   37850    310.79975    10.528796    59.366894   -135.43769   -339.39219    13493.416 
   37860    337.85377    13.888351    55.383834    -139.7468    1584.8732    13493.416 
   37870    296.90954    11.790123    65.388923    -145.6471    124.85286    13493.416 
   37880    278.82525    12.668256    62.077989   -150.72478   -2445.7895    13493.416 
   37890    289.13633    12.907654    59.858467   -155.08869   -2358.3028    13493.416 
37900        0.98613196554517479342 10.111378430017067487 1 68 -283.81377368410790041
   37900    276.96596    11.405136    62.230139   -158.32517    -820.4593    13493.416 
   37910    292.29833    9.8215628     59.04589   -160.82508    2460.6341    13493.416 
   37920    286.24324    8.4026685    63.525407   -162.73511    2379.9178    13493.416 
   37930     277.0925    5.8279003    57.011939   -164.17774    -1835.434    13493.416 
   37940    291.44479    5.9010014    56.135029   -165.25051   -932.21575    13493.416 
   37950    295.22915    7.1444796    59.149007   -166.16803    1274.7535    13493.416 
   37960     304.6181    7.9297927    57.577461   -167.38918    12.146416    13493.416 
   37970    302.13798     6.579514     51.14151   -169.05284    2469.2031    13493.416 
   37980    297.12968    4.9976105    54.743998    -170.8105    235.70714    13493.416 
   37990    304.63127    5.8932943    52.465782   -172.49514    1098.6974    13493.416 
38000        0.98323160708328694035 10.130191242638046489 1 71 -303.08134014627484021
   38000    284.61986    7.2610732    52.954104   -174.12488    -1489.475    13493.416 
   38010    269.60243    6.7950193    51.509358   -175.24161     153.3867    13493.416 
   38020    265.38431    7.5497481    56.395401   -175.32338    2417.0614    13493.416 
   38030    282.53944    7.2737848     48.23659   -174.15988    873.97484    13493.416 
   38040    278.47546    9.1215229    59.588552   -171.80375    22.005659    13493.416 
   38050    300.54802     8.057369    53.325672   -168.19146    2181.3598    13493.416 
   38060    305.52018    4.8566437    53.620013   -163.65427   -1454.7725    13493.416 
   38070    314.51545    3.9203585    57.277943   -158.95586   -1719.6777    13493.416 
   38080    319.28375    3.5595766    55.900152   -154.75503   -5001.7507    13493.416 
   38090    314.77182    7.6519764    56.410475   -151.46821   -124.72782    13493.416 
38100        0.97334343688966562524 10.192447037126679987 1 70 -281.57519620572855956
   38100    293.22632    7.1461668    62.952671    -148.7193    2885.5414    13493.416 
   38110    329.28106    5.1809189     51.29248   -146.24389   -861.81875    13493.416 
   38120     310.1928    6.8996837    61.488288   -144.67389   -695.08759    13493.416 
   38130     308.8834    6.7902231    51.026348   -143.69899   -823.57322    13493.416 
   38140    296.68368    5.0470081     58.06738   -142.68951    2936.9224    13493.416 
   38150    297.50341    2.6906429     63.46488   -141.48904    3165.5792    13493.416 
   38160    330.26841     3.449926    47.624844   -140.31381    -2854.295    13493.416 
   38170    307.21508    5.1608401    67.049144   -139.70506   -4606.5567    13493.416 
   38180    303.80154     4.813217     58.10963   -139.60719   -2458.9218    13493.416 
   38190    300.37668    3.4082089    65.311964   -139.50234    2183.5592    13493.416 
38200        0.96885387692436353291 10.211293632658936303 0.99735449735449732689 67 -293.75246603361671305
   38200    340.19105    2.5667527    55.237473   -139.61764    3408.1068    13493.416 
   38210    297.14777    2.9791272    65.578177   -140.20899    386.23559    13493.416 
   38220    291.99813    3.2535934    63.083922   -140.57133   -991.96285    13493.416 
   38230    288.52257    2.6964124     67.80415   -140.85768    598.82988    13493.416 
   38240    292.56472    2.7556278    70.012345   -141.22766   -1633.6352    13493.416 
   38250    306.87086    3.8563602    57.531948   -141.61795    -5336.388    13493.416 
   38260    301.55781    6.2886255    57.146867    -141.8329   -4763.2985    13493.416 
   38270    286.37765    5.4736242    61.871722   -141.64799    2293.5397    13493.416 
   38280    275.06039    2.7731493    67.802358   -140.95597    2865.0409    13493.416 
   38290    284.08658    5.0876102    69.489137   -139.65035    2252.7593    13493.416 
38300        0.97189713021144585881 10.209918538469930027 1 71 -283.00431177832416552
   38300    319.78828    6.8585071    58.155926   -138.11364    661.09217    13493.416 
   38310    327.39686    7.5414885    65.140074    -133.6901    -1406.556    13493.416 
   38320    318.27606    7.5267153    67.766343   -127.59057    2037.7795    13493.416 
   38330    338.50881    7.1543959    68.849883   -120.75256   -693.78255    13493.416 
   38340    338.38226    7.2708569    85.144114   -117.18958   -835.97043    13493.416 
   38350    367.14288    4.0342461    66.225832    -114.6488    72.437121    13493.416 
   38360    349.70213    4.2636076    65.653185   -112.93068   -238.11701    13493.416 
   38370    346.09002    4.6184355    65.640734   -115.02504    634.01531    13493.416 
   38380    332.04925    6.6850302    65.647713   -118.48156   -754.28107    13493.416 
   38390    346.57504    6.5629826    62.864596   -123.11557    585.59868    13493.416 
38400        0.97685944487906484213 10.169395083580205608 1 65 -288.35823143857680861
   38400    352.50177     7.425892      53.0295   -128.64563    996.44916    13493.416 
   38410    308.26139    5.9031484    66.403821   -134.01296      -1984.4    13493.416 
   38420    317.91408    4.7968077    60.349603   -138.06886   -3055.6152    13493.416 
   38430    294.28517    5.1218672    70.233187   -141.61561    341.20598    13493.416 
   38440    298.21178    5.4751874    61.901483    -143.9945     3086.881    13493.416 
   38450    315.47663    6.3936426    64.430505   -146.01177    254.18978    13493.416 
   38460    325.35711    6.2929017     61.41467   -148.11602    -2342.481    13493.416 
   38470    331.31915    7.0735298    57.270414   -150.80433   -1760.7713    13493.416 
   38480    289.13441    7.5702659    61.741767   -153.55849    615.91398    13493.416 
   38490    278.79061    5.8772795    65.848838   -155.56805     3473.016    13493.416 
38500        0.98298737911715128313 10.115342832976216059 1 69 -276.78906104022536283
   38500    264.61155    7.9577367     66.22452   -156.89803     1102.465    13493.416 
   38510    297.68334     8.140552    59.436667   -157.63934     1784.977    13493.416 
   38520    301.35057    7.8434384     66.32446   -158.34858    2244.3968    13493.416 
   38530    308.57662    8.1271189    56.391662   -159.13729   -774.95861    13493.416 
   38540    301.09384    9.3016365    58.000859    -159.9151   -2911.2899    13493.416 
   38550    303.71876    10.082133    61.460031   -160.80328   -2146.9348    13493.416 
   38560    291.51596    9.7652742    65.436469    -162.2465    1896.5474    13493.416 
   38570    294.30139     10.50014    63.411749   -164.09423    1418.3234    13493.416 
   38580     300.1153    8.4865701    56.990845   -166.40991      690.427    13493.416 
   38590    279.82844    8.2717576    61.187191   -168.20036   -3282.0093    13493.416 
38600        0.98536260714435353059 10.101213381325946372 1 68 -290.4488621056943316
   38600    264.00231    7.7976369    58.207024   -170.83387   -384.07904    13493.416 
   38610     265.6988     6.470137    55.866112   -172.94547    -289.9733    13493.416 
   38620    270.86422    6.7511864    60.243789   -174.46694    346.18445    13493.416 
   38630    276.28457     7.988804    60.441891   -175.57019   -636.22637    13493.416 
   38640    280.39947    8.8645812    49.454513   -176.30834   -688.24914    13493.416 
   38650    270.09156    7.5936579    52.442967   -176.46168     681.9071    13493.416 
   38660    271.43688    7.4260036    58.254525   -175.46324     1688.762    13493.416 
   38670    265.29345    10.683961    61.887811   -172.86577    115.64748    13493.416 
   38680    280.04967    10.553039     61.88168   -168.76904    1162.6614    13493.416 
   38690    297.50219    13.157682    60.410243   -163.41003    1070.3916    13493.416 
38700        0.98534309995232316481 10.103517683554988693 1 71 -299.62425168792492514
   38700    312.26385    9.6897335    60.654932   -158.14277    178.28759    13493.416 
   38710    316.64149    9.0802533    52.247018   -153.65944   -1769.1157    13493.416 
   38720    303.76806     6.659345    65.728535   -150.27241   -294.28828    13493.416 
   38730    311.60426    6.6888633    60.857604    -147.4502   -257.29314    13493.416 
   38740    305.06049    7.2307416    67.412842   -145.26913    -1702.385    13493.416 
   38750    314.91541    7.2411191    62.589001   -143.72825    617.05281    13493.416 
   38760    320.05776    6.9182226    62.311213   -142.68204    505.35968    13493.416 
   38770    328.84042    7.6106861    59.980711   -142.23629    1756.5869    13493.416 
   38780    314.70827    7.7009149    62.987098   -142.64019   -3470.2236    13493.416 
   38790     300.6728    8.8451833    62.674108   -143.73293    189.58408    13493.416 
38800        0.98736174192773240588 10.09710974034489972 1 69 -271.28324967405376356
   38800    278.92025    8.9846285    70.835297   -144.90919    1864.0549    13493.416 
   38810    288.91971    8.2038665     68.68827   -145.74249    1471.9808    13493.416 
   38820    303.17115    8.5835465    61.388194   -146.21241    1106.4889    13493.416 
   38830    316.45815    9.3761872    62.152365   -146.81799    1285.4924    13493.416 
   38840    308.74659    7.9350839    69.109372   -148.23192    1112.1218    13493.416 
   38850    314.24252    6.2385372    58.429163   -150.63569   -348.16008    13493.416 
   38860    297.84536     6.016443    67.340192   -154.23758   -2701.2983    13493.416 
   38870     285.0035    7.3417974    63.862723   -158.65253   -2343.7011    13493.416 
   38880    301.59088    7.0204122    59.806087   -163.49601   -1627.7459    13493.416 
   38890    284.46957    7.8271015    66.329696   -168.52597    2358.2498    13493.416 
38900        0.98704472258706066334 10.107246093876526061 1 69 -302.47841486745249995
   38900    286.43906    9.0067627    54.279289   -172.69771    1575.0213    13493.416 
   38910    268.70879    8.8812254    56.833097   -175.58872     2005.751    13493.416 
   38920    293.14319    6.4639869     56.75445   -177.27235    3191.0487    13493.416 
   38930    278.76941    4.2663655    58.225168   -178.22313   -173.40876    13493.416 
   38940    280.62793    6.4394328    53.186513   -178.32864   -3607.5257    13493.416 
   38950    279.54927    7.8983913    56.578608   -177.63399   -2289.0431    13493.416 
   38960    272.73251    7.3402125    58.401462   -176.24614   -1405.8428    13493.416 
   38970    279.67556    6.9775989    57.809048     -174.175     1054.592    13493.416 
   38980    286.01973    6.4325886    58.972275   -171.71987   -49.381663    13493.416 
   38990    296.13497    7.1769142    54.921807   -169.00409    610.43914    13493.416 
39000        0.98359988582405033508 10.144801237695030949 1 72 -288.07505926602721047
   39000    268.66227     8.656386    59.567287   -166.34872    1330.5324    13493.416 
   39010    289.97897    8.8654182    58.042958   -163.57602    423.09918    13493.416 
   39020    301.35663    7.8611085    57.011707   -161.15892    2409.7813    13493.416 
   39030    317.29744    7.7538944    58.226395   -159.55121   -485.04863    13493.416 
   39040    310.15931     8.608984     50.16404   -158.71291   -4672.6972    13493.416 
   39050     290.6806     8.319075    63.019466    -158.3101   -1067.6587    13493.416 
   39060    289.60958     8.931577    58.894952   -157.74159   -497.69053    13493.416 
   39070    280.69499     11.15696    57.424057   -156.78355    1363.0955    13493.416 
   39080     266.1393    10.765734     71.26064    -155.3026   -853.60339    13493.416 
   39090    291.97641    12.402729    60.064019   -153.12064    478.73328    13493.416 
39100        0.98493780377503281631 10.145226214022637024 1 74 -277.4071143383253002
   39100    280.19257    11.120024     70.36433   -150.45659    1614.4682    13493.416 
   39110    302.27623    14.862633    58.182528    -147.7191     903.9916    13493.416 
   39120    300.13375    13.152661    66.984768   -144.98177   -1267.0091    13493.416 
   39130    313.27089    11.200605    68.723471     -142.879    741.46532    13493.416 
   39140    333.94349    9.4855841    65.551445   -141.66317    61.104431    13493.416 
   39150     305.6903     9.676152    74.660466    -142.0226   -421.40011    13493.416 
   39160    323.24212     10.90901    61.235091      -143.38     593.5783    13493.416 
   39170    285.10653    11.474772    76.118715   -145.59084     378.1881    13493.416 
   39180    299.95053    9.1988741    64.541599   -147.99756    1977.7259    13493.416 
   39190     272.1919    8.7303598    65.951557   -150.30127   -382.51616    13493.416 
39200        0.98411182658968499037 10.148965181372433975 1 73 -285.52656018216202938
   39200    294.27036    6.9334689     62.09739   -152.19762    3139.3662    13493.416 
   39210    300.63421    7.1713036    67.352814   -154.04241    382.26561    13493.416 
   39220     310.5723    8.9006308    60.540205    -156.1838   -2686.7541    13493.416 
   39230    313.37873    10.092946    58.162211    -158.5382    -2543.588    13493.416 
   39240    301.19559    7.8546024    57.627184   -161.12623   -1106.3633    13493.416 
   39250    284.43371    6.6018506    62.990782   -163.65504    2435.8058    13493.416 
   39260    277.43145    6.1327363    56.594912   -166.29797   -681.16535    13493.416 
   39270    257.21713    5.1172998    60.557836   -169.02278     668.8174    13493.416 
   39280    273.97385    4.9420729     53.21338   -171.80878     871.2611    13493.416 
   39290    269.93178    4.1959937    57.539425   -175.25068   -311.67304    13493.416 
39300        0.98206154876505802331 10.150695458791329173 1 71 -302.334840675289513
   39300     271.3233    2.8473113     58.94255   -179.40283    1258.0308    13493.416 
   39310    272.31025    3.3162017    49.264362   -184.06252   -3398.0875    13493.416 
   39320    259.09273    5.8756154    45.916924   -188.17825   -3294.7313    13493.416 
   39330    256.50653    8.3223974    51.553004    -190.9783    2039.3469    13493.416 
   39340    248.38207    9.7094574    49.519223   -192.28735    1605.7162    13493.416 
   39350    259.60109    9.4945366    50.889451   -192.01546    1815.5632    13493.416 
   39360    277.98647    6.0852844    51.372496   -190.30585   -3562.4695    13493.416 
   39370    271.47315    4.6100539    50.671312   -187.46859   -495.44016    13493.416 
   39380    263.03461    4.0882248    55.624476    -183.4154    1526.6201    13493.416 
   39390    239.14841    5.3541936    63.694703   -178.45696   -2413.7184    13493.416 
39400        0.98162847640403649851 10.141136596782594381 1 71 -304.40489320717369992
   39400    289.79197    8.6945659     58.81222   -173.10504   -227.68674    13493.416 
   39410    288.48619    12.614531    67.312977    -168.8385    938.00029    13493.416 
   39420    304.57803    15.363541    53.046435    -166.0562    5450.7788    13493.416 
   39430    289.18106    16.382779    62.630231   -163.68791     499.4814    13493.416 
   39440    287.79298    15.976517    56.828164   -161.60009   -2975.4195    13493.416 
   39450    293.11816    15.035574    59.545236   -159.39791   -821.85239    13493.416 
   39460    298.40403    14.859905    54.897161    -157.5079   -126.34818    13493.416 
   39470    271.00517    13.741884    71.695816   -155.74954     3399.137    13493.416 
   39480    294.79384    10.830922    62.545352   -153.45446    1686.9534    13493.416 
   39490    319.33147    6.9296023    59.736974   -150.82096   -3349.3583    13493.416 
39500        0.98126606304499530697 10.155250675601697807 1 66 -291.42755810166283936
   39500    314.44042    5.5445617     68.12271   -148.95991   -1983.6461    13493.416 
   39510    298.57262    7.0847159    67.666881   -147.94224    200.32317    13493.416 
   39520     317.4927     7.065911    61.272955   -147.42464    1802.2162    13493.416 
   39530    312.01439    4.4816025    65.639593   -147.47747   -943.88181    13493.416 
   39540    309.05432    4.7152358    54.381322    -147.9863    -614.9225    13493.416 
   39550    275.77704    5.7074944    61.602668   -148.34248    3029.8529    13493.416 
   39560     280.9494     6.758612     55.34029   -147.83357    487.03139    13493.416 
   39570    293.23092    4.9748047    62.382323   -146.22513   -330.14374    13493.416 
   39580    316.37535    4.2467773    60.899816   -143.60672   -1113.2987    13493.416 
   39590    320.70905    4.5673898    54.407597   -140.55805   -1825.7203    13493.416 
39600        0.97589373967398607146 10.165320240539923446 1 66 -278.23892805577935405
   39600    311.57092    4.3642344    61.852003    -137.0714    286.63983    13493.416 
   39610    333.39928    5.3586135    61.441166   -133.16112    286.17517    13493.416 
   39620     324.9537    7.7434892    57.154238    -129.6776     2631.457    13493.416 
   39630    332.17936    7.5256756    62.228188   -126.84601   -2735.7359    13493.416 
   39640    331.64315    8.9451515    70.818193   -124.42013   -1501.7129    13493.416 
   39650    328.99901    9.9341097    75.345909   -122.42362    583.63287    13493.416 
   39660    334.68558    7.8400077    74.553489   -121.69756    1034.4717    13493.416 
   39670    326.55944    7.8840928    65.075553   -122.68743   -106.49816    13493.416 
   39680    331.83274    10.070321    58.971679   -125.34473    1068.6496    13493.416 
   39690    320.49334    10.142907    62.020601    -129.5748    953.13941    13493.416 
39700        0.9666259596283404143 10.208352928388119807 1 66 -270.95684823131483654
   39700    299.22298    7.3144274    66.556499   -135.38396   -179.30326    13493.416 
   39710    273.46204    6.1577617    63.949256   -141.14028    -1514.585    13493.416 
   39720    256.52139    5.2508875    71.434264    -145.5312    -1250.076    13493.416 
   39730    296.90965    3.8927364    60.010935    -148.4344    716.14122    13493.416 
   39740     295.0109    4.4096317    57.976893   -150.48786   -1027.9276    13493.416 
   39750    293.35276    4.3290779    58.656748   -151.86726    2024.2421    13493.416 
   39760    299.79154    5.2323469    55.642282   -152.70973   -1058.8588    13493.416 
   39770     281.6681    5.4208342    65.318414   -153.31709   -656.01565    13493.416 
   39780    303.93293    4.4229876    56.752615   -153.72441   -618.95594    13493.416 
   39790    278.12002     5.705898    69.139655   -154.20075   -2532.8916    13493.416 
39800        0.95889307483416441613 10.233820500280648602 1 66 -287.75755435891176148
   39800    294.13143    5.2415076    61.628331   -154.49157    185.53512    13493.416 
   39810    293.62495     3.500033    52.860691   -154.36668   -1428.3402    13493.416 
   39820    270.00012    3.1365858    62.929662   -153.75937    23.443162    13493.416 
   39830    263.08654    3.5770563    62.785342   -152.32697     1740.506    13493.416 
   39840    273.72856    4.8570084    59.522313   -149.80818    3832.1643    13493.416 
   39850    325.85019    5.2465609     54.63505   -146.30512    1180.5215    13493.416 
   39860    329.70653    7.1765892     56.02336   -142.89152   -2627.5297    13493.416 
   39870    325.14306    5.9455551    54.247228    -140.0564   -4672.3027    13493.416 
   39880    303.20599    5.0807001     69.18025   -137.79373    -694.5025    13493.416 
   39890    292.73107    5.0110841    67.080847   -135.98252    1473.8176    13493.416 
39900        0.96252570735091391718 10.214133524478041792 1 67 -271.87870973324351098
   39900    304.50555       6.7227    54.149433   -133.91238    2313.8227    13493.416 
   39910    310.48286    5.9672261    67.471329   -130.81276    -621.7813    13493.416 
   39920    318.09438    6.7395032     59.00146   -126.45533    668.42952    13493.416 
   39930    317.25216    7.7000114    63.885327   -120.65108    2113.7393    13493.416 
   39940    321.72093    10.780299    71.401326   -113.77776   -342.59893    13493.416 
   39950    350.00962    10.419781    61.586455   -107.09899   -580.35305    13493.416 
   39960    360.97958     7.433197    65.437832   -102.05513   -2014.2816    13493.416 
   39970    349.53906    7.6991658    62.967063    -99.89507    272.08514    13493.416 
   39980    328.51677    5.0047659    77.006384   -100.02823     1671.554    13493.416 
   39990    329.25472    5.9090611    65.903857    -101.4605     912.1162    13493.416 
40000        0.96181957500670445249 10.1974445493221193 0.99735449735449732689 69 -240.53995921665372748
   40000    302.36216    7.8753468    74.898345   -103.54477   -1191.6147    13493.416 
   40010    320.57426    8.9780542    69.269291   -106.36071   -781.90457    13493.416 
   40020     322.9232    10.659293    65.946192   -109.76527    78.434739    13493.416 
   40030    340.52443    7.7005886    59.237131   -113.47262    1192.6035    13493.416 
   40040    302.77812    6.3639435    67.791617   -116.84976   -577.98877    13493.416 
   40050    337.09409    6.0177987    59.701574   -119.64381   -2565.1103    13493.416 
   40060    338.94118    5.0502222    64.639368   -122.70251    1089.3338    13493.416 
   40070     326.0239    5.6698269    58.144518   -126.17803    1306.3663    13493.416 
   40080    288.55195    7.2677823     68.53961   -129.44292    1187.1111    13493.416 
   40090    281.58524    8.8938781    66.590484   -131.73412   -1633.9831    13493.416 
40100        0.97360431273226066828 10.177012776036592712 1 66 -259.5683975009666824
   40100    279.19668    10.170546    64.702544   -133.06909   -725.39877    13493.416 
   40110     292.2363    10.382241    69.213984   -133.86276    215.89613    13493.416 
   40120    297.19923    10.202138    60.702798   -134.58598    264.32721    13493.416 
   40130    303.05167     9.074633    65.623072   -135.50198   -492.70943    13493.416 
   40140    304.85436    8.6388559    56.693543   -137.04137   -1270.3623    13493.416 
   40150    284.88452    9.6316105    62.829224   -138.82833   -280.57186    13493.416 
   40160    292.88581    7.1488353    60.247986    -140.3106    314.60232    13493.416 
   40170    284.15086     7.875994    65.898619   -141.33706    126.55892    13493.416 
   40180    301.49648    5.0995182    67.608437   -142.59565   -546.90374    13493.416 
   40190    294.42884    4.9873508    63.641095    -144.7885   -899.88473    13493.416 
40200        0.97649503320725283828 10.179840999036740001 1 68 -286.86477432205435889
   40200    307.67201    6.4006055    59.467436   -147.46378   -611.25661    13493.416 
   40210    284.28454    7.4882056    61.834868   -150.46938   -1414.9188    13493.416 
   40220    296.56608    6.9574832    57.895847   -153.76019    1661.0164    13493.416 
   40230    276.54842    8.1696756    63.914403   -157.56933    2711.2154    13493.416 
   40240    291.24191    7.5685851    55.116953    -161.4268     2299.046    13493.416 
   40250    302.42407    6.5512862    54.318419   -165.31232    -1519.508    13493.416 
   40260    289.21013    5.8484875    55.857815   -168.92369   -2980.3111    13493.416 
   40270    274.12242    5.2699645    58.534548   -171.62917    65.796655    13493.416 
   40280    255.70569    5.9634795    61.905656   -173.36042    2681.0027    13493.416 
   40290    261.87908    6.2724736    56.590966   -174.16115   -752.97815    13493.416 
40300        0.97783480262619659751 10.152843574111651392 1 66 -282.24071271546159778
   40300     239.0285    6.4300191    58.458291   -173.94093    1276.7719    13493.416 
   40310     271.1769    5.5683323    49.022546   -172.30532   -255.06747    13493.416 
   40320    278.16304    4.2101244    58.607948   -169.38908    1119.4028    13493.416 
   40330    311.76109    4.7898268      52.1094   -166.24138   -3426.6491    13493.416 
   40340    292.75584    7.6285829    63.172181   -163.81119   -2230.4193    13493.416 
   40350    293.20894    9.4798162    59.391888   -162.58263    -216.3514    13493.416 
   40360    295.97505    10.154221    56.116091   -161.88104    3296.0744    13493.416 
   40370    275.89117    9.6862174    57.209111    -161.2368    1499.9675    13493.416 
   40380     296.5198    10.676657    49.318871   -160.00732    291.99927    13493.416 
   40390    301.87578    6.6717485    44.090725   -158.26008   -2284.4805    13493.416 
40400        0.97989890213566011035 10.151728655518446942 1 71 -294.61665521106840515
   40400    305.41193    4.0168125    64.138564   -156.23966    3858.5501    13493.416 
   40410    320.69704    5.0899445    57.154206   -154.60229    1791.2212    13493.416 
   40420    281.74444    8.3796478    59.449907   -153.66965   -2168.0318    13493.416 
   40430    275.73995    7.0227601    58.950795   -152.53482   -4444.0076    13493.416 
   40440    290.53442     5.895913    57.826089   -150.75524   -2994.1628    13493.416 
   40450    324.83237    5.3420298    51.875667   -148.76893    2096.6074    13493.416 
   40460    315.59836    6.8450426    51.727331    -147.1996    1634.9871    13493.416 
   40470     306.8257    4.9655707    53.683286   -145.74398    43.708086    13493.416 
   40480    297.39476    4.4379633    62.452042   -144.12036    1872.8265    13493.416 
   40490     282.7995    4.1351564     61.15195   -142.41143    1965.1668    13493.416 
40500        0.98229449239131394478 10.145731249110477634 1 69 -277.90602217537747265
   40500    303.87907    4.4867634    56.055601   -140.22354    235.93451    13493.416 
   40510    329.30593     6.215383    54.997283   -137.31937   -2132.6759    13493.416 
   40520    340.26837     6.825146    55.307879   -133.86253   -577.59313    13493.416 
   40530    327.34778    8.4200559    58.123953   -130.87167    1647.3606    13493.416 
   40540    293.42928    10.498152     63.70321   -128.29613      85.6227    13493.416 
   40550    325.41154    9.3510032    57.905866   -125.84595    1817.1838    13493.416 
   40560    335.66798    8.7825839    62.178561   -123.34436    1787.4699    13493.416 
   40570    371.39869    6.9546434    53.891136   -121.09762    413.95108    13493.416 
   40580    360.97947    9.9416264    61.161072   -120.09277    739.72942    13493.416 
   40590    339.11521    9.1938149    63.623451   -121.52052   -4121.9619    13493.416 
40600        0.98355961069587083401 10.136462799641327237 1 67 -264.65207879379261158
   40600    306.84431    8.6774005    69.154886    -125.6261   -3608.4436    13493.416 
   40610     316.2679    7.2077563     58.61929   -131.78169   -2534.1277    13493.416 
   40620    316.97424    8.0005065    59.418853    -139.1779     1523.915    13493.416 
   40630    294.82833    8.6004457    65.046097   -145.62561    1169.4749    13493.416 
   40640    296.10903    7.9451173    58.476191   -150.30058    736.22925    13493.416 
   40650      298.962    6.7599988    66.943084   -153.66418     2073.493    13493.416 
   40660    296.86252    5.3929349    57.933604   -156.44972    3009.0489    13493.416 
   40670    284.98819    5.4623046    58.642644   -158.48212   -232.05114    13493.416 
   40680    305.04119    4.4826463    54.187026   -159.90591   -1856.9174    13493.416 
   40690    298.64857    4.8595969    56.857461   -161.15497   -5006.2661    13493.416 
40700        0.98381907535424761857 10.121510625714757126 1 67 -297.76724794571686061
   40700    299.12242    6.2959141    56.743771   -162.23993   -1825.2312    13493.416 
   40710     284.9685    7.2269526    56.088013   -163.11862    3061.8122    13493.416 
   40720    289.30564    6.9803981    54.390223   -163.55579    4403.0062    13493.416 
   40730    255.94249     6.801029    57.267654   -163.28782    1229.3118    13493.416 
   40740    277.78268    5.7724576    49.354436   -161.69383   -2728.4111    13493.416 
   40750    278.25757    5.5053927    63.182885   -158.55667    -1178.373    13493.416 
   40760    294.17441    6.7133128    58.342913   -154.64452    1482.4962    13493.416 
   40770    275.36099    6.6232727     64.68189   -150.33396   -1097.4324    13493.416 
   40780    300.40113    6.7753068    59.145331   -146.10437    59.822511    13493.416 
   40790    275.94417    6.1806148    70.513466   -142.32594    -2582.581    13493.416 
40800        0.97910479525910909526 10.11770807620397683 1 67 -272.20901349588848461
   40800    293.49064    5.5049014    67.279648   -139.23336    682.20699    13493.416 
   40810    281.28858    6.9768201     68.58703   -136.73156   -1103.4677    13493.416 
   40820    305.70596    9.5966152    56.994194   -134.61319   -481.25232    13493.416 
   40830    297.45529    8.8384616     64.25817   -132.78925   -57.664417    13493.416 
   40840    322.12302    5.7872929    61.971122   -131.20674    1434.5512    13493.416 
   40850    292.25679    6.8199571    76.374454   -130.53041    1418.9385    13493.416 
   40860    290.97291    8.3875125    75.317681   -130.51709    92.731189    13493.416 
   40870    329.73013    9.1824228    60.903901   -131.03837    2452.1535    13493.416 
   40880    320.95681    9.5987034    63.039775    -132.0866    2174.8287    13493.416 
   40890    307.51402      9.64042    60.299908   -133.42316   -398.70078    13493.416 
40900        0.98648273230484018192 10.108662393968890214 1 64 -268.74633292111667515
   40900     295.2626    11.140576    65.551266   -134.96783   -1760.3359    13493.416 
   40910    297.11769    10.238254    72.255122   -136.93568   -1564.0593    13493.416 
   40920    308.56549     9.305785      61.0266   -139.39921   -2156.6976    13493.416 
   40930    318.13815    10.159643    51.667905   -141.83879    578.65286    13493.416 
   40940     300.5726    7.8457568    62.738573   -144.43231    1393.7414    13493.416 
   40950    281.11602      8.50006    69.954014    -146.8579    484.81257    13493.416 
   40960    292.47718    6.6943499    59.648654   -149.35597   -810.76519    13493.416 
   40970    318.25769    7.0261458    59.101964   -152.65121    1009.9785    13493.416 
   40980    317.30827    6.7928756    53.031897   -156.93405   -385.93939    13493.416 
   40990      321.557    8.3528611    52.380619   -162.35677   -962.85054    13493.416 
41000        0.98821717366152650452 10.082048147664805171 0.99735449735449732689 65 -294.69893847073836923
   41000    279.56411    9.5585487    57.339696   -168.03316    1709.3302    13493.416 
   41010    265.55729    8.2971304    60.400875   -172.76515     2981.827    13493.416 
   41020    272.47952    9.3812883    55.629761   -175.57039     552.2138    13493.416 
   41030    299.91994    10.826689    52.028844   -177.05904   -3661.9863    13493.416 
   41040    297.05231    8.7903345    48.433492   -177.70789   -140.74128    13493.416 
   41050    292.27519     6.547612     56.30221   -177.70243    763.57931    13493.416 
   41060    274.42732    4.8436246    55.728994   -177.22736    949.80267    13493.416 
   41070    283.46473    5.7740026    53.580429   -176.14975   -1273.8552    13493.416 
   41080    278.79586    4.8501303    53.197683   -174.39012    1677.5839    13493.416 
   41090    313.21383    5.7285834    52.143268   -172.16125    1878.3605    13493.416 
41100        0.9871893579987933709 10.114969844442748936 1 64 -293.75204189143113354
   41100     273.2945    8.3472653    59.959807   -169.92691   -1284.6154    13493.416 
   41110    275.63935    10.476538    49.888919   -167.52797    -2458.951    13493.416 
   41120    279.50541    8.6310105    55.610506   -164.28114    -1597.824    13493.416 
   41130     284.0911    9.4427995    53.815223   -160.32126    817.39979    13493.416 
   41140    295.81936    7.1806118    61.299305   -155.97257   -859.74628    13493.416 
   41150     292.3325    6.3859236    63.605276   -151.78291    431.51633    13493.416 
   41160     305.3775    5.4050918    60.551934   -148.56332   -158.64069    13493.416 
   41170    288.56242    5.9302765    67.111789    -146.0275   -113.96084    13493.416 
   41180    331.11317    6.0629995     52.01953   -143.99672    1258.8695    13493.416 
   41190    300.96709    7.2966723    57.780453   -142.59454    158.95934    13493.416 
41200        0.98539680162563969557 10.130764049753828715 1 67 -293.40097472206036855
   41200     335.1072    8.9094571    54.275266   -141.56956    324.58004    13493.416 
   41210    322.40958    8.3803201    56.057111   -141.17215    -1456.698    13493.416 
   41220    312.14431    7.8713609    63.166337   -141.49902    648.05332    13493.416 
   41230    306.61756     6.782167    62.811651   -142.24091    1854.4716    13493.416 
   41240    302.41538    6.4901717    61.345057   -143.39991    535.74375    13493.416 
   41250    312.18924     7.597548    52.539522   -144.71388   -167.00598    13493.416 
   41260    288.33316    8.1685765    64.590203    -146.0027    481.99401    13493.416 
   41270    302.82435    10.382496    64.018846   -147.24423   -1231.8997    13493.416 
   41280    292.98254    7.3669718    61.227289    -148.9915    512.84103    13493.416 
   41290    289.24099    3.7630855    59.985435   -151.35098    155.35827    13493.416 
41300        0.97954411146252950982 10.151842045284782401 1 65 -287.72566853499426998
   41300     294.7611    3.3470486    56.197032   -154.17439    2059.2204    13493.416 
   41310    272.04162     4.690833     58.31049   -157.14614   -1741.7225    13493.416 
   41320    270.53098    6.5686126     62.54044   -160.03437   -1608.5676    13493.416 
   41330    243.18337    6.9673365    63.640514   -162.44033   -1751.5394    13493.416 
   41340    288.69573    4.9258977    56.821895     -164.347   -152.24188    13493.416 
   41350    265.56172    5.3692281    68.287842   -166.20431    127.03565    13493.416 
   41360    280.99821    5.6502227    52.189096   -167.76164   -2417.6662    13493.416 
   41370    258.60388    5.0453457    58.588354   -168.81608    2904.8421    13493.416 
   41380    272.44914    5.4664008    59.074502   -168.93335    3355.4953    13493.416 
   41390     293.5295    8.2953089    52.821675   -167.85418    1669.7351    13493.416 
41400        0.97101811377931490643 10.194905069763379402 0.99735449735449732689 64 -304.32989478272838824
   41400    305.77375    7.6799942    55.164237   -165.78897    -2431.131    13493.416 
   41410    294.13689    5.8566272    56.352737   -163.13073   -3822.1314    13493.416 
   41420    289.40136    5.1660835    57.539363   -159.87569   -958.31803    13493.416 
   41430    276.08657    5.7392216    61.628532    -155.8878   -312.67483    13493.416 
   41440    295.22385    5.2967185     54.95389   -151.08632   -28.859317    13493.416 
   41450    291.74959    3.3841417    63.544991   -145.74157     846.0704    13493.416 
   41460    308.87091    4.6546724    62.485439   -140.99035   -1438.5351    13493.416 
   41470    311.15963    6.2393151    65.240561   -137.21812    2229.3245    13493.416 
   41480     296.2543    9.1874113    60.994997   -135.19604    223.52925    13493.416 
   41490    312.95806    8.9338478     61.66738   -133.70491    650.42061    13493.416 
41500        0.96678211826813553742 10.215032292109107459 1 66 -279.34070692311286166
   41500     323.8648    7.4077924    58.267983   -132.60303   -3789.8439    13493.416 
   41510    340.04228    5.7516498    49.670494   -131.70111   -1886.0628    13493.416 
   41520    327.37553    5.8322138    64.497789   -131.50679    1156.1255    13493.416 
   41530    313.28867    10.424714    62.196783    -132.0563    2112.9532    13493.416 
   41540    312.63796    9.4031056     57.93787   -133.10869   -300.38555    13493.416 
   41550    309.28948    8.2662822    63.192915   -134.54831   -1015.2313    13493.416 
   41560     327.7392    8.2791316    61.392704   -136.34327    -3071.543    13493.416 
   41570    330.14074     6.280917    61.835672   -138.91246    2071.0658    13493.416 
   41580    345.60268    4.0401197     57.35728    -143.0011    1218.1025    13493.416 
   41590    312.56605    4.2663918    65.614088    -148.4612    1462.8069    13493.416 
41600        0.97571508393344352772 10.169033769433285741 0.99735449735449732689 69 -291.61893034525439816
   41600    303.21953    5.5348753    61.090788   -154.23528   -2548.1999    13493.416 
   41610     256.9881    10.535364    72.474839   -158.84867   -134.45722    13493.416 
   41620    282.88194    13.330677    60.468239    -161.2906    599.59452    13493.416 
   41630     305.4389    10.071277    52.301736   -162.48446    2414.0168    13493.416 
   41640    293.84432    4.4387417    60.029438   -163.03378   -847.23198    13493.416 
   41650     303.0557    4.1009973    52.067181   -163.26046     168.9798    13493.416 
   41660    259.49044    4.6190644    70.693511   -163.28978    440.59499    13493.416 
   41670    298.42096    5.8428274    57.200618   -162.75533   -533.23384    13493.416 
   41680    271.19828    5.7603252    65.262099   -162.06536   -812.54825    13493.416 
   41690    287.58001    9.2873179    57.519581   -160.90458    421.33645    13493.416 
41700        0.9839325342562889043 10.122144830877784827 1 69 -298.46397222279739481
   41700     308.1791    9.3108033    57.551606   -158.83322    2958.3985    13493.416 
   41710    285.79625    7.7604574    62.420773   -156.58543    445.37152    13493.416 
   41720    313.84476    7.6483832    54.067266   -154.15621   -1910.4331    13493.416 
   41730    311.18638    7.8523547    60.999362   -151.90773    1136.1918    13493.416 
   41740    334.41068    8.8170424     54.31239   -149.99715     495.9433    13493.416 
   41750    307.35656    8.3876425    60.694432   -148.41316   -98.141403    13493.416 
   41760    302.46581    9.9414555    60.652366   -146.99044   -2968.2949    13493.416 
   41770    321.27579    11.315198    59.667522   -145.27129    304.72653    13493.416 
   41780     319.3133     10.39519    66.270868   -143.52333   -373.62915    13493.416 
   41790    335.70462    9.4138103    58.108979   -141.73846    1331.0409    13493.416 
41800        0.98008847700341683584 10.136481724338498367 1 72 -271.0707629828636982
   41800    288.78241    8.3428156    76.751976   -140.22833     1518.043    13493.416 
   41810    301.85823    8.5143537     63.18573   -138.50416    1396.5989    13493.416 
   41820    307.82791    10.557844    65.003096   -135.78118   -869.14714    13493.416 
   41830    314.09708    10.041012    63.877068    -132.1738   -388.41899    13493.416 
   41840    333.25233    10.807047    58.602292   -127.56584   -91.917294    13493.416 
   41850    293.87989    7.7449488    73.753942   -123.30707    2263.4989    13493.416 
   41860    316.88236    7.0263086     64.54846   -119.05981   -439.82134    13493.416 
   41870    317.74591    7.3999284    75.364633    -115.0188    1351.3575    13493.416 
   41880    371.99098    6.0425163    65.100883   -111.65916    703.21745    13493.416 
   41890    342.08799    5.9305344    76.341349    -110.4609   -1358.5187    13493.416 
41900        0.97572000171075246033 10.176093260615479252 1 69 -262.66768241980594212
   41900    334.12151    4.3315437    77.370828   -111.28286   -1599.7452    13493.416 
   41910    351.97534    6.4361834    63.772302   -113.92408   -2012.9711    13493.416 
   41920     337.2494    7.1707368    76.503319   -118.18033    2778.5551    13493.416 
   41930    349.75339    5.3363881    63.555862   -124.15062    846.64789    13493.416 
   41940    327.16919    4.1879534    71.755538   -130.82494    591.87361    13493.416 
   41950    324.84068    6.8659627    64.494021   -136.57401   -1790.0541    13493.416 
   41960      314.682     6.909362    62.463741   -140.93399   -2339.3073    13493.416 
   41970    299.34758    7.0404793    64.909651   -144.09556    1669.8851    13493.416 
   41980    282.27504    8.0069814    63.504595   -146.06907    616.47053    13493.416 
   41990    285.87902    7.3677263     57.64938   -147.17712   -416.59192    13493.416 
42000        0.97298191743572837176 10.193796909536345652 1 74 -273.16877488455514822
   42000    277.24775    5.7422886    68.767279    -147.5525   -682.16023    13493.416 
   42010    293.70475    7.3350798    67.897206   -147.47107   -1050.3521    13493.416 
   42020    316.75941    8.0410267     61.76803    -147.5978    2501.7481    13493.416 
   42030    312.30945    10.069293    62.926281   -148.49607   -538.28074    13493.416 
   42040    334.20677    9.9163414    55.222322   -150.22215    1876.0992    13493.416 
   42050    291.19598    11.125521    64.231611   -152.54229   -445.76402    13493.416 
   42060    294.37157    9.7678124    59.635308   -154.90369   -1227.7597    13493.416 
   42070    281.77796    7.1633866    64.701703   -156.88807   -730.99783    13493.416 
   42080    282.52134    4.8173923    61.215787   -158.76562   -313.47784    13493.416 
   42090    301.56977    4.7209716    54.006041    -160.4703    909.02949    13493.416 
42100        0.96690205182470601031 10.219648854362070267 1 71 -288.3443918922586704
   42100    278.46915    6.0220314    65.259788   -162.17472    2190.2495    13493.416 
   42110    298.36745    5.4245976    53.560827   -163.54183    391.24802    13493.416 
   42120    279.99788    5.1336813    62.573275   -164.53429    383.87029    13493.416 
   42130    263.14983    5.2976015    59.417494   -164.96418    -1645.669    13493.416 
   42140    277.64754    4.8645587    53.798758   -164.46159   -951.78103    13493.416 
   42150    265.87961    6.3000089    56.415267   -162.89728   -1510.6954    13493.416 
   42160    289.50162    4.5342563     59.05381   -159.76975    610.11441    13493.416 
   42170    283.46639    3.9800015    61.726113   -154.49787    829.31185    13493.416 
   42180    318.03201    4.1040035    54.025858   -148.45116   -954.20625    13493.416 
   42190    330.10436    6.4816075    59.928543    -142.9052   -773.78466    13493.416 
42200        0.96338411742922946956 10.220583188741182212 1 70 -281.96244821265975133
   42200    314.87051    7.7083996    67.765163   -139.29993    217.61295    13493.416 
   42210    336.68926     7.683933    62.829566   -137.16825     250.6116    13493.416 
   42220    318.45044    7.9197823    69.458096   -136.30523   -2957.4133    13493.416 
   42230    325.48758      9.05018    62.380159   -136.65679   -2138.6167    13493.416 
   42240    322.12117    7.1629463    60.157756   -137.69041    612.36462    13493.416 
   42250    295.67405    7.2997349    66.848753   -139.01946     3974.718    13493.416 
   42260    287.43921    8.5534524    56.842844   -139.96412      2418.28    13493.416 
   42270    307.01325    8.4921514    60.064729   -140.61098    797.69828    13493.416 
   42280     298.5024    6.5036213    67.938594   -141.32151      -3476.3    13493.416 
   42290    329.77721    7.3646542    57.448822   -142.28903   -1714.5726    13493.416 
42300        0.96150099460006888119 10.212323927348098351 1 65 -282.31241261249545005
   42300    305.00659    7.0076459    67.100317   -144.11907   -1911.1143    13493.416 
   42310    278.84562    6.8044685    74.583802   -146.11796    2251.0264    13493.416 
   42320    291.39427    5.8171273    60.445092   -148.04891   -691.41973    13493.416 
   42330    279.80116    7.3603075    61.923627   -149.90758    232.68454    13493.416 
   42340    316.77004    7.2929457    56.665905    -152.2228   -649.65626    13493.416 
   42350    310.58023    5.1207461    55.904009   -156.02934     3148.536    13493.416 
   42360    296.56615     5.232473    61.301698   -161.35158   -373.43175    13493.416 
   42370     296.8561    5.9623253    50.341401   -167.76268     656.5315    13493.416 
   42380     270.2857    4.5813045    58.740093   -173.14877   -1386.7017    13493.416 
   42390    282.31038    4.4240153    49.770304   -177.11784    800.70275    13493.416 
42400        0.96637581632236990714 10.20867869314578158 1 65 -290.46652115099874436
   42400    245.38591    4.3875127    58.509823   -179.28631   -1762.7634    13493.416 
   42410    252.77306    5.4505469    51.765582   -179.59568    -1342.704    13493.416 
   42420    277.40908     4.860074    50.227421    -178.6563   -1770.4869    13493.416 
   42430    232.77821    6.8008524    67.835309   -176.80649    2650.0751    13493.416 
   42440    289.25578    6.4043636    52.343414    -173.9592    1996.0854    13493.416 
   42450    271.42518    4.5716007    69.405225     -170.999    3196.5678    13493.416 
   42460    298.16756    2.8182902    57.462799   -168.18373   -2295.3764    13493.416 
   42470    266.73762    4.0134114    63.251978   -165.88515   -341.98081    13493.416 
   42480    285.00079    6.8223597    59.224795   -163.45114   -3526.8004    13493.416 
   42490    295.24295    7.6895931    64.102429   -160.68933     1651.171    13493.416 
42500        0.97778925677431072216 10.151547770094051515 0.99735449735449732689 68 -285.89747138404300131
   42500    281.46844    8.0667307    59.660366   -158.36887   -375.27947    13493.416 
   42510    278.44893    10.073919    51.556282   -156.07771    924.44932    13493.416 
   42520    291.45166    6.7928736    56.200882   -153.71454    260.82228    13493.416 
   42530    279.45247    4.0374122    57.943839   -150.96059   -407.14641    13493.416 
   42540    281.22764    3.0247419    63.556299   -148.01626    374.01308    13493.416 
   42550    280.77221    5.0063226     63.96404   -144.84351    480.57518    13493.416 
   42560     294.9429    4.7787101    64.003624   -142.04074    451.60113    13493.416 
   42570    326.94114      6.81167     59.83568    -139.8493    272.46797    13493.416 
   42580    325.62716    8.4759405    59.719657   -138.84702    134.10799    13493.416 
   42590    312.09554    10.217591     71.49395   -139.09735    1843.9315    13493.416 
42600        0.98236589507553995215 10.127082886762758918 1 69 -286.30920303971072371
   42600    322.79329     6.566612    62.597364   -140.05701    1233.4429    13493.416 
   42610    316.87277    5.0501856    67.062795   -141.72875   -1933.7797    13493.416 
   42620    312.54963    4.2969514    66.744715   -143.90192    -3986.475    13493.416 
   42630     290.7919    4.8327985    72.434066   -146.60375   -1733.5981    13493.416 
   42640    287.00188    7.5474668     66.91009   -149.26628    962.51793    13493.416 
   42650    270.87231    8.6764587    72.682178   -151.72644    889.14778    13493.416 
   42660    282.14051    8.0046657    66.019041   -153.45022   -1790.3264    13493.416 
   42670    260.94381    13.046302    63.944194   -154.42912   -1607.3322    13493.416 
   42680    281.74164    12.460733     64.27476   -154.74165    2723.0363    13493.416 
   42690    271.35995    10.722519    69.998304   -154.47623    2024.2041    13493.416 
42700        0.98838902308151110887 10.104440561784915786 1 69 -285.90506403423000847
   42700    291.34763    9.4099201    64.416674   -153.90037   -228.01949    13493.416 
   42710    306.76556    6.2216418    63.105459   -153.25098   -3692.3494    13493.416 
   42720    332.18224    7.0430834    59.635932    -153.0881   -1390.7988    13493.416 
   42730    311.36963    7.9561352    63.319806   -153.96096    1484.4023    13493.416 
   42740    287.57971    7.3743261    60.518292   -155.04542    1415.8487    13493.416 
   42750    285.68276    8.8275628    64.101944    -156.0063    1741.8031    13493.416 
   42760     298.3457    7.6383301    52.661256    -156.7134   -1815.9289    13493.416 
   42770    280.26096    8.6678943    63.811825   -157.30504    685.35775    13493.416 
   42780    275.04249    7.9686627    68.932943   -157.82468    2440.6469    13493.416 
   42790    282.92396      9.20443    62.366047   -158.22135    1835.9846    13493.416 
42800        0.98890455614731609391 10.101723274839502054 1 69 -291.1014395030747437
   42800     291.9942    7.4654977    58.146941   -158.80379   -1463.6391    13493.416 
   42810    296.59165    9.7046498    55.910603   -159.17922   -64.860324    13493.416 
   42820    286.42572    10.906145    71.931793    -159.2293    3539.0822    13493.416 
   42830     294.3751    9.7823266    67.673321   -159.39849   -21.486843    13493.416 
   42840    294.43416    8.7110824    61.088924   -159.90882    -4551.436    13493.416 
   42850    288.61455    6.7829632    60.587784   -160.63638   -568.61985    13493.416 
   42860    307.32393     6.519924    59.553528   -161.20273    1641.4693    13493.416 
   42870    276.86207    7.3382366    64.523368   -161.76192    1919.5874    13493.416 
   42880    296.55371    7.5986363    56.212142   -162.14158   -1423.8298    13493.416 
   42890    268.04995    8.8261551    63.633771   -162.14177   -2562.8309    13493.416 
42900        0.99047822197975854408 10.092984833348188189 1 71 -292.19371221516587411
   42900    288.49099    8.1500853    60.447751   -161.48331   -1152.8676    13493.416 
   42910     291.3685     10.06945    54.021975   -160.12908    1005.4549    13493.416 
   42920    290.92485    10.871664     64.89129   -158.03685    2394.9956    13493.416 
   42930     316.7365    10.130893    55.477582   -155.32888    1061.0859    13493.416 
   42940    300.47919     8.614011    53.697945   -152.80425   -3229.4682    13493.416 
   42950    291.70743    7.7120395    60.694729   -150.33089   -280.10546    13493.416 
   42960    288.71553    7.9274645    64.994698   -147.58299       20.746    13493.416 
   42970    306.35111    8.2787125    61.744891   -144.45426    1165.7194    13493.416 
   42980    321.99446    9.1778185    66.480755     -141.649   -1776.0523    13493.416 
   42990    306.27335    6.9056298    69.339748   -139.49246   -588.96125    13493.416 
43000        0.99072097361701960683 10.088261779194802159 1 67 -277.44807233984954564
   43000    308.20579    6.3298937    70.232924   -137.80523    3135.2505    13493.416 
   43010    294.76456    8.8516932    78.426176   -136.89309   -697.69636    13493.416 
   43020    327.24036    12.037254    59.146363   -136.55221    1580.2985    13493.416 
   43030    314.61744     10.93363     65.33054   -137.10035    275.00623    13493.416 
   43040    316.28094    9.7278996    62.332921   -138.27129   -98.449107    13493.416 
   43050    293.07117    7.9793749    73.649305   -140.32978     1880.404    13493.416 
   43060    324.21517    5.4186378    56.890567   -143.17676   -218.63751    13493.416 
   43070    298.08995    5.6561511    64.593612   -146.99741    1783.9479    13493.416 
   43080    280.35261    7.7338858     58.51425   -151.00743    -2050.864    13493.416 
   43090    320.72098    11.529305    52.530521   -155.26378    1145.8075    13493.416 
43100        0.98713005198400627371 10.113069988789449738 1 66 -285.48843997836343078
   43100    277.02008    12.030382    67.878702   -159.97532     1249.231    13493.416 
   43110    264.91205    10.672901    54.696843   -163.63919   -1820.3066    13493.416 
   43120    269.10115    11.247533    55.988043   -165.81356   -2790.9101    13493.416 
   43130    284.92046    9.3719729    55.593331   -166.85457   -1017.2172    13493.416 
   43140    293.73251    7.6259276    55.096582   -167.04194   -318.11303    13493.416 
   43150    284.50732    7.1583379    58.953963   -166.67162    1577.7703    13493.416 
   43160    275.80288    6.6613318    67.195679   -166.05744    1176.3767    13493.416 
   43170     312.1107    6.2894495     55.09038   -165.41859    2145.2433    13493.416 
   43180     297.6331    5.5987914    54.421486   -164.96092   -1496.0517    13493.416 
   43190    261.27236    4.9881026     62.90426   -164.33293   -1036.3428    13493.416 
43200        0.98794104844250207886 10.111744048655541661 1 66 -292.28588731212414586
   43200    285.22909    5.1161763    62.653274    -163.0534   -917.51271    13493.416 
   43210    307.44579    5.7167286    55.067018   -161.47811    115.28048    13493.416 
   43220     279.9338    7.9843473     61.39887   -160.01264    853.03051    13493.416 
   43230    276.60815    7.3551615    63.664596   -158.49159    1511.3971    13493.416 
   43240    277.94628    7.4158611    65.695648    -157.0347   -638.69108    13493.416 
   43250    300.80627      7.09257    59.906426   -155.69585   -3586.9454    13493.416 
   43260    303.86111    8.2132769    57.206039   -154.64103   -3392.2418    13493.416 
   43270    307.85592    6.4171834    65.508886   -153.80741    859.65183    13493.416 
   43280    314.33312    5.6869597    55.479404    -153.6348    4180.7876    13493.416 
   43290    301.51154    5.9491947    58.598805   -153.56546    1190.6072    13493.416 
43300        0.98935690762360384287 10.106950627501719353 1 64 -281.56836148478885207
   43300    283.32583    6.4157793    62.991978   -153.19821    1516.3975    13493.416 
   43310    296.63898    8.9803597    63.055163   -152.73903    -928.3688    13493.416 
   43320    301.39358    8.2272495    59.568799    -152.5378   -989.10297    13493.416 
   43330    304.12026    8.3718228    58.207678   -152.38857   -2393.8459    13493.416 
   43340    301.12854    9.4827664    63.175884   -152.09959    294.48393    13493.416 
   43350    311.14676    8.4621331    61.996379   -151.82875    557.19196    13493.416 
   43360    308.85012    11.942682    64.872564   -151.99618    3653.8872    13493.416 
   43370    293.42009    13.845789    69.213699   -152.70267    1784.0746    13493.416 
   43380    305.41761    13.818414    57.316201    -153.3966   -720.18249    13493.416 
   43390    304.94054    10.764519     62.14857   -154.48953   -3688.7022    13493.416 
43400        0.98989863902225294634 10.111487410372516749 1 62 -306.31218737611925462
   43400    330.32268    6.8850272    54.141425   -156.64855   -1239.9148    13493.416 
   43410    313.48435    6.4540039    60.765865   -159.96609    235.80922    13493.416 
   43420    300.29717    6.5902275    52.098526   -164.57409     1143.979    13493.416 
   43430    243.31351    8.1958431     69.09939   -168.79658   -2670.9315    13493.416 
   43440    300.54122    8.5846393    48.579874   -172.82822      2253.93    13493.416 
   43450     259.6088     6.721524    66.553171    -175.9322    1470.7184    13493.416 
   43460    288.60729    7.7880471    50.822753    -177.9898    3325.6729    13493.416 
   43470    260.21253    8.1353512    59.030518   -179.06028   -2086.9257    13493.416 
   43480    269.59745    6.6686333    53.862758   -179.23069   -1326.5466    13493.416 
   43490    251.30059    6.1457069    63.327448   -178.52258   -1033.6266    13493.416 
43500        0.98243850376922470247 10.152670330311600821 1 62 -294.18579931066301469
   43500    260.02842    6.6371885    56.793947   -176.37131    -1424.047    13493.416 
   43510    282.79836    9.8821608    56.242794   -172.70009   -862.99862    13493.416 
   43520    279.46287    10.034167    59.636871   -168.30821    1300.5079    13493.416 
   43530    305.32871    11.044042    54.898297   -163.67776    556.54649    13493.416 
   43540    285.03185      7.00435    65.710218   -159.83006    3674.3945    13493.416 
   43550    306.92406    6.3262893    56.740555   -156.79284    1515.8833    13493.416 
   43560     297.3402    5.1966096    63.811173   -154.75637   -1575.7064    13493.416 
   43570    314.07533    5.3310451     58.85976   -153.43183    -1589.968    13493.416 
   43580     300.5645    4.7868094    60.758293   -152.45329   -3072.8767    13493.416 
   43590    290.70204    6.7251172    68.767527   -151.81067    71.406278    13493.416 
43600        0.97439235891755748842 10.189175594288068183 1 68 -281.30173595237386053
   43600    284.67643    7.9913817    73.872656   -152.31965   -1895.4312    13493.416 
   43610    306.40684    8.8324291    57.023391   -152.05402    293.58616    13493.416 
   43620    298.95061    8.5220646    65.316381   -151.61437    53.558423    13493.416 
   43630    333.42066    8.8813535    49.986541   -150.24486    1898.6151    13493.416 
   43640    297.22643    7.9434099    65.503102   -150.42135    2142.3942    13493.416 
   43650     282.3323    8.6271774     65.24466   -150.73364   -234.04315    13493.416 
   43660    291.19406     5.862665    64.174066   -150.65579   -1091.6917    13493.416 
   43670    284.32072    5.5027353    69.463419   -150.19466   -1417.7504    13493.416 
   43680    321.08692    6.1127142    58.260358   -149.22152   -55.780993    13493.416 
   43690    308.33443    5.9580918    69.758134   -148.07057    301.52244    13493.416 
43700        0.97305573806511325152 10.184362287509971523 1 67 -288.77694487574115101
   43700    312.35629     6.945393     60.63381   -147.25358   -474.49061    13493.416 
   43710    310.17923    6.8424933    68.706618    -146.5444    2535.8067    13493.416 
   43720    308.33325     8.183537    63.225101   -146.06408    1714.6364    13493.416 
   43730    289.64059    5.0882523    69.717432   -145.90021   -1540.7133    13493.416 
   43740    297.41719    3.7070037    61.952734   -145.74601    -788.8571    13493.416 
   43750    339.37217    3.3210065    52.587048    -145.6927   -2186.7242    13493.416 
   43760    316.64456    4.1165676    63.226173   -146.16485   -1875.4671    13493.416 
   43770    311.86398    3.8916462    63.015546   -147.26995   -1838.4272    13493.416 
   43780    310.27148    6.5747909    60.226982    -149.0764    2443.0819    13493.416 
   43790    289.60398    12.263865    64.916737   -151.29495    1194.4061    13493.416 
43800        0.97333490579074743998 10.182715797587274409 1 65 -293.44295970637045912
   43800    308.86141    8.1935142    58.682395   -153.50307   -300.52628    13493.416 
   43810    295.38525    6.9882018    62.070874    -156.0385   -2445.1324    13493.416 
   43820    309.62755    5.4112845    54.897035   -159.03347   -25.254648    13493.416 
   43830    290.33783    4.8041416    57.374552   -161.90632   -337.41646    13493.416 
   43840    303.42442    5.0524858     53.83017   -164.44326    1733.4632    13493.416 
   43850    280.35573    5.0942385    58.902966    -166.4948    770.77082    13493.416 
   43860    279.31302    6.2867363    56.637202   -167.95643    925.76198    13493.416 
   43870    290.72353    5.0237947    55.381085   -168.96055     425.9729    13493.416 
   43880    314.50129    4.6889406    50.014136   -169.89898   -151.47836    13493.416 
   43890    287.80193    7.1321036    50.915431    -170.9367     142.9878    13493.416 
43900        0.97258793807428800537 10.168679875371568144 1 65 -302.77158586139705676
   43900     289.7906    5.2680305    52.256213   -171.47236   -1049.2012    13493.416 
   43910    269.60083    5.7284505     62.29922   -171.23002   -2027.8198    13493.416 
   43920    282.53228    8.0280745    60.765911   -170.18831    1679.5127    13493.416 
   43930    281.53851    8.8908257    63.510784   -168.46205    905.62581    13493.416 
   43940     288.8847    9.2033266    54.218296   -165.78389    1752.6325    13493.416 
   43950    272.65299    8.1833381    61.292801   -161.54358   -1657.0329    13493.416 
   43960    303.85428    8.8954983    56.720811   -155.36185    1377.9597    13493.416 
   43970    304.59048    5.3565158    66.055354   -149.07293    1902.2682    13493.416 
   43980    323.38281    4.6210922    58.684342   -144.59417    338.25055    13493.416 
   43990    317.22809    4.8493154    62.589374   -141.76263   -1338.1518    13493.416 
44000        0.96915800505070592852 10.196917021780777191 1 64 -288.78647281124659685
   44000    328.29445     5.438986    58.063601    -140.0418   -2777.6694    13493.416 
   44010    290.78603    5.3293469     67.27689    -139.3019    -111.9763    13493.416 
   44020    310.73107    5.4071878    66.242845   -139.04286    2440.2505    13493.416 
   44030    313.62064    6.1395908    62.594442   -139.17218    1773.2246    13493.416 
   44040    327.62499    3.0805086    60.800886    -139.5104   -1716.3964    13493.416 
   44050    315.82816    4.1897359    64.017356   -140.52788   -2075.2095    13493.416 
   44060     278.0975    4.7238874    67.296687   -142.32613   -3585.0813    13493.416 
   44070    290.46419    6.9321756    55.057411   -144.10444    102.77308    13493.416 
   44080     296.9066    7.1351848    59.240565   -145.45565    -927.8433    13493.416 
   44090    294.63011    7.6454322    62.222368   -146.52182    1414.7769    13493.416 
44100        0.96789148893422816133 10.186092191086837389 1 67 -276.03331371881722589
   44100    283.71723    11.331795    67.030261   -147.48582    3129.7187    13493.416 
   44110    289.97103    10.682409     62.09754   -148.29867    3346.0599    13493.416 
   44120    312.35122    10.392735    62.104235   -149.22875    655.71353    13493.416 
   44130    293.80902    8.0485277    64.915554   -150.93032   -1907.5163    13493.416 
   44140    281.27711    6.4554202    68.266456   -153.59336   -3148.4514    13493.416 
   44150    299.19308    5.9069258    61.031358   -157.08733   -2946.2683    13493.416 
   44160    321.42426    5.4338558    58.893285   -162.04438    253.24813    13493.416 
   44170    317.13091    6.0202633    54.337061   -168.49622    1929.2046    13493.416 
   44180    264.43623    7.6314092    61.304737   -174.42023    610.18036    13493.416 
   44190    257.44486    5.8463302     58.38776   -178.34216   -660.18431    13493.416 
44200        0.96378464197670465907 10.215582441138819192 0.99470899470899465378 67 -284.73037651770584944
   44200    231.10838    5.6781357     67.90568   -180.01907    592.13241    13493.416 
   44210    275.66285    4.0497116    48.788163   -180.11048   -257.45867    13493.416 
   44220    242.66559    3.8586076     64.83607   -179.14626   -1600.6915    13493.416 
   44230    275.73382    3.4743944    54.655674   -177.08295   -770.87535    13493.416 
   44240    260.37112     5.103257    63.032531   -174.28276    1312.6035    13493.416 
   44250    285.98306    7.3105901    55.721639   -170.82383    1937.3564    13493.416 
   44260    287.54606    8.6285311    53.742212   -167.09652    454.42053    13493.416 
   44270    278.77202    8.6509248    61.124082    -163.4905   -1281.1862    13493.416 
   44280    294.99003    5.6705922    62.037398     -160.067   -80.414068    13493.416 
   44290    288.48101    6.6006302    68.229674   -157.44801   -2231.7527    13493.416 
44300        0.97123904054507503858 10.179411003594260876 1 69 -293.54658431613961511
   44300    304.57878    6.9933825    60.954371   -155.54708   -266.06282    13493.416 
   44310    302.46668    6.5822783    61.725227   -153.98459   -1923.0344    13493.416 
   44320    302.77852    6.4503988    66.173967    -152.5832    1013.7758    13493.416 
   44330    318.54383    7.6187193    63.874648   -151.63369   -216.19386    13493.416 
   44340    297.62447    6.8832579    66.405778   -151.78209    1550.7669    13493.416 
   44350    305.52415     6.282987    57.391173   -152.27068    233.26255    13493.416 
   44360     279.6902     8.611356    56.070522   -152.39348    1567.6032    13493.416 
   44370    301.09087    6.6757399    50.423532   -151.62516    264.18142    13493.416 
   44380    271.69546    7.8511435    62.377224   -150.29277    2387.6752    13493.416 
   44390    278.74396    6.2084702      65.4428    -148.2596   -1454.9889    13493.416 
44400        0.97554184555437550852 10.146869488737401355 0.99735449735449732689 65 -282.84509996377255447
   44400    303.67258    5.5396351    63.772028   -145.25618    1015.2001    13493.416 
   44410    318.04547    6.4486075    60.605193   -141.81268    -2885.974    13493.416 
   44420    329.65142    5.1380611    58.242479   -138.07706    903.58009    13493.416 
   44430    313.06897    4.1027388    68.314233   -134.55963   -129.83062    13493.416 
   44440    315.95911    7.2698687      58.6615   -130.73578    937.60589    13493.416 
   44450     321.8654    7.1134062    64.791008   -126.89758    1965.2753    13493.416 
   44460     326.7025    7.2219045    67.693654   -123.25534   -774.69487    13493.416 
   44470    356.85276    7.4752917    60.259963   -119.65536   -189.93215    13493.416 
   44480    332.25727    7.8456907    73.464008   -117.29299    -479.8337    13493.416 
   44490    370.30471    9.4105448    57.589234   -115.89212    250.44861    13493.416 
44500        0.9834707996465945623 10.132071286465100357 1 63 -266.3440067828543647
   44500    330.40366    6.6463998    69.992907   -116.64368     241.2436    13493.416 
   44510    310.07813    6.0567673    68.634982   -119.61181   -259.54244    13493.416 
   44520    300.51285    5.9296414    66.212486   -124.67924     668.3055    13493.416 
   44530    306.63819    4.2654004    67.586991   -130.84255   -174.45628    13493.416 
   44540     335.5747    4.5142325    61.272272   -138.04206   -874.95968    13493.416 
   44550    307.95748     8.315735    56.517617   -144.45936   -2216.3699    13493.416 
   44560    288.58707    8.2020432    58.526854   -148.86347   -2705.9581    13493.416 
   44570    269.67422    7.6056228    65.870519   -151.45713    1688.5534    13493.416 
   44580    298.68507    9.8661383    63.750399   -153.22261    970.59973    13493.416 
   44590    287.80936    10.531911    61.816923   -154.74866     2826.459    13493.416 
44600        0.98450392217748883272 10.112591833916562578 1 63 -289.71061631843468831
   44600    294.05969    11.486056    61.356918   -156.47713    60.998421    13493.416 
   44610    290.66523    10.070862    58.701246    -158.3286   -3657.2093    13493.416 
   44620    298.28914    9.6504201    55.554526   -160.03216   -2970.4456    13493.416 
   44630    292.26121    8.6872823    61.218731   -161.53263   -682.39492    13493.416 
   44640    291.10372    8.8713541    55.526293   -162.82824    1366.8701    13493.416 
   44650    286.67301    8.4482426    53.649026   -163.89156     2871.076    13493.416 
   44660    279.18533    9.7717329    59.226069   -164.24052    3000.4157    13493.416 
   44670     300.8006    10.088972    51.073263   -164.08842    2697.9673    13493.416 
   44680     289.4737     9.764881      59.6967   -163.90429   -1745.6058    13493.416 
   44690    279.78575    9.3813279    60.480479   -163.69237   -3847.3877    13493.416 
44700        0.9860731257087743673 10.105074722486191874 1 65 -294.85529973168991091
   44700    290.96847    10.970048    52.534097    -163.0224   -3078.3263    13493.416 
   44710    315.17608    11.301851    50.654765   -161.42172    1192.3889    13493.416 
   44720    300.41364    7.5682132    60.058018    -159.4786    4405.1313    13493.416 
   44730    298.09534     6.411108    60.484976   -157.11024    3103.2887    13493.416 
   44740    292.34224    7.5293121    59.301777   -154.08177   -56.926492    13493.416 
   44750    288.13959     9.280539    59.711538   -150.44836   -1035.6718    13493.416 
   44760    287.94175    8.1458977    66.692554   -146.07909   -1636.4171    13493.416 
   44770    308.66737    7.7440394    61.678814   -141.30131    147.44112    13493.416 
   44780    299.90962    8.0916887    68.322978   -136.78438   -2098.6064    13493.416 
   44790    330.36591    5.6401209    61.713995   -133.28493    235.62659    13493.416 
44800        0.9866971806955868729 10.067971614800152125 1 67 -278.38982825826849421
   44800    325.48971    5.8664379    65.491774   -130.91593    2382.3789    13493.416 
   44810    332.04864    8.2966734    62.207642   -129.96326    569.77016    13493.416 
   44820    322.95405    10.448056    70.606325   -130.29406    3157.5972    13493.416 
   44830    323.40771    10.074982    61.785638   -131.82713    -2941.759    13493.416 
   44840    323.44624    10.727865    59.016593   -134.03777   -1879.5998    13493.416 
   44850     305.6518    8.0204482    63.657313   -136.38898   -490.63808    13493.416 
   44860    320.23339    5.5466024    63.188677   -138.97227   -208.57665    13493.416 
   44870    313.02091    4.1198672    73.924303   -142.23046    737.97738    13493.416 
   44880    306.90823    5.5504224    56.243517   -145.88162   -383.41181    13493.416 
   44890    302.03085    5.6436799    58.867466   -148.93594    1207.5224    13493.416 
44900        0.98811184661525885975 10.096887578651877249 1 68 -299.09818423878783733
   44900    326.77079    7.5074298    55.687922   -151.04385    1527.8376    13493.416 
   44910    313.15405    9.1416208    58.322644   -152.72264   -1686.3195    13493.416 
   44920    309.80536    10.190731     64.42364   -154.34145   -444.69178    13493.416 
   44930    289.49678    10.075015    58.392816   -155.55835   -1899.6421    13493.416 
   44940     304.6526    10.775869     51.84155   -156.25893   -272.80395    13493.416 
   44950    306.28598    9.8288916     58.69157   -156.51767    954.45808    13493.416 
   44960     306.8687    7.6983264    55.035224   -156.49522    802.46548    13493.416 
   44970     287.6309    5.9962468    65.041655   -156.59629   -35.538053    13493.416 
   44980    273.85594    5.1271433    66.844428   -156.56072   -291.04401    13493.416 
   44990    296.32415    4.5292328    61.275058   -156.11772   -1895.1748    13493.416 
45000        0.98679806553113724732 10.121689812064879277 1 70 -288.42444015023386328
   45000     293.1784    5.7693002    66.166401   -155.59025    2086.5444    13493.416 
   45010    318.33812    6.6039562    52.211118   -155.24568    -953.2182    13493.416 
   45020      309.397    9.2464288    57.780773   -155.22068    1677.2447    13493.416 
   45030    307.80403    8.8306209    57.965648   -155.39463   -3433.6795    13493.416 
   45040     296.4497    9.4503942    62.145884   -155.67483    -966.3356    13493.416 
   45050    274.42447    9.2281075    69.366624   -155.74919    1632.2219    13493.416 
   45060    255.89809    10.519582    76.606958   -155.62079    1043.3177    13493.416 
   45070    286.06116    8.6953942    62.329051   -155.04255    2953.6697    13493.416 
   45080    298.12111    5.9238355    64.470279   -153.80382    1702.0663    13493.416 
   45090    306.90546    5.8967804     65.93056   -152.01208   -276.70617    13493.416 
45100        0.98932818542238687431 10.120641466232532579 1 68 -288.40103631846704957
   45100    306.62169    8.0774725    55.527469   -149.47592   -200.26245    13493.416 
   45110    309.69753    6.9608837    57.329751   -146.42882    -5324.525    13493.416 
   45120    296.70769    7.3300171    64.936656   -142.77854   -2324.3368    13493.416 
   45130    319.89029    8.8638077    60.731347   -139.03007   -3601.6693    13493.416 
   45140    349.64466    12.124892    58.171961   -135.50157    3954.1898    13493.416 
   45150    342.84371    13.861273    64.149531   -133.41232    610.63289    13493.416 
   45160    339.47174    15.164329    61.245615   -132.78708    757.18783    13493.416 
   45170    305.76716     15.90409    71.809136   -133.26702    577.95799    13493.416 
   45180    328.25052     15.12495    63.815199   -134.49242    3549.9982    13493.416 
   45190    306.82882     10.30264    69.792521   -136.55908    1760.1406    13493.416 
45200        0.99041518532892558468 10.113689855250965977 1 66 -283.41500345526696947
   45200    317.73133     6.605138    64.451002    -139.4563   -1523.0072    13493.416 
   45210    319.83082    5.9925785    63.508831    -143.1605   -1673.9061    13493.416 
   45220    323.75718    6.5762271     66.76745   -148.08735    1883.8095    13493.416 
   45230    301.10623    7.7635883    70.136037   -153.61345    774.61764    13493.416 
   45240    291.25935    5.6358689    63.641219   -158.52759     95.28093    13493.416 
   45250    275.49103    6.5274898    64.884025   -162.23964   -3168.0108    13493.416 
   45260    280.17921    6.5797707    63.291669   -164.29635   -2579.5481    13493.416 
   45270    279.44176    7.3365295    60.578625   -165.29678    -70.75963    13493.416 
   45280      267.889    9.3281957    66.626553   -165.44571    1690.0334    13493.416 
   45290      280.936    9.7539373    63.078735   -164.86624    1700.0202    13493.416 
45300        0.98953836730571742564 10.102695093524168612 1 68 -281.99784900669726539
   45300    260.69809    9.5027186    68.061328   -163.87994   -193.40249    13493.416 
   45310    284.52835      7.89266    68.035176   -162.38947   -245.94116    13493.416 
   45320    293.80024    9.3683511    62.162419   -160.78882    210.98409    13493.416 
   45330    293.85939    8.6818948    66.134662   -159.31981   -525.85699    13493.416 
   45340    297.40679    6.5641072    64.440896   -157.81987   -1606.6507    13493.416 
   45350    257.54486    5.2611247    72.843152   -156.35031    871.21064    13493.416 
   45360     301.1106    7.3402576    58.101264   -154.34729    1325.9146    13493.416 
   45370    298.33779    11.978779    63.814598   -152.05881    1153.1701    13493.416 
   45380    315.58092    12.749338     62.60984   -149.38765    188.59848    13493.416 
   45390    321.23982     11.25583    68.510518   -146.86219    2711.0435    13493.416 
45400        0.98836074814502694608 10.108468958053272502 1 71 -274.83370030615833457
   45400    285.89362    9.3147334    78.495031   -145.30013   -1080.0932    13493.416 
   45410    323.36978    9.6209435    53.832891   -144.04323   -560.24684    13493.416 
   45420    291.15524    8.7193696    74.225411    -142.8951   -2585.9452    13493.416 
   45430    310.96806    5.3130892    62.853385   -141.31711   -2220.4599    13493.416 
   45440    306.89287    6.0014559    66.298765   -138.99337    -2665.884    13493.416 
   45450    343.24704    6.4413169    63.997369   -135.80325    652.72945    13493.416 
   45460    332.55534    11.485217    71.545396     -132.691    5036.7722    13493.416 
   45470    318.69603    16.238326    69.282828   -129.78535    2430.8337    13493.416 
   45480    342.43472    12.564531    64.286382   -127.35281   -1084.5002    13493.416 
   45490    332.22862    11.300565    66.977992   -125.72848   -3904.0664    13493.416 
45500        0.98189930025160643279 10.1380323807005297 1 66 -278.82586527157315004
   45500     339.3558    10.533551    64.325794   -125.06948   -3058.6197    13493.416 
   45510     312.5197    8.7443424     71.77324   -125.35461    3241.3463    13493.416 
   45520    303.83557    7.0267873    70.481937   -126.34507     3815.105    13493.416 
   45530    316.67864    7.5334322    68.825795   -127.94139    3628.3535    13493.416 
   45540     300.7212    6.8019397    70.804616   -129.99326   -2351.2257    13493.416 
   45550    312.98498    7.5418307    64.518598   -132.32766   -3255.8617    13493.416 
   45560    312.92818    5.9858591    67.502139   -135.42713   -128.58691    13493.416 
   45570     317.9036    5.3655075    66.334357   -139.46094    1636.0876    13493.416 
   45580    295.31409    6.7093818    66.420571   -143.65069     163.3959    13493.416 
   45590    321.41842    7.3927656    56.820184   -147.70752   -714.09397    13493.416 
45600        0.97600822032396328254 10.175166420985409133 1 65 -290.89229051576751317
   45600    307.16698    7.8684807    63.013982   -151.72011    194.67695    13493.416 
   45610     305.5384    7.1115649    69.697493   -155.49956     974.0952    13493.416 
   45620    312.92512     6.664313    61.099338   -159.08164   -673.22552    13493.416 
   45630    284.52759    7.0306469     64.43017   -162.20614    190.23323    13493.416 
   45640    288.91293    8.0789637    58.738251   -164.23575   -438.02114    13493.416 
   45650    273.36891     9.227218    62.981799   -165.32808   -714.49214    13493.416 
   45660    278.88994    10.385039    63.549527   -165.61953   -2007.4569    13493.416 
   45670    312.15322    11.822792    54.409632   -165.45574    463.87152    13493.416 
   45680    292.05845    12.848984    58.754298    -165.1626   -149.60391    15325.196 
   45690    308.05117    10.260663    56.448369   -164.45577    763.24069    15325.196 
45700        0.97125015736179054482 10.208312795347435298 1 69 -303.1431528193838858
   45700    308.15081    8.0625433    56.979716   -163.52522    566.32519    15325.196 
   45710    292.73323    6.4165805    62.370906   -162.61934    2092.9224    15325.196 
   45720    295.64061    6.1821412     57.59455   -161.29621   -3755.0329    15325.196 
   45730    293.95809    4.8697912    58.102585   -159.48566   -1205.2974    15325.196 
   45740    303.14512    5.0013553    58.136198   -157.38968    958.96936    15325.196 
   45750    290.34005    5.4458994    60.134839   -154.78443    1267.7033    15325.196 
   45760    304.31372    4.5460648    69.407079   -151.12557   -303.36852    15325.196 
   45770    297.35812     3.769968    69.100304    -146.7969   -2699.2714    15325.196 
   45780    309.12324    5.1236435    66.829217   -142.16522   -560.54662    15325.196 
   45790    309.09273    7.5540191    71.422027   -137.39341    1159.8128    15325.196 
45800        0.97107816167036353772 10.189672526400656238 1 70 -276.61212372490876987
   45800    316.97126    6.6551128    73.475831   -132.99779    3831.8475    15325.196 
   45810    318.03871    7.5738094    75.445547   -129.36978    2093.9604    15325.196 
   45820    336.76605    9.4836395    71.711693   -127.02815   -4519.7038    15325.196 
   45830    310.09366    9.4404274    72.997663   -126.62294   -4032.7088    15325.196 
   45840    321.24623    9.2422696    68.660869   -127.32933    277.48195    15325.196 
   45850    352.09507    4.0361236    65.549891   -129.19111    1476.5216    15325.196 
   45860    318.78571    3.7923392    74.746648   -132.67829    687.70115    15325.196 
   45870    301.67981    4.1500255    71.944517   -136.91051   -439.85062    15325.196 
   45880    273.47206    5.9813805    73.412061   -141.02274    2569.6454    15325.196 
   45890    297.16432    7.1268624    67.067013   -144.13306   -268.63204    15325.196 
45900        0.9682042798852140697 10.197585383798701386 1 71 -285.29427296881937082
   45900    307.11553     7.117438    67.165838   -146.14541   -1785.3255    15325.196 
   45910    309.08851    8.8251906    62.335458   -147.43229   -539.73141    15325.196 
   45920    314.67468    8.6460223    65.645723   -148.17973    1099.3156    15325.196 
   45930    298.68715     7.560397    74.526801   -149.07351     4353.744    15325.196 
   45940    310.72786    8.2531998    67.702999    -150.0382   -842.22834    15325.196 
   45950    303.13265    7.6597679    58.339028   -151.18578   -3889.3882    15325.196 
   45960    293.09148    7.6381033     66.54409   -152.24717   -3933.3331    15325.196 
   45970    296.79704    8.6234626    67.214203   -153.07621    932.68592    15325.196 
   45980    304.45117    10.290484    65.401335   -153.93431    3330.5996    15325.196 
   45990    302.49469    7.5292712    66.425061   -155.16273     760.6593    15325.196 
46000        0.97221878256186500256 10.176724481312454884 1 73 -294.23771969495987832
   46000    303.18823    4.9794454    62.270976   -156.86825    1252.1843    15325.196 
   46010    299.45058    4.5491316    52.857117   -158.65589    398.52108    15325.196 
   46020    284.06022     4.095284     60.56768   -159.80982    386.14874    15325.196 
   46030    297.28528    5.7480162    62.639202   -160.42304   -1373.8894    15325.196 
   46040    289.34125    7.4804279    60.112179   -160.69049   -3155.2718    15325.196 
   46050    285.97231    6.7779401    67.302624   -160.80507   -680.69808    15325.196 
   46060    294.86867    7.5237978    61.034184   -160.83423    1858.8606    15325.196 
   46070    301.49029    5.4855919    61.789782   -160.71063    322.07543    15325.196 
   46080    304.14452     4.346638    53.082916   -160.27061    1421.4654    15325.196 
   46090    282.28168    4.5947929    67.668073   -159.25606   -2519.3616    15325.196 
46100        0.98102356934565426716 10.140029047926988781 1 74 -288.35592874440862943
   46100    288.31733    6.0458789    63.374787   -157.72421    1132.2176    15325.196 
   46110    303.12808    9.0466263    61.649682   -155.46667    365.90561    15325.196 
   46120    318.65683    11.252579    58.313997   -152.53826    2722.8286    15325.196 
   46130    324.41902    12.772055    59.659183    -149.0758    2389.7018    15325.196 
   46140    306.56653    13.144228    71.226891   -145.38928    1189.6714    15325.196 
   46150    327.50856    10.118501      65.1127   -142.20526    75.017648    15325.196 
   46160    310.29366    7.9671932     69.12044   -139.19243   -2640.0523    15325.196 
   46170    319.57323    4.6687674    69.701994   -136.79074   -2205.1356    15325.196 
   46180    316.19566     3.590949    83.740878   -135.24831    -2352.589    15325.196 
   46190    327.31377    2.4858152    73.479314    -134.8052   -1486.4911    15325.196 
46200        0.97821040677065640434 10.167126774445225834 1 70 -281.23751749451753312
   46200    321.80119    2.9882582     69.62791   -135.43483   -652.48468    15325.196 
   46210    303.81679    5.1314532    75.406695   -137.47831    2554.8564    15325.196 
   46220    320.58596     7.567613    64.931262   -140.64634    1994.8347    15325.196 
   46230    310.79448    9.5662136    63.111711   -145.38291    743.54345    15325.196 
   46240    286.83076    9.9408784    70.460516   -151.42042   -162.67726    15325.196 
   46250    294.29721    8.3404316    64.211235   -157.61392    482.96846    15325.196 
   46260    276.29055    9.5027508    66.046572   -162.56275   -579.73167    15325.196 
   46270    283.56476    9.0908426    58.877756   -165.57343      287.649    15325.196 
   46280    252.05245    6.9663201    66.037313   -167.00372   -2303.7243    15325.196 
   46290    281.81018    5.8305568    59.157178   -167.09777     765.4421    15325.196 
46300        0.97750210691080108294 10.157890975143830659 1 67 -285.84101752339381619
   46300    263.35904    6.6744449    69.001163   -166.51748   -242.69341    15325.196 
   46310    292.06902    7.3985949    59.244999    -165.4826    2932.8178    15325.196 
   46320    275.79392    6.7697102     72.19729   -163.89005    874.74805    15325.196 
   46330    288.73721    7.5527821    61.417665   -161.92423   -2162.1033    15325.196 
   46340    280.59271    6.2677394    70.891591   -159.79443   -3594.4294    15325.196 
   46350    292.77723    5.7965607    66.662402   -157.45681   -854.49304    15325.196 
   46360    308.62247    7.9322809    66.062921   -155.31794    750.69787    15325.196 
   46370     319.1633    8.6656548    61.271207    -153.6395    2519.7809    15325.196 
   46380     280.9078    9.4460045    73.132485   -152.55839    1240.9774    15325.196 
   46390    314.08462    9.4705712    65.264327   -151.60188     1983.495    15325.196 
46400        0.98032670364718998979 10.154088524594428122 1 69 -273.72973371874263648
   46400    270.51127    9.8178095    85.132173   -151.16564   -1561.1047    15325.196 
   46410    332.82211    7.7445353    56.336285   -150.94812   -1285.6367    15325.196 
   46420    288.06489    7.6526762    81.276092   -151.15328   -2143.6991    15325.196 
   46430    340.36195    6.5061465     57.72672   -151.44024   -21.843194    15325.196 
   46440    323.14408    5.2383052    64.674646    -152.5579    2481.6756    15325.196 
   46450    336.15463    3.5028679    52.666011   -155.10735   -244.89778    15325.196 
   46460    301.52582    3.2099686    64.662225   -159.83255   -1443.5833    15325.196 
   46470    289.09106    4.3762443    64.329313   -165.69485   -789.71209    15325.196 
   46480    292.74327    4.7159918    51.965025   -171.65905    1238.6402    15325.196 
   46490     275.6746    6.6691162    57.930566   -175.97738    2398.0335    15325.196 
46500        0.97804054625569047943 10.13988951166260577 1 68 -309.21310095857091937
   46500    288.83605    8.6552046    42.644562   -178.34636   -256.60875    15325.196 
   46510    266.78705    8.8769453     55.67096   -179.14993    384.61762    15325.196 
   46520    259.86351    7.6898204    58.121092   -178.71292   -675.73067    15325.196 
   46530    261.06943    5.5990526    57.473981   -177.14853    851.73924    15325.196 
   46540    265.42418    5.8264646    60.698451   -174.34764   -625.99664    15325.196 
   46550      309.266    7.0783921     54.42725   -170.71221   -146.24368    15325.196 
   46560    310.78906    6.2148641    61.857947   -166.95395   -1007.3684    15325.196 
   46570    305.44493    5.9112582    56.902072   -164.19769    745.85771    15325.196 
   46580    271.37055    6.2729754    75.370484   -161.97809    1610.4739    15325.196 
   46590    296.43052    7.0168438    63.403811   -160.02324    461.66384    15325.196 
46600        0.97504601046194694369 10.153568864210480882 1 67 -291.6271058320299403
   46600    294.64509    9.5416527    61.900101   -158.12839   -1049.4325    15325.196 
   46610    280.56984    9.4141541    65.118813   -156.26667   -4116.2996    15325.196 
   46620    292.23175     7.168802    60.163347   -153.96265    877.04258    15325.196 
   46630     293.6815    4.3407602     72.47172   -151.75228     1886.907    15325.196 
   46640     334.7248    4.5346409    55.798679   -150.05545    2331.2063    15325.196 
   46650    310.66071     5.330968    64.893092   -149.15656   -571.20669    15325.196 
   46660    307.36112    7.5287026    67.851076   -148.42936   -1412.9639    15325.196 
   46670    316.13216    10.718122    66.806566   -147.79682    680.05166    15325.196 
   46680    315.08735    9.4403386    71.184839   -147.87029     873.3673    15325.196 
   46690    302.57364    6.5549618    74.029076   -148.51389   -1474.3546    15325.196 
46700        0.97670572872491168148 10.16673827092621174 1 69 -280.2577746581666247
   46700    289.40005    6.9657674    73.155792    -149.1355    1503.7743    15325.196 
   46710    296.89661    8.9203637    75.896451   -149.80263   -3095.8814    15325.196 
   46720    286.50354    7.7024244    81.006728   -150.84348    2291.2736    15325.196 
   46730    307.23342     5.923479    67.093905   -152.44426   -1964.4988    15325.196 
   46740    276.54489    7.7371475    72.180909   -155.00661   -702.97576    15325.196 
   46750    289.55433    9.0202007    67.781663   -158.21681   -2637.5326    15325.196 
   46760    280.75032    6.5100603    67.178891   -162.19346    1372.2008    15325.196 
   46770    288.78624     5.604908    64.816926   -166.98966    2335.6225    15325.196 
   46780    277.17064    6.9796796    63.476027   -172.48115    1811.6154    15325.196 
   46790    255.53126    7.1426044    65.751119   -176.95654    -1638.115    15325.196 
46800        0.97840325493452007244 10.178068281086501301 1 68 -301.58253526513993847
   46800    268.06794    6.1317502    62.632378   -180.12548   -213.31006    15325.196 
   46810    259.37447    5.1897412    72.192006   -182.30905   -1725.0991    15325.196 
   46820    273.91337    7.5807354    62.430077   -183.79266   -385.20698    15325.196 
   46830    269.48405    9.3408529    60.410687   -184.57743   -1413.2331    15325.196 
   46840    268.68559    6.4337456    61.385494   -184.31632    1726.5178    15325.196 
   46850    288.24846    5.4276049    63.333146   -183.15105     1633.837    15325.196 
   46860    257.38628     8.036754    66.600176   -181.56683   -1473.6482    15325.196 
   46870    263.66403    10.351412    58.212302   -179.42232   -3527.0352    15325.196 
   46880    254.39699    9.8536279    71.388664   -176.55994   -1736.2104    15325.196 
   46890     302.3162    8.4111636    57.615176   -173.12155    1033.1498    15325.196 
46900        0.98496069769375305114 10.151553079539905156 1 66 -306.90104697945906764
   46900    302.70402    7.9957613    60.078084   -169.75096    2705.6162    15325.196 
   46910    293.43997    6.0725761    60.437556   -166.95013   -496.34267    15325.196 
   46920    281.12314     5.142558    61.635344   -164.55704    1201.8387    15325.196 
   46930     289.2159    5.3890959     69.97326   -162.56616   -214.90333    15325.196 
   46940    280.88961    6.0887857      67.5688   -160.93003   -2123.5137    15325.196 
   46950    307.85433    9.4439866    65.292128   -159.67696   -223.71693    15325.196 
   46960    290.64722    8.6597177    73.541723   -158.92434   -961.48916    15325.196 
   46970    285.36448    9.2606208      71.1579   -158.24694    217.20428    15325.196 
   46980    272.58906    10.595617    79.993972   -157.39734    2430.5885    15325.196 
   46990    296.55961    8.0657578      72.1356   -156.63351    1324.7672    15325.196 
47000        0.98920161303000542219 10.101995131812534723 1 68 -283.29897308141221401
   47000    280.65121    7.1319873    74.352228   -156.14064    2268.9172    15325.196 
   47010    298.55901    6.9235062    71.180636   -155.51729    761.36951    15325.196 
   47020    288.27371    8.1973158    70.791966   -154.71661   -398.71278    15325.196 
   47030    317.62013    8.7454795    63.238623    -153.9252   -1797.9445    15325.196 
   47040    305.88713    8.8550493    71.276949   -153.23316   -1112.0406    15325.196 
   47050    307.01267    10.199777    66.352367   -152.62205   -219.93559    15325.196 
   47060    313.79264    12.130112    66.072261   -152.13803    627.62154    15325.196 
   47070    336.87412    11.045528    68.117606   -151.86956   -467.53594    15325.196 
   47080    324.73897    8.8008498     59.93104   -152.51596    1391.2667    15325.196 
   47090    296.71206    8.6476969    63.407522   -153.67011    295.42892    15325.196 
47100        0.99085064092360963794 10.109912254185809743 1 68 -290.46598107184871651
   47100    298.56047    9.3483886    71.466245   -155.19327    10.275188    15325.196 
   47110    259.07529    10.239766     72.98466   -156.90461    67.759239    15325.196 
   47120    284.65084    10.337875    73.250427    -158.5352    1419.1443    15325.196 
   47130    281.05861    9.6394451    65.193733   -159.97726    2297.9255    15325.196 
   47140    271.26307    13.637599    62.184313   -160.89462   -2186.9544    15325.196 
   47150    279.82684    12.813374    69.801084   -161.02358   -2808.1034    15325.196 
   47160    277.82285    12.089785    72.594462   -160.50725   -2535.5591    15325.196 
   47170    296.94631    10.068167    69.532396   -159.57015    390.89874    15325.196 
   47180    321.82662    9.5930424    63.745493   -158.48574    2160.1026    15325.196 
   47190    312.93904    9.1723759    68.336752   -157.68103   -338.43113    15325.196 
47200        0.99081360756216430019 10.086902083033008282 1 71 -304.2472392525052669
   47200    324.55316    7.8696736    61.888588   -157.19768    1766.0579    15325.196 
   47210    326.55399    7.6835626    66.238912   -157.23899    936.57878    15325.196 
   47220    329.80456    9.6759306    60.740231   -157.75002    2481.3084    15325.196 
   47230    318.28407    7.4586386    58.620533   -158.51122    955.33755    15325.196 
   47240     295.8177    7.1431409    68.859678   -159.51794   -2591.3741    15325.196 
   47250    311.87913    5.1656154    56.129592   -160.60371   -1444.0223    15325.196 
   47260    296.44675    6.5055267    60.107437   -161.62575   -771.38287    15325.196 
   47270    311.44003    6.6780668    59.627326   -162.25512    -1336.084    15325.196 
   47280    311.33343    5.3371371    64.903339    -162.8772    969.37617    15325.196 
   47290    302.50373    6.3144236    66.522534   -163.67644   -339.34787    15325.196 
47300        0.9856672059907252148 10.114656337470643521 1 66 -284.86296989490153919
   47300    266.10136    5.9606913    70.515475   -164.29693    522.48699    15325.196 
   47310    264.62717    5.4928649    66.006896   -164.04142   -348.63106    15325.196 
   47320    278.17086     5.691262    75.467627   -162.62306    3666.2383    15325.196 
   47330    291.22423    4.5194578    68.742565   -160.46389    2416.4602    15325.196 
   47340    327.34675    5.6652937    57.101983   -157.61328   -2183.9498    15325.196 
   47350    303.48105    6.1007328    67.576681   -154.47596   -2608.2405    15325.196 
   47360    304.77744    5.9866121     68.54963   -151.28584   -2408.2971    15325.196 
   47370    309.91648    7.6739185    69.429001   -148.09389    49.322577    15325.196 
   47380    332.14116    10.581474     65.57773   -144.94093    1033.2469    15325.196 
   47390    308.68284    11.407887    75.068033     -142.209    -230.2284    15325.196 
47400        0.98333648085616665036 10.129892140466569828 1 67 -283.20907789705472624
   47400    316.23185     7.990014    77.580464   -139.92976    2366.9823    15325.196 
   47410    350.85823    5.4894601    60.600498   -138.00354    3061.8576    15325.196 
   47420    342.14289    6.2699027    70.706188   -137.04147   -1567.1885    15325.196 
   47430    340.32856    9.4303265    70.020479   -136.97804   -2399.5658    15325.196 
   47440    323.16021    8.5762052    67.801452   -138.39544   -3210.1141    15325.196 
   47450    322.66402    7.0734226    59.681208    -141.0547    1115.4128    15325.196 
   47460    301.85169    8.9015294    68.774773   -144.34907    1900.0223    15325.196 
   47470     289.5206    9.1947194    67.414196   -148.09276    2174.7132    15325.196 
   47480    313.46765    6.0594582    62.574481   -152.31905    1018.4475    15325.196 
   47490    301.71026    5.3093996    62.673385   -157.16785   -3407.6163    15325.196 
47500        0.981348503319374732 10.149384864594045652 1 68 -291.69054174553866687
   47500     286.1826    4.7566479     69.35902   -162.02603   -364.11572    15325.196 
   47510    257.37645    7.1309835    73.021176    -165.9946   -1273.7672    15325.196 
   47520    285.44461    4.9804021    59.328872   -168.51615   -1157.4036    15325.196 
   47530    293.70111      3.80687    60.281182   -169.90608    760.87006    15325.196 
   47540    271.60462    4.3368313     64.81957   -170.48403    3274.8264    15325.196 
   47550    271.51118    6.1817626    71.292436   -170.33462    2618.5508    15325.196 
   47560    268.81179    7.8686778    64.861802   -169.58765   -897.57568    15325.196 
   47570    291.84391    8.1895093    58.614865   -168.39774   -1026.5132    15325.196 
   47580    279.16778    8.7692047    68.126104   -166.96443    -1127.703    15325.196 
   47590    284.53479    9.9904644    63.099672   -165.26866   -3405.2302    15325.196 
47600        0.98498915388158447826 10.117711925214370794 1 65 -290.73180174724569724
   47600    281.05696    10.077513    69.791981   -163.38964   -735.73071    15325.196 
   47610    298.69636    8.0477712    69.522327   -161.67697   -223.54658    15325.196 
   47620    300.12569    5.9309513    70.142863   -160.50746   -127.80039    15325.196 
   47630     317.7484    5.7502727    63.659335   -159.92619    818.70768    15325.196 
   47640    306.34515    7.5266692    61.479052   -159.87064   -690.10817    15325.196 
   47650    286.89502    9.6532198    61.362802   -159.73195    4091.1829    15325.196 
   47660    304.90625    10.358393    60.125078   -159.11387    -1901.659    15325.196 
   47670    316.18703    13.219598    63.545247   -158.78581    12.435944    15325.196 
   47680    300.12099    12.288223    72.543506   -159.37761   -724.83346    15325.196 
   47690    313.02307    12.179164    55.780154   -160.23713   -337.05862    15325.196 
47700        0.98431111382049663039 10.126862076800362544 1 70 -283.99811451296284304
   47700    271.70098    9.5494628    78.159483   -160.89498    317.68852    15325.196 
   47710    303.83386    7.7587375    66.008279   -160.91406     2303.409    15325.196 
   47720    291.81315     6.908494    71.110135   -160.74549    1025.6784    15325.196 
   47730    269.55749    4.7996696    75.191072   -160.56097   -1791.2607    15325.196 
   47740    274.61157    4.7812598    66.546471   -159.81266   -2534.1331    15325.196 
   47750    288.08957    4.8144255    70.252348   -158.34494    2116.7936    15325.196 
   47760    296.44889    4.9020619    73.601517   -156.27249    664.98242    15325.196 
   47770    296.00483    5.7860366    72.235918   -153.43875    2017.2926    15325.196 
   47780    307.66331    8.1513075    66.219255    -149.4994     769.8053    15325.196 
   47790    325.75074    9.3385511    64.668906   -143.89523    1037.7205    15325.196 
47800        0.98394836884387559817 10.135885387256042378 1 69 -288.31009207967508701
   47800    331.83657    6.0918676    71.660168   -137.96054   -1372.1359    15325.196 
   47810    351.30684    7.4161383    60.600181    -132.4419   -108.73392    15325.196 
   47820    349.49963    7.2163126     70.45057   -128.61113   -1295.2004    15325.196 
   47830    364.03928    7.7888013    68.301473     -126.674     2240.233    15325.196 
   47840    342.42083    8.3610657    68.630124   -126.47404   -1509.3315    15325.196 
   47850    336.18155    7.9288493    71.154757   -127.89581    1794.9393    15325.196 
   47860    323.27715    8.3292431     72.76792   -130.26849   -1115.0745    15325.196 
   47870    340.13481    8.5486407    60.489437   -133.26507    1569.1789    15325.196 
   47880    325.26983    8.3625513    66.992096   -136.90459   -449.45002    15325.196 
   47890    349.58422    9.2545112    61.750054    -140.8388   -1158.3689    15325.196 
47900        0.98012511870785701262 10.166030100433189887 1 72 -294.64747799929415351
   47900    329.51781     7.776431    66.932885   -145.34852   -1423.7364    15325.196 
   47910    311.73415    9.8789324     64.35013   -149.14127   -1842.1703    15325.196 
   47920    303.45896    9.3389257    67.245611   -151.91869    783.31924    15325.196 
   47930    319.39673    11.541724    60.721859   -153.86306    400.52328    15325.196 
   47940    318.24859    10.064044    64.753962   -155.55957    2659.9178    15325.196 
   47950    316.93981    7.6709834    62.205983   -157.10538    1501.3298    15325.196 
   47960    287.75387    7.2292356    67.310703   -158.44917   -842.33164    15325.196 
   47970    285.83619     5.037148    67.028315   -159.53591   -124.57854    15325.196 
   47980    283.09364    4.8168371    64.058388   -160.37717    166.73061    15325.196 
   47990    306.70424    3.8412652    59.679926   -160.87868    295.12235    15325.196 
48000        0.97081643166082154384 10.200775144498084757 1 71 -293.68140870947394205
   48000    292.66763    5.4019177    63.132295   -161.07865   -569.18944    15325.196 
   48010    292.09935    7.2438493    63.730804    -160.7894   -4047.3436    15325.196 
   48020    308.80163    6.1693585    61.556434   -160.05319    -2546.446    15325.196 
   48030    303.94803    6.5380408     64.53776    -159.2317    816.46498    15325.196 
   48040    298.82998    7.5817948    65.751281   -158.29129    657.99736    15325.196 
   48050    294.87519     8.989674    66.740027   -157.25946    1372.0354    15325.196 
   48060    314.07125    5.9628826    59.844521   -156.11561    212.65523    15325.196 
   48070    309.65109    5.3536009    60.019664   -154.80329     3195.782    15325.196 
   48080     277.3441    6.1695043    66.343692    -152.9505    331.93366    15325.196 
   48090    264.78735     9.061862    72.131584    -149.7475   -476.27692    15325.196 
48100        0.97502866555331635379 10.178380601231687308 1 69 -280.83186078696724053
   48100    298.96725    7.0882676    69.056275   -145.37484   -3298.1789    15325.196 
   48110    324.14202     6.739572    67.103478   -140.38989    583.57797    15325.196 
   48120    331.00807    6.6852961     67.28384   -136.20625    -72.46854    15325.196 
   48130    326.15043    5.2361196    65.200501   -132.88282    1383.8442    15325.196 
   48140    321.16379    4.5723881    61.302984   -130.48622   -1083.8047    15325.196 
   48150    344.77063    2.9725187    62.535015   -128.65902     -516.212    15325.196 
   48160    366.15643    4.2793461    65.476354   -127.96198    823.21007    15325.196 
   48170    320.95528    7.5885657    70.888114   -129.26037    857.41868    15325.196 
   48180     325.5248    8.8750433    66.097412   -131.62091    1200.7399    15325.196 
   48190     291.3519    8.8214494    76.549694   -134.71006   -1614.3155    15325.196 
48200        0.97041625862155667104 10.184155460591066245 1 71 -282.98938976683012925
   48200     320.1128    9.4228595    59.768936   -137.95168   -89.435445    15325.196 
   48210    305.56614    7.6975786    64.501794   -141.57982   -1556.2049    15325.196 
   48220    316.55432    5.3878757    67.424055   -145.52376    2470.5666    15325.196 
   48230    286.76484    6.1663657    68.146944   -149.67563    832.43998    15325.196 
   48240    285.07059    5.0671325    62.651715   -152.86235   -113.87499    15325.196 
   48250    312.27569    5.3092988    62.378543   -154.87057     316.8056    15325.196 
   48260    298.13946    5.1758007    64.693018   -156.29875   -1078.6691    15325.196 
   48270    285.59297    6.8761905    63.583462   -157.05923    327.30359    15325.196 
   48280    272.39887    8.0090168    68.266379   -157.31793   -2084.4575    15325.196 
   48290    291.52089    9.5169119    62.704607    -157.1092   -53.621611    15325.196 
48300        0.97476634593935929107 10.17333563868270474 1 69 -308.94216266441515018
   48300    335.82357    8.3926626    56.556878   -156.78617      516.834    15325.196 
   48310    307.76902    6.4438863    64.153793   -157.07334    1167.5216    15325.196 
   48320    286.13845    5.5516618    63.984977   -157.58434   -677.16767    15325.196 
   48330    274.30678    6.0775046    67.324164   -157.98245   -1881.3572    15325.196 
   48340    294.67705    7.2116621    61.845251   -157.99963    53.257374    15325.196 
   48350    298.97034    7.3582535    59.116741   -157.80205     213.1145    15325.196 
   48360    293.10828    5.9027161    60.321866   -157.30399    -1643.996    15325.196 
   48370    311.72683    6.6602112    55.665845   -156.26207    -1896.636    15325.196 
   48380    314.70095    7.2485031    64.760154   -154.97177   -1283.4436    15325.196 
   48390     319.1528    8.8374211    59.733903   -153.97617    2515.2088    15325.196 
48400        0.98391991589772165305 10.120639288174377413 1 71 -276.16094256881694946
   48400    270.56638    10.047388    64.703314   -153.57188    3591.0919    15325.196 
   48410    281.17297     10.98559    65.449602    -152.5835     3314.301    15325.196 
   48420     308.6015    9.4390211    61.407799   -150.47993   -187.61114    15325.196 
   48430    320.55893     7.468764    58.748522   -147.52199   -2438.4293    15325.196 
   48440    322.32491    5.2576025    66.334871   -144.31545   -1554.7659    15325.196 
   48450    306.54792    4.2079095    66.189565   -141.26103   -3152.1314    15325.196 
   48460    317.70431    5.6427775    64.220403   -138.46863    -1484.693    15325.196 
   48470    317.72727    4.8366142    69.991149   -136.03491    849.65337    15325.196 
   48480    331.05867    2.6998647    61.169989   -134.14357    2424.4784    15325.196 
   48490    322.30157    4.9656918    64.939935   -133.01628    4127.3294    15325.196 
48500        0.98606238225252362817 10.095147291352368768 1 68 -280.79654819687459621
   48500    327.56778    6.5117452    61.686145   -132.38111    2451.0857    15325.196 
   48510    311.16735    6.8573318    64.063156   -132.26684      1543.76    15325.196 
   48520    312.06769    6.8014243    78.882747   -132.80943   -211.08641    15325.196 
   48530    320.01832    6.6375571    65.909621   -134.76307   -1049.8637    15325.196 
   48540    306.85217    8.2062056    62.270041   -138.13045   -3964.1668    15325.196 
   48550    298.29138    7.4971599     63.06285   -141.72156   -2151.4063    15325.196 
   48560    294.04855    7.0448524    62.891107   -145.33368    86.097397    15325.196 
   48570    275.56872    7.3853825    69.763292   -149.01411    927.38169    15325.196 
   48580    281.60053    8.8826057    60.481424   -152.17781    961.70579    15325.196 
   48590    299.73636    8.6821443     61.71644   -154.80322   -628.63422    15325.196 
48600        0.98784070177049920769 10.115579306609026489 1 70 -297.65220363348680621
   48600     309.3547    5.9953655    65.918411   -157.48881    526.56892    15325.196 
   48610     295.4942    8.2667693    65.340873   -160.99701     -2430.01    15325.196 
   48620    304.79437    8.6692672    56.530277   -164.70634    761.76374    15325.196 
   48630    273.16157    10.664652    63.452193   -167.84614    -1329.536    15325.196 
   48640    294.31192    10.157736     56.98977   -169.67645    2769.7061    15325.196 
   48650    272.50401    9.2686916    60.790177   -170.93894    2468.5191    15325.196 
   48660     289.1319    7.4683715    58.861124   -171.59922    306.83993    15325.196 
   48670    303.13089    6.3304638    56.768775   -172.06169    32.781327    15325.196 
   48680    286.88442    5.3052522    55.697313   -172.55774    -1191.077    15325.196 
   48690    271.09942    5.0495892    53.682006   -172.44086   -1272.3038    15325.196 
48700        0.98655792076453752149 10.116712226561981325 1 64 -295.88778584864212462
   48700    274.51858    5.1161135    59.169824   -171.50805    1687.5639    15325.196 
   48710     279.2151    6.3510806     52.19588   -169.77005   -2824.7555    15325.196 
   48720     271.0324    5.6519071    60.726865   -167.31764   -2498.0297    15325.196 
   48730    297.92617     5.726058    59.069767   -164.70223   -1842.2326    15325.196 
   48740    286.81822    8.8300388    56.516688   -162.64346     1061.181    15325.196 
   48750    274.81063    10.598704    54.093503   -160.95412     2346.863    15325.196 
   48760    285.25045    6.6724829    55.623252   -159.11681    2616.1571    15325.196 
   48770    278.27105    4.8716769    62.831659   -157.27488    1493.1493    15325.196 
   48780    291.36778    7.0139574    63.180403   -155.36898    2381.1258    15325.196 
   48790    271.52429    6.8405808     64.94372   -153.48334   -40.252317    15325.196 
48800        0.98141265223595741674 10.127574194672213537 1 64 -284.19532287267179527
   48800    293.03254    6.2066519    63.814003   -151.42722   -1612.1853    15325.196 
   48810    326.84947    8.2719745    58.595226   -149.43276   -749.54681    15325.196 
   48820    333.30254    7.3901551    60.260848   -148.06177    -2667.022    15325.196 
   48830    289.22641    9.0945443    66.258115   -147.62591   -196.71513    15325.196 
   48840    285.94098    6.5695191    72.345299   -147.45854   -1049.5311    15325.196 
   48850    303.33418    6.1320485    62.662263   -147.39559    1116.1642    15325.196 
   48860    322.36848    7.1598614    47.492059   -147.44123   -2275.9457    15325.196 
   48870    307.82517    10.614904    61.141041   -147.56724    6.5520028    15325.196 
   48880    311.27329    8.6744581    59.220488   -147.64377    1075.5612    15325.196 
   48890    280.55452    7.0101716    59.548743   -147.76987    1343.5264    15325.196 
48900        0.98042736027899213269 10.114780315302027702 1 70 -284.27775225266225334
   48900    301.65498     6.397246    60.337923   -147.60297    2078.4056    15325.196 
   48910    294.85423    6.1286381    60.072585   -147.12226    1048.7137    15325.196 
   48920    310.19018    5.0625671    57.847509    -146.2039   -557.09373    15325.196 
   48930    296.15851    6.0479786    53.825484   -144.54795   -849.43408    15325.196 
   48940    268.03869    6.4994501    62.426541   -141.70358   -4898.0915    15325.196 
   48950    320.23157      6.40547    63.376978    -137.0777    705.05116    15325.196 
   48960    324.26814    5.6160988      71.6827   -131.78823   -876.09044    15325.196 
   48970    356.16626    6.7347035    50.650508   -127.54361    1116.7611    15325.196 
   48980     316.1865    5.6858929    64.809053   -124.74965    1656.9078    15325.196 
   48990    332.84437    7.0334883    59.206209   -122.87609    2833.9018    15325.196 
49000        0.9782599910884320904 10.155053196488013967 1 66 -270.27739569258670826
   49000    327.79111    6.4483665    69.600418   -121.76077    1535.4624    15325.196 
   49010    334.26602    6.0617487     67.70079   -121.60486   -1169.9944    15325.196 
   49020    321.02297    5.3280513    75.855903    -122.6861   -2578.7794    15325.196 
   49030    331.43742    6.1633469    68.795555   -125.32433     1557.575    15325.196 
   49040    302.40925    6.9800245      70.4258   -129.43312   -1064.5958    15325.196 
   49050    325.77204    5.8754484     63.83489   -134.47586    1824.2144    15325.196 
   49060    288.25855    6.6284446    73.016131   -140.18054   -1556.7252    15325.196 
   49070    303.25195    7.5714081    56.074926    -144.8396   -1324.3037    15325.196 
   49080    289.43314    7.5653163    65.428564   -148.27191    -212.5703    15325.196 
   49090    318.46296    9.5408374     59.17507   -150.36423    1796.1282    15325.196 
49100        0.97851061098216374212 10.174063168748720187 1 69 -298.71931734602043207
   49100    322.96182    8.5816814     61.20914   -152.39076    1819.5379    15325.196 
   49110    308.86365     9.013663     57.08679   -154.28203   -1045.4121    15325.196 
   49120    293.84923    8.6260006     55.88695   -156.00426   -2031.3758    15325.196 
   49130    289.95492    6.2385395    63.246912   -156.89573    875.26128    15325.196 
   49140      316.163    6.9458233    57.928206   -157.34619    341.65575    15325.196 
   49150    316.21554     8.181345    57.176988   -158.15094    -622.0405    15325.196 
   49160    306.74695    9.1535216    60.612382   -159.38764   -1274.2022    15325.196 
   49170    286.51172    6.8849814    60.710674   -161.01104   -562.89454    15325.196 
   49180    284.06991    7.3213682    59.799772   -162.86625   -344.47985    15325.196 
   49190    260.28595    7.9596406    58.251464    -164.1626   -1232.6728    15325.196 
49200        0.98356964576340288886 10.137909231545538802 1 68 -290.92897794334089667
   49200    279.03069    8.5734362    53.193457   -164.50488   -316.80495    15325.196 
   49210    287.45679    8.2776746    53.518361   -163.86098    2009.2953    15325.196 
   49220    283.00766    6.7815781    66.837746   -162.53148    1579.4128    15325.196 
   49230    295.40174    5.6973286    61.341721   -160.94897    889.82125    15325.196 
   49240    302.70901    5.1402982     62.97606    -158.9714   -15.066218    15325.196 
   49250    316.01549    7.0250059    51.946997   -156.68354    398.79004    15325.196 
   49260    309.08706    8.4375811    56.975447   -153.61331    23.008533    15325.196 
   49270    303.64005     10.41379    59.847163    -149.7933    562.71942    15325.196 
   49280    299.75729    12.180653    63.152827   -145.29882   -1581.9338    15325.196 
   49290    303.48602    14.841207    62.052825   -140.62462    -1613.947    15325.196 
49300        0.97950392553771825632 10.158898760881836409 1 70 -287.07172872585363166
   49300    333.17667    12.441085    59.511313     -136.115   -874.73305    15325.196 
   49310    323.16057    9.4749576    64.480454   -132.70822   -548.57145    15325.196 
   49320    334.57166    8.1383704    62.669872   -130.49518    1884.4356    15325.196 
   49330    336.81474    6.7641554    62.548367   -131.00156    320.90235    15325.196 
   49340    329.51393    6.6923312    64.872174   -129.95054    2526.8115    15325.196 
   49350    316.57525    7.5263964    68.258943   -131.77155    1573.4393    15325.196 
   49360    315.49265    8.2657769    61.692967   -134.53518    3514.5835    15325.196 
   49370    300.21681    7.4465286    62.024064   -137.51125   -576.14011    15325.196 
   49380    314.33543    6.4236025    58.856543   -140.49704   -169.83241    15325.196 
   49390    314.99843    6.7057019    61.567612   -143.57952   -2834.7429    15325.196 
49400        0.97392771574871228601 10.172233200052321678 1 65 -282.59928792698440247
   49400    300.13936    4.9357679     58.71684   -146.61121   -1498.9694    15325.196 
   49410    318.27715    5.5360083    60.875844    -149.3866   -2037.7042    15325.196 
   49420    312.75231    6.8475521    56.412961    -151.9915    1015.7461    15325.196 
   49430    283.49818     6.452035    61.575246   -154.05768    189.36121    15325.196 
   49440    270.64838    6.6296652     71.87688   -155.00257     943.8263    15325.196 
   49450     280.3821    6.7506139    59.139702   -155.40682   -1615.6277    15325.196 
   49460    265.33687    6.5829645    65.544406    -155.4032   -367.81347    15325.196 
   49470    295.21457     6.088435    58.481273   -154.55573   -451.28404    15325.196 
   49480    281.19266    5.5127021    63.301727   -153.16691    1170.6572    15325.196 
   49490      292.544     6.167717    58.193639    -151.4471    1845.8027    15325.196 
49500        0.96494611820467635077 10.180763964863171367 1 66 -278.88059027070647744
   49500    285.87664     4.664916    63.414693   -149.35471    1199.0212    15325.196 
   49510     302.0514    4.5383714    55.565465   -146.97992    -2161.704    15325.196 
   49520    299.40241    4.9753788    63.959117   -144.38143   -537.38983    15325.196 
   49530    320.64091    4.9921656    64.046248   -141.95576    793.44003    15325.196 
   49540    307.78934     4.446243    61.526337   -139.85687    2517.5393    15325.196 
   49550    310.90488    4.8041909    63.841363   -137.87202   -238.42454    15325.196 
   49560    310.85667    5.5971302     61.67025   -135.68704   -1642.3843    15325.196 
   49570    315.18908    6.8532785    68.522075   -133.82721   -1786.7415    15325.196 
   49580    321.84973    6.4841542     70.22922   -132.62152     712.1531    15325.196 
   49590    337.57874     6.529659    61.120913   -132.49406     1440.228    15325.196 
49600        0.96327512409000215499 10.215913646239860313 1 66 -276.62468104734773533
   49600    315.81356    5.8955223    69.641826   -133.53488    -45.73506    15325.196 
   49610    325.53578    6.6837212    60.756109   -135.50136   -1920.0782    15325.196 
   49620    284.48469    7.1633282    67.985691   -138.51374    -1608.467    15325.196 
   49630    266.52198    6.6235673    64.713864   -142.33167   -1256.3286    15325.196 
   49640    267.14924      6.38593    64.097804   -146.30434   -449.38149    15325.196 
   49650    295.76568    8.9126197    54.289693   -150.37561    74.293973    15325.196 
   49660     284.6155    8.3246076    61.257932   -154.56244    691.66089    15325.196 
   49670    278.67107    5.3300449    57.374842   -158.59026    2596.2526    15325.196 
   49680    261.28929    4.6082317    58.911493   -161.66406     390.8263    15325.196 
   49690    295.29883    5.5226915    49.312862   -163.75214   -1542.8628    15325.196 
49700        0.96969922335095670718 10.20090633375595246 1 69 -291.11894217343945002
   49700    277.70797    6.6611686    55.153994   -165.29415   -2312.6464    15325.196 
   49710    296.31942    5.7827978    55.044777   -166.29714   -704.04258    15325.196 
   49720    296.17093     4.330737    55.988217   -166.83782   -567.41907    15325.196 
   49730    302.35323    4.4714971    56.852799   -167.00859   -57.735737    15325.196 
   49740    288.99319     4.909832    61.029086   -166.97159   -985.60225    15325.196 
   49750    288.39187      6.89535     57.68154   -166.48925    536.61734    15325.196 
   49760    296.69988    7.6263637    49.182247   -165.16798    996.67695    15325.196 
   49770    300.81634    7.1663977    59.594649   -162.57293    3982.5116    15325.196 
   49780    282.91735    6.6951275    63.182491   -157.92623     519.1334    15325.196 
   49790    295.25104    8.1621741    60.757795   -151.01963   -1430.3952    15325.196 
49800        0.97799306820844467136 10.162548608830327623 0.99735449735449732689 66 -291.89378219436468953
   49800    327.70239    10.269281    60.325967   -143.41736   -2369.1156    15325.196 
   49810    347.20581    12.861037    54.221038   -138.15682     1693.883    15325.196 
   49820    333.88275    12.051493    67.306368   -135.26903    475.60042    15325.196 
   49830    322.68557    12.745723    63.267833   -133.78298    865.66864    15325.196 
   49840    304.62814    11.788915    68.697218   -133.27048   -549.86874    15325.196 
   49850    275.63695    8.3218258    80.877667   -133.32728   -415.81858    15325.196 
   49860    331.34152    4.6744539    62.981831   -133.59088    172.32756    15325.196 
   49870    311.37208     2.464765    65.543832   -134.71033   -734.17924    15325.196 
   49880     304.6711    3.1564299    66.584397   -136.32939   -1115.2027    15325.196 
   49890    290.68681    2.7676393    64.071682   -137.99135     367.3099    15325.196 
49900        0.98269797713655149263 10.148550061589833859 1 63 -274.68706999125947732
   49900    298.24414    3.6344225    64.712071   -139.55768    -549.9657    15325.196 
   49910    304.19746     5.990138    63.249161   -141.59387    1065.0451    15325.196 
   49920    280.50698    9.7400947     66.10916   -143.89425   -444.13031    15325.196 
   49930    342.87667    7.4871531    54.891409   -146.85946    -646.1116    15325.196 
   49940    315.81569    9.9050153    56.725865   -151.18579   -1246.3363    15325.196 
   49950    305.56911    9.0023988    55.501982   -156.19844   -1013.3332    15325.196 
   49960    269.42942    7.3545007    68.730221   -160.81195   -912.43701    15325.196 
   49970    302.64148    6.5159941    49.261906   -164.45259    513.05885    15325.196 
   49980     298.2862     5.876828    58.355526   -167.37845    2312.9151    15325.196 
   49990    298.79108     7.403747    50.716899   -169.14654    3146.9375    15325.196 
50000        0.98706603724786690091 10.117185904423243059 1 63 -289.51720027198757634
   50000    264.22039    9.8907668    57.359431    -169.8034   -1367.3196    15325.196 
Loop time of 197.674 on 1 procs for 50000 steps with 153 atoms

Pair  time (%) = 8.71917 (4.41089)
Bond  time (%) = 0.663 (0.335401)
Neigh time (%) = 0.00456262 (0.00230816)
Comm  time (%) = 0.0555146 (0.028084)
Outpt time (%) = 0.677093 (0.342531)
Other time (%) = 187.554 (94.8808)

Nlocal:    153 ave 153 max 153 min
Histogram: 1 0 0 0 0 0 0 0 0 0
Nghost:    0 ave 0 max 0 min
Histogram: 1 0 0 0 0 0 0 0 0 0
Neighs:    5985 ave 5985 max 5985 min
Histogram: 1 0 0 0 0 0 0 0 0 0
FullNghs:  11970 ave 11970 max 11970 min
Histogram: 1 0 0 0 0 0 0 0 0 0

Total # of neighbors = 11970
Ave neighs/atom = 78.2353
Ave special neighs/atom = 2.64052
Neighbor list builds = 6
Dangerous builds = 0
