LAMMPS (9 Oct 2012)
# 3d protein simulation

units real

timestep 2

dimension	3

boundary s s s
#boundary p p p

neighbor	10 bin
neigh_modify	delay 5

atom_modify sort 0 0.0

special_bonds fene

atom_style	peptide

bond_style harmonic

pair_style vexcluded 2 3.5 3.5

read_data data.testeo
  3 = max bonds/atom
  orthogonal box = (-200 -200 -200) to (200 200 200)
  1 by 1 by 1 MPI processor grid
  153 atoms
  202 bonds
  5 = max # of 1-2 neighbors
  5 = max # of special neighbors

pair_coeff * * 0.0
pair_coeff 1 1 20.0 3.5 4.5
pair_coeff 1 4 20.0 3.5 4.5
pair_coeff 4 4 20.0 3.5 4.5
pair_coeff 3 3 20.0 3.5 3.5


velocity	all create 300.0 2229156

group		alpha_carbons id 1 4 7 10 13 16 19 22 25 28 31 34 37 40 43 46 49 52 55 58 61 64 67 70 73 76 79 82 85 88 91 94 97 100 103 106 109 112 115 118 121 124 127 130 133 136 139 142 145 148 151
51 atoms in group alpha_carbons

group		beta_atoms id 3 6 9 12 15 18 21 24 27 30 33 36 39 42 45 48 51 54 57 60 63 66 69 72 75 78 81 84 87 90 93 96 99 102 105 108 111 114 117 120 123 126 129 132 135 138 141 144 147 150 153
51 atoms in group beta_atoms

group		oxygens id 2 5 8 11 14 17 20 23 26 29 32 35 38 41 44 47 50 53 56 59 62 65 68 71 74 77 80 83 86 89 92 95 98 101 104 107 110 113 116 119 122 125 128 131 134 137 140 143 146 149 152
51 atoms in group oxygens


fix		  1 all nvt temp 300.0 300.0 100.0
fix		  2 alpha_carbons backbone beta_atoms oxygens fix_backbone_coeff.data testeo.seq
Chain flag on
Chi flag on
Rama flag on
Rama_P flag on
SSWeight flag on
ABC flag on
Dssp_Hdrgn flag on
P_AP flag on
Water flag on
Burial flag on
Helix flag on
Fragment_Memory_Table flag on
DebyeHuckel on

Reading fragments...
Computing FM table...

variable      biasinge equal f_qbias
# output wham.dat, a file with collective variables that can be used to compute pmfs
compute     qw alpha_carbons qwolynes rnative.dat 2 0.15
variable    qw equal c_qw
compute     rg alpha_carbons gyration
variable    rg equal c_rg
compute     qo alpha_carbons qonuchic cutoff 12.0 nativecoords.dat 1.2
variable    qo equal c_qo
compute     tc beta_atoms totalcontacts 6.5 2
variable    tc equal c_tc
variable    step equal step
variable    E_P equal pe

fix         wham all print 100 "${step}        ${qw} ${rg} ${qo} ${tc} ${E_P}"

thermo		10
dump		1 all atom 50 dump.lammpstrjPH


dump_modify	1 sort id

reset_timestep	0
run		50000
Memory usage per processor = 0.857471 Mbytes
Step Temp E_pair E_mol TotEng Press Volume 
       0          300    54.408864    955.49334    705.84991    -33253.58    10890.368 
      10    1274.9428     59.87044    301.59352    647.75311    5886.6181    10890.368 
      20    792.04572    26.225309     490.2605    559.63175    5800.1225    10890.368 
      30    1023.7166    16.388343    354.03489    484.32205    32005.917    10890.368 
      40    791.73431    10.278338    342.87874    389.88164   -31501.612    10890.368 
      50     736.1131     9.058229    278.87201    322.00432    -4571.915    10890.368 
      60    803.59956    5.4746716    211.90942    248.48766   -5169.3052    10890.368 
      70    619.33115    6.4484748    242.68504    192.59437    21549.239    10890.368 
      80    629.30694    13.871873    178.95694    143.39157   -820.65353    10890.368 
      90    441.09958    7.6272736    192.51844    101.05207   -19259.452    10890.368 
100        0.99300102546967461414 10.050218226693566237 1 69 -151.7014282531766014
     100    470.88878    5.5313192    188.02148    61.650331    2293.7575    10890.368 
     110    483.64808    3.7290012     146.8616    25.018335    8284.5747    10890.368 
     120     465.0756     8.296678     143.9845   -4.4530033      3337.88    10890.368 
     130    427.25574    7.3383253    122.76354   -31.563398   -3944.2211    10890.368 
     140    425.44452    8.1578744    114.20182   -55.975214   -9845.4458    10890.368 
     150    400.90743    7.3997033    112.40685   -78.544429    9083.9298    10890.368 
     160     374.4922    11.185756    101.38166    -98.99002    4273.1104    10890.368 
     170    387.56688    10.299695    90.685694   -117.36025     597.9799    10890.368 
     180    347.75316    6.9113865    100.52273   -134.17806   -6602.7497    10890.368 
     190    314.57602    6.2449756    93.273054   -149.30749    -6.091877    10890.368 
200        0.99249362661008766473 10.090720743016241556 1 71 -294.06330512421470758
     200    290.67545    5.3508867    98.507589   -162.36316    4376.4288    10890.368 
     210    273.35897    8.0869072    86.583008   -172.99186    211.86747    10890.368 
     220    300.11798    5.5146701    79.115623   -182.10027   -4524.3619    10890.368 
     230    275.64411     7.359336    76.162663   -189.84072   -1050.2696    10890.368 
     240    282.06394    8.3154907     69.74932    -196.4824   -1138.5325    10890.368 
     250    271.26819    8.3634974    71.233714   -201.54636    5234.7149    10890.368 
     260     271.5618    10.521764    67.471914   -204.93624   -446.78624    10890.368 
     270    278.92574    10.594893    67.209212   -207.12105   -1174.3733    10890.368 
     280    281.11258    10.757329     60.30071   -207.92436    474.95518    10890.368 
     290    266.52397     6.600392    67.125118   -207.27185    716.14021    10890.368 
300        0.98909516663556762417 10.095708104429347074 1 67 -323.61906868752487298
     300    261.43819    4.5726224    72.713659   -205.16584    2765.4799    10890.368 
     310    242.97745    4.7853251    75.405378   -201.50624    -5659.241    10890.368 
     320    262.51111    6.3013407    72.536628   -196.40229   -1737.8965    10890.368 
     330    266.53515     7.374362    77.912556   -190.29432   -296.98905    10890.368 
     340    296.08942    9.3060961    70.837217     -183.173    2731.1832    10890.368 
     350    295.44701     8.886641    87.490981    -175.7381    4078.0462    10890.368 
     360    330.85056    10.130564    66.627621   -167.73429    -239.0298    10890.368 
     370    304.90849    8.4408847    83.677118   -159.97021   -2336.5978    10890.368 
     380    340.50981    6.1597713     75.77345   -152.70148    220.86855    10890.368 
     390     315.9633    4.8310493     91.31328   -146.03499    3110.3282    10890.368 
400        0.98505059065865074874 10.110190619017036084 1 69 -311.58845390729260316
     400    378.68991     5.926995     77.21385   -140.01045    1993.8806    10890.368 
     410    325.25397    6.8339378    94.551102   -134.44304   -3917.2835    10890.368 
     420    326.75508    6.9216873    97.257832    -130.5908   -4000.3905    10890.368 
     430    332.31718     9.283407    96.103642   -127.85935    4348.4879    10890.368 
     440    340.08224    6.2866336    99.505412   -126.80288    1587.8812    10890.368 
     450    352.31409    6.2869321    88.073938   -126.95142    3006.9922    10890.368 
     460    307.63357    4.9880784    94.491555   -128.35897   -4977.1957    10890.368 
     470     342.6379    6.3491049    87.316631   -130.62587   -330.19132    10890.368 
     480    338.89767    5.9445261    89.211473   -134.18051    705.73346    10890.368 
     490    347.89653    5.5260928    79.893257   -138.24008    1270.7057    10890.368 
500        0.97932513392960651721 10.148052976610861364 1 67 -291.82476932044687601
     500    328.00367    7.6516265    82.390635   -143.21184   -916.43029    10890.368 
     510    284.53556    6.4894526    99.878327   -148.13723   -2224.8155    10890.368 
     520    331.36558    5.9737003    79.967532   -153.62214    3803.2133    10890.368 
     530     280.5404    4.3073202    92.768008   -159.19839   -2006.8078    10890.368 
     540    304.27422    7.2334697    77.827817   -164.16959    622.78918    10890.368 
     550     283.2711    5.6355965    79.894466   -168.97215   -7021.2874    10890.368 
     560     281.3978    5.1190397    78.050196   -172.92582     385.0292    10890.368 
     570    271.04536    6.1550842     87.85225   -176.42843    4180.2904    10890.368 
     580    259.07196    7.2257453    77.863387   -178.86134    1016.3185    10890.368 
     590    292.55974    5.8587821    73.876002   -180.30853   -2723.8462    10890.368 
600        0.97871124829973166204 10.146338638077804006 1 70 -310.60132921077024548
     600    285.81003    4.7230413    77.804881   -181.10563   -685.42852    10890.368 
     610    270.96636    5.1472297    74.790883   -181.19852   -2799.4301    10890.368 
     620    249.03107    3.9805051    87.490699   -180.68052    4716.7909    10890.368 
     630     309.1662    4.7338021    63.991849   -179.12752    1689.4848    10890.368 
     640    299.55238    6.4403748    75.644963   -176.72253    4771.5811    10890.368 
     650    295.84253     9.729519    71.428771    -174.2175   -1957.4206    10890.368 
     660    291.62433    8.4257482    75.129553   -170.97733   -4279.0909    10890.368 
     670    288.91762    6.4991717    84.173823   -167.71574    490.25175    10890.368 
     680     338.4103    6.6287148    72.386341   -163.57519   -566.39526    10890.368 
     690    300.80131    9.0752532    90.790773   -159.77862   -2647.7798    10890.368 
700        0.98038395751221396601 10.136001347908427661 1 71 -295.24987813464417741
     700    306.52599    10.461314    76.034544   -156.36812    -768.2136    10890.368 
     710    318.86406    8.8285704    79.505927   -152.92544     73.60751    10890.368 
     720    299.71218    9.0026913    91.437956   -149.94659    6062.9901    10890.368 
     730    323.73348     8.917184    86.536697   -146.84771   -2515.6567    10890.368 
     740    304.48928    8.0711259    89.085952   -144.68109    1229.1128    10890.368 
     750    342.71953    5.4709441    78.651311   -143.03365   -3647.4748    10890.368 
     760    346.93928    5.2615028    76.140114   -142.34515    5702.3492    10890.368 
     770    342.82445    7.5842971    82.915379   -142.65251    2055.3295    10890.368 
     780    305.23112    10.807968    84.627573   -143.67409   -1661.1795    10890.368 
     790    302.03044    9.8132237    88.439986   -145.34081   -2167.5916    10890.368 
800        0.97801236692579984755 10.152812096314276502 1 69 -297.21744341742174811
     800    331.33897    6.5013718    84.031512   -147.09334    1859.1965    10890.368 
     810    329.82884    5.4108544    83.262677   -149.76848    116.79014    10890.368 
     820    290.68674    4.4655989    92.728674   -152.37391   -1814.7378    10890.368 
     830    316.19363    4.4586088    79.929557   -155.52681    -3612.384    10890.368 
     840    300.16504    4.7135474    88.581294   -159.05201    5259.4291    10890.368 
     850    311.95975    6.1750106    82.519195   -162.92995    3669.1966    10890.368 
     860    306.79759    8.7371097    75.550534    -166.8432       241.81    10890.368 
     870    329.44352    8.1742193    70.295394   -170.14404   -1454.7604    10890.368 
     880    292.35345    5.9713277    74.351521   -173.31602   -3172.0052    10890.368 
     890    268.70262    4.8141281    83.203361   -175.83481   -38.972451    10890.368 
900        0.97922001467235164629 10.169246143226256862 1 69 -311.8818696973163469
     900    295.35795     5.571831    74.794545   -178.06016   -730.84559    10890.368 
     910    296.17186    6.1563551    69.361573   -179.49372   -40.575031    10890.368 
     920    280.26833    5.8586469    74.437937   -180.02374    2584.2626    10890.368 
     930    272.58368    6.3327702    73.830399    -179.5978   -1435.4193    10890.368 
     940    280.40083    6.2500583    77.892133   -178.23481    5767.2347    10890.368 
     950    279.30461    8.8382546    72.485403    -176.1937   -3361.9536    10890.368 
     960    283.96867    5.7206705    66.317712   -172.90949   -3187.6166    10890.368 
     970    286.70249    3.8925622    78.156483   -168.76265     -2181.11    10890.368 
     980    326.54064     6.027824    68.095868   -164.06976   -466.13343    10890.368 
     990    320.97563    8.2086457    72.379563   -159.51433    1146.9619    10890.368 
1000        0.9751615196946716857 10.180388609985849158 1 71 -294.272675949658435
    1000    307.14684    8.4991963    80.273153   -155.10962    4029.1308    10890.368 
    1010    344.49969    8.3696735    80.884746   -150.46485    3039.3332    10890.368 
    1020    310.73466    11.234782    85.996906   -146.70357   -696.48319    10890.368 
    1030     317.2083    8.5425806    91.623347   -144.22464    -5309.915    10890.368 
    1040    318.43142    6.5101961    92.375783   -142.48683    1957.2193    10890.368 
    1050    321.30286    6.2573928    87.862982   -141.72776   -2138.7841    10890.368 
    1060    334.40449    5.5390975    78.353996   -141.76288   -1536.7247    10890.368 
    1070    299.38627    4.4808572    95.864284   -142.36997    -2525.386    10890.368 
    1080    330.83104    5.2482095    83.235081   -143.44433    1536.8986    10890.368 
    1090    292.53425    6.9024759    97.416251   -145.35838    3981.0139    10890.368 
1100        0.97651711811545360842 10.172493283811290254 1 69 -287.98260312029003671
    1100    310.02761    6.3101229    89.330606   -147.51432    1710.9551    10890.368 
    1110     321.0347    4.8466445    74.784501    -149.8415   -3762.0902    10890.368 
    1120    302.48341    5.0861512    92.238258   -152.54173   -190.76632    10890.368 
    1130    337.76656    5.5058871    80.471616   -155.76159    2464.2827    10890.368 
    1140    315.29121    4.6676562    81.963621   -159.51557    902.38147    10890.368 
    1150     316.0216    4.6978832    76.158354    -163.3488   -2207.9687    10890.368 
    1160     301.3562    5.3214889    78.955925   -167.26213   -2778.9311    10890.368 
    1170    280.36256    6.5794557    83.122641   -170.99224    2422.4965    10890.368 
    1180    269.79188    8.3811599     79.77889   -173.93442    563.49328    10890.368 
    1190    273.12645    7.9796401      84.2764   -176.64625    513.27158    10890.368 
1200        0.97577072365181061198 10.16673866304606122 1 70 -309.97922430531184546
    1200    289.34582    8.3843244    73.639933   -178.88151    459.51124    10890.368 
    1210    288.82155    6.7948448    74.053349    -180.4224    159.28783    10890.368 
    1220    271.38364    6.5187921    78.970175   -180.95816    508.16447    10890.368 
    1230    278.88394    6.1332669    71.260409   -180.55264   -1576.1718    10890.368 
    1240     279.5847    6.8000838    82.451408    -179.4193    1237.1986    10890.368 
    1250    278.55663     5.831483    78.424518   -177.58014    35.894889    10890.368 
    1260    307.28824    9.9069704     66.98357   -175.22735    995.03061    10890.368 
    1270    286.34875    10.173441    77.598443   -172.34822    1057.9984    10890.368 
    1280    302.50498    8.5775968    74.952972   -168.91212   -2352.2415    10890.368 
    1290    279.32983     6.311872    89.655571   -165.14867   -1880.8085    10890.368 
1300        0.9794973958098166511 10.160488398623433781 1 68 -296.32480692077353979
    1300    298.40998    5.5153971    80.769285   -161.12028     1015.336    10890.368 
    1310    284.58802    5.6929936    91.206193   -156.82288   -1796.6496    10890.368 
    1320    292.68856    5.0447887     90.89106   -152.64548   -1146.1999    10890.368 
    1330    296.05916    5.4926454    91.279565   -149.19316   -1746.0214    10890.368 
    1340    342.70613    6.3588162    79.216473    -146.3844    3319.1132    10890.368 
    1350     333.1875    5.0323445    83.038404   -144.22411    951.94807    10890.368 
    1360    325.94087    4.1651834    88.124793   -142.61697   -99.140244    10890.368 
    1370    308.67747    2.5720457    97.675542   -142.10847   -462.02407    10890.368 
    1380    325.84924    2.6565472     88.38499    -142.7955    -1995.517    10890.368 
    1390    325.58253    4.2081267    84.553567   -144.69134   -1404.6035    10890.368 
1400        0.98543898159497467226 10.139755029566018152 1 69 -284.12364082647633268
    1400    302.15857    6.7382603    91.348683   -147.22069    536.51019    10890.368 
    1410    320.95828     7.488526    82.168998   -150.30156   -297.69727    10890.368 
    1420    317.54434      8.08917    81.865829   -153.85837    602.02993    10890.368 
    1430    330.34702    7.8856614     71.70508   -157.43997   -65.147575    10890.368 
    1440    275.47877    6.8519971    88.719927   -160.88942    3884.2686    10890.368 
    1450    285.51816    6.3169358    81.945522    -164.2299   -640.66968    10890.368 
    1460    279.68817    6.7608645    85.491873    -167.4461   -1869.1997    10890.368 
    1470    303.26878     9.811302    68.859055   -170.59684    1692.4635    10890.368 
    1480    274.61944    15.387815    74.158275   -173.21087    1905.3796    10890.368 
    1490    293.27493    12.191913    71.446108    -175.2086    2425.7178    10890.368 
1500        0.98997328501525816424 10.124343677445471812 1 69 -300.40402734112785765
    1500    272.42346    10.443637     88.19769   -176.97356   -4352.2345    10890.368 
    1510    268.81722    8.2314485    77.974882   -178.48786   -3311.3058    10890.368 
    1520     265.9786    5.8806073    89.289799   -179.65366    1030.2745    10890.368 
    1530    255.64606    5.4851901    81.461194    -180.0345    1472.4055    10890.368 
    1540    265.73748    5.8061552    78.270732   -179.61393   -2479.8742    10890.368 
    1550    269.46895    8.7980414    78.179251   -178.37407   -1614.6249    10890.368 
    1560     280.7993    9.0740287    80.050955   -176.28291   -257.44858    10890.368 
    1570    276.99915     9.565641    76.792709   -173.86242    5495.1396    10890.368 
    1580     272.1377    7.9723055    84.793451   -170.67428    550.27696    10890.368 
    1590    285.01708     6.469218    86.647883   -167.04485   -476.67978    10890.368 
1600        0.98906443424665357878 10.116584018885326657 1 70 -294.98849128783518836
    1600    290.10127    5.2449803    85.955388    -163.5485     380.3318    10890.368 
    1610     304.8094    6.2334271    81.824859   -160.35218   -21.999402    10890.368 
    1620    282.86023    6.2239232    88.565835   -157.48441    3204.5568    10890.368 
    1630     283.8784    7.0922314    84.713637   -154.54622   -8950.0851    10890.368 
    1640    310.10257    10.074602    80.069669   -151.33798   -118.12244    10890.368 
    1650     299.1793    9.6012312     93.74217   -148.37299    1035.4576    10890.368 
    1660     286.8084    10.050419    87.891028   -145.83155    4010.0324    10890.368 
    1670    270.64422    5.8012009    99.159572   -143.75356    318.74555    10890.368 
    1680     341.7182    6.6986756    78.879614   -141.75981    2649.3924    10890.368 
    1690    339.90195    9.2643698    74.680559   -140.71421    1210.0541    10890.368 
1700        0.98907757466769141708 10.102034229001001009 1 66 -286.5740695354591594
    1700    322.56957    8.1158827    75.563553   -140.42324   -4035.3207    10890.368 
    1710    337.25443     7.578251    72.219069   -140.56831   -4683.6041    10890.368 
    1720    316.80197      9.39181    86.147791   -141.33078    479.82173    10890.368 
    1730    327.27542    10.976883    79.336617   -142.74527    2534.8902    10890.368 
    1740    283.15537    10.096054    90.927178   -144.82945    3327.8805    10890.368 
    1750    311.71653    7.0805011    76.536112   -147.08651    1885.2203    10890.368 
    1760    315.23779    5.5822579    83.522003   -149.75279    610.42753    10890.368 
    1770    314.46105    5.2075908    76.043337   -152.93409   -2400.6136    10890.368 
    1780    285.51938     5.421045    79.523472   -156.19908   -3449.8389    10890.368 
    1790    300.91518    4.6999924     80.66293   -159.13881   -2151.7119    10890.368 
1800        0.98744532552445951623 10.127194398004954579 1 67 -302.52964453511543752
    1800    310.02852       4.2876    72.729577   -162.06095   -1827.8272    10890.368 
    1810    305.19731    4.8176975    77.249922   -164.73792    714.82249    10890.368 
    1820    298.92991    6.7898861    77.197137   -167.25052    5615.6003    10890.368 
    1830    286.08321    5.7161732    76.464299   -169.75855   -1163.2901    10890.368 
    1840    289.80093    7.2945291    77.003735   -172.23463   -2351.1015    10890.368 
    1850    299.45505    7.3561128    74.024485   -174.35269   -4799.8412    10890.368 
    1860    309.72856    9.1304979     68.64016   -176.33526    5884.5612    10890.368 
    1870    284.74921    8.8294627    75.041955   -178.18747    1801.4751    10890.368 
    1880    297.58604     9.844256    62.817294   -179.54465    1687.2986    10890.368 
    1890      306.476    7.8132519    66.439611   -180.36303   -604.18197    10890.368 
1900        0.98880790430973053429 10.106451775303172624 1 69 -318.45559140796694919
    1900    304.28807    6.5612238    66.254723    -180.5878    1293.6143    10890.368 
    1910    298.89163    6.8709002    66.877225   -180.06487    610.00591    10890.368 
    1920    276.82932    7.0341663    70.502452   -178.60533    1325.0973    10890.368 
    1930    285.27155    7.3336244    73.184398   -176.22986   -1273.7952    10890.368 
    1940    254.20885    6.5608859    89.584084   -173.05731    1673.1486    10890.368 
    1950    273.21277    6.6630441    81.058476   -168.89425   -4577.2706    10890.368 
    1960    294.44359    5.5796959    86.260074   -164.40096   -1481.9451    10890.368 
    1970    306.99321    5.3641916    74.124389    -160.4418   -3330.9427    10890.368 
    1980    311.33449    5.8361602    71.713887   -157.11608   -1034.6547    10890.368 
    1990    312.36084    6.8474528    73.651711   -154.04651    4644.4957    10890.368 
2000        0.98762657743683257561 10.129060270296362134 1 66 -302.89530861209908608
    2000    334.62221    7.9761677    74.106644   -151.28363     1845.575    10890.368 
    2010    342.04912    8.9750333    74.795076   -149.23237    2050.5379    10890.368 
    2020    317.01319    12.420625    80.602428    -147.9667    926.51095    10890.368 
    2030    325.96124    8.0270788     80.66972    -147.3422   -4958.3767    10890.368 
    2040     315.1726    8.5155333    85.489758   -147.41233    1409.3121    10890.368 
    2050    311.68604    4.9990755    85.679997   -148.29215   -2741.1265    10890.368 
    2060    300.47354     6.944168    85.735531   -149.97345   -1793.5119    10890.368 
    2070    296.60884    4.9007251    82.368843   -152.42308   -3426.9714    10890.368 
    2080    328.39502     5.134478    72.872896   -155.72161    3427.7066    10890.368 
    2090    272.66682    4.5153985    87.317054   -160.04445    3714.3057    10890.368 
2100        0.98882389172962403823 10.11453057301449121 1 69 -291.09726000312582528
    2100    280.06778    4.9575413     78.18138   -164.20328    4739.1791    10890.368 
    2110     292.4092    5.6287579    72.636982   -167.91214   -1517.5149    10890.368 
    2120    295.54902    6.8353158    68.369301   -170.69789   -1358.9629    10890.368 
    2130    300.49489    8.1745701    69.260697   -172.22357   -5028.1637    10890.368 
    2140    279.16574    6.0768587    76.266257   -173.03415   -1409.4525    10890.368 
    2150    265.32549    5.6747989    78.033603   -173.26982    3869.4238    10890.368 
    2160    255.26205    6.6171955    80.710164   -172.63417    2779.7893    10890.368 
    2170    270.13677    6.7331943    77.724954    -171.3845   -528.79583    10890.368 
    2180    260.04987    5.6401363    89.713277   -170.11404   -2364.4232    10890.368 
    2190     306.1031    6.8772507    74.696298   -168.92971    568.94024    10890.368 
2200        0.98642655784498689542 10.115499176426874683 1 64 -298.26026809349502855
    2200    287.31094    8.2874148    79.611717   -168.08453   -1178.5856    10890.368 
    2210    298.80694    9.8736423    72.978856   -167.36712   -844.12069    10890.368 
    2220    268.66951    6.7995227    89.527893   -166.72983    2952.0974    10890.368 
    2230     263.9352    7.4465625    80.011645   -166.23391   -750.66263    10890.368 
    2240    277.12484    7.4995297    72.194485   -165.57335    654.37769    10890.368 
    2250    302.81412    7.7050859    72.763132     -164.341   -199.12964    10890.368 
    2260    310.73834    9.1605886    65.120874   -162.78442    1258.1899    10890.368 
    2270    289.17801     8.032988    81.250185   -161.37049    -843.1509    10890.368 
    2280    286.11933    8.4566217    80.715191   -160.08918    462.50934    10890.368 
    2290     307.7439    6.2399312    82.558296   -158.96885   -861.33359    10890.368 
2300        0.98046442441321091099 10.1545988834986467 1 64 -296.87011400767812574
    2300    305.47813    9.2574565    77.910014   -158.46313    98.418141    10890.368 
    2310    329.95417    6.9703302    70.782853   -158.25352   -1827.1497    10890.368 
    2320    325.51006    6.5359315    66.010596   -158.35551    6495.4442    10890.368 
    2330    297.94672    7.2743953    71.564969   -158.73524    64.042949    10890.368 
    2340    287.06885    8.5692078    74.117824   -158.86414   -2095.1619    10890.368 
    2350    303.80958    5.9073248    73.183607   -158.79617   -2849.7626    10890.368 
    2360    302.39291    6.9259297    67.543118   -158.30707   -4248.1589    10890.368 
    2370     307.8809    5.9531942    73.855983   -157.02777   -1790.7875    10890.368 
    2380    328.43575      4.60707    75.379738   -154.94015   -342.98383    10890.368 
    2390    325.56951    4.7551026    74.769234   -152.22762    3336.2918    10890.368 
2400        0.98166575509290465718 10.157915390061512895 1 66 -294.65369110130666286
    2400    319.54372    8.0503939    80.800647   -149.87382    3521.6192    10890.368 
    2410    303.92623    7.7611203    82.989109   -147.66454    131.67397    10890.368 
    2420    320.68462    5.7629302    74.784156   -145.82109   -1799.3918    10890.368 
    2430    344.88263    6.9218571    73.408194   -144.34294   -1592.5079    10890.368 
    2440     344.7273    8.0569904    78.914769   -144.07027   -1911.0685    10890.368 
    2450    320.92511    8.9739079    75.401067   -145.23106    1510.3497    10890.368 
    2460    311.76242    8.4050962    78.925801   -147.31236    312.90018    10890.368 
    2470     313.6341    10.781625    71.289639   -150.01187    950.55858    10890.368 
    2480    300.57558    11.325162    76.871067   -152.85008    1563.2494    10890.368 
    2490    313.07337     6.817347     74.15912   -155.67584    1388.8754    10890.368 
2500        0.98362572801800063349 10.1395474488827535 1 69 -292.43280264865438767
    2500    295.12099    6.4135402    76.577941   -158.71846    1.2536228    10890.368 
    2510    311.34601    4.3995156    73.382174   -161.78768   -2457.8875    10890.368 
    2520    303.17664    5.0621275    76.215604   -165.08808    833.19342    10890.368 
    2530    299.78774    6.1581145    71.547553   -168.24185    683.55007    10890.368 
    2540     300.8521    11.016861    65.154135   -170.89673   -1097.0918    10890.368 
    2550     294.8098    9.3128823    67.820869   -173.21148     17.00304    10890.368 
    2560    295.06417    7.4160237    63.740062   -174.61799    1834.6254    10890.368 
    2570     284.9859     5.408215    61.382054   -175.24163   -1334.2497    10890.368 
    2580    273.41074    6.1579113    70.969106   -175.08273   -695.27563    10890.368 
    2590    277.91491    6.4129573    69.061115    -173.9707   -684.08217    10890.368 
2600        0.98097181905902075538 10.160376529265166212 1 69 -297.88545888589777633
    2600    277.98839    4.0347926    71.295374   -171.93361    530.82594    10890.368 
    2610    312.52066    4.6826896    74.629832   -168.77565    199.48587    10890.368 
    2620    296.14185    4.1151361    72.561589   -165.05767   -887.33458    10890.368 
    2630    291.37655    6.5342269     70.83787   -160.91261   -87.609869    10890.368 
    2640    298.59968    9.8466698    78.504856   -155.91614   -1641.7407    10890.368 
    2650    294.58625    10.503024    83.530783   -150.17243    3287.9563    10890.368 
    2660    317.49542    9.2327853    80.579497   -145.19762    4819.8609    10890.368 
    2670    312.33466    11.116568    79.130074   -141.44393   -930.26749    10890.368 
    2680     308.7322    11.084295    81.271569   -139.49098   -6203.8736    10890.368 
    2690    324.50368    12.792327      78.6492   -138.68299   -3825.1971    10890.368 
2700        0.97794417570771885462 10.16750249232832104 1 70 -287.93511323625637033
    2700    329.13593    8.6571289    75.884765   -138.80918    2948.1836    10890.368 
    2710    348.86481    8.5670672    67.459807   -139.50122    5706.0506    10890.368 
    2720     295.6331    10.530533     77.99128   -140.65261    785.10421    10890.368 
    2730    309.84622    8.3487655     81.98296   -141.90237    1021.9445    10890.368 
    2740    317.74331     6.854839    77.958755   -143.57812   -4667.1465    10890.368 
    2750    328.72356     6.529768    82.930096    -146.1117   -4143.1893    10890.368 
    2760    351.95531    6.9349406    70.409018   -149.87246   -1570.2348    10890.368 
    2770     297.8329     6.847447    76.759738    -154.0599   -480.93459    10890.368 
    2780    314.22822    6.8369937    69.430257   -157.54883    998.05256    10890.368 
    2790    291.99495    7.0788394    73.102389   -160.47652    4408.6512    10890.368 
2800        0.98028141955505287974 10.148238384610429819 1 70 -296.20633997648849345
    2800    293.93434    9.7090139     78.08689   -163.02965    3436.4881    10890.368 
    2810    301.24917    8.0853761    74.909158   -165.29627    4079.6128    10890.368 
    2820    276.74339    5.5416089    74.748821   -167.24413   -5689.6826    10890.368 
    2830     274.2469    3.2852848    74.337078   -168.50305    -496.5245    10890.368 
    2840    271.38254    4.2007368    76.809722   -168.81778   -3039.0684    10890.368 
    2850    291.05163    5.4647256    70.285296   -168.44593    1086.7152    10890.368 
    2860    274.79401    5.2367399    79.279904   -167.78019    -3562.697    10890.368 
    2870    299.18429    6.5058259    66.302169   -166.92057    3754.6738    10890.368 
    2880    273.16224    9.1086448    72.482458   -165.95148    4083.0226    10890.368 
    2890    301.86974    8.7071463     63.78173   -164.13817     2188.037    10890.368 
2900        0.98087215533870175665 10.161390016286588889 1 69 -291.94832447829764988
    2900    288.77629    7.0664417    72.974457   -161.10866   -2956.1423    10890.368 
    2910    317.98631     7.438826    68.275828    -156.8215   -2535.2792    10890.368 
    2920    315.35136      7.47636    76.897773    -151.7001   -2052.0048    10890.368 
    2930    331.05735    7.6093117    71.312054   -147.18709    2878.2984    10890.368 
    2940    322.78433    5.2775444    73.192777    -143.5424    1333.7205    10890.368 
    2950    318.95393    6.7246269    74.268645    -140.8888    2299.6038    10890.368 
    2960      313.277    8.5502128    74.674368   -138.63364   -3969.1464    10890.368 
    2970     315.6028    10.123144     80.93636   -136.85447   -25.640321    10890.368 
    2980    345.97015    9.3817644    77.774477   -135.89711    2188.2062    10890.368 
    2990    312.34007    10.036549    80.917037   -136.45637     4337.339    10890.368 
3000        0.97788630958215394529 10.165443934496234846 1 67 -291.52617669278544099
    3000    338.99018    9.2236007     68.64494   -137.93544   -1353.7906    10890.368 
    3010    314.39654    7.7659843    82.553431   -140.47235   -1657.0119    10890.368 
    3020    322.96065    9.4240767    78.712512   -144.89781   -3480.6227    10890.368 
    3030    291.50126    9.4006855     80.08206   -151.94185   -5042.2075    10890.368 
    3040    288.96462    7.6064646    72.152395   -161.01034   -906.49406    10890.368 
    3050    270.17858    7.9260862    79.461569    -168.1523    354.42184    10890.368 
    3060    293.79602    8.9562431    60.900367   -172.03799    4973.2951    10890.368 
    3070    267.37143    7.9771987    77.168965   -173.69217    1994.6421    10890.368 
    3080    300.56127    8.3565602     58.51452    -174.0776    197.44387    10890.368 
    3090    273.03439    7.7798167    71.679947   -173.72953   -1166.5142    10890.368 
3100        0.97462859539996271607 10.185084551665507746 1 71 -304.27051631134645504
    3100    290.56612    8.3240253     66.20207   -172.61991    -3046.971    10890.368 
    3110    276.83398     8.278293    72.933571   -170.84214   -1084.3237    10890.368 
    3120    286.24027    6.0752663    73.099889   -168.51957   -2570.6829    10890.368 
    3130    288.26907    5.6193131    73.267039   -165.61163      1922.36    10890.368 
    3140    323.06922    5.3579331    65.869699   -162.27364    -2558.705    10890.368 
    3150      303.846    4.4616784    73.677546   -159.23995    5264.1882    10890.368 
    3160    287.08683    4.1042355    78.040412   -156.81132    1392.6375    10890.368 
    3170    285.44599    5.7591666    76.022586   -154.53124   -1355.7055    10890.368 
    3180    304.27641    6.9472807    78.995984   -152.24075   -3196.5602    10890.368 
    3190    324.39167    7.3007896    72.742168   -150.07569    2268.5077    10890.368 
3200        0.97944630970971613415 10.160572991746374072 1 67 -285.42251386263899349
    3200    302.28974    7.2903682    82.644337   -148.46013     269.7221    10890.368 
    3210    306.79594    8.3752551    73.255214   -147.36213   -1086.3325    10890.368 
    3220    309.17677    10.026761    77.917908   -146.38329   -2581.8854    10890.368 
    3230    338.30619    8.6138167    75.199014   -145.68956    5478.5695    10890.368 
    3240    322.54455    6.1547468    80.282888   -145.99592     1627.639    10890.368 
    3250    310.20019    7.6600907    73.140603    -147.6532   -1816.2289    10890.368 
    3260      278.181    9.3351616    86.806668    -150.1485   -2326.7002    10890.368 
    3270    295.97276    9.8447835    72.381349   -152.95302   -823.91211    10890.368 
    3280    297.50927    7.6168795    76.549913   -156.06165    686.93243    10890.368 
    3290    307.50471    8.3299922    69.327717   -159.74619    650.27847    10890.368 
3300        0.97829653299973162728 10.147759414344271534 1 66 -291.61583067688951587
    3300    282.50881    9.2639037    70.843752   -163.61586   -331.08954    10890.368 
    3310    290.50142    7.2432481    72.558857   -167.37861    2718.5988    10890.368 
    3320    260.46963    5.3415696    78.423513   -170.98665     1836.099    10890.368 
    3330    274.38545    4.2271491     70.51391   -173.68783   -1688.3834    10890.368 
    3340    268.77082    6.6000954    65.639934   -175.47578   -5074.5279    10890.368 
    3350    262.90445    5.4615658    71.269458   -176.17329   -5340.5173    10890.368 
    3360    268.75096    5.4644983    67.888996    -175.7979    4276.2319    10890.368 
    3370    274.56556    4.3143096    68.596318   -174.51886    1943.0453    10890.368 
    3380    273.64503     4.954066    66.082342   -172.43179    1155.8092    10890.368 
    3390    260.44289    4.3751471     76.48272   -169.52258   -5333.7569    10890.368 
3400        0.98352106899464131207 10.1250329819834608 1 67 -290.37229992477131191
    3400    275.42787    3.9813866    76.508809   -165.58058    4464.2027    10890.368 
    3410     264.4768     3.103328    82.315025    -161.0737    160.68799    10890.368 
    3420    298.18299    3.8991314    72.392756   -156.86908     300.2143    10890.368 
    3430    305.63031    6.2352034    75.733445   -154.11694   -3278.0918    10890.368 
    3440    325.85515    8.4879136    67.631064   -153.10719    3746.2983    10890.368 
    3450    321.53757     8.294698     68.78991   -152.94511     2461.221    10890.368 
    3460     322.9996    10.587245    65.070462   -153.06608     3149.711    10890.368 
    3470    299.48599    14.020478    76.909076   -153.47732   -3914.6676    10890.368 
    3480    287.95123    14.331594    75.808451   -153.93198   -4461.6445    10890.368 
    3490    299.92536    11.989693    77.832003   -154.68457     -1031.36    10890.368 
3500        0.98993014525354194877 10.121516480210390299 1 67 -303.53414922527946374
    3500     326.0316    11.148467    67.141914   -155.81473    1662.5068    10890.368 
    3510    312.32991    10.463935      68.5873   -157.40074   -1241.8109    10890.368 
    3520    301.93071    8.4514351    65.745142   -158.67844   -510.74889    10890.368 
    3530    295.82708    7.9684022    68.950743   -159.60619    657.88831    10890.368 
    3540    288.06184    9.4550907    74.839304   -160.38193    3415.6971    10890.368 
    3550    292.10696     11.57113    76.904504   -161.09252    -51.33046    10890.368 
    3560    290.10214     11.28868    76.620678   -162.00065   -1940.0094    10890.368 
    3570    292.88046    8.6363165    72.008999   -163.31413    732.08533    10890.368 
    3580    277.34948    8.3732313    66.176368   -164.56844    2527.1228    10890.368 
    3590    280.86324    10.737795    65.890148   -165.13044    3828.9104    10890.368 
3600        0.99077353602194329074 10.095929249121850191 1 66 -296.58182869672396009
    3600    290.78821    8.4143498    67.047516    -164.8306   -2658.3412    10890.368 
    3610    294.17452    7.3304643     68.42654   -164.06197   -2825.4778    10890.368 
    3620    311.50095    4.3535212    64.309476   -163.12886   -519.86843    10890.368 
    3630     313.2475    4.7254594    64.949673   -161.97451    560.11825    10890.368 
    3640    320.53983    6.2143809    62.299772   -160.63148   -1138.5111    10890.368 
    3650    309.71525    4.0699055    63.814896   -159.01432    1709.4676    10890.368 
    3660    307.10286    6.1729658    67.944103   -156.99067   -1382.8486    10890.368 
    3670    315.05103    8.2424524    68.764595   -154.18501    1698.3701    10890.368 
    3680    296.97802    9.9613646    73.097954    -151.3228   -4523.3753    10890.368 
    3690    298.54215    8.9785681    74.013399   -148.13073    1613.5186    10890.368 
3700        0.98728989775197362189 10.094944685332654544 1 68 -286.26012336624563659
    3700    312.83218    7.1789702     64.16632   -144.52114    1582.5132    10890.368 
    3710    318.80167    10.546291    76.643413   -140.64436    2880.7262    10890.368 
    3720    303.61357    11.964833    79.833128   -137.32184    4240.7765    10890.368 
    3730    298.94054    10.899551    78.623488   -134.69546    424.59006    10890.368 
    3740    304.78617    10.721898    87.242532   -132.69529   -1060.3879    10890.368 
    3750    325.56998    7.3302372    73.634164   -131.32973   -4059.3414    10890.368 
    3760    330.48425    5.1886983    87.127477   -130.74175   -3775.0198    10890.368 
    3770    328.82183    5.1279997    77.455028   -131.54457   -704.16459    10890.368 
    3780    316.69755    5.5312509    76.152447   -133.62381    -2145.351    10890.368 
    3790    305.96983    7.3119597    75.321859   -136.93231    4513.7722    10890.368 
3800        0.9852447082832062053 10.100061621037113468 1 67 -280.76454991651860382
    3800    308.59599    6.9981966    64.381156   -140.94492    1916.6473    10890.368 
    3810     310.0486    6.1451656    70.171684   -146.26508    1566.9418    10890.368 
    3820    322.37543    4.0571858    63.443824   -151.81427   -63.628605    10890.368 
    3830    324.32783    5.2431912    59.907513   -156.84043   -948.25737    10890.368 
    3840      318.295    6.0624944      58.6805   -160.52705   -2591.9304    10890.368 
    3850    296.16223    5.4338369    61.276597   -162.74531   -3123.6432    10890.368 
    3860    292.56878    4.3787753    68.207284   -163.96283    1028.9778    10890.368 
    3870    289.93586    5.3855666    66.913995   -164.52854    4715.0558    10890.368 
    3880    290.16151     7.684707     62.27093   -164.55037    3221.0362    10890.368 
    3890    293.99978    6.6130271    65.650506   -164.16074    565.69895    10890.368 
3900        0.98191980095295683384 10.115209355016107295 1 67 -293.55800452650589705
    3900     286.9208    7.2524719    65.991773   -163.55903     187.4364    10890.368 
    3910    265.78589    5.5076004    79.142813   -162.72235   -3464.9098    10890.368 
    3920    297.64974     5.068704    59.243149   -161.36474    58.632538    10890.368 
    3930    281.16817    4.5986543    69.745384   -159.67332    2114.2782    10890.368 
    3940    298.04368    5.1893203    72.075649   -157.62999    1586.3775    10890.368 
    3950    278.36309    7.7457865    68.438279   -155.40235   -3778.8115    10890.368 
    3960    292.42836    5.7594247    69.707042   -152.65002    -4139.062    10890.368 
    3970    325.09677    6.4601673    66.067442    -149.3471    179.24702    10890.368 
    3980    305.85567    7.6598248    78.322725    -146.2253    720.90654    10890.368 
    3990    302.50645    9.3259591    73.194984   -143.78903    498.78363    10890.368 
4000        0.98085829255468759413 10.121534335300362173 1 69 -284.5268473500300388
    4000    314.78371    8.8957606    71.524383   -141.90366   -615.85163    10890.368 
    4010    321.09367    7.1791873    68.731392   -140.55783    3054.9217    10890.368 
    4020    312.28483     4.710539    71.622543   -139.67618    441.34831    10890.368 
    4030    292.11671     5.159072    81.587297   -139.06535    402.84124    10890.368 
    4040    319.39657    5.8702223    77.170759   -138.78798   -1501.5817    10890.368 
    4050    330.62846    6.1529573    73.571622   -139.68788   -1013.9427    10890.368 
    4060    296.52814    6.0861143     78.92281   -142.17355    11.660921    10890.368 
    4070    287.81008    7.6666304    73.451941   -145.74564    1141.9751    10890.368 
    4080    297.67314    8.3805847      74.3883   -151.13494   -1005.3025    10890.368 
    4090    310.22589    8.3850391    62.307165   -158.81848    779.11166    10890.368 
4100        0.98430955065158942663 10.13423997602316895 1 72 -302.46610494835920235
    4100    300.76807    6.9514714    63.608278   -166.19317    76.925566    10890.368 
    4110    308.08433     6.379277    55.263453   -171.72474    1352.9538    10890.368 
    4120    255.14217    4.7764316    77.384665   -174.86622   -1823.0151    10890.368 
    4130    255.53038    4.5422895    61.106904   -176.08042   -563.46595    10890.368 
    4140    254.97356    5.6690994    67.056648   -175.97369   -2203.3292    10890.368 
    4150    315.89464    6.1459544    50.687395   -174.71151    2472.0921    10890.368 
    4160    309.58726    8.1832661    57.909881   -172.95586    2273.6202    10890.368 
    4170    285.33646    9.3849804    62.589422   -171.03759   -1163.6326    10890.368 
    4180    275.55498     8.740872    70.300775   -168.67001   -2032.4318    10890.368 
    4190    260.48657    7.7123367    70.499315    -166.0058   -1047.1247    10890.368 
4200        0.98742548605609636869 10.127168648648138927 1 70 -302.0092562996109109
    4200    307.88507    5.9125453    65.196523   -162.51172    945.33193    10890.368 
    4210    308.32531    7.0488028    65.197575   -158.83617    1062.2842    10890.368 
    4220     313.5629    8.1071401    69.711587   -155.41813    1371.5364    10890.368 
    4230    309.20874    8.3266028     68.52193   -152.77613    1356.0671    10890.368 
    4240    327.12104    7.0593126    66.877409   -150.69015    238.27454    10890.368 
    4250    302.26717    7.1273025     70.34311   -149.51015    1455.4078    10890.368 
    4260    314.41408    7.2301449    70.302608   -148.76792   -2422.1132    10890.368 
    4270    335.75257    7.9658761    61.526103    -148.3601   -3230.9884    10890.368 
    4280     316.4822     8.548326     69.49745   -148.58866   -992.61099    10890.368 
    4290    310.68761    11.090242    81.677078   -149.27894    2438.0192    10890.368 
4300        0.98544050119267589949 10.134157826759363275 1 70 -284.17469349367621589
    4300    294.09405    10.399826    79.412086   -150.92564   -878.89082    10890.368 
    4310    289.91202    10.473765    66.075553   -153.25996    121.21678    10890.368 
    4320    311.73086    10.477415    66.638014   -156.13572    2341.4271    10890.368 
    4330    323.82158    9.7906996     63.75504   -159.46666    2443.9422    10890.368 
    4340    305.68704    8.4419213    69.307227   -163.76802    483.84215    10890.368 
    4350    286.85536    8.3397827     69.67985    -168.9205    104.24901    10890.368 
    4360     265.9733     8.538008    69.766414   -174.05462    1017.1313    10890.368 
    4370    289.28875    9.1212351    61.039338   -178.52125   -1416.8939    10890.368 
    4380    296.09281    8.6312729    54.675313   -181.83208   -3230.2926    10890.368 
    4390    296.23136    8.1657383    52.348919   -183.66908   -1146.8819    10890.368 
4400        0.98387513800568193734 10.13663877350852438 1 67 -306.27901804931383367
    4400    269.49824    5.4537352    63.496457   -184.17391     1432.418    10890.368 
    4410    257.81055    5.7629279    66.594397   -183.45596    1195.4404    10890.368 
    4420    268.59388    5.8713874    59.405784   -181.80577   -433.68178    10890.368 
    4430    268.73022    4.2764522    66.050925   -179.61776   -2291.4224    10890.368 
    4440     281.9981    3.3511231    58.522481   -177.01658   -481.85787    10890.368 
    4450    282.78092    3.3823574    60.992488   -174.29834    1624.8118    10890.368 
    4460    291.27949    6.6911673    58.108114   -171.52901    1774.7951    10890.368 
    4470    301.08556    5.4541142    69.298321   -168.78826    1399.9991    10890.368 
    4480    310.66698    5.9616028    61.552005   -166.22479    540.52848    10890.368 
    4490    279.23955    7.5143208    73.524236   -164.28135   -2461.6462    10890.368 
4500        0.98521486356519882843 10.140839606173200238 1 71 -282.20290004974549447
    4500     265.0843    7.4456406    75.943042   -162.09768    2714.2315    10890.368 
    4510    278.00859    8.9943968    80.210746   -159.59955   -4920.0218    10890.368 
    4520    318.19033    7.8773675    73.853909   -157.18027    3672.0005    10890.368 
    4530    300.15575    9.8521787    75.723218   -155.72491   -2809.9969    10890.368 
    4540     330.0569    9.2999201    59.044977   -154.53546    4701.2189    10890.368 
    4550    280.13298    8.9725838    75.457599   -153.45618    -991.2604    10890.368 
    4560     322.2799    7.2045862    63.743119   -152.16107    3749.5461    10890.368 
    4570    297.62833    6.4598786    80.018567   -151.35364    2825.7646    10890.368 
    4580    282.28903    10.714895      67.4474   -150.81727   -4663.5736    10890.368 
    4590    310.14475    8.5856192    69.168068   -149.74691   -2522.0905    10890.368 
4600        0.98127629665554561011 10.171298278746093047 1 66 -287.06470021357881706
    4600    306.87197    8.1835802    75.611422   -148.02619   -2781.9761    10890.368 
    4610    326.14021    7.0595843    67.047279   -145.61961   -3532.1124    10890.368 
    4620    287.02099    7.3944105    84.457926   -142.72393     3017.461    10890.368 
    4630    307.85154    10.045256     78.51983   -138.87163     1153.638    10890.368 
    4640    314.41933    10.427787    83.737483    -134.4612    6171.1989    10890.368 
    4650    299.50788    10.491296    83.980772   -130.50504   -2457.9917    10890.368 
    4660    333.46544    9.1775264    71.190078   -126.72124    -2908.657    10890.368 
    4670    343.57496    8.6276255    79.651425   -123.31935   -5225.3227    10890.368 
    4680    362.56552    6.8138008    76.892121   -121.35999   -603.56197    10890.368 
    4690    307.15625    4.3878175    90.294547   -121.63958    1263.0105    10890.368 
4700        0.97527814471564677756 10.172581868954186035 1 67 -272.52500138972811783
    4700    328.74684    5.4547742    77.484996   -123.57535    4172.6448    10890.368 
    4710    328.52076    4.4363991     84.09056   -127.64659   -1748.3742    10890.368 
    4720    342.21255    4.4240134    71.646243   -133.86821   -357.72532    10890.368 
    4730    323.92917    5.3343892    69.490761   -141.47829   -3613.5791    10890.368 
    4740    297.47732    7.8426875    71.392131   -147.15341    2372.1085    10890.368 
    4750     302.0823    8.0770379    74.792382   -151.07637    630.03168    10890.368 
    4760    289.71451    7.3661809    75.738985   -153.49505    1268.9497    10890.368 
    4770     302.4082    5.4873032    65.350617   -155.17363   -1192.5087    10890.368 
    4780    308.29269    5.8899173     65.86705   -156.18809   -687.68346    10890.368 
    4790     296.6041    6.7987781    71.640852   -156.80011   -135.51147    10890.368 
4800        0.97394783934190387598 10.177529435999311147 1 65 -289.9121933516506715
    4800    293.45215    5.2887164    65.301568   -156.95397    1777.0962    10890.368 
    4810     296.3079    5.3967562    73.800214   -156.61868   -2509.0337    10890.368 
    4820    315.05142    7.1346666      69.0309   -156.20648   -1660.2806    10890.368 
    4830    296.55896    8.2529856    72.046585   -156.04013    696.13967    10890.368 
    4840    316.97722    8.2128224    65.003241   -155.92621     3135.909    10890.368 
    4850    298.46891    10.583805    72.689238   -155.76246     316.7404    10890.368 
    4860    322.64715    11.531744    64.648129   -155.56487    490.82206    10890.368 
    4870    308.64642    10.300789    68.938068   -155.67611    1176.7718    10890.368 
    4880    320.03756    7.5527188    67.307469   -156.03561   -2699.5533    10890.368 
    4890     302.3808     6.484283    62.156828   -156.57899   -1753.9491    10890.368 
4900        0.97975772597545141007 10.153811655456260965 0.99735449735449732689 70 -286.09184090754536101
    4900    284.83774    5.5636463    72.147516   -157.03667    776.72264    10890.368 
    4910     275.4426    4.8549031    69.688415   -157.04639    3323.3756    10890.368 
    4920    294.18902    4.1368873    70.294252   -156.30048    1019.7784    10890.368 
    4930    293.28505    4.6403675    70.116567   -154.47847   -4697.9754    10890.368 
    4940    307.88003    4.3533787     68.39172   -151.66067   -4153.0072    10890.368 
    4950     308.2767    5.2851947     65.84356   -148.17843   -1828.3961    10890.368 
    4960    293.27637    7.2876581    77.678505   -144.42989    2845.7924    10890.368 
    4970    310.45168    9.8536935    72.465534   -140.41911    2444.7502    10890.368 
    4980    327.63269    12.816618      68.4865   -136.39679    1227.8258    10890.368 
    4990    340.93123    11.593483    69.680618    -133.1954    2143.7668    10890.368 
5000        0.98427329224414950026 10.125826991462442805 1 66 -287.16612460458918576
    5000    344.20708    11.907988    77.437473    -131.2117    3708.2501    10890.368 
    5010    326.51237    9.1083388    76.140652   -130.83193   -898.97602    10890.368 
    5020    334.17384    9.1326595    71.425563   -131.79743    -1190.693    10890.368 
    5030    321.84567    8.7191039     83.78791   -133.83207   -3399.2555    10890.368 
    5040    330.72666    9.2687177    73.194997   -136.68487    620.41156    10890.368 
    5050    315.00193    9.3563274    81.789763   -140.52353    1082.8084    10890.368 
    5060    314.86015    7.7862764    77.501685   -145.28889   -2328.1203    10890.368 
    5070    307.79959    8.7153036    75.173688   -150.63583   -328.62891    10890.368 
    5080    302.79013    6.9616066    74.387431   -155.73992    4801.4492    10890.368 
    5090     309.2253    6.9658526    69.106694   -159.38629    3384.1753    10890.368 
5100        0.98508306444113602485 10.134145658661461553 1 70 -298.61097015468658356
    5100     302.3371    5.2701589    66.853685   -161.62713   -1727.3673    10890.368 
    5110    313.54418     5.093559    63.258669   -162.96082   -1759.3651    10890.368 
    5120    288.61709      6.34979    76.034415   -163.89855     4.039379    10890.368 
    5130    270.63596    6.2969881    70.129203   -164.58102   -2030.1044    10890.368 
    5140    266.81194    8.3951746    71.346435   -164.64327   -576.84724    10890.368 
    5150    287.20146    6.6580997    65.529998   -163.94577   -26.131584    10890.368 
    5160    299.69306     4.555099     66.57231   -162.58881   -2534.4248    10890.368 
    5170    318.19089    5.3257857    58.397892   -160.71542    1630.5302    10890.368 
    5180     281.4758    7.1258754    70.185522   -158.78916    1538.3471    10890.368 
    5190    291.12591    7.2798848     71.71688   -156.13377    885.28872    10890.368 
5200        0.98604164700040553004 10.131255611822544083 1 69 -284.55749572112478063
    5200    289.80808    7.0928797    77.048699   -153.25035    850.54053    10890.368 
    5210    322.09506    7.3887428     66.26065   -150.30363    270.10517    10890.368 
    5220    306.09736    7.7781894    69.795494   -147.48404   -2536.3299    10890.368 
    5230    305.89078    9.0423661    70.676038   -144.75992   -1448.2733    10890.368 
    5240     304.2961    9.3242059     72.89971   -141.99022   -15.189875    10890.368 
    5250    329.50599    7.4539198    73.657747   -139.41772    5213.7668    10890.368 
    5260     328.4329    6.5051416    80.476902   -137.31409    2087.8751    10890.368 
    5270       339.97    6.5832346    76.003236   -136.70106   -3757.0597    10890.368 
    5280     330.0871     6.958068    70.848755   -137.81998   -2763.6126    10890.368 
    5290    325.05118    7.4944628    70.455055   -140.15495    1036.2581    10890.368 
5300        0.98471947425449035673 10.148272136707632285 1 68 -274.80024982928262034
    5300    290.86294    7.8346869    77.149989   -143.01516   -1205.4706    10890.368 
    5310    333.52296    10.618966    56.226218   -146.28792    2798.0031    10890.368 
    5320    306.57023    8.6904309    74.536638   -150.32402    -932.8093    10890.368 
    5330    319.45966    8.8969202    59.362997    -154.9804    1498.0037    10890.368 
    5340    286.20634    7.8708854    67.331307   -159.69773   -1324.1719    10890.368 
    5350    297.89018    4.8057806     67.52588   -163.97628    1624.5824    10890.368 
    5360    266.45931     2.696117    75.556083   -167.44051   -383.45676    10890.368 
    5370    296.23864    3.8694748    61.936308   -169.47018   -3591.5409    10890.368 
    5380    298.21644    4.5449748    68.272625   -170.87576    -9.262539    10890.368 
    5390    306.39173    5.6316628    59.754942   -171.71702    3233.3084    10890.368 
5400        0.98392139228427022424 10.13916925214928888 1 67 -295.39462193300016679
    5400     272.0406    5.4580015    68.523594   -172.13762    1005.0876    10890.368 
    5410    291.71481        9.083    61.959381   -171.87544   -402.73192    10890.368 
    5420     291.4905    9.5347756    62.400568    -171.1929   -2022.9193    10890.368 
    5430    277.20491    8.9965629    65.407743   -170.10576   -915.01046    10890.368 
    5440    287.56669    7.0505838     55.44347   -168.00089   -3284.8995    10890.368 
    5450    288.33044    6.6620294    69.241151   -165.27153    471.58474    10890.368 
    5460     277.2299    7.9275082     64.99104   -162.16433    3281.5208    10890.368 
    5470     299.9753    7.4720667    58.518375   -158.63946    3156.1254    10890.368 
    5480    293.55683    9.3363413    71.409599   -154.85443    25.904422    10890.368 
    5490    320.02901    8.9368392    60.382584   -150.91497   -2616.4475    10890.368 
5500        0.98073352127709778614 10.164904347517603966 1 66 -305.5675734244157411
    5500    349.19434    6.7163633    63.658684   -147.35351   -2130.9514    10890.368 
    5510    330.51181    6.6754826    68.986451   -145.14086    -3482.862    10890.368 
    5520    305.80499    6.0718766    71.919535   -144.36033    2302.4644    10890.368 
    5530    300.62123    7.1856189    77.302574   -144.15554    2430.9222    10890.368 
    5540    322.80257    10.424889    63.530095   -144.17591    3026.0511    10890.368 
    5550    324.53431     12.01311    68.102328   -144.32634   -457.73115    10890.368 
    5560    328.00724    11.871704    68.274855   -144.67982    3188.7958    10890.368 
    5570    327.37679    10.034788    74.579994   -146.20035   -497.38809    10890.368 
    5580     309.1434    7.9028912    64.097701   -148.98482   -2349.2589    10890.368 
    5590    304.73422    5.8646252    69.173106   -152.16113   -4346.7177    10890.368 
5600        0.98157389033770270359 10.139166838731089371 1 66 -302.77456886208267406
    5600     324.3927     7.028799    58.385505   -155.79771   -1257.7649    10890.368 
    5610     288.9486     7.396443    67.428789   -159.76561   -1245.6258    10890.368 
    5620    300.26864    10.052629    62.713536   -163.39862    3130.1638    10890.368 
    5630    282.60776    15.149334    63.982966   -166.43207    4134.2915    10890.368 
    5640     278.7615    11.679254    68.545604   -168.79363    2670.8652    10890.368 
    5650    278.25189    7.8019274     65.85495    -170.4647    1781.4683    10890.368 
    5660    291.56088       5.5467    61.620025   -171.43199   -739.97378    10890.368 
    5670    299.55331    5.8377959    63.129262   -171.92258   -1152.7139    10890.368 
    5680    268.18861    5.7282352    66.519396   -171.93227   -3763.3775    10890.368 
    5690    282.58617    5.9788802    62.038944   -170.87447   -1280.7874    10890.368 
5700        0.98025767105468397666 10.150090825549380469 1 68 -290.09417939163751043
    5700    268.71815    6.9140673    66.717276   -168.34252   -4150.0305    10890.368 
    5710    289.50955    6.4503654    62.389732   -163.55318    2044.7249    10890.368 
    5720    302.88905    6.8965329    70.927051   -155.39817    2002.5121    10890.368 
    5730    312.73999    6.4121702     70.52952    -146.6031    4047.7365    10890.368 
    5740    315.46019      3.33139    70.865139   -140.70045    456.57005    10890.368 
    5750    302.04113    4.0643084    71.606249   -137.87571    397.14208    10890.368 
    5760    318.86049     5.795556    70.649498   -136.34965   -845.24272    10890.368 
    5770    305.71299    8.3818893    72.770478   -135.44114    -1827.256    10890.368 
    5780    331.98408    6.9459622    66.533569   -134.84497   -741.48327    10890.368 
    5790    312.22136    7.3490868    80.388776   -134.89909      462.403    10890.368 
5800        0.97716448668981936709 10.169010386092907083 1 67 -284.26277678450117037
    5800     328.0591    7.2103476    70.028921   -135.62474    219.40941    10890.368 
    5810    328.78977    8.1753259    75.529567   -137.22727    1210.9989    10890.368 
    5820    319.75112    9.8237413    70.641994    -139.7371   -1395.5356    10890.368 
    5830      304.393    10.127753    74.359488   -143.22284   -3060.5717    10890.368 
    5840    312.03617    7.1787897    77.067956    -147.0918   -404.89889    10890.368 
    5850    328.09659    3.9488352    65.148793   -151.55123    1911.8519    10890.368 
    5860    304.76003    3.8839447    60.472489   -155.56489    1428.9403    10890.368 
    5870    309.47296    3.4410237    60.816855   -158.74323   -1778.6574    10890.368 
    5880    296.05776    4.3172821    69.895922   -161.14718   -952.20321    10890.368 
    5890    319.87644    6.9870039     61.37286   -162.94539    2056.0821    10890.368 
5900        0.98431110062225635193 10.135546854709787112 1 68 -299.70775731116577845
    5900    298.01216    7.7564669    67.058175   -164.68348    2099.7586    10890.368 
    5910    292.92011    8.2740371    65.283193   -166.07696    407.25324    10890.368 
    5920    285.25199    6.8991894    71.287034   -167.21604   -1.5489726    10890.368 
    5930    286.39344    6.1242524    70.754655   -168.05928    137.42846    10890.368 
    5940    297.29753    5.0032814    67.575278   -168.53976   -1809.4839    10890.368 
    5950    278.18512    5.6997142    71.712872   -168.86535    390.44452    10890.368 
    5960    286.97491    7.0024711     65.60104   -168.90064   -1718.5278    10890.368 
    5970    300.10166      8.94575    60.173558    -168.3794    1730.2624    10890.368 
    5980    299.83163    7.9592633    65.241698   -167.00716   -1605.7827    10890.368 
    5990    280.65279    7.9854561    62.646326   -164.51662      1657.81    10890.368 
6000        0.98104433917818278932 10.157781205549348158 1 67 -297.23589097152478189
    6000    302.08773    6.3726138     68.37404   -160.36504    1071.0582    10890.368 
    6010    303.67763    6.3707147    71.521306   -154.93265    -470.7073    10890.368 
    6020    325.08187    4.8428531    67.344808   -149.31632    163.79743    10890.368 
    6030    296.10788    7.1617966    77.837686   -144.39704    506.17581    10890.368 
    6040    333.75011    6.5046811    61.052144   -140.46499   -2933.1857    10890.368 
    6050    328.39502    7.5883845    70.612469   -137.62728   -1758.1566    10890.368 
    6060    356.11488    6.2947577    76.371813   -136.01437    1947.5526    10890.368 
    6070    334.93821    6.8326104    68.610279   -135.84724   -846.08254    10890.368 
    6080    318.31461    6.7106845    71.394062   -136.83236   -1946.8214    10890.368 
    6090      299.906    7.0177444    75.301296   -138.16605    -2770.944    10890.368 
6100        0.9794837012937430698 10.168707254865473999 1 66 -287.91628535729284977
    6100    327.74096     6.239972    73.696085   -139.42239    358.02773    10890.368 
    6110    330.07971    6.4359295    67.152013   -141.22597   -1585.0272    10890.368 
    6120    313.34977    6.5969359    65.088686   -143.39587    3096.6136    10890.368 
    6130    282.76502     5.721288     76.36094   -145.40794     4126.495    10890.368 
    6140    289.31714    6.6758956      74.1459   -146.98364    4037.7633    10890.368 
    6150    300.98514    8.1336342    70.156692   -148.34341   -1855.3812    10890.368 
    6160     303.8464    7.3615388    63.432503   -149.56357   -906.78165    10890.368 
    6170    320.61486    6.5726941    61.064067   -150.44727    -1303.035    10890.368 
    6180    298.49772    5.4552442     66.23977   -150.88619    453.52021    10890.368 
    6190    307.52683    3.5177744    68.813512   -150.92935   -1903.5005    10890.368 
6200        0.9829769203761241636 10.147097542299549744 1 63 -286.51579848072225332
    6200    298.97005    6.1939084    72.708319   -151.05752   -456.70664    10890.368 
    6210    299.05742    7.5085069    76.446302   -151.59392   -1420.8191    10890.368 
    6220    306.82631    8.6935901    67.002844   -152.48804    260.24436    10890.368 
    6230    309.49268    8.7934438    70.061585   -153.48304    4205.2038    10890.368 
    6240    318.79636    7.8913414    62.191995   -154.73296    3108.8842    10890.368 
    6250     308.9968    7.4287252    63.606832   -156.44978   -3036.0297    10890.368 
    6260    306.99593    5.5378092     64.90357    -159.2402   -3384.3546    10890.368 
    6270    299.51563    6.8158986    68.156464   -164.23829   -3682.1129    10890.368 
    6280    292.61873    7.9990966    65.345458   -172.57265    -1621.022    10890.368 
    6290    282.24075    5.7677576    61.980744   -181.65669    1450.7271    10890.368 
6300        0.98378440671544986618 10.139322214015029644 1 66 -318.20329622280854664
    6300    288.45868    7.3876034    54.619554   -187.50753    1321.8414    10890.368 
    6310    282.83029    8.3415863    58.044334   -190.67131    3606.7878    10890.368 
    6320    267.74933     7.465734    60.749172    -192.0521    340.30912    10890.368 
    6330    240.33014    7.2038965    64.773915   -192.02822   -779.27824    10890.368 
    6340    263.00169    7.7421747    56.296698   -190.59127    166.75337    10890.368 
    6350    290.83479    9.0219371    57.198734   -187.83077    2244.2209    10890.368 
    6360    292.46651    7.1400533     54.62632   -184.18743    2207.2721    10890.368 
    6370    282.56227    9.6288698    65.770349   -180.23354   -3734.2707    10890.368 
    6380    267.47471    11.261569    67.551668   -176.21588    -546.4763    10890.368 
    6390    275.47826    10.537457    68.502242   -172.15472     -671.597    10890.368 
6400        0.98475036698515872047 10.141823318142895616 1 70 -289.0531432107678711
    6400    267.16943    9.9016672    70.949651   -168.00318    712.98661    10890.368 
    6410    305.57853    11.244153    64.387373   -164.07186    678.40216    10890.368 
    6420    292.40876    8.9620761    72.527854   -160.66447    1692.2593    10890.368 
    6430    311.43911    6.6830573    61.041153    -157.7472   -1118.5714    10890.368 
    6440    289.22476    7.5638096    71.459523    -155.1666   -2181.6198    10890.368 
    6450    319.08547    8.3804862    69.930033   -152.92168    1493.8833    10890.368 
    6460    295.66132     10.75026    68.711656   -151.71116    723.17092    10890.368 
    6470    298.70413    9.8620979    61.175864   -150.48073   -1155.9082    10890.368 
    6480    306.72059    8.2099548    69.685304   -148.58086    612.12201    10890.368 
    6490    322.90383    7.2819489     68.05794   -146.37059    1039.0889    10890.368 
6500        0.98447215608421168032 10.140497196785837275 1 68 -289.40964935637492772
    6500    320.23383    7.3025727    70.401902    -144.3171   -517.86325    10890.368 
    6510    313.51111    7.5971076    66.986959   -143.05404   -1711.6025    10890.368 
    6520    322.62319    6.4066744    69.033752   -142.16579   -1589.1058    10890.368 
    6530    322.64999    7.4774416    67.350132   -141.54655   -2366.6746    10890.368 
    6540     316.0645    8.2110832    63.843722   -141.10381   -564.23626    10890.368 
    6550    294.35022     11.04923    73.254579   -140.75114    719.28082    10890.368 
    6560    308.35236    11.295672    71.841896   -140.49642    5931.9532    10890.368 
    6570     319.8235    9.5131715    77.563847   -140.99785    3310.5217    10890.368 
    6580    318.27565    4.6461354    70.099948   -143.12781    903.67671    10890.368 
    6590    266.40344    4.5914581    88.890006   -146.84395    -5022.821    10890.368 
6600        0.97969291674205227771 10.142243102813349509 1 68 -276.09325542919418695
    6600    275.54513    3.4651474    71.089288    -151.2484   -2977.4608    10890.368 
    6610    283.61923     3.767737    71.214972   -155.95112   -625.98471    10890.368 
    6620    291.74691    5.3365074    65.377935    -160.1361     1056.875    10890.368 
    6630    279.07284    7.3430992    69.341965   -163.31293    1951.1952    10890.368 
    6640      271.682    5.3198721     70.54373   -165.57619    1406.8725    10890.368 
    6650    264.90197    7.7789838    73.147607   -167.20293    1095.6217    10890.368 
    6660    261.71779      5.83428     72.04454   -168.27157   -888.48514    10890.368 
    6670    284.45068    4.7072152    63.706068   -168.90396    -2865.984    10890.368 
    6680    278.90047    3.7165449    71.018821   -169.09317   -679.28224    10890.368 
    6690    278.74194    7.2590886    65.364804   -168.97134   -2037.9366    10890.368 
6700        0.97998718313069810293 10.141444208185069087 1 70 -292.13280133517866943
    6700    272.95941    9.7299209    68.942929    -168.4595    255.93601    10890.368 
    6710     267.8989    12.569926    73.141689   -167.30204   -1397.4871    10890.368 
    6720    282.19714    14.078211     66.81574   -165.30539    1862.9504    10890.368 
    6730    288.06309    17.290191    67.099368   -161.82421    278.36266    10890.368 
    6740    307.15065    13.409899     66.69865   -156.80041    2732.6186    10890.368 
    6750    300.30225    10.324282    80.530004   -150.87293   -2522.3346    10890.368 
    6760    304.70269     8.310256    70.727576   -144.59931    696.59416    10890.368 
    6770    293.72038    8.2559994    82.042199   -139.96922   -1094.5865    10890.368 
    6780    297.02569    7.4619351    74.747051   -136.75472    1820.2335    10890.368 
    6790    327.71853    9.6536308    71.856428   -134.54281   -1188.1459    10890.368 
6800        0.98424176679281383251 10.129176642542281783 1 71 -280.31185154686465921
    6800     324.6692    8.2678716    70.752182   -133.20971   -1502.4403    10890.368 
    6810    312.55393    9.1816223    66.668068   -132.84838   -459.04272    10890.368 
    6820    292.87986    9.1384099     78.19035   -132.88276    2007.9856    10890.368 
    6830    302.34079    12.052192    72.866629   -133.16845    381.51076    10890.368 
    6840    316.76202    9.9079513    69.126076   -133.74834    3461.1198    10890.368 
    6850    326.14534    7.5203493     69.68898   -134.79013    2071.4368    10890.368 
    6860    327.56067    6.1628719    69.144438   -136.36435    3224.2413    10890.368 
    6870      315.859    6.7243331    74.960619   -138.69449   -1277.9222    10890.368 
    6880     290.5285     5.328173    77.699478   -141.86069   -2733.0764    10890.368 
    6890    293.73359     6.007002    69.428059   -144.93202   -6478.7697    10890.368 
6900        0.99208942129875099525 10.096413174729686801 1 67 -298.70905774398886479
    6900    332.80367    7.2743715    65.747612   -147.92133    109.27181    10890.368 
    6910    336.54155    9.0863502    64.510327   -151.34383    2870.9492    10890.368 
    6920    323.31594    9.9689656    57.668393   -154.98005    3424.2601    10890.368 
    6930    284.74143    9.8112526    72.972341   -158.11669   -63.414878    10890.368 
    6940    299.93763    9.2556933    60.971351   -160.40057    897.85848    10890.368 
    6950    272.41053     7.994568    77.598038   -162.01505   -3663.5725    10890.368 
    6960    297.76179    8.8228629    64.912285   -163.11228    1042.5931    10890.368 
    6970    260.03094    9.3913618    72.559208    -163.6053   -1382.5138    10890.368 
    6980    301.10505    7.6320469    62.758439   -163.36621    3575.4131    10890.368 
    6990    297.68619    9.1894274    62.476763   -162.79049   -3607.8366    10890.368 
7000        0.99031659203745825426 10.123868924100971611 1 72 -295.13918766044037056
    7000    293.61789     11.37802    62.464018   -162.10588   -75.451365    10890.368 
    7010      286.132    13.304669    59.122281   -161.24887   -3482.0165    10890.368 
    7020    285.86751    13.324873    64.164313   -160.04407    3531.0003    10890.368 
    7030    298.20776     14.08958    66.141983   -158.34909    1953.0499    10890.368 
    7040    302.51068    12.443241    62.696071     -156.232    204.93468    10890.368 
    7050    278.04081    9.3307579    82.605608   -154.31969   -1261.6495    10890.368 
    7060    307.77225       8.6446    60.069236   -152.48421    2434.2302    10890.368 
    7070    273.28077    9.1158818    78.233778   -150.66901   -861.12438    10890.368 
    7080     313.2613    5.9680906    57.207577   -148.37858    2219.5437    10890.368 
    7090    317.84532    3.9247659    62.274626   -145.82741   -4148.7837    10890.368 
7100        0.98656629729910216842 10.134657395318782847 1 72 -295.30966942707323142
    7100    335.16463    6.5693833    57.013978   -143.45223   -109.53646    10890.368 
    7110    303.10449    7.3045029    65.267083   -141.05892   -1895.1577    10890.368 
    7120    303.93335    5.0297797    71.242344   -138.02687    734.64115    10890.368 
    7130    305.67797     6.763396    83.984916   -134.41735   -525.18988    10890.368 
    7140    337.58094    8.3361023    71.622442   -130.75553   -1366.2908    10890.368 
    7150    337.00864    10.145347    76.339916   -127.34785   -153.84775    10890.368 
    7160      366.106    9.0560742    66.332034   -124.34504    1808.5101    10890.368 
    7170    340.09556     8.522395    77.131261   -122.47347    903.22034    10890.368 
    7180    329.69281    7.1483311    73.774803   -122.51994    5123.8684    10890.368 
    7190    311.41297    6.6550994    80.958989   -124.79423    1994.8098    10890.368 
7200        0.98065843902367533236 10.150835856035728355 1 71 -266.48204115671467207
    7200    304.77679    8.8907324    72.804089   -128.39282   -397.23265    10890.368 
    7210    337.28206    11.879498    53.614764   -133.13471   -3754.4506    10890.368 
    7220    290.19024    9.8668022    73.037544   -137.89333   -3631.3581    10890.368 
    7230    303.20311    11.338572    66.875899   -142.26116     982.6245    10890.368 
    7240    271.88156     10.17397    74.560647   -145.99871    2608.2883    10890.368 
    7250     289.1139    6.4418033    69.618988   -149.12712   -409.38277    10890.368 
    7260    295.29436    3.5442239    64.540483   -151.80885   -872.60934    10890.368 
    7270    272.54177    3.5903219     74.92047   -154.14374   -2778.5555    10890.368 
    7280    291.77315    5.5362511    59.203841    -155.8893   -771.48858    10890.368 
    7290    282.23439    6.6759662    66.831018   -157.14517   -1928.6582    10890.368 
7300        0.97373133416935198081 10.181628603938975175 1 71 -293.35143675012170661
    7300    297.98042    7.2984475    65.934746   -158.34154    772.73177    10890.368 
    7310    270.45767    8.2662025    73.704206   -159.41499    2500.9198    10890.368 
    7320    288.35112    8.9236157    68.467908   -160.28477    4035.6467    10890.368 
    7330    281.36751    8.6468939    72.150976   -161.22353   -1666.5485    10890.368 
    7340    280.49206      7.01069    68.772997   -162.44686   -3217.4518    10890.368 
    7350    289.46206    7.0095918    62.488669     -163.937   -2606.2497    10890.368 
    7360    252.88415    5.8044613    75.978539   -165.23881    2148.5248    10890.368 
    7370    275.29602    6.4502388    60.604953   -165.91949    1822.8498    10890.368 
    7380    249.92195    8.5565264     64.01347   -165.85568   -751.89208    10890.368 
    7390     276.7643    9.7755355    55.033621   -164.37409   -2073.6696    10890.368 
7400        0.97309873341676400571 10.178686325585239558 1 72 -290.34137889976233282
    7400    285.97973    6.9760222    60.547905   -160.76879   -833.33936    10890.368 
    7410     306.0238    6.6419047    64.002356   -155.17926    3959.4326    10890.368 
    7420    292.15616     5.816143    77.752019   -149.12872    2269.5164    10890.368 
    7430    309.81765    4.4709053     64.69015   -143.98991   -1550.8103    10890.368 
    7440    315.70882    5.2908564    67.281863   -140.26608   -2348.2872    10890.368 
    7450     336.4418    5.1031763    61.964272   -137.72162    585.51117    10890.368 
    7460    300.47849    5.7667768    73.951814   -135.80324    1276.5277    10890.368 
    7470    326.55829    8.0273228     70.78089   -134.33466   -438.56893    10890.368 
    7480    308.00432    10.170684    70.231064   -133.77535   -2319.1512    10890.368 
    7490    306.95757     8.549925    71.708894   -134.02259   -550.62015    10890.368 
7500        0.97686561887181044828 10.17492272187104696 1 66 -270.03259439229316285
    7500    299.04388    5.6467022    72.371649   -134.54086    144.48854    10890.368 
    7510    312.27777    6.6244136    66.600859   -135.40889   -421.34986    10890.368 
    7520     293.5273    6.1058701    72.845861   -136.69838   -1053.3634    10890.368 
    7530    299.95907    6.1741246    73.903469   -138.45881    1384.1669    10890.368 
    7540    276.66455    6.7886217     74.68921   -140.98555    543.04942    10890.368 
    7550    296.24736    8.0430208    66.170983   -143.85262    638.54491    10890.368 
    7560    286.18829    10.352236    68.573493   -147.01348     3354.507    10890.368 
    7570    304.82461    9.9766356     61.13547   -150.53959   -1307.8471    10890.368 
    7580    307.14392     8.787697    60.809557    -155.2539   -2047.9101    10890.368 
    7590    299.08339     8.060453    63.604882   -160.59203   -601.76844    10890.368 
7600        0.97920437149157057988 10.160884714296912534 1 70 -292.10162075173468565
    7600    277.83633    7.0833667    64.995052   -166.21867   -105.21859    10890.368 
    7610    247.52443    6.9594637    66.970742   -169.88856    3483.5702    10890.368 
    7620    264.66651    6.6848084    61.384703   -171.70279   -3454.4816    10890.368 
    7630    276.40198    5.9984201    59.854676   -172.29725   -469.83771    10890.368 
    7640    287.77782    6.7668391    55.372659   -172.12536   -256.86255    10890.368 
    7650    266.81056    8.3741341    59.925692   -171.38369     1812.588    10890.368 
    7660    286.56934    5.9806024    58.230859   -169.87091    961.34928    10890.368 
    7670    272.19367    6.2823025     60.98422   -167.77917   -3365.6673    10890.368 
    7680    302.74413    3.8015887    54.615718   -165.47916    -56.19891    10890.368 
    7690    272.13783    7.0742656    65.499031   -163.07696    2909.4927    10890.368 
7700        0.97545606332627077251 10.175171200944571837 0.99735449735449732689 71 -289.82707142324181859
    7700    285.60462    9.0071618    60.644795   -160.42444   -157.49163    10890.368 
    7710    295.19849    8.7642512    71.933987   -157.51514   -421.37949    10890.368 
    7720    301.81745     7.221993    63.836844   -155.07573   -5372.8299    10890.368 
    7730    295.62009    7.0136574    62.725507   -153.00227   -1593.9873    10890.368 
    7740    288.74051    7.9597962    64.121922   -151.13089    2786.2289    10890.368 
    7750    312.11296    14.427557    59.790693   -148.90968    2661.3409    10890.368 
    7760    320.28491    14.084597    60.744148   -147.02407    1327.2375    10890.368 
    7770    334.11782    9.3528755    61.801665   -145.35597   -588.25461    10890.368 
    7780    309.66965     6.803327     63.79644   -144.37356    2179.4975    10890.368 
    7790    288.84011    5.5335609     67.18559   -143.66882    4.5939858    10890.368 
7800        0.97695949896797129597 10.162059256028232568 1 70 -260.79347097867020011
    7800    260.42611    4.9325763     80.11793    -142.7988    812.41441    10890.368 
    7810    297.09869    4.4995101      65.5387   -141.43706    2251.2232    10890.368 
    7820    312.04765    5.4459842     77.01598   -140.12639    1631.9185    10890.368 
    7830    339.90068    9.5283582     67.06115   -139.44454   -1206.4934    10890.368 
    7840    287.58894    14.206135    74.766385   -140.03271   -5958.9616    10890.368 
    7850    295.19722    12.653411    69.741152   -141.25318    -2160.148    10890.368 
    7860    295.69856    8.5773856    69.082504   -142.99288   -1493.4213    10890.368 
    7870     314.5019    7.6370801    58.471884   -145.53469    2374.5096    10890.368 
    7880    285.58054    7.0236274    71.675321   -149.40596    3485.5251    10890.368 
    7890    291.24877    8.5001308     65.56562   -154.50192    4338.8384    10890.368 
7900        0.97485787020213354737 10.175946348682128217 1 67 -287.03546517730410415
    7900    280.05779     7.890011    65.641941   -160.14601    182.12951    10890.368 
    7910    267.29792    10.204671    69.837854   -165.12572   -1565.1859    10890.368 
    7920    279.03131    8.7406704    63.373947   -169.03263    -400.9498    10890.368 
    7930    261.72736     8.165854    64.708428   -171.62161   -1260.9911    10890.368 
    7940    308.62626     5.115799    48.830709   -173.25243   -318.57429    10890.368 
    7950    263.08794    6.4550541    60.142643   -174.09975   -527.24395    10890.368 
    7960    301.72577    7.6917249     50.03881   -173.81609   -3604.0914    10890.368 
    7970    266.88308    8.8462669    65.251603   -172.70988    4900.8333    10890.368 
    7980    293.83174    9.2775836    58.095494   -170.85275    2924.1872    10890.368 
    7990    270.68989    8.4486988    57.221961    -168.2988    185.51796    10890.368 
8000        0.9650129070990903779 10.215057186392519029 1 67 -288.49454902215632046
    8000    272.58008    7.1326295    59.424838   -164.99311   -4297.4972    10890.368 
    8010    258.39723    5.0832988    62.174818   -160.85266    -834.9037    10890.368 
    8020     271.9327    3.2492085    71.357544   -156.45519    2582.7417    10890.368 
    8030    298.53352    4.0203794     64.96839   -152.06259   -2638.6673    10890.368 
    8040     315.5085    5.1203827    63.246464   -148.86283   -4609.4759    10890.368 
    8050    312.66428    7.5633813    61.682537   -146.94656   -2698.8828    10890.368 
    8060    325.21524    11.706375    56.907948   -145.69435    2541.2009    10890.368 
    8070    328.53022    10.456552    63.688181   -144.92112     4702.102    10890.368 
    8080    340.00156      8.48345    57.585182   -145.07525   -1447.6066    10890.368 
    8090    296.64211    8.9647097    63.707738   -146.07592    1318.0706    10890.368 
8100        0.96363471616086682214 10.21280057482746173 1 68 -290.95324200250968261
    8100    317.79382    6.7276474     56.09251   -146.96623    1315.1577    10890.368 
    8110    310.93835    5.1568346    63.902532    -147.9082    4899.1212    10890.368 
    8120    315.07951    4.0851449    67.585935   -149.18836   -2391.4493    10890.368 
    8130    270.65834    6.3681168    70.115781   -150.98082   -8106.2198    10890.368 
    8140    275.14556    7.0995591    68.575894    -152.0922   -2696.7793    10890.368 
    8150    297.09031    6.7149954    59.556145   -152.47042    3178.0595    10890.368 
    8160    293.88949    6.2081445    65.443651   -152.26535    4193.1722    10890.368 
    8170    321.13853    3.9353254    51.618004   -151.54013   -153.51757    10890.368 
    8180    302.59479    7.8392121    60.479665   -150.61538   -5262.6358    10890.368 
    8190    331.28453    10.621416    56.258796   -149.30033    1463.3726    10890.368 
8200        0.96836964066788100425 10.202421611718145655 0.99735449735449732689 67 -293.08963833429254464
    8200    319.56927    10.133849    68.359739   -148.29819    73.867735    10890.368 
    8210    347.87667    8.5503465    57.441215   -147.82548   -6.7747212    10890.368 
    8220    291.15829    6.3081196    75.070157   -148.58173   -3072.5632    10890.368 
    8230    304.83242    6.9634393    51.704202   -149.70479    -1309.189    10890.368 
    8240    286.77784    8.5790477      67.9399   -150.85501    5522.7114    10890.368 
    8250    325.85191    7.5380435    53.872331   -151.83302    3059.0713    10890.368 
    8260    309.69541    9.7563173    58.459501   -152.97736   -841.15299    10890.368 
    8270    317.89464    8.3915536    52.530183   -154.21751   -664.13451    10890.368 
    8280    293.17051    10.558379    60.729135   -155.43124   -2124.0589    10890.368 
    8290    295.21814    9.4354056    66.677464   -156.47401    5340.0776    10890.368 
8300        0.9826434391579368377 10.1630152061376684 1 70 -288.72009643884041452
    8300    289.68902    6.1036107    61.116572   -157.46689   -1681.0039    10890.368 
    8310    288.45141    5.2545672    66.146121   -158.40416   -1227.6691    10890.368 
    8320    289.70217    7.2899885    57.124808   -159.17183   -4880.2792    10890.368 
    8330    269.66287    6.9677508    64.619663   -159.40569   -461.25263    10890.368 
    8340    284.65495     6.574854    69.067953   -158.89481    3127.5468    10890.368 
    8350    300.37658    7.6006206    61.315876   -157.77481    -211.4111    10890.368 
    8360    328.63683    7.7034237    60.837392   -156.16947   -2901.6464    10890.368 
    8370    311.62248    10.267654    61.250548   -154.58804    1500.2543    10890.368 
    8380    292.34753    7.8362404    70.062118   -152.93983    2292.9104    10890.368 
    8390    316.27546    7.0250988    59.843067    -151.0311    3408.0042    10890.368 
8400        0.99054848960346697506 10.112161360692461187 1 70 -288.36025688851572113
    8400    306.90823    7.0449004    66.110511   -149.30532   -2744.5665    10890.368 
    8410    322.01793    7.7806765    60.371896   -147.45933   -2617.0559    10890.368 
    8420    293.28426    9.6128063    75.449483   -145.67917    390.97278    10890.368 
    8430    300.31692    11.712102    73.690966   -143.98952    2503.1776    10890.368 
    8440     318.6757    12.304585    64.005199    -142.0843       3646.6    10890.368 
    8450    318.35685    10.717451    63.147306   -140.16294   -4232.1486    10890.368 
    8460    337.25512       10.414    65.055262   -138.10065   -2186.6388    10890.368 
    8470     316.5442    10.272512    69.009061   -136.74047    -616.5165    10890.368 
    8480    342.95113    8.4466521    64.276012   -136.07881    1271.0689    10890.368 
    8490    324.50551    5.7399748    66.851412   -136.28938   -3820.0948    10890.368 
8500        0.99120498771420406658 10.070809026991971891 1 71 -284.08599845256861727
    8500    323.66618    7.6352155    62.527578   -137.43831    2019.8842    10890.368 
    8510    309.93371    5.9578223    68.679123   -139.42061    1197.1409    10890.368 
    8520    311.36382    6.1993185    69.261067   -142.52839    3445.0129    10890.368 
    8530    302.88413    6.4043495     64.81644   -146.17867   -1300.7823    10890.368 
    8540    303.40686     6.323281     61.95414   -150.35886    1806.5887    10890.368 
    8550    291.94811    7.9944572    66.249945   -154.28946   -2033.0257    10890.368 
    8560    290.11128    7.9470398    64.648218   -157.80281    3651.2618    10890.368 
    8570    273.69526    8.9212857    68.290432   -160.48083    999.49358    10890.368 
    8580    281.03503    8.2780093    59.519132   -162.02625    1576.3343    10890.368 
    8590     270.5499     6.797807    70.690439   -163.00602    -1364.934    10890.368 
8600        0.98736157883234709765 10.085404213216841995 1 71 -285.66663107829538149
    8600    269.99305    8.5926137    67.358101   -163.33734   -633.76305    10890.368 
    8610    282.78721    10.404127    65.224945   -162.93222   -223.27961    10890.368 
    8620    274.10674    8.3423663    62.912106   -161.92883    211.45211    10890.368 
    8630     307.9193    6.2267759    64.189259   -160.25446   -3081.4006    10890.368 
    8640    302.41804    5.5986456    68.708619   -158.54966    1815.9935    10890.368 
    8650    280.69248     7.105437    71.901522   -156.75941    -2819.153    10890.368 
    8660    289.12935    7.6253718    61.830115   -153.90801    1487.3382    10890.368 
    8670    303.03947    6.3363247    72.217088   -149.38108    2331.8976    10890.368 
    8680    302.24924    8.8110035    68.437497   -143.70088    1671.1604    10890.368 
    8690     307.9157    10.750767    76.410335   -137.13887   -3342.5782    10890.368 
8700        0.98729881024166821213 10.080106077575015533 1 70 -289.57538095061977401
    8700     349.4147    9.4349743    63.105917   -131.26148    1152.5845    10890.368 
    8710     326.6808    6.8096244    76.808053   -127.93544   -390.90605    10890.368 
    8720    352.20529    6.8845195    66.930889   -126.85738     3258.887    10890.368 
    8730    327.94483      8.90348    66.217681   -127.53284   -3337.5517    10890.368 
    8740    326.75132    9.5090608    66.464617   -128.91401    1114.2878    10890.368 
    8750    328.97818    8.8567226    65.505438   -130.69588    245.47253    10890.368 
    8760      311.657    8.0346646    74.208722   -132.75485   -195.62338    10890.368 
    8770    325.37162    6.1342257    68.240629   -135.06554   -2719.4203    10890.368 
    8780    281.81791    6.5135402    70.018612   -137.16838    1187.8447    10890.368 
    8790    311.69087    4.9382776     68.08495   -138.74644    2424.5904    10890.368 
8800        0.98346666793339732049 10.115432633517801975 1 70 -274.88040887677675528
    8800    297.19165     6.100735    66.857269   -140.22788    6038.9505    10890.368 
    8810    314.55759    5.1806996    60.410605   -141.63517     -654.167    10890.368 
    8820    299.18866    6.5266825    72.111281   -143.23358   -1403.8889    10890.368 
    8830    318.22071    7.2439475    67.046835   -145.23355   -4300.4981    10890.368 
    8840    286.43683    9.1672421    77.338311   -147.37363    107.73485    10890.368 
    8850    329.21019    8.3502898    62.860175   -149.37148   -1399.6454    10890.368 
    8860    298.79148    8.2778541    69.407277     -151.666   -36.031708    10890.368 
    8870     279.9287     8.711748    68.610418   -153.50773   -2751.4957    10890.368 
    8880    309.82535    7.5400001    57.765108   -154.81185   -600.89535    10890.368 
    8890    272.84117    8.5779108    70.449961   -155.82614    4005.8067    10890.368 
8900        0.9795217874946924308 10.148690268673824733 1 69 -286.60759897176728828
    8900    287.89956    9.1489431    64.160623   -156.16517    3617.3164    10890.368 
    8910    259.83168    9.3366491    69.890381   -155.80273   -189.21917    10890.368 
    8920    294.69174    8.2569177    61.698052   -154.63506   -3286.7187    10890.368 
    8930     315.2425    8.8049294    62.581958   -153.07217   -4668.1686    10890.368 
    8940    313.45954    7.4753738    69.604243   -151.96866    756.79847    10890.368 
    8950    293.15254    5.4949828    66.487646   -151.47485   -705.32733    10890.368 
    8960    288.00021    4.5159801    66.633498   -150.97706    1496.8822    10890.368 
    8970    279.82579    4.1277218    68.288039   -150.29176    10.999743    10890.368 
    8980    309.72862    4.1012544    60.712044   -149.35248    692.49403    10890.368 
    8990    311.88223    3.5386854    66.066981   -148.49021    1798.7421    10890.368 
9000        0.97649202917641064747 10.17109674339086034 1 71 -294.92494580025754658
    9000    323.75368    4.1508702    60.509495   -148.23762   -363.34087    10890.368 
    9010    293.72099    6.8226469    67.787309   -148.46572   -2682.2601    10890.368 
    9020    304.69787    10.130644    58.556535    -148.6859   -2078.2489    10890.368 
    9030    320.41285    8.7291607    57.552597   -148.72522    1794.8664    10890.368 
    9040    309.69132    6.8097129    67.103478   -148.95725    5393.5786    10890.368 
    9050      280.657    7.3777533    72.312256   -149.46713    884.73025    10890.368 
    9060    294.13996    7.1235463    64.751919   -149.71095   -1358.6996    10890.368 
    9070    300.31982    7.1387517    64.390142   -150.00115    669.17726    10890.368 
    9080    288.54706    4.4813407    67.844453   -150.21719    2503.0142    10890.368 
    9090    280.87582    3.4707542    70.653308   -149.94216   -1624.5455    10890.368 
9100        0.97725401584279136813 10.178716854370009059 1 70 -281.48261980636209501
    9100    292.40997     3.963675    61.313931    -148.9966   -6628.6538    10890.368 
    9110    310.62643    2.9762294    63.168912   -146.76036    -3221.955    10890.368 
    9120    327.63516    2.3026183    56.830997    -142.7814    510.27296    10890.368 
    9130    324.89609     3.415958    59.439322   -137.06971    4352.3394    10890.368 
    9140    303.00984    4.0293551    70.431767   -130.99126   -789.97159    10890.368 
    9150    330.27743    4.1505241    65.798658   -125.56997    -3936.999    10890.368 
    9160    334.60578    3.7189702    71.178592   -121.44027   -298.85231    10890.368 
    9170    332.81977    4.6701929     71.81367   -119.07994    2119.4599    10890.368 
    9180    345.65692    7.0337896    71.572801   -117.84374    1323.8253    10890.368 
    9190     329.2794    6.9858678    72.963249   -118.44552    -713.2615    10890.368 
9200        0.98041119217166350364 10.153408807661305602 1 71 -259.44979271273047061
    9200    306.66829    3.4729102    78.392559   -120.50357    -1921.383    10890.368 
    9210    319.64014    4.3291329    71.569095   -123.75685    2551.6169    10890.368 
    9220    291.81673    2.5713462    75.561698   -127.56747   -207.84384    10890.368 
    9230    278.24899    3.1014395    70.205281   -131.05043   -2560.3134    10890.368 
    9240    308.22832    3.6647284    67.502673   -133.93165   -2698.5822    10890.368 
    9250     324.2249    4.7772456    63.177347   -137.13564    2341.3133    10890.368 
    9260    294.68477    7.9600429    72.279008   -140.99736    4293.6665    10890.368 
    9270    289.12634    8.5003014    67.556671   -144.47298    1737.7707    10890.368 
    9280    271.50989    10.128622    72.061177   -147.23941   -2565.7954    10890.368 
    9290    289.54462    8.3861252    60.732715   -149.05577   -2488.6727    10890.368 
9300        0.98339425131303115357 10.137549506976966995 1 67 -284.75603951336921682
    9300    296.61804    9.4556843    66.943267   -150.36341    1886.6393    10890.368 
    9310    305.67428    9.5751323    58.202095   -151.13572     3611.174    10890.368 
    9320     294.8067    10.180618     60.39424   -151.51569   -2380.9081    10890.368 
    9330    277.04687     7.545207    64.849448   -151.58508   -148.27217    10890.368 
    9340    314.19548    5.4788087    59.416233   -151.30636    176.56069    10890.368 
    9350    306.65836    5.9681729    64.040383   -151.14621    868.79698    10890.368 
    9360    316.96813    5.8782336    62.507275   -150.93944    -1511.565    10890.368 
    9370    294.37655    5.0919593    71.115137   -150.95019   -2676.2545    10890.368 
    9380    297.06138    6.5556632    65.211139   -151.45923    1134.0609    10890.368 
    9390    277.19712    8.1627182     72.82701    -152.1992    3757.7539    10890.368 
9400        0.97705118016337866305 10.131698912496423404 1 69 -283.04787998278658279
    9400    288.27633    8.1054025     61.78845   -152.43474    1455.1102    10890.368 
    9410     294.3371    7.5949324    68.236377   -152.19628    802.75281    10890.368 
    9420    300.09387     8.813314    73.282841   -152.03484   -1161.1869    10890.368 
    9430    308.06544    8.6964401    63.652091   -152.52693   -350.70203    10890.368 
    9440    281.53775    11.313234    65.457919   -153.70848   -2275.6373    10890.368 
    9450    299.24154    9.7236903    63.371963   -155.07517    -704.2333    10890.368 
    9460    281.25721    8.9686265    69.352014   -156.56062   -2011.2763    10890.368 
    9470    286.08532    8.3056263    65.932413   -158.31569   -1721.8086    10890.368 
    9480    276.50526    8.4229806    67.099208   -159.87137    2729.0152    10890.368 
    9490    292.79913    9.5404775    57.769834    -161.0811     5209.575    10890.368 
9500        0.97502294525629273902 10.155645002697658796 1 73 -295.01852378937996946
    9500    293.61937    10.197903    60.679028   -161.98454    1434.3013    10890.368 
    9510    312.32292      8.77879    59.885278   -162.91845    1945.7088    10890.368 
    9520    300.66998    8.0239887    61.552254   -164.12481   -2070.8628    10890.368 
    9530    300.51214    4.9175906     62.27657   -165.24352   -373.40277    10890.368 
    9540    281.18374    4.5009084    60.412401   -166.20262    406.96516    10890.368 
    9550     260.4839    5.4487802    69.198129   -166.82931    955.60072    10890.368 
    9560    289.56627    5.2631685    56.079173   -166.56765   -1426.9121    10890.368 
    9570    294.08582    6.5819368    56.838278   -165.53619   -2556.4901    10890.368 
    9580    291.86216     5.807317    65.449005   -164.01937    1615.7899    10890.368 
    9590    303.18234    6.6462372    60.249217   -161.97644    3081.0454    10890.368 
9600        0.96719806708719169297 10.20442097996142472 1 67 -292.69993809429632847
    9600    293.30605    5.9758524     56.27341   -159.80791   -193.66653    10890.368 
    9610    303.00983    6.1981399    64.284926   -157.13461   -2059.0218    10890.368 
    9620    280.67483    7.0821866     66.67392   -154.32528    255.51708    10890.368 
    9630     300.8581    8.5359313    63.164566    -151.3942   -2315.4891    10890.368 
    9640    299.11831    11.423307    62.725905   -148.25166    673.14086    10890.368 
    9650     293.2014    10.382247    66.429005    -145.0418   -738.69074    10890.368 
    9660    298.76538    10.082782    74.187541   -141.74791    1538.6944    10890.368 
    9670    319.30035    6.5609169    62.249343   -138.75701    -1386.611    10890.368 
    9680    302.86675    3.8831591    67.208899   -136.64848    195.07605    10890.368 
    9690    315.56886    4.8725556    72.438205   -134.72479   -1575.8152    10890.368 
9700        0.95269888527129542588 10.257939449140550892 0.99735449735449732689 68 -277.67291064577517545
    9700    318.62833    4.0602315    65.890676   -133.30779     -759.335    10890.368 
    9710    322.58217    3.8411745    66.186083   -132.62254   -1485.5433    10890.368 
    9720    299.84896    3.7069807    66.264913   -132.44016   -522.62247    10890.368 
    9730    277.26781    3.2029288    77.929351   -132.20553   -612.84564    10890.368 
    9740    291.92039    2.9205902    66.934536   -131.54065   -70.432802    10890.368 
    9750    297.50907    3.3146264    68.213451   -130.62922    32.962713    10890.368 
    9760    292.91214    4.5907788    65.900354    -128.9921     3545.442    10890.368 
    9770     319.4564    4.7356522    66.533932   -126.04359   -273.73092    10890.368 
    9780    315.44705    4.7172095    72.734257   -122.33461     1041.838    10890.368 
    9790    312.23662    4.5187585    69.981258   -119.05191   -1649.6278    10890.368 
9800        0.94858065623728682336 10.266188693098607487 0.99206349206349198067 69 -265.74837731561228793
    9800    330.07271    4.7222157    67.167772     -116.198   -455.57298    10890.368 
    9810    359.94977    4.3902032    60.512678   -113.85929   -2557.0537    10890.368 
    9820    353.59954    4.7116679    63.997707   -112.62439   -366.13581    10890.368 
    9830    328.36609    7.0395056    69.412085   -112.69131   -934.58725    10890.368 
    9840    321.94053    5.6794433    73.877147    -114.1094    296.08073    10890.368 
    9850    327.29727    4.8714063    67.298208   -116.47063   -2112.9652    10890.368 
    9860    333.66929    4.4994551    62.834469   -120.40637    1806.6035    10890.368 
    9870     332.3761    4.6867277    63.621448   -125.40766     1492.881    10890.368 
    9880    325.82746    6.5003697    58.216537   -130.99727    481.54005    10890.368 
    9890     314.6497    5.3263871    56.718728   -135.70128    1910.7978    10890.368 
9900        0.95496812870791003558 10.251568593761939852 1 66 -271.22415303881962245
    9900    290.64237    4.9048572     74.47304     -139.539   -502.84813    10890.368 
    9910    312.25694    4.8361423    61.212264    -142.5032   -664.78965    10890.368 
    9920    291.84366     2.671363    56.439161   -144.85028   -2105.4514    10890.368 
    9930    274.64031    2.3640105    61.872858   -146.15909    -2358.589    10890.368 
    9940    307.04854    3.6535441    54.822498   -147.00824   -217.60602    10890.368 
    9950    302.29923    4.1605504    58.467473    -147.9562   -1197.8131    10890.368 
    9960    324.11533    5.6809593     53.78866   -149.06932    2668.6483    10890.368 
    9970    294.37791    7.7448958     59.95194   -150.32383   -993.62145    10890.368 
    9980    302.19371    8.6300398    51.938781    -151.2165   -1237.1111    10890.368 
    9990    299.13293    10.701551     57.89006   -151.42321   -2331.4487    10890.368 
10000        0.96633362348840701195 10.199760681645329896 0.99735449735449732689 65 -287.52332624106787762
   10000     300.6707    13.037028    60.962468   -151.29451    2362.6956    10890.368 
   10010    297.47875    11.899829    60.137987   -151.20922    2738.2287    10890.368 
   10020    296.79095    11.150044    58.977236   -150.80418   -1626.8044    10890.368 
   10030    311.46436    12.015726    50.287398   -149.86143    -1604.333    10890.368 
   10040    307.38187    13.881146    63.080533    -148.3351     1893.729    10890.368 
   10050    316.08504    8.1280001    67.562649   -146.81655    2450.6317    10890.368 
   10060    299.62652    8.9193835    71.663072    -145.5968    1593.1987    10890.368 
   10070    336.73605    9.6791972    61.490107   -144.45219   -1662.3392    10890.368 
   10080    341.17853    7.6134628    60.229081   -144.62893    855.18293    10890.368 
   10090    321.68533    7.5518334    57.651925   -146.20961    112.19072    10890.368 
10100        0.98146149686046413319 10.146036862399228085 1 68 -290.44853166738869277
   10100    313.29703    6.3437984    57.087681   -148.49893   -947.37043    10890.368 
   10110    299.56553    6.0041617    67.225508   -151.24068    11.495872    10890.368 
   10120     292.1601    4.6819872    61.974806   -154.23733    -654.5283    10890.368 
   10130    288.26038    5.2992892    64.967843   -157.41058    609.11064    10890.368 
   10140    257.45738    7.9236693    69.057783   -160.01561   -894.36483    10890.368 
   10150    267.11689    8.4740283    58.073967   -161.70964    459.77674    10890.368 
   10160    281.30587    8.4253199    57.864098   -162.59988    1314.1422    10890.368 
   10170    287.72751     9.085044    55.986783   -162.95486    1524.3651    10890.368 
   10180    276.18511    7.9473881    61.504265   -162.80215   -1733.7285    10890.368 
   10190    254.61746     10.01159    65.883213   -161.89645   -3378.8893    10890.368 
10200        0.98540298484551824831 10.132144846257245874 1 69 -282.80435526712432193
   10200    271.35749    9.6297124    68.836004   -159.85685   -3470.2511    10890.368 
   10210    309.39754    10.743797    61.168745   -156.65146   -209.46417    10890.368 
   10220    290.01041    10.934851    65.349739   -153.65104    3176.4999    10890.368 
   10230    291.69744      11.9971    57.272423   -150.77775    4162.9604    10890.368 
   10240    313.08047    9.7226094    55.590764   -147.33001    2474.7177    10890.368 
   10250     304.4295    8.2758924    63.019665   -143.77149    1936.4983    10890.368 
   10260    305.57539    8.0449243    66.541405   -140.29537   -2564.1522    10890.368 
   10270    293.67729    7.8779549    70.455705   -137.34723   -2005.1854    10890.368 
   10280    311.27374    6.7438974    65.851602   -134.54018   -3233.0222    10890.368 
   10290    325.12849    8.0182064    63.449884   -132.36828    2637.5675    10890.368 
10300        0.98254552097342651162 10.11669473976833622 1 70 -271.82226928212645589
   10300    311.05426    8.6111613    69.081924   -130.88883    785.92035    10890.368 
   10310    318.22605    10.448349    58.959662   -129.69855    71.780613    10890.368 
   10320    293.12773    9.4843513    74.758936   -128.76172   -549.40524    10890.368 
   10330    304.88237    8.4079477    71.872114   -128.04635    2445.6751    10890.368 
   10340    307.26918    8.0438737    71.523717   -128.02555   -888.60738    10890.368 
   10350    325.33739    6.9447369     64.96118   -129.15441    2387.7504    10890.368 
   10360    338.68398    4.5021691    62.266255   -132.37445     369.9598    10890.368 
   10370    295.65627     6.915753    62.863754   -137.44166    991.42741    10890.368 
   10380    272.65475    7.4831197    69.104286   -143.02086   -2111.2745    10890.368 
   10390    291.27369    7.2272615     67.75716   -147.53445    655.16789    10890.368 
10400        0.97934585847677635417 10.110124718482433437 1 70 -275.57073536466998576
   10400    273.91658    8.3958949    61.021995   -151.46376    481.33275    10890.368 
   10410    278.02719    9.8736491    63.318979   -154.13164    -123.6547    10890.368 
   10420    287.69875     10.24719    52.424164   -156.06728   -2335.6587    10890.368 
   10430    290.56245    7.5396504    59.547044   -157.27792    3359.9589    10890.368 
   10440    296.67666    5.6258502    55.513332   -157.91112    3208.7593    10890.368 
   10450    285.31607    5.0666382    63.990806   -158.37184    517.40569    10890.368 
   10460    306.02261     4.280758     56.14911   -158.61561    -991.4316    10890.368 
   10470    305.64861    4.4538499    58.480047   -159.05475   -2106.9936    10890.368 
   10480    285.77786    3.9388018    62.032103   -159.64048   -3353.5384    10890.368 
   10490    289.95836    3.4858664    55.812365   -159.76939   -2765.7049    10890.368 
10500        0.97100239774930530157 10.163655212623025292 1 69 -292.80034665553699824
   10500    294.66273    3.8389199    60.278323   -159.29364    966.09792    10890.368 
   10510    316.97977    3.7180915    52.632325   -158.32372    2880.6241    10890.368 
   10520     288.2226    5.3624094     63.38839    -157.2276    1574.7107    10890.368 
   10530    317.10778    5.6810282    50.659503   -156.04545    716.21685    10890.368 
   10540    290.18602    8.1636009    62.970411    -154.7121   -552.12171    10890.368 
   10550    308.30588    7.9768521    60.120802   -153.00928   -607.11133    10890.368 
   10560    288.75239    7.5809735    63.940788   -150.83847   -2289.3912    10890.368 
   10570    293.60673    7.0530476    57.397778    -148.2049    -1168.949    10890.368 
   10580    293.17743    8.3544669    65.415721   -144.54007    2493.6876    10890.368 
   10590    302.32577    5.5772447    66.397488    -140.2063   -1802.4364    10890.368 
10600        0.96648985727915126542 10.196733600255793561 1 70 -279.28365628011158606
   10600    316.74462    3.7056354    67.558101   -135.77201   -744.89213    10890.368 
   10610    318.00285    3.6861927    65.513255   -132.61594    76.355041    10890.368 
   10620       316.42    3.7119201    67.107652   -130.14755    1278.5809    10890.368 
   10630    295.73164    3.1240929    69.495946   -128.24299    1551.7286    10890.368 
   10640    309.47896    4.6195738     67.36392   -126.63977   -2506.7844    10890.368 
   10650    306.90403    4.5083842    72.986683   -125.44923    239.60009    10890.368 
   10660    317.39028    5.6237689    66.143024   -124.84555    1163.2568    10890.368 
   10670    282.01914      4.37436     69.15817   -124.64003   -2414.7716    10890.368 
   10680    294.45694    4.2439501    69.766982   -124.40589    696.47305    10890.368 
   10690    290.03151    4.5142908    75.172105   -124.19718    -893.8798    10890.368 
10700        0.96990952960520904202 10.200221546731690125 1 66 -262.43041181325776279
   10700    305.34636    7.3519863    67.760179   -124.08313   -1509.4216    10890.368 
   10710     325.4102    6.0263391    68.810926   -124.47629    108.45571    10890.368 
   10720    335.88463    5.0588086    66.800762   -126.46567    771.78768    10890.368 
   10730    335.31627    4.5640218    63.877081   -130.78411    1702.5073    10890.368 
   10740    326.84233    5.5615768    60.507508   -137.30432   -2764.6459    10890.368 
   10750    324.51624    4.0811126     54.16403   -144.80525   -2015.4686    10890.368 
   10760    310.72455    2.3774778    64.010133   -151.33265    3722.1146    10890.368 
   10770    314.51738    3.1016066     57.34259   -156.58746    1181.7629    10890.368 
   10780    286.02362     4.785128    65.225316   -160.62935    443.10984    10890.368 
   10790    261.44896    5.7991876     66.55318   -163.27539   -170.02284    10890.368 
10800        0.97668765167760662749 10.170397441762256463 1 67 -287.7372442112571207
   10800    272.04771    6.7317068    58.716896   -164.47702   -34.525475    10890.368 
   10810    291.97914    6.6247812    63.880106   -164.88208    2051.0702    10890.368 
   10820     295.7219    6.0691376    56.190216   -164.94499    -2411.806    10890.368 
   10830    294.17641    6.0163026      61.5156    -164.7967    118.16489    10890.368 
   10840    321.29478    5.0657876    54.188775   -164.65807   -3694.4869    10890.368 
   10850    307.08842    8.0613656    56.443452   -164.88526   -138.42233    10890.368 
   10860    308.19681    8.0808992    51.160698    -165.2672    344.83366    10890.368 
   10870    279.84266    6.4911062    67.316056   -165.33642   -1231.3924    10890.368 
   10880    288.14327    7.7649781     59.14227   -164.99843   -534.97695    10890.368 
   10890    282.23979    7.9005727    62.448231   -164.47104    313.42808    10890.368 
10900        0.98106010737182891557 10.134032389876502123 1 66 -294.03620095712068405
   10900    288.25564    5.9973504    58.567926   -163.43243    1184.6815    10890.368 
   10910    283.26766    5.7500441    52.273862   -161.51899    2392.9621    10890.368 
   10920    282.75818    6.0611853    61.177976   -158.68996   -1911.7729    10890.368 
   10930     294.6835    6.4231301    61.880811   -154.63893    1569.3681    10890.368 
   10940     301.1249    5.3914556    59.717515   -150.35241   -1303.1576    10890.368 
   10950    318.40241      7.74496    57.644705   -145.83234   -2672.3946    10890.368 
   10960    308.34051    8.2862125    62.432468   -142.07881   -198.81879    10890.368 
   10970    320.32835    6.2904736    56.185733   -139.12123   -136.07945    10890.368 
   10980    302.21062    5.4464405     72.70554    -136.9806    3407.7961    10890.368 
   10990    323.68404    6.2772633     59.43343   -135.61205    2362.6619    10890.368 
11000        0.98631941891566876635 10.112676902869882412 1 68 -277.85869055642746162
   11000    314.83657    6.1125343    67.641747   -135.21155    828.88517    10890.368 
   11010    313.42088    9.0638107    58.526724    -135.3982   -1872.4737    10890.368 
   11020    329.79355    10.605057    52.163364   -135.76882    -6858.723    10890.368 
   11030    308.40759    11.055064    66.559325   -136.48743    665.26251    10890.368 
   11040    310.17459    8.7840917    59.892714   -137.23022    4284.6368    10890.368 
   11050    292.84013    7.2328063    63.193419   -137.65348    4086.9974    10890.368 
   11060    305.72868    10.046938    57.448239   -137.60161   -1660.0767    10890.368 
   11070    286.54661    10.411031     64.58206   -137.51335   -590.69801    10890.368 
   11080    298.12774    10.590923    59.533939   -137.11856    1977.5248    10890.368 
   11090    307.52148    6.9788508    59.454572   -136.02226    1436.4265    10890.368 
11100        0.98964799691833005291 10.090014144899468462 1 68 -280.19822406234067103
   11100    322.44236    7.1089356    61.399864   -134.10503   -1130.4163    10890.368 
   11110    327.49387    8.4080137    68.903206   -131.57889   -2731.4113    10890.368 
   11120    320.82562     7.338399    71.975928    -129.2857   -156.23921    10890.368 
   11130    334.61371    7.8825506    63.576274   -127.18581    2780.8234    10890.368 
   11140    341.27794    7.7623155    73.446573    -126.1031    1622.0004    10890.368 
   11150     354.5344    8.7781653    67.025292   -126.86338   -1621.3868    10890.368 
   11160    308.72668     10.60005    73.257198   -130.06474   -2016.7929    10890.368 
   11170    299.49256    9.9380935    64.601452   -134.41359     178.8219    10890.368 
   11180    283.71791    7.5177176    68.801902   -139.15253    1492.1285    10890.368 
   11190    298.57755    5.9126196     68.08224   -143.45764    117.54509    10890.368 
11200        0.98636201844883086842 10.117036777501361655 1 69 -284.71104158536115847
   11200     302.2442     7.247433    62.487839    -147.7693   -1202.2404    10890.368 
   11210     297.1339    8.3955149    63.090189   -151.92933    1470.0188    10890.368 
   11220    290.09141    7.6486791    64.571328   -155.69931    2393.0045    10890.368 
   11230     272.2616    7.6804547    63.815463   -158.52031   -4038.4481    10890.368 
   11240    277.31999    9.0059926    53.857183   -160.06709   -6547.9092    10890.368 
   11250     292.3622    9.0331599    59.420171   -160.80161   -2777.6522    10890.368 
   11260    284.24144    9.4020166    60.956929   -161.19463    5795.0606    10890.368 
   11270    290.82398    11.570031       55.349   -161.44446    4465.1026    10890.368 
   11280    288.15293    10.853139    58.212577   -161.42085    3748.5453    10890.368 
   11290    302.85814    9.6439368    58.809489   -161.09391       1188.8    10890.368 
11300        0.9817730343962013384 10.122967124886855572 0.99735449735449732689 61 -293.95638551917562609
   11300    294.08996    6.8026805    61.463301   -160.70919    859.46318    10890.368 
   11310    293.19073     7.063156    54.455595   -160.18587   -3254.2909    10890.368 
   11320    281.94041    6.7030912    59.193286   -159.39256   -6623.7005    10890.368 
   11330    302.39951    7.1271314    57.505593   -157.86638   -1789.4128    10890.368 
   11340     317.4129    8.5971801     54.18467    -155.5243   -682.76863    10890.368 
   11350    311.80781    8.6068203    59.736219   -152.72605    632.28543    10890.368 
   11360    300.39005    10.515178    58.309527   -149.54674     3227.058    10890.368 
   11370    306.73371    8.7815363    58.070258   -146.08201    1218.6976    10890.368 
   11380     314.2179    5.4450996    60.458214   -142.16284    867.96598    10890.368 
   11390    340.79152    4.0576123    52.790138   -138.06065   -2433.2303    10890.368 
11400        0.97952082626513548025 10.125618453631579641 0.99735449735449732689 66 -275.84766862975135382
   11400    312.22767    3.2906699    67.193273   -134.38258    586.02368    10890.368 
   11410    318.49992    4.1808818    64.084683   -131.32349   -20.453488    10890.368 
   11420    309.54707    6.5825334    60.446732   -128.73252   -680.45312    10890.368 
   11430    329.97152    8.0397188    62.044247   -126.54588    2057.8882    10890.368 
   11440    328.86334    9.7542271     60.86326   -124.78893    2690.4028    10890.368 
   11450    336.33334    10.642636    60.147919   -123.74538    3398.6853    10890.368 
   11460    334.18836     9.219806    61.285725   -123.56722   -252.91889    10890.368 
   11470    320.00968    5.3280801    62.756126   -124.32068    426.86835    10890.368 
   11480     317.4878     3.915057    66.780368   -125.90595    -942.8232    10890.368 
   11490    304.01684      4.42033    65.655652   -128.71831   -844.57396    10890.368 
11500        0.97407394918718959165 10.178227918678810937 0.99735449735449732689 64 -274.94854051067756018
   11500    312.84165    5.9295244    66.126431   -133.20527    577.60478    10890.368 
   11510    318.45898     5.908339    70.671585   -140.10256   -1288.0639    10890.368 
   11520    310.35903    5.6291211     58.68787   -148.31197   -4521.5404    10890.368 
   11530    285.92116    5.4085287    65.002986   -155.09648   -1895.6369    10890.368 
   11540    283.73416    7.3602412    59.058497   -159.24695    655.17665    10890.368 
   11550    280.64387    7.2530845    67.938023   -161.83397    4115.6507    10890.368 
   11560    301.93341    9.2703061    57.518958   -163.87569   -1191.8549    10890.368 
   11570    273.51008     6.173961    64.789158   -165.70894   -1263.1771    10890.368 
   11580    301.86064    6.0688938    53.174967   -167.19525    2662.0708    10890.368 
   11590    277.04103    3.7508498    57.735477   -168.27385    1434.5243    10890.368 
11600        0.96891234878661913754 10.197738782448897865 1 67 -297.14597245459543728
   11600    283.49926    4.8589698    53.501799   -168.69724   -5.4674351    10890.368 
   11610    258.84191     5.355651    56.944002   -168.31393   -2518.5186    10890.368 
   11620    281.91171    4.3799147    52.184128   -166.79822    872.46301    10890.368 
   11630    282.79812    4.8039581    56.712463   -164.24041   -1084.9926    10890.368 
   11640    292.76198    7.3257433    58.956048   -160.78725   -2016.3935    10890.368 
   11650    313.44512    7.4746216    57.004148   -157.03391    -1288.333    10890.368 
   11660    305.66432    6.1148104    62.916885   -153.80881   -1205.2188    10890.368 
   11670    287.60955    5.1247388    56.650225   -150.96366    -2541.573    10890.368 
   11680    304.81254    4.8690086    61.497395    -147.9269   -751.76034    10890.368 
   11690    314.71272    5.1832823    67.734832   -145.15618    992.34903    10890.368 
11700        0.97905104461682102013 10.160610967343451705 1 70 -293.70112952748695534
   11700     331.2788    6.0688857    63.402171   -143.60429    596.42201    10890.368 
   11710    307.94993    6.5149333    65.330258    -143.5537    4100.3492    10890.368 
   11720    296.59742    9.5669198    66.674254   -144.21751    3107.8292    10890.368 
   11730    291.35544    8.5160131    61.374246   -145.00753   -1005.1507    10890.368 
   11740    302.48706    7.5553385    59.107423   -145.60107   -5925.3318    10890.368 
   11750    300.71182    6.3225115    60.372283   -146.39969   -1341.6818    10890.368 
   11760    304.62196    5.6274026    59.962527   -147.64021    701.01442    10890.368 
   11770    277.42497    6.1194833    67.170746   -149.39053    1262.2392    10890.368 
   11780    265.02684    6.7884988    65.188253   -151.43567    1010.2632    10890.368 
   11790    246.70776    8.8360864    68.558712   -153.34004    3876.3632    10890.368 
11800        0.98396100221199700453 10.133373997471291972 1 66 -281.68321645350641802
   11800    279.20939    6.8729243    62.188793   -155.17815    2689.6294    10890.368 
   11810    306.44184    4.7338409    60.325281   -157.70758    398.54693    10890.368 
   11820     304.4338    6.3396954    55.426511   -161.32249    -3562.775    10890.368 
   11830    299.95493     8.863562    50.668379   -165.85027   -2370.6554    10890.368 
   11840    274.92808     10.24917    57.030736   -170.03145    -2468.134    10890.368 
   11850    270.95835    7.7109438    54.062755   -173.30619   -552.14562    10890.368 
   11860    270.61824    7.1166159    56.972434   -175.47158    1959.8463    10890.368 
   11870    284.25078    6.0144753    55.162998   -176.70123    3687.1544    10890.368 
   11880    298.15527    7.2213533    52.796588   -177.51452    3550.1969    10890.368 
   11890    296.27745     11.34238    45.435842   -177.97164   -1613.6557    10890.368 
11900        0.98480469814097559844 10.136762124032859589 1 67 -303.32986801561293078
   11900     276.9614    13.368192    51.490605   -177.84333   -2186.4601    10890.368 
   11910    276.74828    12.246548     52.40028   -176.77236   -3180.0014    10890.368 
   11920    279.66622    8.9993465    59.166225   -174.46414    2433.0272    10890.368 
   11930    304.03007    10.053286     53.10602    -171.1504    990.43903    10890.368 
   11940    295.19755    8.8859631    53.177489   -167.14411   -32.871148    10890.368 
   11950    300.14928    5.8026256    49.065942   -162.69101    25.126577    10890.368 
   11960    285.53351    4.9421906     52.34078   -157.95948   -776.78609    10890.368 
   11970    312.11778    6.9903634    52.257175   -153.23787    2651.6872    10890.368 
   11980    318.76284    6.6910097    55.714063   -149.49948    1857.5793    10890.368 
   11990    299.52074    7.1355308    63.390919   -147.22857   -622.87775    10890.368 
12000        0.98437849537649646514 10.128194601883169668 1 66 -279.24589679287805666
   12000    294.67088    7.6517889    69.853046   -145.73549   -333.19514    10890.368 
   12010    307.90299    8.1559822    65.613868   -144.68377    1672.7462    10890.368 
   12020     320.9048     10.01408    62.007916   -144.21851    19.517316    10890.368 
   12030    311.12298    10.319052    58.967995   -144.52651   -2593.3602    10890.368 
   12040    312.58057    6.7600605     61.49053   -145.40759   -2603.1246    10890.368 
   12050    315.92681    4.0275045    66.661366   -146.89579    2848.6846    10890.368 
   12060    304.11529    4.6565224    63.290502   -149.13178    2492.3783    10890.368 
   12070    302.57197    5.0880654     61.02762   -151.50271   -359.91577    10890.368 
   12080    305.08534     5.790798    59.436299   -154.03275   -1485.0202    10890.368 
   12090    297.02401    7.6730157    57.273389   -156.43427     162.0792    10890.368 
12100        0.98072574821839131332 10.148748781504224326 1 68 -280.6250838722522758
   12100    269.35973    10.425418    64.089045   -158.58273   -3375.3763    10890.368 
   12110    260.15029    11.806721    59.903622   -159.78724   -91.737572    10890.368 
   12120     298.6874    10.137574    62.028359   -160.20302    2231.4001    10890.368 
   12130    295.35345    8.7917395     64.29195   -160.46671    2879.1705    10890.368 
   12140    306.22591    7.4232828    60.780123   -160.69433    2120.4385    10890.368 
   12150    296.20369    5.3911365    61.153267   -161.17993    699.63174    10890.368 
   12160    284.96901    4.1734788    60.889108   -161.83012    -479.4476    10890.368 
   12170     283.7215    4.9229891     64.60558   -162.29044   -1184.5008    10890.368 
   12180     293.6028    5.4027268    51.271622   -162.48615   -3148.3005    10890.368 
   12190    301.90551    4.9117721    57.458563    -162.5258   -227.59286    10890.368 
12200        0.96613740208573239965 10.198414260011006149 1 64 -296.30386356105441337
   12200    295.72732    7.1397167    61.934243    -162.3148   -893.16909    10890.368 
   12210     304.7219    6.4393027    61.725717   -161.84094    755.91902    10890.368 
   12220    289.69278    5.7345371    64.437209   -161.39428    3460.0458    10890.368 
   12230    300.48543    5.1967316    54.824077   -160.75253    540.19475    10890.368 
   12240    296.11112    5.4818629     53.72416   -159.57626   -1536.5585    10890.368 
   12250    271.68649     5.979592    60.836595   -157.67663   -1631.0993    10890.368 
   12260    267.27267    6.6500489    61.167904   -154.92759   -2543.9803    10890.368 
   12270    302.62701    5.4117582    58.277477   -151.45404    1221.3917    10890.368 
   12280    298.21257    5.8678916    60.824355   -147.19371    304.96444    10890.368 
   12290    302.63625    6.5322818    58.046963   -142.71831     1489.098    10890.368 
12300        0.95509975729194607208 10.242332653462044689 1 66 -280.38885122359658908
   12300    312.39674     7.005695    67.582874   -138.84716    2749.2059    10890.368 
   12310     319.1619    6.5402809    68.776208   -135.87191   -866.48859    10890.368 
   12320    322.42302    7.7421295    67.279109   -134.32685   -5148.5681    10890.368 
   12330    328.63359    8.5935912    63.817265   -134.02133   -2755.4691    10890.368 
   12340    308.97942    7.9552947    70.157123   -134.66127   -2357.0412    10890.368 
   12350    326.07712     6.242048    56.253388   -135.79927     267.7332    10890.368 
   12360    311.12743    3.4126288     62.88631   -136.95727   -2651.0234    10890.368 
   12370    317.23706    3.6234029    56.019861   -138.97148    1370.9017    10890.368 
   12380    298.95165    5.0900916    61.554025   -141.14241    143.50675    10890.368 
   12390    290.17192     3.483975    64.142005   -143.17575    3331.9273    10890.368 
12400        0.95346672376027163942 10.232532816205653248 0.99735449735449732689 63 -275.79996357544030161
   12400    288.22115     5.055622    67.003173   -145.21182    1860.2483    10890.368 
   12410    284.87806    5.9174254    63.469777   -147.16469   -1035.8343    10890.368 
   12420    304.99302    4.0780208    54.933204   -149.10451   -2537.3064    10890.368 
   12430     285.6446    4.3608561    64.748247   -151.08493   -1518.1908    10890.368 
   12440    301.61073    3.9685323    57.493957   -153.38176    455.37407    10890.368 
   12450    288.99042    6.2300316    61.679705   -156.16202    772.05773    10890.368 
   12460    303.19808    5.1362826    56.135307   -159.78119   -1110.1835    10890.368 
   12470    299.53989    5.0374388    62.301768   -164.50038    2482.1228    10890.368 
   12480    280.16085    6.6550215    55.752591   -169.95242    359.37712    10890.368 
   12490    274.09876    4.9305525    51.136584   -174.06596   -2051.3985    10890.368 
12500        0.9630575471678587407 10.200056364986858526 1 62 -302.42306192797724407
   12500     277.1345    2.4057131    50.590817    -176.8581   -3366.8377    10890.368 
   12510    276.93881    2.6007497    52.714919   -178.16962    -1542.706    10890.368 
   12520    287.27818    3.0923471    53.051347   -178.39199    518.46602    10890.368 
   12530    272.44055    3.1139165    57.626885    -177.8341    3442.1989    10890.368 
   12540    281.08293    2.1226572    55.094506   -176.29362    1912.2596    10890.368 
   12550     290.7021     3.243437    53.506003   -173.88392    141.54129    10890.368 
   12560    297.17082    5.4373321    54.248043   -170.91402   -796.34378    10890.368 
   12570    305.16399     7.027092    54.463064   -167.49336    2529.1538    10890.368 
   12580    300.29539     7.913458    59.265105   -164.06064    3263.3753    10890.368 
   12590    295.33037    9.0288546    57.196595   -160.78784   -1973.7614    10890.368 
12600        0.97524376219375452646 10.155828105940027939 1 64 -287.5986457238722096
   12600    285.44809    8.3868293    63.871743   -158.26693   -4795.1026    10890.368 
   12610    297.79043    7.8587482    65.989765   -156.15574   -301.58945    10890.368 
   12620    317.26519    7.9483655    58.398836   -154.83373    805.19865    10890.368 
   12630    293.33471    6.5186804    59.557664   -154.05439    779.79205    10890.368 
   12640    291.44612    5.9796589    67.650487   -153.51818   -134.29999    10890.368 
   12650    287.27797    7.7450591    65.015223   -152.88609    1134.2593    10890.368 
   12660    279.93967    8.7718503    65.919173   -152.18793    95.563511    10890.368 
   12670    303.17205    7.8277345    57.470741   -151.26637    875.83609    10890.368 
   12680     279.3236    8.7662926    62.941168   -150.14895    3062.3813    10890.368 
   12690    300.44846    9.8053536    61.471766   -148.79892   -1488.6757    10890.368 
12700        0.98415487037900917233 10.122106199157197892 1 65 -281.4634649788854972
   12700    296.16126    8.8678463    63.770246    -147.2778   -3160.4149    10890.368 
   12710     302.7012    5.8353577    60.890448   -146.00696   -674.25543    10890.368 
   12720    291.29888    8.4162653    67.314588   -144.96721    -1308.437    10890.368 
   12730    304.10566    10.174721    57.280525   -143.75308   -385.06028    10890.368 
   12740    300.93589    10.484376    69.201795   -142.41787    3161.7418    10890.368 
   12750    318.13501    9.9274344     63.50787   -141.17792    4393.8675    10890.368 
   12760    313.34684     8.011448    62.120195   -140.52082    2833.8488    10890.368 
   12770    318.08648    10.031697      55.9229   -140.47155   -3554.3387    10890.368 
   12780    319.06053    9.9907573    63.902025   -141.07261    -1028.147    10890.368 
   12790    331.61718    8.2670969    64.616719   -142.81254    2435.9471    10890.368 
12800        0.98899183573472726483 10.118424726833609384 1 67 -303.5674909813388922
   12800    345.92602    8.7264589    64.234126   -146.83425    1279.3055    10890.368 
   12810    322.26201    10.936777    60.334329   -153.41612    2000.1016    10890.368 
   12820    299.89881    8.6555717    56.761216   -160.42764   -2327.5684    10890.368 
   12830    265.67656    6.5820905    61.462125    -165.8295   -377.70673    10890.368 
   12840     276.0228     7.198301    56.858877    -168.8401   -4039.0061    10890.368 
   12850    273.01117     8.907853    61.988071   -170.60021   -1041.7732    10890.368 
   12860    285.04355    9.2308487    64.574317   -171.53495   -374.31878    10890.368 
   12870    279.25618    8.3038084    60.178158   -172.04379   -549.02635    10890.368 
   12880    254.94356    9.0162585     69.63432   -172.13845    746.23693    10890.368 
   12890    266.80319    10.300977    54.003746   -171.22257   -259.97032    10890.368 
12900        0.98431118447400223204 10.129913474564519404 1 69 -295.91477993638341104
   12900    279.39063    8.4100267    59.699813    -169.3276    2233.5126    10890.368 
   12910    268.88302    8.3390679    62.891205   -166.85442    4672.2747    10890.368 
   12920     302.6823    6.4140032    54.478038   -163.51729    2471.4194    10890.368 
   12930    282.44124    6.2308045    61.597031   -160.18609    484.49276    10890.368 
   12940    275.96209    7.0348311    64.687335   -156.68594   -4722.6241    10890.368 
   12950    281.90274    6.5796051    62.856197    -152.9814   -3468.8834    10890.368 
   12960    303.48448     5.937472    60.016428   -149.03982   -151.94071    10890.368 
   12970    310.28045    6.2362281    64.204869   -145.92962   -818.35251    10890.368 
   12980    320.85496    9.4593468    58.524481   -143.88523    1139.9485    10890.368 
   12990    320.29714    10.551697    62.580104   -142.88764    1020.0631    10890.368 
13000        0.97751290855339700858 10.145008701129146544 0.99470899470899465378 67 -285.82439647410274119
   13000    315.43533     9.593374    67.008432   -142.90597     989.1955    10890.368 
   13010    297.05826    7.0087578    63.145955   -143.48117   -2100.3422    10890.368 
   13020    278.66141    9.4511433    65.909846   -144.02338   -1928.0349    10890.368 
   13030    287.34681    10.322715    58.075043   -143.95377    237.75252    10890.368 
   13040    312.80207    8.1970702    60.218028   -143.41584    2808.6212    10890.368 
   13050    301.57312     6.959518    64.610781   -143.19974    76.405319    10890.368 
   13060    294.21913    8.5207807     52.88437   -143.16176   -2086.9686    10890.368 
   13070    299.82096    9.1009531    61.371181   -142.75989   -285.49754    10890.368 
   13080    295.52739    8.6473158    60.003009   -141.85388    2275.9683    10890.368 
   13090    276.96382    6.5901088    67.022626   -140.54947    2737.9667    10890.368 
13100        0.97864146011470543041 10.15171052510323868 0.99470899470899465378 71 -269.21012750988506923
   13100    288.46959    5.5206477    65.142373   -138.50942   -1858.2187    10890.368 
   13110     304.3391    6.7143379    66.917296   -135.53771   -1005.9794    10890.368 
   13120    319.60098    7.4017913    63.547615   -131.63261   -2361.6687    10890.368 
   13130    337.74145    8.5158163    66.558748   -126.97264    917.93351    10890.368 
   13140    340.60057    7.9103756    72.616554   -122.43316    713.26425    10890.368 
   13150    363.71803    6.5307484    66.968657   -118.92339    616.66961    10890.368 
   13160    329.73136    7.1650392    74.663984   -117.43365   -1308.5431    10890.368 
   13170    352.62735    6.1417004    63.832226   -117.96419   -202.86091    10890.368 
   13180    326.50665    8.6316563    68.688202   -121.24913   -1164.2221    10890.368 
   13190     336.3762    7.3743582    66.854731   -126.64559    2213.7704    10890.368 
13200        0.98191401598156091701 10.14346476586800172 0.99470899470899465378 67 -268.19466119989260733
   13200    297.99966    5.3918564    65.424058   -133.17604   -317.45515    10890.368 
   13210    299.75718    5.3066395    60.550253   -138.38506    279.93435    10890.368 
   13220    292.12071    7.1217661     64.62404   -142.56456   -439.12009    10890.368 
   13230    282.41151    7.5781983    66.127895   -145.53098    -103.4644    10890.368 
   13240     290.0986    5.7093671    63.442691   -147.76335     245.3941    10890.368 
   13250    284.57395    7.4680888    63.497535   -149.27474   -1483.2497    10890.368 
   13260    290.39572    10.032309     57.22378   -150.06093   -2520.5762    10890.368 
   13270    282.51734    10.209808    59.140371   -149.94858    790.17421    10890.368 
   13280    304.25825    7.7464961    59.613599   -148.94477    3006.2762    10890.368 
   13290    310.66218    5.4949837    61.997532   -147.84877    2478.0151    10890.368 
13300        0.98645309082952292723 10.120504071098764598 0.99470899470899465378 66 -293.79934019092229391
   13300    323.14129    6.2091133     61.77879   -147.38947   -1956.7677    10890.368 
   13310    322.06977    5.8188999    60.871847   -147.96948   -1427.4064    10890.368 
   13320    326.60398    5.4709878    52.729917    -149.4917    3203.8327    10890.368 
   13330    300.39264    6.3033638    64.397325   -151.53393    1471.6764    10890.368 
   13340    313.74664    6.9433951    56.064599   -154.23833    1833.1864    10890.368 
   13350     287.8003    7.4873495    62.251281    -157.3403   -3431.5167    10773.959 
   13360    294.09503    8.3607417    57.773091   -161.03898   -2595.8919    10773.959 
   13370    277.81139    7.0932675    61.064156   -164.52075   -386.75064    10773.959 
   13380    287.21809    8.0480372    58.994757   -167.69005    667.27532    10773.959 
   13390    293.53473    9.1736525    53.633647   -170.72034   -783.85877    10773.959 
13400        0.98626113703036533131 10.117292546115420393 1 73 -298.05147623541847679
   13400    274.63502    7.9972881    54.658072   -173.61898   -2318.3674    10773.959 
   13410    293.29689    5.9923469     53.53114   -176.17774    850.77961    10773.959 
   13420    274.51134    7.0397269    54.823082   -178.27489    1761.9939    10773.959 
   13430    270.57836    9.1557184    54.683841   -179.81736   -1524.8556    10773.959 
   13440    281.25041    9.5101622    50.559412   -180.52293   -723.77947    10773.959 
   13450    271.39371    8.3868274       53.637   -180.37977    1331.5579    10773.959 
   13460    291.02146     6.844615     48.30488   -179.08569    2756.5616    10773.959 
   13470    261.87649    8.5199718    60.859754   -175.63464   -1326.8344    10773.959 
   13480    291.62547    9.5304821     49.72714   -168.98992   -2743.1514    10773.959 
   13490    289.30689    8.8821315    61.545408   -160.49528   -1765.1474    10773.959 
13500        0.98074280492533660869 10.084554774145761513 1 67 -296.72618685658602544
   13500    315.77672    10.108813    58.388253   -153.65308    3434.6564    10773.959 
   13510    304.88103    13.286204     58.39693   -149.13731    4206.0283    10773.959 
   13520    301.92128    12.510229    59.909818   -145.84702   -171.63508    10773.959 
   13530    291.72695    8.7541335    64.716505   -143.03466   -1155.2095    10773.959 
   13540    307.75593    8.1021781    62.426884   -140.35624    767.66396    10773.959 
   13550    309.54831    6.7272281    66.451585   -138.15493    3195.4875    10773.959 
   13560    327.48828     4.040902    64.474132   -136.46653   -599.31422    10773.959 
   13570    321.37471     5.307375    61.993664   -135.84393   -3385.4787    10773.959 
   13580    297.54794    7.5124995    66.998824   -136.18101   -3844.6068    10773.959 
   13590    302.39085    13.260638    58.977355   -136.76074    802.76521    10773.959 
13600        0.97449114334652564562 10.121994457728975547 1 70 -269.06271808301806914
   13600    291.07579    12.526911    61.102588   -137.18119    1446.1183    10773.959 
   13610    289.32017    7.9178069    61.929888   -137.12074    3315.6575    10773.959 
   13620    323.69402    7.9121457    55.399328   -136.53916    4242.1599    10773.959 
   13630    311.81824    7.7389713    59.378586   -136.05035    2738.7171    10773.959 
   13640    320.09168     8.053401    58.241984   -136.02382   -2705.0537    10773.959 
   13650    285.41376    8.5539095    68.270061    -136.3203   -4088.0643    10773.959 
   13660    322.21158    8.6070778    52.591489   -136.86616   -4155.6365    10773.959 
   13670    283.85083    9.9871013    67.198494   -137.72583    190.66876    10773.959 
   13680    298.85478    11.942115    63.352932   -138.64584    1680.5253    10773.959 
   13690    291.89899    11.051152    67.151248    -139.5989    1593.8381    10773.959 
13700        0.97333660561346047047 10.166281493169160299 1 69 -280.56606943679338428
   13700    308.09135    10.030463    54.542434   -140.97508   -1357.2564    10773.959 
   13710     283.9808    8.8167012    62.103074   -142.67775   -2742.1168    10773.959 
   13720    302.57437    7.1987987    69.577666   -144.77197    729.24232    10773.959 
   13730    310.32906    5.2181934     60.64237   -147.75532     1730.383    10773.959 
   13740    290.03174    5.5243721    57.959265   -151.26634    2115.4985    10773.959 
   13750    311.64683    5.9269884    52.720219   -154.72057    1709.1114    10773.959 
   13760    290.92505    6.6009611     61.77201   -158.36333   -2389.5866    10773.959 
   13770    299.92575    6.5919377    55.688944   -162.24521   -2358.5705    10773.959 
   13780    286.82429    5.5681663    56.882523   -165.84479   -292.30239    10773.959 
   13790    272.25206     4.719579    63.759178   -168.68295    3484.9165    10773.959 
13800        0.97399515766060107413 10.167393096103802819 1 67 -295.77569290468306917
   13800    276.42338    5.3828729    52.878829   -170.53293    2361.9039    10773.959 
   13810    253.79576    5.4477677    59.934356   -171.36569    -2812.441    10773.959 
   13820    295.62574    3.2499795    49.313686   -171.10896   -2612.4104    10773.959 
   13830    278.80424    3.0240848    62.928055   -170.02819   -1799.7818    10773.959 
   13840    299.62364    4.0804586    53.850406   -168.22955    -248.7321    10773.959 
   13850    261.87343    5.0280842    62.034552   -165.88004   -2411.6276    10773.959 
   13860    273.23078    5.4927605    54.957485   -162.78298   -683.64057    10773.959 
   13870    293.82626    8.4148621    57.815964   -158.68065    2336.1823    10773.959 
   13880    277.65899    11.284094    59.230235   -154.71809     4025.019    10773.959 
   13890    315.36669    10.274425    57.056926    -151.2579   -82.936298    10773.959 
13900        0.97171468698934881925 10.180234614543840266 1 67 -276.64391984214972808
   13900    281.94119    8.3249356     68.84618   -148.90112   -1214.0321    10773.959 
   13910    321.39964    6.8353759    53.030433   -147.41366     -2749.81    10773.959 
   13920    298.23615    4.8602254    70.153902   -146.67792    1800.8566    10773.959 
   13930     320.5539    3.4877997    63.263687   -146.48639   -3784.5084    10773.959 
   13940    317.88572    5.6291853    60.045931   -146.95051   -5128.2161    10773.959 
   13950     295.2887    8.4407437    64.771968   -148.01999    -1707.751    10773.959 
   13960    312.56287    7.6886062    54.026019   -149.16164    4591.0602    10773.959 
   13970    274.77213    4.8532005    71.279655   -150.33492    6969.2579    10773.959 
   13980    297.16466    5.6643359    59.011871   -151.38826    2709.4487    10773.959 
   13990    267.83631    6.1122666    58.652131   -152.20323   -3897.8805    10773.959 
14000        0.97291292635666204447 10.168130381682997765 1 72 -281.52155741257479349
   14000     285.0647    6.2259334    54.545608   -152.36355   -2387.1145    10773.959 
   14010    296.56518    7.7373048    63.458189   -151.81429    538.89067    10773.959 
   14020    295.77114    8.9685153    61.032561   -151.09894    4017.0928    10773.959 
   14030    307.68733    7.1100242    57.640123   -150.69519   -1273.9034    10773.959 
   14040    280.68681    8.3984875    59.214403   -150.49794   -1499.4886    10773.959 
   14050    295.19014    9.2031661    52.916242   -149.91917   -1217.7128    10773.959 
   14060    274.71496    11.269895      59.3055   -148.53034   -1127.4437    10773.959 
   14070    312.97851    8.0445351    56.346354   -146.26961    -1545.658    10773.959 
   14080    292.22407    7.1099973    64.263065   -143.57388   -866.65168    10773.959 
   14090    334.73423    5.6911374    54.645882   -140.53899    744.66696    10773.959 
14100        0.97971002272179552595 10.161846109089959 1 69 -272.77963679238291661
   14100    298.17365    7.9895751     62.02145   -137.68219    4930.1285    10773.959 
   14110    305.03558     8.409019    63.356757   -134.80106    714.96544    10773.959 
   14120    300.84541    9.4961752    73.174601    -131.8713    2471.2465    10773.959 
   14130    337.89541    9.4495182    60.209153   -129.36828   -2373.2062    10773.959 
   14140     345.7065    9.2368868    60.707969   -128.06205     -1165.14    10773.959 
   14150    341.68057    8.8727391    62.574306   -128.34469   -1786.1949    10773.959 
   14160    316.89042     8.876376    68.122422   -129.98038   -1409.1814    10773.959 
   14170    315.70227    7.2695088    67.614964   -133.23627     30.52901    10773.959 
   14180    301.12786    7.2792512    64.631151   -138.39059   -1461.6667    10773.959 
   14190    291.21037    6.2066291    61.688574   -144.19757    -260.3361    10773.959 
14200        0.97819132105154182888 10.156573489528367915 1 67 -279.00746106331700958
   14200    286.51841    6.9751817    60.756941   -149.19081    1859.2127    10773.959 
   14210    286.33982    7.1044411    62.163627   -152.77332    781.10539    10773.959 
   14220    285.22918    6.1509286    61.614409   -155.46943    2753.6261    10773.959 
   14230    265.48575    6.3819009    64.212845   -157.30975   -4919.2307    10773.959 
   14240     261.6784    7.1390039    63.701061   -158.00275    879.26256    10773.959 
   14250    271.54212    6.7315098    59.539808   -157.70406    1551.3381    10773.959 
   14260    274.01531    5.7858865     60.74461   -156.71764    1636.7629    10773.959 
   14270    315.93725    3.6546304    55.597562   -155.58654     693.2294    10773.959 
   14280    312.14224    5.6617138    54.658083      -155.04   -507.91636    10773.959 
   14290    295.33221    5.6013752    62.980926   -154.82304   0.41468447    10773.959 
14300        0.97579112660847988625 10.142884427379501133 1 68 -279.9592836330336354
   14300    276.83909    5.7724739    62.603291   -154.52816    907.84844    10773.959 
   14310    280.12041    5.4805157    62.524448   -153.90438   -2150.6414    10773.959 
   14320    280.65654     8.194396    59.316489   -152.91595   -871.95051    10773.959 
   14330    283.00986    9.7518569    66.288424   -151.36945    2631.5158    10773.959 
   14340    317.83191    7.2044662    62.412429   -149.11494     2947.959    10773.959 
   14350    291.26419    5.6585497    63.606677   -146.94508   -1174.4538    10773.959 
   14360    285.18468    5.3988844    64.197922   -144.57416   -3448.9802    10773.959 
   14370    288.89448     5.427948     70.07561   -141.27169    486.40925    10773.959 
   14380    295.27898    4.7778309    66.383784   -136.46979   -2519.4407    10773.959 
   14390    310.21327    5.6762154    74.380293   -130.66841    1385.4954    10773.959 
14400        0.97201013743999920003 10.15029706142203203 1 71 -273.37098384084544023
   14400    328.22523    5.4160209     68.88357   -124.65767   -3090.7436    10773.959 
   14410    339.48929    4.0136834    63.746428   -120.11868   -818.34686    10773.959 
   14420    331.46114    6.8223382    69.800047   -117.26529   -697.62437    10773.959 
   14430    320.24189    11.387967    65.381659   -115.87308    3286.1759    10773.959 
   14440    312.68863    11.337769    67.127723   -115.41923    5454.7126    10773.959 
   14450    304.57369    6.4554472    69.559985    -115.5007    1885.8891    10773.959 
   14460    333.21484    5.6847182    57.349058   -116.11247    2667.5656    10773.959 
   14470    321.33179    6.2295056     66.90485   -117.64959   -2113.3483    10773.959 
   14480    325.58498    5.2031835    62.476674   -119.93878   -736.96516    10773.959 
   14490    321.32884    4.1660424    65.054454   -122.77123   -3599.6569    10773.959 
14500        0.96960908970274606311 10.170350940634396153 1 71 -267.91112326861951942
   14500    312.00568    3.9738794    67.681217   -126.54661   -1519.0518    10773.959 
   14510    294.63092    5.1137956    71.045426   -130.39541   -1135.2184    10773.959 
   14520    298.51253    5.3377465    62.359852    -134.0041    72.353407    10773.959 
   14530    287.36253    4.2398924    65.088267   -136.33802   -171.53433    10773.959 
   14540    289.55684     4.572364    60.324307   -137.71196    2593.1179    10773.959 
   14550    266.17228    5.4607064    68.612389   -138.11194    1303.6103    10773.959 
   14560    295.15099    5.7048196    63.019369   -137.89967    3787.1508    10773.959 
   14570    311.78465    6.0812176    61.680913   -137.72099   -475.16889    10773.959 
   14580    319.11931    8.3178777    61.964076     -137.972    1547.3123    10773.959 
   14590    351.79595    9.0116416    45.065697   -138.82658   -2391.7979    10773.959 
14600        0.97078747359219097479 10.180078962628565264 1 70 -287.272468812287741
   14600    323.82903     8.132081    62.117287     -140.551   -5018.4529    10773.959 
   14610    322.29465    7.9172883    55.469808   -143.04083   -2757.8767    10773.959 
   14620     302.1495    7.5562471    63.413159    -145.9075   -1216.3111    10773.959 
   14630    320.08448    6.4485205    56.986163   -149.14986     4137.897    10773.959 
   14640    316.57192    5.8456143    54.768061   -152.75876    1930.9035    10773.959 
   14650    304.60563    7.2948665    57.032905   -156.72957    536.39098    10773.959 
   14660    298.54941    8.0283234    52.660018   -160.19394     1971.025    10773.959 
   14670    286.66708     7.790068    57.045796   -163.06991   -519.78941    10773.959 
   14680    287.31179    6.7383539    53.086114   -165.02019   -2334.8618    10773.959 
   14690    305.75697    5.0383144     46.81365   -166.33978    -478.7615    10773.959 
14700        0.96919766996288947425 10.188496292610556893 1 67 -295.06011422158007917
   14700    282.40681    2.9368987    55.304967   -167.10635   -125.99833    10773.959 
   14710    275.75102    2.7421316    63.291433   -166.96874    778.44746    10773.959 
   14720      271.476    4.2850545     61.69793   -166.14303    -1233.458    10773.959 
   14730    266.35267    6.3000882    65.638444   -164.72292    4265.2856    10773.959 
   14740    290.10101     7.011807    52.950188    -162.5299    2216.6064    10773.959 
   14750     278.6754    7.7027186    53.189584   -159.68444   -2498.1004    10773.959 
   14760    308.83386    5.6837901    55.574932   -155.75611    2785.1445    10773.959 
   14770    303.39119    4.3939326    67.278558   -151.72861   -280.51066    10773.959 
   14780    278.22342    3.8395984    69.028941   -148.43812   -795.37914    10773.959 
   14790    286.44975    5.2106484    64.330658   -146.06503   -4568.7995    10773.959 
14800        0.96524331311652744603 10.218223036307923834 1 67 -285.71062000769597944
   14800    312.21218    6.3535169    59.571073   -144.25255   -325.27942    10773.959 
   14810    327.11154    6.9539567     53.90914   -143.25357    2165.2121    10773.959 
   14820    314.69165     8.024899    52.193199   -142.54447    -2098.347    10773.959 
   14830    312.75241    7.6468274    63.668377   -142.31702   -127.97155    10773.959 
   14840    303.39447    7.9656035    65.890631   -142.62059   -146.87819    10773.959 
   14850    291.91378    6.1662689    62.501344   -143.14933    993.38318    10773.959 
   14860    323.59317    6.9354288    52.595751   -143.48239   -568.36373    10773.959 
   14870    307.78521    6.9483934    62.063582   -143.76369   -1417.4637    10773.959 
   14880    317.89246    6.3662641    58.390962   -144.45645    402.20973    10773.959 
   14890    289.88673    6.5843599    58.620607   -145.29663   -2786.5388    10773.959 
14900        0.97090197404245304202 10.207815956726133066 1 70 -289.61738795986485684
   14900    316.59019    5.6563905     57.70003   -146.17571   -1146.2185    10773.959 
   14910    302.64377    5.5422144    61.503748   -147.17711    1423.4517    10773.959 
   14920    303.49584    3.3628524    59.290766   -148.60824    149.37585    10773.959 
   14930    282.37844    4.3274894    62.092242   -150.25792    2030.6206    10773.959 
   14940    291.25046    6.3264665    56.657494   -151.67043    68.247857    10773.959 
   14950    298.27397      8.36561    55.322012   -152.59566    41.343827    10773.959 
   14960    291.49286    6.5406209    57.434823   -152.83567   -1735.3041    10773.959 
   14970    297.47502      7.88291    60.950634    -152.5907   -970.19519    10773.959 
   14980    294.70883    7.8531276    63.139898   -152.51055    -583.8458    10773.959 
   14990    302.94836    7.9828538    55.224811   -152.75072   -2563.3985    10773.959 
15000        0.97647825243830543851 10.18352113619927124 1 68 -288.4805446737915986
   15000     299.0034    9.8797714    53.826394   -153.00715   -1435.9205    10773.959 
   15010    312.37847    10.754749    56.349401   -153.11325     1952.123    10773.959 
   15020    286.38512     8.710665    65.649703   -153.34031    1054.3131    10773.959 
   15030    276.18324    7.4884138    61.986299   -153.77099    1844.6996    10773.959 
   15040    280.13646    7.3738254    57.229652   -153.75544    192.90123    10773.959 
   15050    302.21779    9.5957322    58.089333   -153.03508    1616.0313    10773.959 
   15060    300.18838    10.873956    59.844089   -151.60245   -801.62401    10773.959 
   15070    290.10682    9.5035574    59.961785    -149.5177   -4058.9426    10773.959 
   15080    314.01999    6.8847306    66.812539    -147.2188   -495.06639    10773.959 
   15090    348.10493    6.4204609     61.00709   -144.99222    1944.6033    10773.959 
15100        0.98456935481887775108 10.123656702036047506 1 69 -308.85269693927193657
   15100    362.79586       3.6672    60.645133   -144.47601    2669.8835    10773.959 
   15110    328.81785    3.6482607    60.343072   -145.99741    331.54912    10773.959 
   15120    306.10216    4.2201083    65.702564   -148.91476   -1589.1543    10773.959 
   15130    297.96369    6.3446684    62.030246   -152.29105    3205.5929    10773.959 
   15140    295.52798    5.6800562    61.404189   -156.10796   -3552.8076    10773.959 
   15150    297.38394    7.4193032    56.386074   -159.58438   -3705.3201    10773.959 
   15160    284.49293    9.1585721    58.539821   -162.70123   -1089.7894    10773.959 
   15170    277.11186    10.383985      59.1307   -164.89751    1524.0819    10773.959 
   15180     286.7087    9.4007881    58.817442   -166.62282    2955.4401    10773.959 
   15190    269.34111    10.698146    59.955387   -167.86458    1982.2418    10773.959 
15200        0.99049926750875882941 10.07136582293463789 1 70 -295.73314983467321326
   15200    280.97867    10.161001    54.297502   -168.42646    2164.7235    10773.959 
   15210    274.49829    8.8847377    57.407548   -168.18639   -1288.3042    11163.619 
   15220    307.11369    7.9744451    47.159018   -167.07941   -5294.3313    11163.619 
   15230    296.39667    9.5206619    61.235008   -165.58593    3087.0418    11163.619 
   15240    297.14993    12.063979    53.510175   -163.54585      2087.87    11163.619 
   15250    276.78488    13.068933    61.859823   -160.30222    1545.1402    11163.619 
   15260    293.59291    11.742179     57.92148   -155.19494   -2295.6019    11163.619 
   15270    309.47651    9.6166159     65.49309    -148.4462    -1356.967    11163.619 
   15280    331.75754    9.5805801    59.389702   -142.04034   -675.39513    11163.619 
   15290    326.69972    10.094115    59.773642   -137.74942    835.74578    11163.619 
15300        0.98317941311637080393 10.02026970988921839 1 68 -274.34220012361367935
   15300    306.31655    11.839889    67.143709   -135.55534    5544.8914    11163.619 
   15310    307.27652    15.142147    61.674412   -134.51278    2854.2355    11163.619 
   15320    305.97462    15.094551    62.916103   -134.00902   -2218.5224    11163.619 
   15330    325.02577    9.4763909    64.706762   -134.13411   -127.37282    11163.619 
   15340    286.41964    8.6566147    67.304531   -134.60865   -2490.6208    11163.619 
   15350    319.30247    8.2288697    58.204215   -135.12134   -137.69379    11163.619 
   15360    299.93347    6.3859369    58.514515   -135.84677   -4028.2314    11163.619 
   15370    310.76935    3.5126262    57.599511   -136.41013    525.11128    11163.619 
   15380    305.27536    4.5477881    62.610997   -136.58694    3185.7896    11163.619 
   15390    312.59948    5.8686328    60.380211     -136.662    1551.3474    11163.619 
15400        0.97607044167095668996 10.034344594267883721 0.99735449735449732689 68 -263.60817000123876142
   15400    279.58013    6.8266631    68.382956   -136.93513    -1371.283    11163.619 
   15410    294.67024    7.8330184    63.499659   -136.90411   -1071.3787    11163.619 
   15420    283.08701    9.3067333    59.747387   -136.48874   -2184.6399    11163.619 
   15430    297.19036    9.3127244    61.860967    -135.4874    1347.1536    11163.619 
   15440    298.52735    5.9194773    63.216961   -133.63128    73.595647    11163.619 
   15450    324.60531    3.1553216    62.130461   -130.95084   -424.08326    11163.619 
   15460    320.68658     5.402208    69.151277   -127.80248   -1938.3621    11163.619 
   15470    351.77321    6.0201995     59.13664    -125.0707   -1089.0227    11163.619 
   15480    323.75165    6.3453468    67.607993   -123.55002    4271.7697    11163.619 
   15490    340.51391    7.5034815    53.833058   -122.87828    305.93633    11163.619 
15500        0.98181141285739303992 10.043704255579610773 1 69 -254.29304282370040369
   15500    290.26807    8.9348587     70.37037   -122.77748    1189.8476    11163.619 
   15510    316.47502    10.120058    64.032714   -122.74614    661.06865    11163.619 
   15520    318.31751    10.025274    72.487535   -123.51734    3352.1046    11163.619 
   15530    337.72229    10.046542    60.774256    -126.0285    12.763935    11163.619 
   15540    329.72264    7.9903597    60.233091    -130.7572   -4745.2308    11163.619 
   15550     331.5297      7.75841    60.589329   -136.90395   -66.930836    11163.619 
   15560    303.68907    8.8627576    56.418455   -143.39316    1905.4034    11163.619 
   15570     279.2061    8.4562084    61.095461   -148.16634   -485.41332    11163.619 
   15580    284.94084    7.3726748    55.425824   -151.33205   -302.22816    11163.619 
   15590    279.96917    5.8270184    56.549262   -153.18126   -561.56644    11163.619 
15600        0.9842623845873442745 10.110643420598233178 1 65 -293.64933672633361539
   15600    307.72228    5.0244796    53.036412   -154.22557    2256.9246    11163.619 
   15610    301.42988    5.1238094     59.15911   -154.89613    696.20614    11163.619 
   15620    341.14659    4.3831154    48.147931   -155.66112   -16.829867    11163.619 
   15630    300.51024    7.9182264     60.92055   -157.18873   -1220.9259    11163.619 
   15640    286.70013    7.4441695    57.705352   -158.53697   -3039.1199    11163.619 
   15650    295.72745    7.1861565    57.965776   -159.44637    369.90876    11163.619 
   15660    285.44046    5.5335133    61.980083   -160.08685    999.70963    11163.619 
   15670    284.79304    5.7791073    54.914151   -160.17751    784.42045    11163.619 
   15680     279.7755    8.3976434     56.38588   -159.69141   -61.805023    11163.619 
   15690    282.88453    8.5282323    59.677107   -158.71661    875.42779    11163.619 
15700        0.98577954761074326751 10.136705489344608466 1 68 -288.84246760313453706
   15700    290.64889    6.2634437     59.57098   -157.15436    2828.9272    11163.619 
   15710    313.72259    7.0573877    54.623553    -154.7771   -759.85856    11163.619 
   15720    318.75948    6.4665128    51.279007   -151.61365   -621.32023    11163.619 
   15730    317.00257    6.9864831     57.44893   -148.03425   -2487.7081    11163.619 
   15740    326.73424     6.440139    53.942946   -144.12879    1180.1684    11163.619 
   15750     335.8158    7.2725759    59.680094   -140.59568    939.79506    11163.619 
   15760    326.43962    6.9868698    57.084253   -137.59298    1345.2653    11163.619 
   15770    350.66764    6.1953366    53.975982   -135.06481    598.80066    11163.619 
   15780     315.3803    6.5856395    70.437739   -133.75341    53.238992    11163.619 
   15790    315.94709    6.2197277    60.046496   -133.58839   -1234.9526    11163.619 
15800        0.98291243307552755848 10.15669137755885032 1 70 -258.16435229987428102
   15800    273.97935    5.9440553    67.915294   -134.02893   -3519.7088    11163.619 
   15810    299.22437     8.177609    64.766415   -134.31147   -3155.5205    11163.619 
   15820    308.37731    8.1924939    63.535053   -134.64603    126.80492    11163.619 
   15830    306.89095    9.6040568     60.00121   -135.52772    2471.0527    11163.619 
   15840    315.14318    10.052362    65.676953   -137.39338    2411.3966    11163.619 
   15850     316.4556     8.935503    58.496394   -140.76001   -2132.6658    11163.619 
   15860       308.37    10.945538    57.204825   -145.32318   -1168.2369    11163.619 
   15870    297.93841     13.82628    56.446701   -150.20411   -870.34883    11163.619 
   15880    280.78394    14.982532    58.263827   -154.78905   -557.89276    11163.619 
   15890     270.2848    12.415624    65.128532    -158.3548    226.94073    11163.619 
15900        0.97965389334384711528 10.157538182603165211 1 68 -290.55529899460907473
   15900    286.13671     11.37571    53.356988   -160.91159    3359.2917    11163.619 
   15910    276.69996    12.917642     55.54632   -162.63061    3707.1946    11163.619 
   15920    277.70943    11.061462    57.226356   -163.31041   -1092.4688    11163.619 
   15930    290.46941    9.3820715     55.55603   -163.10347   -3820.4729    11163.619 
   15940    290.19391    5.1991784     58.59766   -162.37362     -2116.54    11163.619 
   15950    302.25603    4.0624377     64.59268   -161.59634    104.37721    11163.619 
   15960    298.77343    5.0850543    65.103141   -161.16553    1054.9081    11287.374 
   15970    296.55003    7.7062724     59.96234   -161.13217     103.7042    11287.374 
   15980    279.25938    9.8325859    60.583225   -160.88378    684.37208    11287.374 
   15990    296.56987    9.5405806    50.405455   -159.63697    1098.9633    11287.374 
16000        0.97378023713784211957 10.17513447210188815 1 66 -281.71378319081628661
   16000    274.41634    7.8489066    61.210899   -157.38037    66.513037    11287.374 
   16010    299.14843    6.2780062     67.65582   -153.42916   -2157.9759    11287.374 
   16020    314.79652    5.6203338    65.347071   -148.24361    -1295.307    11287.374 
   16030     327.4858    3.4863282    62.536695   -143.18506    1167.6218    11287.374 
   16040    325.59967    5.9611293    68.284371    -139.1336    4385.1229    11287.374 
   16050    328.71066    6.6541429    66.850673   -136.08826   -960.01336    11287.374 
   16060    324.11894    9.2124234    64.795025   -134.43377   -1928.0093    11287.374 
   16070    331.88151    9.5403016    61.024529   -134.02505   -1151.7665    11287.374 
   16080     318.6901    8.8535717     66.52836    -134.7655    1259.0092    11287.374 
   16090    346.87388    8.9085018    51.412983   -136.40136    -1659.169    11287.374 
16100        0.97672892247294962331 10.170366346231050514 1 65 -275.74375453163997918
   16100    300.70051    8.5820674    70.868876   -139.50143   -2870.3668    11287.374 
   16110       289.17    9.9232188    65.792534   -143.40711    1374.4619    11287.374 
   16120    262.34633    11.639261    68.605351   -147.60679    5477.4635    11287.374 
   16130    285.17197    11.219417    59.205764   -151.74374    775.36846    11287.374 
   16140    280.63874    8.8830447    57.464172   -155.74188   -1225.4042    11287.374 
   16150     291.0052    5.3074506    55.666733   -159.35725   -3398.0528    11287.374 
   16160    285.79398    6.0211868     54.45162    -162.7811   -142.27806    11287.374 
   16170    289.26443     6.792689    53.445138   -165.61197   -1996.7871    11287.374 
   16180    276.70713    7.1642353    58.632581    -168.1181    783.84623    11287.374 
   16190    262.82797    7.8879861      60.8904   -169.78096   -715.93765    11287.374 
16200        0.97334889967245363795 10.176724991780989882 1 68 -299.86524619401211567
   16200    285.29242     6.263989    52.629338   -170.60406    1886.9379    11287.374 
   16210    279.72792    7.1685654    55.759654    -170.8285    -841.7218    11287.374 
   16220    275.64966     8.308902    50.315325     -170.316   -123.91163    11287.374 
   16230    271.68237    8.8351684    59.948019   -168.52932   -127.07155    11287.374 
   16240    297.73299    8.7443186     58.39094    -164.4008    2809.4409    11287.374 
   16250    299.51891    8.4202207    68.498444   -157.34261    1010.0978    11287.374 
   16260    331.66582    8.8295968    61.084533   -147.17703    2389.9089    11287.374 
   16270    298.23979    9.5478846     63.29547   -138.67426   -3059.1253    11287.374 
   16280    315.18845    12.909667    61.303685   -133.75837   -1746.6313    11287.374 
   16290    309.55168    13.752274    70.740817   -131.42552   -847.37722    11287.374 
16300        0.96742510286632732441 10.202247154709684906 1 71 -274.54109166776612483
   16300    317.23298    9.2155459    66.824002   -130.80818   -1541.0437    11287.374 
   16310    307.72775    8.8269927    64.424313   -131.22484   -918.62542    11287.374 
   16320    305.15908    11.074744    64.607584   -131.91785    1322.7294    11287.374 
   16330    290.79236    11.095569    65.990011   -132.62753    4219.6319    11287.374 
   16340    304.66808     9.457889    63.202154   -133.36229    2570.5155    11287.374 
   16350    315.59599    7.4516641    65.250701   -134.66677   -1597.3078    11287.374 
   16360    312.96981    6.0083788     65.13581   -136.48937   -821.58537    11287.374 
   16370    313.96141    5.8141507    60.677565   -139.12261   -3194.3545    11287.374 
   16380    278.05983    5.4559369    72.864277   -142.41872   -4714.7427    11287.374 
   16390    291.85528    6.1542946    55.206418   -145.66591   -4103.3222    11287.374 
16400        0.96541312841211601725 10.194250407331225006 1 67 -281.29509117053794398
   16400    293.04209    7.0059361    62.962412   -148.52266    303.12912    11287.374 
   16410    294.49598    8.3553768     58.07522   -151.05672    5526.4778    11287.374 
   16420    278.87638    6.5413286    61.781071   -153.26082    6068.5147    11287.374 
   16430    273.34696    5.9051195    64.919698   -154.94334    2213.8149    11287.374 
   16440     285.2292    4.7425635    56.478069   -156.37491   -2895.9611    11287.374 
   16450    289.51696    3.6052104    63.784555   -157.53541   -1940.6711    11287.374 
   16460    300.42229    4.4264506    61.989007   -158.62138    572.27482    11287.374 
   16470    295.29356    4.3940454    55.118675   -159.81883   -1040.3783    11287.374 
   16480    257.04297    5.6542178    64.206238   -160.70297    -3048.949    11287.374 
   16490    258.40049    5.5554949    57.910851   -160.55087   -1680.8464    11287.374 
16500        0.96553835700679402354 10.195808788241411236 1 70 -276.48094889433826893
   16500    259.72209    6.4267398    60.782227   -158.80525    4104.1075    11287.374 
   16510    287.31903    4.9507743    55.908964   -155.03625    394.53052    11287.374 
   16520    265.69691     4.135196    71.152911   -149.58375   -706.51286    11287.374 
   16530    278.95952    5.4565033     72.65546   -143.24597   -1840.6781    11287.374 
   16540    335.30744    9.0602497    66.282439   -137.31798    3019.7708    11287.374 
   16550    332.82072    10.002928     70.28699   -134.06163    489.12751    11287.374 
   16560    356.92519    8.3346017    52.891433   -133.06453   -1273.8068    11287.374 
   16570    308.88798    6.2961535    67.130644   -133.46042   -1484.6563    11287.374 
   16580    311.68671    6.6446786    66.320896   -134.32641    868.22975    11287.374 
   16590    291.69873    8.0187184    70.852089    -135.7867    2045.7388    11287.374 
16600        0.96842687232102164785 10.185563215236369317 1 72 -271.02690109262954365
   16600    294.59418    7.9152771    65.711653   -137.55125    3368.1464    11287.374 
   16610    293.66521    6.1257871    59.879356   -139.27401   -566.87504    11287.374 
   16620    292.12564    5.1882112    63.822634   -140.51621   -1138.3978    11287.374 
   16630    324.77956    3.5246843     54.88779   -141.41377   -389.95472    11287.374 
   16640    301.92291    3.5077965    66.032847    -142.8669    2154.7173    11287.374 
   16650    292.68856    3.6582717    59.808882   -144.50952   -3388.5141    11287.374 
   16660    272.76053    4.2541017     68.34784   -145.80559    -5163.239    11287.374 
   16670     311.3996    6.2118723    56.709438   -146.66944    -1080.988    11287.374 
   16680    323.90106    5.7774718    54.412506    -147.7911    3700.4376    11287.374 
   16690    330.23606    5.8145014    53.661876   -149.93514    3116.8542    11287.374 
16700        0.97171392985674065468 10.186308620466608232 1 75 -289.26792172892021426
   16700    299.37824    6.5506679    63.234226   -153.62469   -445.98525    11287.374 
   16710    273.23616    7.2045447    58.240385   -158.34747    1327.4644    11287.374 
   16720    279.13633    10.591436    57.743878   -163.82615    1579.1454    11287.374 
   16730    282.15423    9.6088234      50.0334   -168.70894    715.69999    11287.374 
   16740    279.27469    8.5609657    49.006453   -172.80952   -4115.5218    11287.374 
   16750    277.17854    7.3472711    52.017488   -175.58777   -1692.8496    11287.374 
   16760    257.96023    7.8580538    57.966567   -177.20469    476.31629    11287.374 
   16770    258.18779    7.6318657     54.56145   -177.53611    2461.9955    11287.374 
   16780    263.12186    9.4663621    52.643926   -176.78867    2333.7374    11287.374 
   16790    275.89523    9.1691392    45.911637   -175.26187   -2978.6294    11287.374 
16800        0.97058992239003150093 10.202879007159845415 1 74 -311.15325541579034052
   16800    304.22189    5.9612449    45.347339   -173.31545   -198.83557    11287.374 
   16810    297.33345    5.2592097    46.320345   -171.54425      1306.93    11287.374 
   16820    288.52286    5.0012498    47.327402   -169.70301    1078.6847    11287.374 
   16830    254.98199    4.5804182    63.955094   -167.73701   -1699.7381    11287.374 
   16840    273.03856    4.1420702    62.945048   -165.60747   -3661.7225    11287.374 
   16850    287.16182    4.7623575    52.581163   -163.18849     707.4296    11287.374 
   16860    308.36343    5.6551587    48.051856   -160.81502    2152.3523    11287.374 
   16870    293.40238    8.5398635    51.483083   -158.33712   -468.16243    11287.374 
   16880    294.71621    9.5709126    57.695998    -155.5896    291.51844    11287.374 
   16890    274.47395      7.50929     57.41869   -152.68371   -389.30194    11287.374 
16900        0.96940587231888886155 10.19984816124897975 1 73 -282.09596380675452565
   16900     291.5648    6.2054544    67.492952   -149.99287    759.94472    11287.374 
   16910    312.29347    7.7529739     61.29726   -147.47124    421.90559    11287.374 
   16920    332.61435    6.7050864    51.915226   -145.66544   -1254.2021    11287.374 
   16930    287.63007    5.9225498    58.956526     -144.259   -781.38503    11287.374 
   16940    296.15452    4.5062493    64.092984   -142.64894    469.25566    11287.374 
   16950    291.69164    5.4445303    64.452979   -140.75843   -234.89596    11287.374 
   16960    318.63655     5.139792    63.276801   -138.98595    -1003.462    11287.374 
   16970      323.996    6.4390713    60.094155   -137.63307   -969.90256    11287.374 
   16980    348.32074    9.4223798    53.680204   -137.23342    251.81284    11287.374 
   16990    305.45693    11.071509    65.238344   -138.07574    137.95246    11287.374 
17000        0.97500442218171279318 10.178488434243543992 1 73 -268.28215254424401337
   17000    284.27812     11.86994    65.073174   -139.48053    554.00932    11287.374 
   17010    274.18106    10.208954    65.444493   -140.99366    112.32922    11287.374 
   17020    300.51175    7.2017398    58.224357    -142.1825    254.87072    11287.374 
   17030    327.18656    8.9117198     55.76767   -143.69473     1244.046    11287.374 
   17040    307.42232    10.911437    58.720288   -146.15871   -1559.9453    11287.374 
   17050    310.66749    10.104466    59.037832   -150.41126    2216.8465    11287.374 
   17060    288.33359    7.8606507    69.383747   -156.04299    1595.1337    11287.374 
   17070    285.06601    7.1608088    55.808129   -161.93002   -1218.6676    11287.374 
   17080    270.26012    6.2167867    54.774086   -166.27912   -4753.6914    11287.374 
   17090     294.0825    4.2746259    54.646653   -169.31041   -867.21388    11287.374 
17100        0.98046481269231322564 10.161798933000740774 1 74 -296.0733386175613191
   17100    275.89605    2.8332838    53.650046   -171.06949    1028.3439    11287.374 
   17110    270.74145    3.9643419    57.311295    -171.7873     1272.221    11287.374 
   17120    279.25304    5.0606448    56.776022   -171.60364   -463.89835    11287.374 
   17130    288.01092    6.0930876    58.981875   -170.82415    298.91054    11287.374 
   17140    297.94779    7.0264276    56.503379   -169.82378    624.54464    11287.374 
   17150    278.12322    6.0353364    59.412574   -168.53178    540.09503    11287.374 
   17160    268.50638     5.668682    55.395114   -166.59529    672.03244    11287.374 
   17170    278.97998    7.7793803    57.063148   -163.34074   -1295.4321    11287.374 
   17180    298.91662    9.4476218    62.334341   -158.81258   -3953.8153    11287.374 
   17190    302.92312    9.7036048    59.087772   -154.17637     -1536.36    11287.374 
17200        0.98787389150338655863 10.103896985886301252 1 69 -292.48397034033456521
   17200    313.62393    8.5164221    60.066331   -150.38626    1646.7244    11287.374 
   17210    323.59469    6.5953658     63.35363   -147.77941    5007.4188    11287.374 
   17220    337.90349    5.6683828    55.027453    -146.4464    1814.5545    11287.374 
   17230    309.76901    6.2831633    58.445973   -146.06334   -1770.6265    11287.374 
   17240    315.98266    7.3314393    60.962174   -145.88967    1444.2154    11287.374 
   17250    301.83904    9.6564783    69.812499   -146.04159    2080.5885    11287.374 
   17260    299.98005    6.0685702     63.51215   -146.85043   -1884.9948    11287.374 
   17270    296.03889    7.2978688      65.9115   -148.01028   -1825.7282    11287.374 
   17280     301.3117    7.8975512    61.800423   -149.16953    -681.8356    11287.374 
   17290    297.01778    7.8538912    62.191514   -150.26621    1179.7166    11287.374 
17300        0.98619653660609896129 10.138922885913913774 1 68 -279.10744698852818146
   17300    282.25121    7.9729595    62.490775   -151.22419   -865.42411    11287.374 
   17310    264.02557    9.0523963    63.395714   -151.67156   -1355.0474    11287.374 
   17320    287.75868    8.1827592    64.651395   -151.31747    164.74385    11287.374 
   17330    308.38495    8.8717492    55.511801   -150.50635    284.94888    11287.374 
   17340    313.38381    8.5161229    59.555373   -149.73594     85.99654    11287.374 
   17350    307.63545    7.8920761    59.140531   -149.04146     2169.667    11287.374 
   17360    276.33703      6.98025     65.29896   -148.12238    2274.4102    11287.374 
   17370    286.40798    7.4132707    67.558638   -146.38727   -217.00369    11287.374 
   17380    303.79145    7.2458582    64.595352   -143.37495   -1850.1484    11287.374 
   17390    312.13752     8.354901    64.942164   -139.28113   -1352.4412    11287.374 
17400        0.98718439969680249479 10.117850296615809924 1 69 -288.68000283409293161
   17400    342.88255    10.086695     54.27379    -133.3257    -1563.521    11287.374 
   17410    333.81847     11.98147    56.417954   -126.93683    2319.3853    11287.374 
   17420    339.46281    11.313877    56.756934   -121.10441    36.724899    11287.374 
   17430    330.05034     9.478143    69.013327   -116.78628    3112.8279    11287.374 
   17440    379.30872    5.5079967    66.029078   -114.56638   -1710.5254    11287.374 
   17450    342.45464    6.7252372    70.228067   -115.16828   -78.129226    11287.374 
   17460    352.80388    6.3269506    56.541876   -117.70687   -4009.7897    11287.374 
   17470     315.5586    6.2011408    68.494542   -121.02444   -1034.6609    11287.374 
   17480    349.46681    5.8111857    58.057902   -124.41489   -1131.2823    11287.374 
   17490    334.17118    7.4982592    60.518122   -128.32227    949.12212    11287.374 
17500        0.98668375645509309724 10.083937730407665612 1 68 -280.89797226712204292
   17500    328.85727    5.9710798     54.95028   -131.89829   -1714.8537    11287.374 
   17510    306.42764    8.2287742    58.158129    -135.1843    1762.6379    11287.374 
   17520    298.11903    10.035325    64.799435   -137.62444    550.12645    11287.374 
   17530    311.30182    8.0445602    58.850371    -139.6604     1572.401    11287.374 
   17540    315.11232    8.9507641     50.76136   -141.22798    2032.1208    11287.374 
   17550    316.32747    7.9636944    49.148094   -142.35037    3357.4129    11287.374 
   17560    304.47422    6.3419711    54.632443   -142.98415     2206.813    11287.374 
   17570    317.36401    6.4793014    58.823188   -143.36662    306.89361    11287.374 
   17580    289.81998    7.5262918    62.128561   -144.09437   -949.69659    11287.374 
   17590    287.17067    5.0241828    64.656402   -144.61016   -3688.8708    11287.374 
17600        0.98806109905367733859 10.049169018803402409 1 67 -273.49718028692535654
   17600    284.34077    5.6427005    63.861279   -144.66717   -608.79848    11287.374 
   17610    304.79204    6.2751933    60.438414   -144.28558   -1349.3391    11287.374 
   17620    300.93477    6.2299458    65.739025    -143.9363    1058.2506    11287.374 
   17630    310.90596    4.9233259    56.692118   -143.76135   -1173.0975    11287.374 
   17640    296.15062    7.5802143    58.319027   -143.33721   -1081.4475    11287.374 
   17650      292.213    9.5334219    61.420961   -142.57189    2877.8403    11287.374 
   17660    273.43796    10.525067    77.785256   -141.14589    3612.5997    11287.374 
   17670    296.30606    7.8176051    62.626416    -138.8077    2711.9273    11287.374 
   17680     302.8083    10.420205    59.762795   -135.54629   -2955.8528    11287.374 
   17690    314.73809    10.592609    63.116474   -131.37218   -2454.6469    11287.374 
17700        0.98954850298932151009 10.065815437063349691 1 69 -263.01284975338194272
   17700    299.95807    9.0451487    71.519548   -127.10691   -542.04745    11287.374 
   17710    314.82484    10.699051     64.77624   -122.87153   -358.39076    11287.374 
   17720    303.41039    15.014048    69.923964   -119.24386   -931.38658    11287.374 
   17730    335.64542     13.00138     59.62469   -116.01467    649.40828    11287.374 
   17740     334.1552     9.927166    71.078565   -113.60477    5272.8457    11287.374 
   17750    315.79368     8.102249    72.604358   -112.28657   -355.20551    11287.374 
   17760    322.49478    7.3023563    69.282333   -112.06309   -2143.8434    11287.374 
   17770    323.53406    7.1493879    71.534991   -113.47233   -4505.5199    11287.374 
   17780    349.32648    5.2691431    55.329443   -116.49549    2730.9418    11287.374 
   17790      325.838    6.4995222    61.785366     -121.012    2686.9276    11287.374 
17800        0.98802693745700387318 10.070512425288308478 1 68 -267.62095694329093476
   17800    312.98396    7.5094646    60.302353   -125.81321    884.34844    11287.374 
   17810    301.44531    5.2661099    64.004208   -130.89727   -1581.6192    11287.374 
   17820    311.69747    4.8635855    57.133366    -135.1116    2859.0511    11287.374 
   17830    302.79123    5.7966854    56.350834   -138.21238    1219.9434    11287.374 
   17840    273.36395    5.9991775    62.715042   -139.65442    1536.3223    11287.374 
   17850     313.7081    5.4236635    55.492389    -140.2324   -2426.9429    11287.374 
   17860    303.72014    5.2235207    63.512822   -140.58486    -1828.946    11287.374 
   17870     342.4528    6.1158005    46.702322   -140.96701   -2325.1732    11287.374 
   17880    309.05364    4.2586743    60.633472   -141.62031    200.60747    11287.374 
   17890    303.68954    5.7217449    62.286335   -142.13211    2190.0982    11287.374 
17900        0.98478130857491341654 10.109691105689394774 0.99735449735449732689 66 -280.49094455765145995
   17900     303.6788    7.8229738    62.212307   -142.89921   -210.79944    11287.374 
   17910     303.4839    8.0273819    68.004711   -144.19161    2260.6284    11287.374 
   17920    318.64369    8.0092478    55.016712   -146.01732    413.91863    11287.374 
   17930    320.11904     9.374373    58.386997   -148.16178   -806.18332    11287.374 
   17940    329.97642     7.041555    55.174399   -150.90668   -3089.3704    11287.374 
   17950    310.70829    7.2180048    64.088332   -155.08264   -290.82734    11287.374 
   17960     273.0906    6.8722357    63.639938   -159.29904    2245.2205    11287.374 
   17970    280.72552    7.7137576     51.73228   -162.38378   -1305.5668    11287.374 
   17980    261.51963    5.1631609    57.627423   -164.17594   -3141.6222    11287.374 
   17990    279.69661     3.142206    54.271426   -164.94238    252.21878    11287.374 
18000        0.97869051566534515096 10.145930872445237725 1 67 -284.67885453354722358
   18000    264.41706    5.1352645    59.257779   -164.87595    1960.4197    11287.374 
   18010    267.98425    8.9984575    63.454845   -163.85004    -253.5534    11287.374 
   18020    290.33357    8.9275569    53.223236   -162.22155   -355.87641    11287.374 
   18030    266.07144    7.8555317    65.895331   -160.49741    2431.6196    11287.374 
   18040    287.99109    8.5280273    55.964973   -158.51777    1679.5319    11287.374 
   18050    293.37218    5.9624712    58.052979    -156.5677   -2446.1265    11287.374 
   18060    293.60694    3.4999872    58.154381   -154.86967   -3577.4332    11287.374 
   18070    308.55055    2.5471563    57.743625   -153.72065   -4574.9252    11287.374 
   18080    280.88992    4.2466802      62.0116   -153.01835    1556.1104    11287.374 
   18090    308.88696    6.7709927    60.276263   -152.30753     570.8014    11287.374 
18100        0.97959540890693386217 10.153748545420681282 1 66 -293.86058635333944267
   18100    313.66104    7.6867661     54.78964   -151.74606    1876.8775    11287.374 
   18110    301.39049     10.14777    63.597956    -151.8789    1997.3877    11287.374 
   18120    294.05362    11.310343    61.861467   -152.16033    889.14929    11287.374 
   18130    287.45943    11.021054     62.51684   -152.15914    1339.0347    11287.374 
   18140    304.98389    11.788011    58.605862   -151.83998   -4737.0215    11287.374 
   18150     291.6799     12.44681    64.193304   -151.26772   -2937.6915    11287.374 
   18160     304.2304    12.096773    57.800819   -150.54069   -1818.5784    11287.374 
   18170    286.03909    12.454205    59.282866   -149.54496    2494.5319    11287.374 
   18180     312.6805    8.8073258    54.294736   -148.02993    4301.0807    11287.374 
   18190    283.75499     7.704042    62.526316   -146.26016    1111.9289    11287.374 
18200        0.97910948164701916419 10.171318099207011798 1 65 -281.56547711074438212
   18200    303.97053    6.0276301    57.916358   -143.84156   -471.85831    11287.374 
   18210    306.21597     6.778206    62.555501   -140.81412   -1196.3097    11287.374 
   18220    321.04137    8.2444984    61.969811   -137.65791    -701.4661    11287.374 
   18230    310.35685    7.6679838    68.219828   -134.43038   -710.21973    11287.374 
   18240    334.65384     7.769094    55.975629     -131.291   -4731.0407    11287.374 
   18250    315.40441    7.1467541      71.9659   -128.41571   -679.69243    11287.374 
   18260    344.19123     6.352699     62.75154   -126.20027    1798.5155    11287.374 
   18270     312.2333    4.8918681    77.301848   -124.74796    2014.2927    11287.374 
   18280    338.27658    3.9868933     61.41327   -124.54486    1009.5627    11287.374 
   18290     287.0258    4.5664617    73.118122   -125.42603   -4525.6851    11287.374 
18300        0.9821326461766785032 10.137469010263430391 1 67 -281.48884884277367746
   18300    340.25703    5.8704577    51.342663   -127.32413   -83.930353    11287.374 
   18310    312.80769    5.9598723    73.286834   -130.85844    2074.6518    11287.374 
   18320    325.84563    8.5308606    64.398825   -136.10371    3785.3442    11287.374 
   18330    294.97328    11.137739    58.811211   -142.30097   -246.51509    11287.374 
   18340    302.26642    8.8383962    61.482442   -147.60601   -2401.6705    11287.374 
   18350    316.26036    7.3386328    59.779703   -152.53423    2485.4871    11287.374 
   18360    271.44842    10.002097    66.373426   -156.22901    989.66895    11287.374 
   18370    302.64516    10.245068    47.699272   -158.58817     1677.862    11287.374 
   18380    286.13272    8.5020172    64.794797   -159.94997   -333.95727    11287.374 
   18390     314.4442    6.4130212      54.4305   -160.93133    1349.6105    11287.374 
18400        0.97882740641444287988 10.14691813661971409 1 69 -296.35070402015765012
   18400     296.4575    6.1114658    52.539218   -162.03081    -1905.793    11287.374 
   18410    300.90423    5.6192813    47.434807   -163.00485   -1595.2219    11287.374 
   18420    281.87147    6.5287544    58.755928   -163.55297   -2502.9411    11287.374 
   18430    273.35755    9.7463527     55.70088   -163.46431    -658.5499    11287.374 
   18440     296.4367    10.594706     55.81061   -162.72498    1210.8445    11287.374 
   18450    294.13719    10.594019    54.421617   -161.50538    3756.4387    11287.374 
   18460     290.7972    9.0944849    57.198355   -159.65438    3557.9903    11287.374 
   18470    292.69705    8.2669473    55.140442   -156.78849   -1347.7522    11287.374 
   18480    319.12213    4.6705848    52.224143   -153.28924   -1862.9437    11287.374 
   18490    328.31231    5.0512073    52.360017   -149.69151    1523.8647    11287.374 
18500        0.9750519643373414258 10.158560481161988065 1 68 -290.33128681454371645
   18500    317.66129    6.3807318    54.883047   -146.40432    -665.5451    11287.374 
   18510    304.10035    8.3518723    69.179645    -143.2976   -297.18474    11287.374 
   18520    320.50358    10.882147    62.084276   -140.34324   -1651.0568    11287.374 
   18530    318.06026    11.719743    59.823611   -137.96786    4845.5163    11287.374 
   18540    321.23755    10.823489    62.579758   -135.89115    4719.5906    11287.374 
   18550    321.69464    9.4230281    55.379464   -133.93681    254.71619    11287.374 
   18560    319.15037    6.1351353    60.269464   -132.23694   -1113.5743    11287.374 
   18570     307.7097    5.9139176    62.266922    -130.9122   -1640.2896    11287.374 
   18580    283.10038    6.4071733    64.187024   -129.36305   -2984.0151    11287.374 
   18590    313.67466    7.5046333    59.131452   -126.64769    -1645.069    11287.374 
18600        0.95500741256854770889 10.244851981824290021 0.99735449735449732689 69 -264.57616679557418138
   18600    312.56666    7.1903999    69.424388   -122.95749   -2752.3444    11287.374 
   18610    338.67219    7.8121979    59.684509   -118.64566   -1270.6337    11287.374 
   18620    313.15763    9.4921435    72.129606   -114.76991   -1957.8298    11287.374 
   18630    339.69202    10.883165    66.233611   -111.82807     2542.211    11287.374 
   18640    368.07669    11.232138    59.229236   -110.08039    3459.8062    11287.374 
   18650    363.40976    10.623941    56.723819   -110.51946    1932.7565    11287.374 
   18660    329.56961    6.7407082    63.554371   -113.15425   -1155.6586    11287.374 
   18670    322.06589    4.3927008    64.138253   -117.12525   -1423.0368    11287.374 
   18680    318.78197    4.4533829    70.401471   -122.15428    98.484729    11287.374 
   18690    334.06666     4.585365    59.568197   -127.68705   -744.76176    11287.374 
18700        0.94237383349067782579 10.274935847920787069 0.99735449735449732689 71 -276.00249971234836721
   18700    314.77148     5.224905    58.443062   -133.38485   -1322.1305    11287.374 
   18710    314.94117    5.0910621    54.949984   -137.87979    1266.4627    11287.374 
   18720    319.84296    6.7511369    50.932796    -141.2016    3929.4155    11287.374 
   18730    309.41596    9.2275419    52.952116   -143.74519    1086.2652    11287.374 
   18740    297.12112    7.7368655    57.141357   -145.47736   -1614.7909    11287.374 
   18750    290.79064    6.7434048    60.957478   -146.81083   -3468.4685    11287.374 
   18760    298.11493    6.0947467    54.677749   -147.99866   -1802.8685    11287.374 
   18770    291.69433      7.60651     63.85792   -148.85585    1650.1604    11287.374 
   18780    308.16654    10.020542    50.069697   -149.49998    1117.6744    11287.374 
   18790    281.25008    9.5592581    53.898681   -150.08533    341.43809    11287.374 
18800        0.92289569011594030368 10.328076491842310247 0.99470899470899465378 69 -277.62736366432807245
   18800    281.54216    8.7826684    51.005119   -150.06536   -3229.3911    11287.374 
   18810    273.54567    10.106473    57.291168   -148.90137    -221.8176    11287.374 
   18820    304.01442    8.5413611    53.636964    -146.4788     3892.517    11287.374 
   18830    281.91174    5.5649633    61.645665   -143.44384    631.14831    11287.374 
   18840    289.29768     2.191741    63.391196   -139.67232    1769.5959    11287.374 
   18850    291.10426    2.6971989    63.858084   -135.10098   -1431.5903    11287.374 
   18860    324.89908    3.1791908    60.755216   -130.43806    2146.9514    11287.374 
   18870    309.74188    3.1197379     64.20072   -126.94695   -1397.9519    11287.374 
   18880    290.33516    3.5494991     61.00453   -124.65654   -3003.4865    11287.374 
   18890    292.74741    1.9721043    70.974569   -122.94193   -770.85861    11287.374 
18900        0.91536838954901134091 10.343501932310882552 0.98148148148148139924 66 -264.06307150636285996
   18900    313.61803    1.0073724    64.373611   -121.96803    2298.8201    11287.374 
   18910    308.38014   0.78565563    68.133275   -121.82642     761.9188    11287.374 
   18920    326.38349    1.1490239    60.267182   -122.11676    833.50388    11287.374 
   18930    307.39296    2.4175458    65.989224   -122.85374   -1863.0362    11287.374 
   18940     298.2274    4.1483108    70.642131   -123.90231   -1202.6013    11287.374 
   18950    304.14965    4.2056891    59.592479   -125.05793   -1282.1202    11287.374 
   18960    298.76188    2.8778331    64.834343    -126.3644   -85.884702    11287.374 
   18970    291.37902    1.4961985    64.926281   -127.72406    2215.2201    11287.374 
   18980     262.0794    2.5204961    71.677156   -128.96854   -2289.6738    11287.374 
   18990    275.56424    2.7961453    64.649799   -129.88285    1609.5041    11287.374 
19000        0.90335917924742825669 10.391166799298062529 0.97883597883597883715 66 -254.57635050509250618
   19000    274.65898    2.9006478    63.464753     -130.133   -1512.5006    11287.374 
   19010    295.77649    3.2623842    52.381293   -129.74418   -1708.6772    11287.374 
   19020    267.38223    3.0622065    71.359534   -128.73285   -2428.0796    11287.374 
   19030     329.0804    4.4516797    51.307168   -127.02047     1837.623    11287.374 
   19040    323.22624     2.518926    60.031027   -125.70122    4290.4391    11287.374 
   19050    323.72338    2.4618338    62.178897   -125.10239    868.65607    11287.374 
   19060    292.52178    3.3361671    64.262289   -125.21588    249.85518    11287.374 
   19070    322.88794    3.0072213    63.441664   -125.94603   -1938.2064    11287.374 
   19080      314.811    3.4565207    61.387693   -128.20483   -1900.5657    11287.374 
   19090    319.36693    5.7045882    54.796099   -132.52049   -3884.6997    11287.374 
19100        0.90465080705411538009 10.380072396425839898 0.98148148148148139924 66 -268.75335399154215565
   19100     285.9763    7.2317403    59.834669   -139.18232    9.4820464    11287.374 
   19110    270.28828    8.9439918     53.43459   -146.03685     623.3874    11287.374 
   19120    246.26328    6.6683522    60.195961   -150.89141    1052.7962    11287.374 
   19130    271.70677    4.8918039    52.613531   -153.40734    2424.3534    11287.374 
   19140    275.33261    5.2543779    53.522206    -154.4677    1721.7638    11287.374 
   19150    284.72968    5.1092759    55.823485   -154.51384   -2732.4688    11287.374 
   19160     276.8873    5.7699154     58.44708   -153.87482   -2755.0842    11287.374 
   19170    277.50802     6.167834    60.618537   -152.64966   -406.78053    11287.374 
   19180    299.93411      5.76618     54.65568   -150.99973    2229.0604    11287.374 
   19190    305.75692    4.1873189    56.371786   -149.21281   -1321.4518    11287.374 
19200        0.91618864697555524312 10.349935536950122028 0.98677248677248674547 71 -290.5659485413552261
   19200    316.05901    2.6087385    49.121443   -147.36494     2294.756    11287.374 
   19210    278.68373    1.7929945    63.088933   -145.71602    1070.4748    11287.374 
   19220    319.31672     2.956363    51.839308   -143.59518    1524.0998    11287.374 
   19230    284.32635    3.2183154    66.746177   -141.56169   -2780.4911    11287.374 
   19240    290.03297    5.7580154    58.801121    -139.0921   -2953.4758    11287.374 
   19250    295.54564    6.8605732    70.537031   -135.67974    1185.0239    11287.374 
   19260    328.41324    4.9394522    58.620557   -131.96132    1759.2908    11287.374 
   19270    306.88443    5.6195383    64.676858    -128.8425    39.297665    11287.374 
   19280    327.35731    6.1896569     54.74592    -125.6746   -364.07727    11287.374 
   19290      305.833    7.0283568    61.971838   -122.28221   -3063.7215    11287.374 
19300        0.92672260309114762311 10.324369494528193414 0.98677248677248674547 69 -252.93667447085340427
   19300    295.50384    7.6041501    71.489638   -119.04887    -1168.646    11287.374 
   19310    305.78856    9.8282554    64.789064   -115.98713   -3055.7812    11287.374 
   19320    318.84719    7.3540114    68.649685   -113.53702    168.29233    11287.374 
   19330    347.70619    4.3546693    63.615867   -111.47509    940.34528    11287.374 
   19340    328.38169    7.4817879    71.005104   -110.46162    1763.0638    11287.374 
   19350    349.76968    9.1998318      60.3022   -110.79236    2177.7959    11287.374 
   19360     326.7807    10.003962    71.378235    -114.1161   -1209.2681    11287.374 
   19370    308.81708     11.06779     60.10804    -120.7299    948.68841    11287.374 
   19380    295.72017    12.731056     61.28212   -128.82968   -1850.8046    11287.374 
   19390    315.98047    8.8608923    60.809358   -136.14735    180.65448    11287.374 
19400        0.93784818950232406998 10.251182718295934748 0.98941798941798930755 66 -280.57063355741200894
   19400    306.59891    6.1453902    59.455358   -141.65584   -711.94138    11287.374 
   19410    304.61063    4.9971379    51.943702   -145.56474   -2047.3195    11287.374 
   19420    284.61765    3.6420687    61.691746    -148.2349    4777.3032    11287.374 
   19430    299.32084    4.1725452    50.010827   -149.86771    3230.6156    11287.374 
   19440    283.18924    4.6879038    60.172006   -150.80487    394.70675    11287.374 
   19450    291.27316    4.9590164    61.257305   -151.50038   -1029.0237    11287.374 
   19460    296.03053    3.8902291     54.29086   -152.16138   -3515.4724    11287.374 
   19470    305.02624    3.2723927    54.143284   -153.05253   -21.667829    11287.374 
   19480    283.64373    3.9871137    52.162199   -153.61348   -2317.2138    11287.374 
   19490    277.63826    6.8250816    58.569859     -153.319   -1224.2776    11287.374 
19500        0.95249672515718619703 10.20720783208675897 1 69 -287.45891268444307798
   19500    298.32695    8.0919521    60.937721   -152.29201    1589.5203    11287.374 
   19510    308.20207    9.8342094    56.086744   -151.04654    3844.1824    11287.374 
   19520    307.61937    9.6602384    58.168614    -150.1522    3679.8038    11287.374 
   19530    311.42843    8.1237386    53.061223   -149.32947   -2398.0101    11287.374 
   19540    314.29605    7.2859284    49.720748   -148.77097   -1168.3093    11287.374 
   19550    316.98492    7.5134347    53.458544   -148.16991    905.83933    11287.374 
   19560    328.92987    8.3405114      57.3985   -147.69864    547.59981    11287.374 
   19570    325.11856    9.4730032    55.740416   -148.11683   -890.53717    11287.374 
   19580    297.94729    10.256986    64.656945   -149.45857   -2591.1141    11287.374 
   19590    306.20889    9.6054936    58.098475    -151.4786    216.48968    11287.374 
19600        0.95998959850303111629 10.207006807022601436 0.99735449735449732689 67 -282.4170192445104135
   19600    283.27817    9.3535424    64.636493   -154.06846    392.41643    11287.374 
   19610    279.61473    6.4950197    61.123883   -156.77219   -291.25435    11287.374 
   19620    283.66325    4.3619236     54.03925   -159.18479    1695.2385    11287.374 
   19630    280.58663    5.8539552    55.711349   -161.36155    346.07117    11287.374 
   19640    288.24029    7.0505855    52.205396    -163.3374    1264.1931    11287.374 
   19650    273.86104     4.963585    54.724813   -164.93753   -788.54381    11287.374 
   19660    286.20716    3.8674037     47.00582   -165.89601     61.25009    11287.374 
   19670    260.69101    4.7475179    61.462119   -166.04844    139.62653    11287.374 
   19680    290.19165    4.7730931     53.18076   -165.08959   -1369.2311    11287.374 
   19690    288.75111    6.4178206    60.950835   -163.05771   -1147.4587    11287.374 
19700        0.96733027216460465425 10.211817154375516736 0.99735449735449732689 71 -298.62901386029204787
   19700    305.56537    7.1881101    55.537396    -160.1825   -691.01741    11287.374 
   19710    301.29724    5.5220625    49.951105   -156.63646   -787.29374    11287.374 
   19720    304.75795    3.5285247    58.922607   -152.21151     262.7674    11287.374 
   19730    311.92444    5.3751892      53.6664   -147.46579    3555.5985    11287.374 
   19740    306.33684    5.1985145    61.837332   -142.86893    1757.1796    11287.374 
   19750    324.47057    4.9851629    56.411874   -138.94301    75.309475    11287.374 
   19760     334.1972    6.4546264    51.196724   -135.85033   -1012.7064    11287.374 
   19770    342.72377    7.2126092    57.027103   -134.17035    120.89978    11287.374 
   19780     317.8045    9.2535593    59.008356   -133.68418   -852.35501    11287.374 
   19790    303.59477    8.5484508    60.174562   -133.68018   -2220.4555    11287.374 
19800        0.97249564976403257699 10.189874793847627288 1 72 -272.74089512165141969
   19800    306.74811    8.1087379    61.125448    -133.7585   -2136.0797    11287.374 
   19810    297.95024    6.1440949    60.915514   -133.85852   -1539.3219    11287.374 
   19820    316.44578    6.1993565    59.024451   -134.10287    1230.5312    11287.374 
   19830    314.16876    6.2821597    64.999638   -134.69992    1900.1038    11287.374 
   19840     315.5996    8.2871136    59.311984    -136.2109   -1384.4438    11287.374 
   19850    285.09996    9.8442437    67.145317   -138.05157   -2371.2094    11287.374 
   19860    283.03096    10.749355    60.584002   -139.81834    2565.3929    11287.374 
   19870    304.69185    10.263324    55.016929   -141.28365    2636.6002    11287.374 
   19880     314.3426    10.479659     57.84111   -143.22197     1146.869    11287.374 
   19890    300.29469    8.9323184     58.95312     -145.969    1105.0228    11287.374 
19900        0.97634598340447187326 10.171738416986613629 1 72 -277.97979237587787793
   19900    284.30944    5.7012144    51.880427   -149.16398   -2310.1653    11287.374 
   19910    280.20887     5.437532    66.409856   -153.28543    977.50389    11287.374 
   19920    285.82579    7.2195886     60.54982   -158.96162   -1986.0127    11287.374 
   19930    279.96439    7.7091425    57.542687   -165.81054    756.36094    11287.374 
   19940    291.51466    6.7587705     48.87697   -172.04063    321.79453    11287.374 
   19950    278.77601      7.14831    50.190346   -176.20724      1205.22    11287.374 
   19960    279.60146    6.3392336    52.912289   -178.31668    531.48034    11287.374 
   19970     273.3937    6.8584905     55.34363   -178.94984   -1559.7582    11287.374 
   19980    278.97146    5.5964378    47.680309   -178.64804   -3865.3694    11287.374 
   19990    261.40076    6.0697367    55.166209   -177.63391    1138.4746    11287.374 
20000        0.98036403458786491871 10.136288522061253303 0.99206349206349198067 70 -289.63163252547866477
   20000    251.32689    7.2616358    55.332104   -175.75966    1555.7443    11287.374 
   20010    272.39715    7.9216952    52.012857   -172.84532    2618.6212    11287.374 
   20020    287.30863    7.4399598    54.608098    -169.0075    1780.8695    11287.374 
   20030    302.33175    5.8399824    50.742018   -165.14223   -849.15128    11287.374 
   20040    284.07983    5.6106608     60.80821   -161.80049   -2390.0322    11287.374 
   20050    292.02798    6.2776943    51.330543   -158.99715   -3168.7314    11287.374 
   20060    288.31836    7.4825683    60.216263   -156.59451    1258.3409    11287.374 
   20070    304.54912    7.3931437    52.427031     -154.134   -416.99834    11287.374 
   20080    311.39866    6.6242841    55.886534   -152.13326    1716.1463    11287.374 
   20090    288.79559    7.5443655    64.723938   -150.59136    3867.5615    11287.374 
20100        0.98798052143483694465 10.09222593370614085 0.99735449735449732689 71 -289.94183521525724245
   20100    310.02751    7.6809535    52.407876    -149.4736   -998.04156    11287.374 
   20110    294.99882    9.0145188     58.59155   -148.45134    1040.5335    11287.374 
   20120    303.84087      12.7758    52.577788   -147.47018   -3592.4434    11287.374 
   20130    320.04879    12.576221    52.927799   -146.54677   -246.56419    11287.374 
   20140    317.22062    9.8633142    59.908471   -145.94433   -2638.7394    11287.374 
   20150    319.99577    5.9706833    55.266884   -146.04763   -350.55356    11287.374 
   20160    310.29749    4.7817054    57.515124   -146.67052     1015.201    11287.374 
   20170    311.08335    6.0493997    46.697465   -147.65012     2454.739    11287.374 
   20180    292.87112    3.8665576    62.852473   -148.72572    2306.4051    11287.374 
   20190     280.2126    3.8008423    57.992901   -150.13674    4037.5763    11287.374 
20200        0.98636137733024198404 10.057370113800303102 1 72 -277.87235618766322887
   20200    278.75438    4.6968526    56.902618   -151.57345   -548.88661    11287.374 
   20210     280.5195    5.5266055    54.208283   -152.81178    -739.1139    11287.374 
   20220    286.49177    5.9963382    54.913142   -153.68611   -1950.5074    11287.374 
   20230    280.72231    5.3227246    60.593233   -154.19132    294.25101    11287.374 
   20240    284.25194    6.6649121    60.291219   -154.45991    1079.3388    11287.374 
   20250    289.78504    7.2280404    54.320479   -154.35703   -1669.9201    11287.374 
   20260    290.90573    6.5154313    53.298906   -153.86692    1095.9154    11287.374 
   20270    292.54972    5.3980047     58.74853   -152.81442    1070.5483    11287.374 
   20280    290.71715    6.2131276    61.455571   -151.29118   -1378.3094    11287.374 
   20290    284.17969    9.3017769    55.072929   -149.54445    673.47165    11287.374 
20300        0.98530101937651604072 10.050773440555596849 1 70 -281.79197724059741859
   20300     297.1118    9.2855809     57.63592   -147.17564    1194.8281    11287.374 
   20310    315.69595    7.2039844     54.50369   -144.12738    636.07942    11287.374 
   20320    316.22364    6.2323759    54.290234   -140.94409   -3109.4679    11287.374 
   20330    302.46232    7.5605294    65.556347   -138.12681   -4103.3519    11287.374 
   20340    324.56417    9.8786092    58.429705   -135.82114    58.025217    11287.374 
   20350    326.23079    8.1056174    64.139802   -134.37636   -1396.1394    11287.374 
   20360    316.77495    8.2934757    59.802755   -133.92072   -786.68715    11287.374 
   20370    308.25628    8.5654809    57.961479   -133.80272     -697.036    11287.374 
   20380     302.5711    7.4119128    58.242483   -133.71718     2580.512    11287.374 
   20390     324.4211     8.029962    58.105336   -133.72572    4594.0475    11287.374 
20400        0.98265168919875789388 10.035204040078101073 1 67 -279.89393254110154885
   20400    321.08446    8.4481432    56.430431   -134.41598    4425.3299    11287.374 
   20410    313.24354    7.9018879    52.730096   -135.58192   -355.08726    11287.374 
   20420    314.68423    5.9785359    57.805797   -137.33044   -72.656094    11287.374 
   20430    303.84162    4.5216289    66.556329   -140.49997   -512.06668    11287.374 
   20440     310.9825    6.7272877     62.13661   -145.21667   -2089.9098    11287.374 
   20450    298.38988    8.6833625     59.34089   -151.01011   -3642.9743    11287.374 
   20460    301.76406    8.7935374     53.97191   -156.59536    -4799.562    11287.374 
   20470    284.87593    5.7458403    58.601104   -161.24166     968.0607    11287.374 
   20480    289.70647    6.7751239    54.849815   -164.26981    3976.2903    11287.374 
   20490    289.05068    10.209906    52.906642   -166.17275    422.35159    11287.374 
20500        0.97788878929298161946 10.067526593470995877 1 69 -294.89842416803219294
   20500    281.73176    11.028575    58.759613   -167.25052    129.93011    11287.374 
   20510    289.12242    7.7094822    52.857003   -167.75571   -1493.7205    11287.374 
   20520    269.99888    7.4058534    56.857862    -167.7003    3159.1477    11287.374 
   20530    283.00139    9.0904225    43.208405   -166.77376   -1912.5431    11287.374 
   20540    247.71067    9.6755066    61.228626   -164.83665   -1542.7151    11287.374 
   20550    267.88143     8.662186     57.93042   -161.64393    611.65761    11287.374 
   20560    269.57261    9.8709841    57.306234   -157.51575    1436.6537    11287.374 
   20570    272.15475    9.7595796    62.847719   -153.40002    2087.2338    11287.374 
   20580    305.29267    9.4744145    55.398487   -149.36286   -148.00357    11287.374 
   20590    309.01514    6.4877829    60.818272   -146.20394    1813.1205    11287.374 
20600        0.97499449467728183105 10.065305382694806013 0.99735449735449732689 65 -273.27466315158056887
   20600    284.82081    7.7472682    64.089473   -144.22716    139.90049    11287.374 
   20610    273.95875    9.9904497    68.033913   -142.76863   -1068.8663    11287.374 
   20620    289.86615    8.6041983     68.47417   -141.26456   -492.05243    11287.374 
   20630    303.10624    7.0750866    62.790366   -139.85509   -3440.9951    11287.374 
   20640    289.33065    6.3256123    61.118317   -138.86495    1185.2305    11287.374 
   20650    287.91553     5.826278    65.641782   -138.01678    1469.8837    11287.374 
   20660     299.1666    5.5211013    61.476078   -136.92575    1922.1558    11287.374 
   20670    299.25718    4.1925865    59.387808   -135.76871   -382.33177    11287.374 
   20680     281.7706    4.4057529    63.806574   -134.42283   -3376.1313    11287.374 
   20690    280.49439    3.5653095    70.042698   -132.81843   -1272.3459    11287.374 
20700        0.97149206070535765178 10.091427883904202645 0.99735449735449732689 69 -266.71558054516208358
   20700    300.35142     4.457234    58.940186   -130.63142   -3798.1867    11287.374 
   20710    329.39853    3.7254669    62.012035   -127.97161   -1327.6461    11287.374 
   20720    332.86377    2.1679987    61.629472   -125.62391    3635.9066    11287.374 
   20730    313.58205    3.5352636    63.337777   -123.86705    2022.0071    11287.374 
   20740    320.84647    5.2533037    59.003808   -122.35396   -85.473811    11287.374 
   20750     309.5429     7.199285    69.790991   -121.18312    219.35905    11287.374 
   20760    325.63544     5.905468    61.866373   -120.61147    3693.1088    11287.374 
   20770    316.70359    7.3582848    71.900025   -120.54515   -1724.4022    11287.374 
   20780    327.95552    6.8645183    62.917336   -120.89564    292.36848    11287.374 
   20790     322.6089    6.4794024    69.153866   -122.56536   -3983.9626    11287.374 
20800        0.97271039398369563145 10.087452421264259783 0.99470899470899465378 67 -264.29224312566054778
   20800    305.56004    6.4515415    67.663449   -125.84814    3322.7877    11287.374 
   20810    290.87111      6.25401    73.923916   -130.26682     491.1926    11287.374 
   20820    309.90845    6.2357639    60.252743   -135.23516    838.55072    11287.374 
   20830    292.40102    6.2074601     65.94351   -140.42724    639.93653    11287.374 
   20840    284.45618    7.2123489    61.603353   -145.09266     931.1514    11287.374 
   20850    265.83458    7.5958957     65.94728   -148.39356   -510.22514    11287.374 
   20860    294.39141    8.0749308    54.958791   -150.43446   -920.70289    11287.374 
   20870    278.16811    7.6099898       57.873   -151.51457   -3696.9049    11287.374 
   20880    304.52842    6.0331949     53.20026   -152.05485    210.14542    11287.374 
   20890    277.82312    5.2587019    59.335864   -152.14961   -726.47527    11287.374 
20900        0.97620282505114019944 10.073644705878134431 1 68 -274.99890234883190487
   20900    272.21172    7.2635386    59.827706   -151.66437    2750.9905    11287.374 
   20910    262.80585    8.4434819    58.497063   -150.34869     1197.331    11287.374 
   20920    266.08105    6.3548508    67.437554   -147.89586    16.885494    11287.374 
   20930    276.12914    6.0641079    65.632045   -144.72752     2467.105    11287.374 
   20940    300.07468      7.18357    57.745547    -140.6862   -2614.3212    11287.374 
   20950    310.55386     5.784408    60.622367   -136.77201   -1580.5189    11287.374 
   20960    338.12883    4.5377736    58.693898    -133.0223   -568.40717    11287.374 
   20970    330.33145     4.056887    66.900658   -130.73934    2093.3274    11287.374 
   20980     309.7504    5.3214651    69.019349   -129.99621    2050.5922    11287.374 
   20990    318.57793    5.3830031    60.623504   -130.11001   -1696.1315    11287.374 
21000        0.97312269378395499508 10.127252383651146772 1 67 -271.24000194116183593
   21000    310.42709    3.7324651    62.589879   -130.59073    96.036853    11287.374 
   21010    323.97907    4.7612129    63.143902   -131.37201    1826.9784    11287.374 
   21020    316.08227    5.4133775    59.843899   -132.78396   -1689.7055    11287.374 
   21030    320.29894    6.5638034    60.502375   -134.48437   -2421.3138    11287.374 
   21040    318.98963     9.599111    54.329724   -136.10632   -2645.2309    11287.374 
   21050    325.53338    8.4708684     59.36044    -137.5901    3379.1267    11287.374 
   21060    337.76605    8.2410317     52.95744    -139.2756    1596.3906    11287.374 
   21070    300.64264    7.4083228    58.603731   -141.06517     2109.821    11287.374 
   21080    324.06095    8.4947654     46.68989   -142.45434    -1344.345    11287.374 
   21090    307.48323    7.8908284     60.44658   -143.63385    218.12372    11287.374 
21100        0.96340958500747264637 10.176838873662880758 0.99735449735449732689 69 -286.70358761021259397
   21100    313.53974    8.7568879    58.674886   -144.64402   -607.94229    11287.374 
   21110    288.42012     12.09571     65.32235   -145.44254   -1440.6888    11287.374 
   21120    301.66202    9.9269736    65.974364   -145.98913    399.89096    11287.374 
   21130    299.80863    9.2309218    69.075051   -146.60744    2520.0649    11287.374 
   21140    312.10489    7.2724181    63.757003   -147.57319     1918.276    11287.374 
   21150     302.0201    4.6453979      61.2199   -148.99566   -2731.1034    11287.374 
   21160    296.52621    2.5050572    58.668223   -150.42357   -4847.3348    11287.374 
   21170    303.45108     2.414863    61.893041   -151.70548    370.75816    11287.374 
   21180    296.75846    4.2956591    66.634932   -152.83506   -787.85058    11287.374 
   21190    312.29044    6.8954618    62.164691   -154.20587    2795.1354    11287.374 
21200        0.9662510888611272053 10.192767362986135282 1 65 -292.89227075481483098
   21200    301.41399    11.108004    65.440998   -156.32668    420.19143    11287.374 
   21210    293.71262    15.047902    53.367269   -158.83375    -314.9903    11287.374 
   21220    301.22673    11.570805    52.027241   -161.16987    920.36728    11287.374 
   21230    307.72889    9.2464548    55.441686   -163.39565     37.25462    11287.374 
   21240    302.75263    6.6537069    56.559135   -165.73775    1560.8756    11287.374 
   21250     307.1767    6.0570219    51.447444   -168.31154   -1825.6513    11287.374 
   21260    286.47046    5.2424653    53.980127   -171.03949    910.49772    11287.374 
   21270    262.69586    6.1285399    62.227111   -173.55087    294.94821    11287.374 
   21280    277.87803    9.0931539    52.801401   -175.65403    1787.4789    11287.374 
   21290    279.74955    10.248878    52.169627   -177.79401   -681.34311    11287.374 
21300        0.96647497118853364917 10.210517108056134106 1 68 -296.90096840790397437
   21300    258.02486    9.3505801    57.835528   -179.99426    1246.1078    11287.374 
   21310    250.05447    10.215811    58.151589   -181.92933   -1187.3036    11287.374 
   21320    261.33502    10.261889    50.607155   -183.20759    -1642.512    11287.374 
   21330      261.499    7.5407622    54.605583   -183.73081   -1939.3538    11287.374 
   21340    263.07277    5.0298316    52.782065   -183.09034    863.03578    11287.374 
   21350    264.16733    6.6600574    51.592841   -180.78534   -270.83055    11287.374 
   21360    286.65661    5.4987688    49.159509   -176.88053    769.36285    11287.374 
   21370    274.18488    4.8787828    56.543026   -171.82839    1812.6071    11287.374 
   21380    273.51629    5.4528305    67.920271   -166.64003     294.3214    11287.374 
   21390    300.27802    8.3576649    56.095847   -161.66605   -1381.5518    11287.374 
21400        0.96188208294758448247 10.220227626598337167 1 65 -295.25358502668171923
   21400    303.41148    9.9484388     53.64071   -157.78296   -1206.3311    11287.374 
   21410    286.99382    9.4890147    60.093334   -154.78242   -1589.2028    11287.374 
   21420    294.70301    7.1193177    60.593496   -152.14908    1478.9518    11287.374 
   21430    307.47794    6.9492335    56.292289    -149.8762    916.59477    11287.374 
   21440    290.71696    6.3952353    57.072073   -147.84326    48.408774    11287.374 
   21450    296.99324     4.933184    58.932513   -145.69865    1168.5694    11287.374 
   21460    293.76069    5.0865569    67.515416   -143.29487   -330.71188    11287.374 
   21470    312.14587    4.1259672    62.342584   -140.70453    1051.0235    11287.374 
   21480    298.30086     4.584033    72.734508   -138.81906   -2847.2051    11287.374 
   21490    308.90183    4.8422706    61.051372    -137.7791   -5211.7906    11287.374 
21500        0.94022949752269524559 10.273004371601917484 0.99470899470899465378 62 -269.28877582244501809
   21500    291.58086    7.4375869    62.215223   -137.17841   -649.76622    11287.374 
   21510    303.61701    8.8501014    62.787939   -136.68586    2350.3428    11287.374 
   21520    300.67142    8.3381163    63.663354   -136.54667    5347.1011    11287.374 
   21530    303.30153    7.8465203    59.479302   -136.67488    360.41961    11287.374 
   21540    286.95811    8.4938163    55.962798   -136.97014   -2697.0835    11287.374 
   21550     286.0099    7.2106358      60.4177   -137.08958    765.23754    11287.374 
   21560    316.18205    7.2934381    63.326128   -137.10792   -2178.6977    11287.374 
   21570    301.94692     6.777677    69.024637   -138.11294    1528.3397    11287.374 
   21580    318.33727    7.0089606    54.758664   -140.34642   -5074.9135    11287.374 
   21590    298.81028    6.9325542    59.274705   -143.45263   -4760.7866    11287.374 
21600        0.94633016723337903819 10.274669655699810278 0.99735449735449732689 67 -284.42235719482687273
   21600    303.23861    6.0630631    56.535711   -147.03006    758.97119    11287.374 
   21610    296.81764    6.3417935    49.029614   -150.95578    966.51062    11287.374 
   21620    290.72735    5.9860714     52.34708   -154.68987    3398.7606    11287.374 
   21630    279.14906    5.7373403    53.380898   -157.86956    2262.9139    11287.374 
   21640    278.50581    5.0359388    51.837615   -160.22701    2561.7749    11287.374 
   21650    270.94463    5.6998505    54.558547   -161.72862    3849.9471    11287.374 
   21660    265.81895    6.0079618    50.558238   -162.13314   -3931.2772    11287.374 
   21670    257.48335    5.5030533    50.752853   -161.75376   -6307.7265    11287.374 
   21680    260.15881    4.0529848    53.296715   -158.96604   -3137.5429    11287.374 
   21690    296.16967    2.8689618    58.325236   -154.42215    893.53497    11287.374 
21700        0.95566049944063380384 10.239465367956544384 1 68 -296.93067256602148518
   21700    325.54266    3.7147879    63.327079   -149.43279    2732.2257    11287.374 
   21710     326.4431    3.7490614     58.34561   -146.02943   -3100.1554    11287.374 
   21720    321.86828    6.5392516    46.534499   -144.60607   -76.176181    11287.374 
   21730     295.4789     10.12035    62.850919   -144.00689     2423.562    11287.374 
   21740    309.69892    9.6081842    52.317822   -143.48694     3040.359    11287.374 
   21750    306.68163     6.841492    58.851793   -143.30586    1644.4693    11287.374 
   21760    330.06062    5.6822791    50.061513   -143.64185   -288.41194    11287.374 
   21770    308.61881    5.7372732    54.164758   -144.54985   -1310.6896    11287.374 
   21780    301.98073    8.5643417    56.552097   -144.70396    1576.2298    11287.374 
   21790     278.1152    9.1111098    60.414472   -145.45057   -2021.4427    11287.374 
21800        0.96152776046980181768 10.202402342901130794 1 64 -278.97576201943741125
   21800    293.68428    8.5587091    61.477899   -145.91237     1553.606    11287.374 
   21810    290.64844    10.226763    49.079662   -146.02836   -1058.0055    11287.374 
   21820    292.64902    9.7163724    52.679169   -145.58501    3993.6829    11287.374 
   21830    301.66596    9.1822752    57.625817   -144.56349    2543.8172    11287.374 
   21840    297.42123    6.3243788    62.994231   -143.58743    -3304.753    11287.374 
   21850    304.43883    3.9610316    56.831246   -143.17536   -1624.7644    11287.374 
   21860    284.84287    3.1796204    56.629929   -143.17282   -827.44669    11287.374 
   21870    301.13113    3.9929882    55.924497   -142.72567   -1487.9184    11287.374 
   21880     306.0953    6.0842968    60.150953   -141.96249   -321.58392    11287.374 
   21890    313.09001    7.3420896    58.502121   -141.14772    -722.0985    11287.374 
21900        0.96783230974241329925 10.181479701222702516 1 64 -281.28168557326119981
   21900    310.56629    5.5427121    61.199811   -140.56934    1470.9786    11287.374 
   21910    319.61249    3.9567222    47.653036    -140.1402   -256.32136    11287.374 
   21920    290.14053    6.0031656    60.289828   -139.34306   -2719.2976    11287.374 
   21930    302.89905    4.4735407    56.512505   -137.78903     56.71709    11287.374 
   21940    298.79138     3.893332    63.015636   -135.72819    1318.4196    11287.374 
   21950    313.29317    3.4982495      63.1436   -133.80584    369.00159    11287.374 
   21960    316.52911    3.8682374    62.213195   -132.17475     1976.633    11287.374 
   21970    329.97448    4.1767434    52.667946   -131.22217   -2926.0162    11287.374 
   21980    312.71103    3.8025633    57.080823   -130.79077    2239.0753    11287.374 
   21990    305.48145    5.3902262    54.078805   -130.78272   -955.66823    11287.374 
22000        0.97053155114070421838 10.153050986092400976 1 67 -267.80252888041411552
   22000    302.19613    7.6792308    52.995028   -130.88256   -110.54081    11287.374 
   22010    324.53289    9.4823939    50.353303   -131.34611    450.26752    11287.374 
   22020    308.20164    9.3499442    60.474409   -131.40095   -56.795385    11287.374 
   22030    310.98299    7.8095379    61.490207   -131.00005    5364.6257    11287.374 
   22040    314.72977    7.4565644    58.000378   -131.62514    258.03631    11287.374 
   22050    328.89852    5.1551926    57.049485   -132.93751   -776.91685    11287.374 
   22060    339.95901    3.2266269    56.009741   -135.61534   -2476.5128    11287.374 
   22070    320.64498    4.1166759    57.845472   -139.39383   -2315.2739    11287.374 
   22080    291.15113    6.2344647    60.469821   -144.08061   -986.00131    11287.374 
   22090    274.55289    6.4399557    53.056496   -147.90797   -1411.5158    11287.374 
22100        0.97029526276638711213 10.135169804018813622 1 67 -283.16615900720734089
   22100    291.98205    8.0700239    51.532426   -150.87402    2072.1539    11287.374 
   22110    280.16615    8.8023392    46.600106   -152.85436     3503.422    11287.374 
   22120    296.14668    10.637948    51.358268   -153.89646    971.06363    11287.374 
   22130    312.42104    11.028824    51.764006   -154.34367    1321.1994    11287.374 
   22140    307.93954    10.053943    45.096721   -154.71593   -2696.2645    11287.374 
   22150    285.84253     7.774381    58.640492   -154.93026   -2668.8299    11287.374 
   22160    310.66948     6.723424    45.146882   -154.63216   -3088.6603    11287.374 
   22170    280.65781    7.4321928     63.56701   -154.11773   -87.797067    11287.374 
   22180    299.90505    7.8693102     61.82661   -153.42524    3803.9763    11287.374 
   22190    313.01044    8.9040875    53.258924   -152.86459    5295.3699    11287.374 
22200        0.97419787137378721642 10.123662245170896412 1 67 -293.44320558604795224
   22200    310.21354    7.0622927    56.137801   -152.89069    3731.9567    11287.374 
   22210    284.09971      6.89172    59.009914   -153.22314   -1088.5371    11287.374 
   22220    283.18998    7.7829267     52.03879   -152.83342   -4441.1112    11287.374 
   22230    306.89049    6.9638561    54.298168   -151.25958   -1193.6653    11287.374 
   22240     306.9272     6.577338    58.821881   -148.97661   -1690.5137    11287.374 
   22250    311.49419    8.5360252      47.2015   -146.17617    2202.7129    11287.374 
   22260    295.33246     12.20234     59.58269   -142.93618    321.83582    11287.374 
   22270    271.60022    10.333836    63.521445   -139.53862    3181.9702    11287.374 
   22280    288.42318    12.551724    57.401722   -135.18607   -578.59583    11287.374 
   22290    320.33356    12.006179    55.334211   -130.54366   -1436.5899    11287.374 
22300        0.97630977590849543635 10.172536909651960002 1 69 -279.97097446122029396
   22300    338.32749    6.2654269    64.880639   -126.68049   -272.88523    11287.374 
   22310    316.54321    4.2911439    65.093074   -124.52889     1418.968    11287.374 
   22320    338.52736    4.8699938    60.772187   -123.76363   -1658.0398    11287.374 
   22330    323.15953    7.6509633     62.33781   -124.56661    1475.0114    11287.374 
   22340    304.05668    7.6951383     63.60143   -126.26956   -1702.3182    11287.374 
   22350     322.2934     8.154628     65.76373   -128.68547    2321.3554    11287.374 
   22360    309.43215     9.661977    67.608609   -132.02233   -2782.6287    11287.374 
   22370    322.42104    9.1586408    58.625853   -136.40188   -1199.8649    11287.374 
   22380     330.7342    8.1356688    58.118936   -141.62906   -2801.8053    11287.374 
   22390    312.43855    6.7011638    52.965559    -146.9667    -1034.769    11287.374 
22400        0.97750460018726681444 10.176902892475638396 0.99470899470899465378 68 -288.33941748848172892
   22400    303.15234    5.9988789    57.215564   -150.98621   -606.71075    11287.374 
   22410    285.20223    5.0081396    56.537308   -153.72517    2084.4712    11287.374 
   22420    268.09043    4.5142902    60.987073   -155.24507    534.03852    11287.374 
   22430    267.53081    5.7820111    58.285006   -155.64203    925.14843    11287.374 
   22440     304.1156    7.3359071    56.102871   -155.56002    2009.9507    11287.374 
   22450    311.30493    10.491118    53.767572    -155.7767    1775.2826    11287.374 
   22460    278.70958    9.3692952    51.664928   -156.19195   -2912.7144    11287.374 
   22470     263.7986    7.2948626     55.32995   -156.06715   -1368.5448    11287.374 
   22480    261.73449    7.1830465    57.621521   -155.02828   -1939.8486    11287.374 
   22490    261.94431    9.2053778    63.718218   -153.07808   -486.09306    11287.374 
22500        0.9781328828696671529 10.172672230024673468 0.99735449735449732689 63 -283.60984286048699232
   22500    294.55707    7.4933929    63.002635     -150.151    454.72656    11287.374 
   22510    295.61115    7.6002112    59.876938   -146.83338    2636.0318    11287.374 
   22520    299.15031    6.8621638    61.443575   -143.67319    2942.9356    11287.374 
   22530     310.3693    8.7767247    59.962259    -140.4801    40.552313    11287.374 
   22540    329.34609    9.1760751    51.633533   -138.05086   -153.35335    11287.374 
   22550    308.58024    9.3207852    61.530297   -136.54385   -2457.7876    11287.374 
   22560    301.78239    12.553114    51.584227   -135.46299   -2052.3488    11287.374 
   22570    291.25034    12.975535    60.176449   -134.34749   -4193.6709    11287.374 
   22580    303.22044    10.114696    59.418824   -133.17882    549.86366    11287.374 
   22590    313.01202    7.6089623    59.808916   -131.98009   -137.77058    11287.374 
22600        0.97449131375781183895 10.17289542503342048 0.99735449735449732689 66 -274.7584918111602974
   22600     317.2663    7.0233644    61.751141   -131.01049    3598.7417    11287.374 
   22610    316.71551    5.5513821    62.182972    -130.5227   -866.32055    11287.374 
   22620    286.92745    5.8628971    63.348482   -130.05154   -264.01277    11287.374 
   22630    317.04407    5.2842518    52.525969   -128.80849   -604.06872    11287.374 
   22640    304.03748    4.5477618    65.371024    -126.3402    3902.9811    11287.374 
   22650    333.46755    3.5037556    58.639164   -123.14618    2053.8162    11287.374 
   22660    361.06707    4.7613287     54.82541   -120.00629   -708.85975    11287.374 
   22670     368.9645    7.1595223    56.944774   -118.52619   -4641.2456    11287.374 
   22680    341.28383    9.2141942    61.540424   -119.00538    1679.8724    11287.374 
   22690    329.51399    11.168127    59.411765   -121.21774    1044.7973    11287.374 
22700        0.97762763785844353226 10.174063626117238357 1 71 -260.51318702298220842
   22700    300.53353    11.467151    67.141053   -124.34651    49.916121    11287.374 
   22710    330.34959    11.448605    59.393852   -127.90123   -2273.1811    11287.374 
   22720    337.09356    13.047288    60.258624   -132.21485   -3077.8811    11287.374 
   22730    332.37676    11.777918    60.878622   -137.38588   -894.41159    11287.374 
   22740    330.91423    12.456213    55.258033   -143.35382   -1174.9094    11287.374 
   22750    284.82118    12.236908    65.908998   -148.54843    2463.5662    11287.374 
   22760     298.9899    11.279496    54.714332   -152.35654    1286.7892    11287.374 
   22770    287.81173    8.7224118    60.446477   -155.09449    2812.1729    11287.374 
   22780    283.67301    7.4348226    57.022124   -157.17715    244.30122    11287.374 
   22790    270.56094    7.1591443    61.639947   -158.70075    1017.1847    11287.374 
22800        0.98338645175503258677 10.13427122787369683 1 70 -284.11588180125937697
   22800    275.33033    6.0598258    53.319026   -159.36836    686.89689    11287.374 
   22810    276.84097    6.6052579    52.511993   -159.20667   -1240.6246    11287.374 
   22820    282.06751    6.8908642    64.039127   -158.17828    886.75718    11287.374 
   22830    274.04667    7.9989257    59.522768   -156.42929   -2739.1354    11287.374 
   22840    294.66344    8.7252345    57.825039   -154.21176   -2470.8961    11287.374 
   22850    302.49301    6.4683729    63.359606   -151.87828    1358.9399    11287.374 
   22860    286.84119    5.1394245    60.012193   -150.09027   -23.925237    11287.374 
   22870    294.90704     5.742165    53.491937    -147.9936   -147.76895    11287.374 
   22880    274.52216    6.0852605    58.432596   -145.55487   -2611.0129    11287.374 
   22890    280.35198    6.7993263    63.895796   -142.20965   -630.58623    11287.374 
22900        0.98545530813394810465 10.102647521948748377 1 71 -263.25930955436115255
   22900    276.15321    9.7436847    57.983543   -138.13895    2310.0279    11287.374 
   22910    303.57417    11.615429    55.184268   -133.67501   -221.11062    11287.374 
   22920    311.52823    10.530386    58.426845   -129.21404    3173.5133    11287.374 
   22930    358.43163    11.263882    47.180831   -125.67225    1800.5366    11287.374 
   22940    331.30151    12.716948    66.035958   -123.85699    1790.3359    11287.374 
   22950    340.27477    8.2105382    57.785566   -124.08998   -1691.0948    11287.374 
   22960    317.02427    5.5790296    67.594021   -125.71519   -2793.3932    11287.374 
   22970    354.78057    3.9407662    58.745155   -128.32243   -303.18886    11287.374 
   22980    321.72251      3.64503    63.010719   -131.96377    239.68917    11287.374 
   22990     298.6105    3.3440334    61.616577   -135.55817    169.85897    11287.374 
23000        0.98640895335631351148 10.117937523524398458 1 68 -272.34490820170015013
   23000    295.75216    3.7636229    63.476611    -138.3446    59.499319    11287.374 
   23010    299.25492    7.9219562    65.313349   -140.49971    -901.0492    11287.374 
   23020    307.29856    10.991317    55.944273   -142.18424    89.245927    11287.374 
   23030     302.1569    13.992326    58.131397    -143.5959    443.73293    11287.374 
   23040    313.93654    13.225661    54.125727   -144.96119    1603.5316    11287.374 
   23050    306.02035    9.5199652    55.515541   -146.49371    2023.7184    11287.374 
   23060    304.54576    7.6693772    52.782801   -148.16667    1991.9096    11287.374 
   23070     289.7637    6.9175919    54.061859   -149.78944   -1456.1865    11287.374 
   23080    301.56403    10.785949    46.580167   -151.12914   -1039.3377    11287.374 
   23090    312.70709    9.4425534    51.835578   -152.41993   -2085.7288    11287.374 
23100        0.98977715923723252889 10.121052049059905187 1 69 -294.78864655023926389
   23100    311.98015    9.0693602    49.626437    -153.4357    1469.7283    11287.374 
   23110    309.23513    9.9497585    50.495231   -154.33501   -2120.1569    11287.374 
   23120    293.86758    10.115088    61.913397   -155.32103   -372.66421    11287.374 
   23130    298.51195    10.787016    51.786468   -156.59963    981.01485    11287.374 
   23140    290.48925    8.7845485    53.238091   -158.01845    5242.9896    11287.374 
   23150    308.70316    5.9633147    44.347265   -159.35827    3158.7648    11287.374 
   23160     306.4852    4.3859524    47.528846   -161.06005   -3602.2748    11287.374 
   23170    303.85463    2.6736805    54.574968   -163.05333   -3710.9069    11287.374 
   23180    288.76792    4.9814014    55.206422   -165.82724   -4080.2804    11287.374 
   23190    257.44877    6.9019524    53.756574   -168.58166    1298.9897    11287.374 
23200        0.98664197407344278457 10.117535016988954411 1 69 -292.94972161531160282
   23200    269.62855    8.5460032     51.42141   -170.78558    3343.1554    11287.374 
   23210    283.59043    11.134152    51.371936   -172.15518    1878.9041    11287.374 
   23220      305.031    12.792634    49.154748   -173.21328    2519.8228    11287.374 
   23230    285.65178     12.10865    51.667588   -174.24304   -1594.1498    11287.374 
   23240    272.22272    10.427845    45.987265   -174.50161   -372.33404    11287.374 
   23250    271.66537    9.4982175    48.812334   -173.36822   -3475.3455    11287.374 
   23260    272.30553    7.4243742     55.02977   -170.55615   -1548.2027    11287.374 
   23270    279.10433    4.7165848    56.825913   -166.43039    -2124.376    11287.374 
   23280    290.50901    6.2180141    46.305029   -161.65182    629.34178    11287.374 
   23290    291.57492    8.2926556    50.203903   -156.78119    2440.7593    11287.374 
23300        0.98204973682882545916 10.115781722649971996 0.99470899470899465378 68 -282.82881126995300747
   23300    288.10384     9.705725    45.667857   -152.29382    1415.6164    11287.374 
   23310    281.48515    8.5068976    53.745006    -148.3148   -475.02064    11287.374 
   23320    273.12369    8.0542669    58.832874   -144.85517     1394.174    11287.374 
   23330    284.56715    8.9438778    57.259562   -141.63672   -2424.0394    11287.374 
   23340    324.06489    7.5614493    49.751185   -138.83725    1010.5146    11287.374 
   23350    309.11252    6.8121817    52.321669   -136.85171   -1868.6185    11287.374 
   23360    312.01614    6.8563772      52.9484   -135.18666   -1485.7111    11287.374 
   23370    311.88418    7.4754933    58.384331   -133.80077    3241.0614    11287.374 
   23380    324.62944    6.5906481    59.477367     -133.035    4269.0948    11287.374 
   23390    325.50618     7.859554     54.25899   -133.23743    2566.2611    11287.374 
23400        0.98094166074622846097 10.123398427516447029 0.99735449735449732689 67 -276.94132306581121838
   23400    315.41168     7.402726     55.22202   -134.03361   -2210.4917    11287.374 
   23410    295.88469    6.6540534     54.51776   -135.09161   -1395.8891    11287.374 
   23420     308.6031    5.9062301    58.455526   -136.20082    642.88147    11287.374 
   23430    320.26482    7.1869687    58.795148   -137.93266    819.98649    11287.374 
   23440    313.29552    6.5903471    56.281262   -140.86773   -825.62437    11287.374 
   23450    291.51391    6.0875822    57.228098   -144.75644    465.89892    11287.374 
   23460    284.71132    6.7806563    58.052307   -148.86641   -2894.2612    11287.374 
   23470    294.35306    6.0783514    52.440635   -152.45108   -1105.8605    11287.374 
   23480    288.23509    6.4346216    55.690087   -155.99581   -1160.4663    11287.374 
   23490    253.18174    7.2794959    59.595038    -158.5718    2144.3493    11287.374 
23500        0.97854484259933671719 10.153270632322016098 1 70 -284.78148980197306628
   23500    275.34803    7.2959003    51.494668   -160.02594   -664.62828    11287.374 
   23510    271.11466     7.372005    51.927321   -160.59981    777.25212    11287.374 
   23520    274.50486    5.4196619    49.983886   -160.26436    988.89734    11287.374 
   23530    247.63944    6.2232341    53.979659   -159.10543     2412.909    11287.374 
   23540    267.47376    4.7984638    47.351031   -156.86497    -541.4687    11287.374 
   23550    286.40368    3.8397753    51.543427   -153.46935    455.35839    11287.374 
   23560    301.40714    3.8992171    49.679472   -149.92143    691.27159    11287.374 
   23570    293.13444    4.1681695    59.768223   -146.91059   -1156.1459    11287.374 
   23580    292.64129    5.2975049    55.143106   -144.85435   -2857.6293    11287.374 
   23590    316.91395    7.0556306     49.69243    -143.7072   -1630.6796    11287.374 
23600        0.97835916843413084365 10.17066472059937432 1 66 -284.47119132159593846
   23600    311.23517    10.021522    60.099889   -143.45579   -651.52849    11287.374 
   23610     300.0896    11.519949    51.506156   -143.73943    1779.0486    11287.374 
   23620    268.95765    9.6641514    65.894701   -144.01775   -3153.0441    11287.374 
   23630    282.48738    7.7928967    61.531883   -143.78095     1285.881    11287.374 
   23640    301.15021    4.3659395    61.273343   -143.03655    354.68925    11287.374 
   23650    306.16251    4.5869425    60.704747   -142.55351    2048.5438    11287.374 
   23660    280.82138    5.1019101    64.686269    -142.4174   -98.240624    11287.374 
   23670    293.95743    4.5083088    53.975835    -141.9374   -187.34619    11287.374 
   23680    284.00759    4.6392891    60.970561    -141.0258   -4550.0292    11287.374 
   23690    290.24925    6.5709245    58.137623   -139.71172   -26.137588    11287.374 
23700        0.98012353415907249587 10.140299149837899151 1 68 -267.35650286195675562
   23700    285.21823    12.180407    60.311126   -138.12894    190.33717    11287.374 
   23710    286.41408     14.12013    60.107976   -135.93038    4016.3658    11287.374 
   23720    312.17424     11.33405    60.829442   -133.05875     2606.379    11287.374 
   23730    314.87783    11.639977    61.662709   -130.26134    1846.7965    11287.374 
   23740    316.91968    10.477997    61.512245   -128.13175    -2818.432    11287.374 
   23750    306.91187    8.6874772    64.940012   -126.60431   -1958.0732    11287.374 
   23760    328.86208    4.2424158    59.083502   -125.84283   -2401.9185    11287.374 
   23770    329.90619    3.7841282    66.058476   -126.45475    2255.4834    11287.374 
   23780     310.1293      5.42435    61.273151   -128.54189    289.03537    11287.374 
   23790    300.24733    8.2103391    59.135602   -132.12068    729.39996    11287.374 
23800        0.97032675736333950933 10.179393889940168805 1 69 -258.13288767454366734
   23800    268.74974     9.284133    66.628896   -136.36691   -1592.0996    11287.374 
   23810    310.10939    7.5797664    47.464993   -140.73569   -146.26768    11287.374 
   23820    295.97945    8.1562548      55.1794   -145.21357   -529.41398    11287.374 
   23830    296.80534    6.6342221    54.696123   -149.23362    1814.4354    11287.374 
   23840    286.17396     7.996979    49.352381   -152.65719   -90.164474    11287.374 
   23850     284.9996    8.3661931    51.447798   -154.95523    -1127.968    11287.374 
   23860    299.31654    10.490856    50.183824   -156.28958   -2144.3897    11287.374 
   23870     286.7057    10.418928    55.533447   -157.17138   -271.55861    11287.374 
   23880    300.64463    9.1565698     53.28946   -157.71634    1874.3531    11287.374 
   23890    302.16542    10.322369     54.43068    -158.1915    4968.2728    11287.374 
23900        0.96692082829364178753 10.191376163523869991 1 70 -293.52985903461768658
   23900    297.70733    9.0923305    52.797023   -158.64369    2416.4099    11287.374 
   23910    296.12995    7.5951734    55.310421   -159.18965   -2971.8792    11287.374 
   23920    275.97497    7.4463221    59.129799   -159.70265   -5022.5318    11287.374 
   23930     298.7344    7.5399792    46.664891   -159.60277    1254.8977    11287.374 
   23940    281.91033    5.2230877    52.412665    -158.7909    939.46562    11287.374 
   23950    295.79538    5.0907049    57.270145   -156.85929    2213.4366    11287.374 
   23960    303.58956     5.674734    59.288394   -153.38958   -1821.8184    11287.374 
   23970    301.87807    6.3743397    58.013374   -148.56269   -811.27945    11287.374 
   23980    321.02763    5.7380633    58.729719   -142.04623   -2639.1717    11287.374 
   23990    312.46533     4.757897    57.272247    -135.3762   -339.97329    11287.374 
24000        0.9680304576458348409 10.197403506670330131 1 67 -264.82276413095075895
   24000    298.32003    4.5632536    63.919931   -129.65899    191.74847    11287.374 
   24010    316.00089    5.2220403    59.388725   -125.35284    152.89227    11287.374 
   24020     325.0535    5.3529401    59.627011   -122.52376    985.85616    11287.374 
   24030    320.63988     5.784259    55.616062   -121.24158    1497.3554    11287.374 
   24040    321.32802    4.8917988     58.49087   -120.79764   -536.18364    11287.374 
   24050    313.82786    6.2235583    61.883814   -120.77103    500.86797    11287.374 
   24060    306.13005    6.8535613    66.721017   -121.25349    3868.4547    11287.374 
   24070    338.65228    5.5083258    58.679641   -122.52605    1763.2941    11287.374 
   24080    324.39595    4.4278444    58.034102   -124.93485   -729.78648    11287.374 
   24090    317.15315    4.8274161    55.954557   -127.71987    -3407.393    11287.374 
24100        0.9643858685033576128 10.211430409095706651 0.99735449735449732689 65 -271.37472740447481101
   24100    309.88208    5.3796883    58.960205   -130.97239   -2064.4662    11287.374 
   24110    291.48774    4.6849608    62.134895   -134.26467   -1342.0179    11287.374 
   24120    306.92415    6.1481654    56.265467   -137.48712   -3116.9671    11287.374 
   24130     281.8173    11.079771    58.998402   -140.24076   -1191.2661    11287.374 
   24140    298.86549    12.001487     54.74402   -142.10889    1209.7527    11287.374 
   24150    305.24154    7.6958805    53.478903   -143.55264    2443.4477    11287.374 
   24160    291.78952    4.4842562    57.157444   -144.76981    3906.3319    11287.374 
   24170    298.89898    4.1275772    52.488777    -145.7427    2061.9637    11287.374 
   24180    284.20716    4.8132483    57.583442   -146.39851    3869.3163    11287.374 
   24190    293.81954    5.5038342    53.206425   -146.56396   -637.84435    11287.374 
24200        0.96824072640391567468 10.216920865230886051 1 67 -276.13175905612456518
   24200    286.55446    4.2197266    54.524007   -146.29877   -3053.3299    11287.374 
   24210    278.89991    3.1843647    62.929219   -145.39579   -5935.5675    11287.374 
   24220     331.2719    5.1562806    49.847187   -144.11454   -3197.7968    11287.374 
   24230    327.66994    8.2185291    53.618194   -143.56333     640.2583    11287.374 
   24240    315.61545    12.790532    52.263209   -143.70622    5161.1748    11287.374 
   24250    292.61006    10.036974    59.458053   -144.10014    1345.2535    11287.374 
   24260    301.02216    9.0033505    48.147333   -144.28871    1917.4831    11287.374 
   24270    285.24805    5.5856442    61.099973   -144.42594    -816.6274    11287.374 
   24280    288.15758    5.3148232    61.045839   -144.28655    1677.8641    11287.374 
   24290    311.97418    5.0406798    53.668418   -143.99399   -2571.0335    11287.374 
24300        0.96767862122556902449 10.216604851802571829 1 68 -286.03534602647039264
   24300    313.25548    7.4698444    57.142982   -144.10458   -1055.6326    11287.374 
   24310    304.95933    9.4900802    56.086162   -144.65189   -2470.5964    11287.374 
   24320    300.71512    6.3000477    58.690014   -145.40131   -1881.5216    11287.374 
   24330    300.47988    6.1651718    55.563365   -146.16517    548.37988    11287.374 
   24340    320.12471    8.5319718    56.627272   -147.14098    2834.2709    11287.374 
   24350    291.65937    9.7304851    58.499257   -148.47153    1023.0804    11287.374 
   24360    289.65442    11.944249    51.218462   -149.67929   -2137.1463    11287.374 
   24370    271.98854    11.521439    57.682111   -150.30273    105.22907    11287.374 
   24380    305.06183    9.8276369    53.953211   -150.29634    778.52235    11287.374 
   24390    307.58802    8.6810728    54.978746   -150.09396    2699.8421    11287.374 
24400        0.96841914273052109863 10.203465802130736506 1 66 -303.28124938900936058
   24400    337.89242    7.1502368    45.520884    -150.1879    80.092846    11287.374 
   24410    312.42852    6.6511697    53.247103   -151.02669   -3206.8814    11287.374 
   24420    321.68205    6.2558185    44.090423   -151.91893   -1495.9736    11287.374 
   24430    272.19109    8.2369119    58.356291   -152.26039    177.05777    11287.374 
   24440    282.42758    7.6355558    53.432974   -151.82021    1274.0919    11287.374 
   24450     263.0585    6.2358386    71.467505   -150.84949   -3849.2525    11287.374 
   24460    297.26496    4.9810856    51.468443   -149.50453   -384.30094    11287.374 
   24470    280.10484    8.1307612    63.378473   -148.13739    899.00277    11287.374 
   24480    290.20996    10.028735    57.896188   -146.68614    1919.4057    11287.374 
   24490     290.4268    12.101752    60.349291   -145.07165   -72.370914    11287.374 
24500        0.97252564287405518506 10.169023348723285949 1 71 -281.95056395810900085
   24500    305.36758    12.567721    56.216898   -143.59366   -917.49533    11287.374 
   24510    325.10486    11.257409    55.715186   -142.48233    3510.0765    11287.374 
   24520    302.59254    11.295393     54.60408   -141.87381    2671.9286    11287.374 
   24530     289.2818    11.282145    57.026508   -141.16221   -605.46776    11287.374 
   24540    310.05499    6.3801965    56.986767   -140.11581   -2824.9436    11287.374 
   24550    327.81225    6.0150053    53.160064   -139.26294   -5209.7327    11287.374 
   24560    324.71162    7.0790669    55.672256   -139.07931   -3156.4666    11287.374 
   24570    300.15335    8.0101991    62.764621   -139.81474   -221.33084    11287.374 
   24580    319.01869    6.1876155    55.462519   -141.54235    1738.0223    11287.374 
   24590    297.43703    7.5053713    60.787669   -145.01246    3785.4082    11287.374 
24600        0.97501450073511730654 10.155529911179595359 1 70 -276.61792163766114072
   24600    281.00371    8.0149674    58.789447   -149.29988    736.14791    11287.374 
   24610    279.59778    7.3205741     51.49401   -153.92514    1693.3483    11287.374 
   24620    274.24112    7.9811227    53.357813   -157.92449   -125.94419    11287.374 
   24630    274.40268    7.8707847    55.955496   -161.09057    203.08837    11287.374 
   24640     266.9927    8.7210421    52.607203   -163.23984   -1467.7194    11287.374 
   24650    295.94234    7.2521073    46.967635   -164.41592    279.10338    11287.374 
   24660    288.61247    6.1152697    54.361792   -165.19589    2686.7855    11287.374 
   24670    286.48591    5.3356588    44.997566   -165.37276    -261.5797    11287.374 
   24680    286.74551    5.8156907    48.410327   -164.88286     1843.521    11287.374 
   24690    301.79416    6.8878405    45.847688     -163.866   -1961.4124    11287.374 
24700        0.97265154700998723847 10.150883015400314235 0.99735449735449732689 65 -295.83433122273982008
   24700    294.70036    5.8148481    46.389697   -162.31057   -29.149654    11287.374 
   24710    285.34529    5.0805163    50.981874   -160.31099   -3012.2345    11287.374 
   24720     268.9434    3.8010043    60.976173   -157.25769   -557.13579    11287.374 
   24730    303.30407    3.6897054    47.217137   -152.83369   -1891.3093    11287.374 
   24740    307.16756    5.5149609     52.04843   -147.09338    1403.9822    11287.374 
   24750    319.63366    6.8308091    49.347521   -141.26809    906.26704    11287.374 
   24760    306.19551    6.5345974    55.682965   -135.99699    3104.1025    11287.374 
   24770    303.14963    4.9337495      55.1158   -131.85779   -2090.4598    11287.374 
   24780    308.06171    4.7637904    55.836267   -128.74829   -360.70732    11287.374 
   24790    306.08569    5.1236924    53.754447   -126.49703   -572.00267    11287.374 
24800        0.97154182211354800369 10.134984592956339355 0.99735449735449732689 65 -270.09427617420851675
   24800    320.12598    6.5647004    62.995363    -125.0506    2833.7865    11287.374 
   24810    296.00228    7.3747423    63.389225   -124.66246    2848.6067    11287.374 
   24820    294.00973    8.5949957    58.827762   -124.73084     1174.192    11287.374 
   24830    268.76797    7.0317552    70.256865   -124.55672   -692.50709    11287.374 
   24840     305.5645      7.07456    57.458121   -123.99839   -3085.3069    11287.374 
   24850    297.28492    4.8515874    67.466019    -123.6104   -2269.7475    11287.374 
   24860     316.9988    3.9397714    56.340295   -123.61628   -2739.8294    11287.374 
   24870     310.1428    4.4891192    52.428514   -123.94915   -3636.8046    11287.374 
   24880    330.17164    7.7692259    58.770018   -124.79364   -346.42557    11287.374 
   24890    357.26076     9.822135    47.749623   -126.97857   -182.23867    11287.374 
24900        0.9765532010955958464 10.124447957886417271 0.99470899470899465378 68 -272.69644216613113485
   24900    312.76445    8.9241776    55.062081   -130.98815    2925.7236    11287.374 
   24910    297.82616    8.7214815    54.545746   -135.55562    914.06396    11287.374 
   24920    277.27864    9.0937723    62.778546   -139.99554    2154.8389    11287.374 
   24930    295.16202    9.6990847    46.530394   -143.48078    1789.4877    11287.374 
   24940    281.29219    8.5129324    52.005686   -146.37144    539.46556    11287.374 
   24950    264.07181    5.0503508    57.486428   -148.20302   -356.35254    11287.374 
   24960    285.78993    5.5777324    53.348165   -148.97207    113.26731    11287.374 
   24970    294.19785    6.7948937    49.608189   -149.09305   -1933.8428    11287.374 
   24980    312.98937    6.7587347     48.91346   -148.90069   -518.27453    11287.374 
   24990    291.48136    6.7364049    55.277362   -148.76877   -1804.4683    12725.643 
25000        0.98669583577727393298 10.078617260881141959 1 71 -283.06960028013662622
   25000    296.95029    8.8570045    50.359475   -148.52643     1583.956    12725.643 
   25010    295.89057    13.500143    53.627678   -148.07334    1124.4403    12725.643 
   25020    290.37223    16.068811    53.169516   -147.51092    2272.1092    12725.643 
   25030    288.99498    11.178454    55.598277   -146.87105    1480.2171    12725.643 
   25040    312.40253    9.4402813    53.229967    -146.1453   -1932.4102    12725.643 
   25050    306.74099    9.3660554    59.034023   -145.63424    43.597207    12725.643 
   25060    311.45322     8.300745    61.459782   -145.74205   -1668.0611    12725.643 
   25070    325.64981    7.4192235    55.166107   -146.80854    103.57074    12725.643 
   25080    323.84471    7.1638811    57.545708   -148.52887   -587.08153    12725.643 
   25090    300.89612    9.8718604    57.278887   -150.40909    1194.2568    12725.643 
25100        0.99030034218931062284 10.084281094087721442 1 69 -288.97550375388453858
   25100    302.11866    9.7254681    55.612535   -152.09064   -677.13832    12725.643 
   25110    289.80894    7.4763958    52.310091   -153.41795   -99.493455    12725.643 
   25120    293.83567    6.3168101    53.675687   -154.29424   -1319.0409    12725.643 
   25130    286.02823    8.0971683    56.796886   -154.69186     1863.516    12725.643 
   25140    273.05236    8.6754338    48.452805   -154.61954   -106.79757    12725.643 
   25150     290.8356    8.8675605    52.511308   -153.71075    3347.9927    12725.643 
   25160    322.10861    9.3226485    51.238648   -152.19046    1208.0218    12725.643 
   25170    311.58618    9.3817041    57.971468   -151.08576    68.309097    12725.643 
   25180    292.89367    8.8858871    54.004932   -150.38659   -1056.6625    12725.643 
   25190    280.36868    8.8171235    55.398075   -149.59329   -1511.6849    12725.643 
25200        0.98750223205119480596 10.097465741837876152 1 70 -285.09647017617885467
   25200    302.32512    8.9951782    60.593698   -148.11806    761.90571    12725.643 
   25210    306.86946    12.169056    62.135503   -146.50908   -2888.9402    12725.643 
   25220    303.49995    13.175604    57.160856   -145.29293   -2131.2341    12725.643 
   25230     285.9684    14.213031    60.515622   -144.03214    2506.6731    12725.643 
   25240    275.76559     14.28775    61.485846   -142.00655    4550.5587    12725.643 
   25250    302.45777    10.349434    63.696233    -138.2861     1552.932    12725.643 
   25260    309.67145    9.5761261     61.23907    -133.5796   -2782.2117    12725.643 
   25270    298.46486    9.3306712    68.520864   -128.65757   -502.59155    12725.643 
   25280    293.55396    9.1207557    69.007603    -123.8547   -2075.8295    12725.643 
   25290    327.08027    9.1220741    59.613727    -118.9367   -1464.2039    12725.643 
25300        0.98451122497864385075 10.137299051636379232 1 66 -264.59320042002696027
   25300     329.0641    8.6993829    68.730633   -115.49981   -2132.4978    12725.643 
   25310    352.65832    11.532099    58.416897   -113.83021   -580.69641    12725.643 
   25320    314.87031    10.646886    72.043881   -114.08271    2677.3064    12725.643 
   25330    316.30151    9.0271356    64.248208   -115.57358    4155.6121    12725.643 
   25340    310.05828     6.392572    61.876809   -117.54166    1346.5493    12725.643 
   25350    335.25462    5.9715647     56.11321   -119.51935    1561.1084    12725.643 
   25360    322.63367     6.094053    57.848583   -121.88537   -3520.4602    12725.643 
   25370    340.54797    5.7846418    50.194185   -124.42249   -28.884606    12725.643 
   25380    334.77431    4.5176094    60.741204   -127.13918   -1488.9571    12725.643 
   25390    326.31995    3.5157348    58.107772   -129.56478   -1569.3899    12725.643 
25400        0.97538278742525708065 10.184483187618411648 1 69 -272.47646984882783272
   25400    310.52176    2.0438793     56.39815    -131.7843    1792.3913    12725.643 
   25410    301.99419    3.3560656    61.361986   -133.86704    2674.5009    12725.643 
   25420     325.0358    2.6231784    58.852355   -135.92884    206.81971    12725.643 
   25430    298.21775    4.0733672    53.128226   -138.11974   -1727.6169    12725.643 
   25440    295.23557    5.4724641    59.779958   -140.03171   -3047.3805    12725.643 
   25450     314.5856    7.5941329    57.203498    -141.7042    929.82193    12725.643 
   25460    300.84638    9.1876819    56.564847    -143.3822    754.79289    12725.643 
   25470    296.79797    9.2194403     59.03442   -144.88706   -2728.4238    12725.643 
   25480    300.92929    8.4745136    56.971952   -146.37105     -3512.42    12725.643 
   25490    321.82124    7.7000447    50.625116   -148.04739    1536.5717    12725.643 
25500        0.9780407058471509707 10.181757342269527555 1 68 -289.6134946060115567
   25500    307.87392    7.7057534    57.273446   -150.12102     2967.679    12725.643 
   25510    305.07769     8.886272     50.01888   -152.34873    1059.7985    12725.643 
   25520    299.18558    8.3785182    56.232402   -154.42422    50.222772    12725.643 
   25530    306.81433    9.1875858    52.336967   -156.58755   -704.04741    12725.643 
   25540    300.75388    8.7362512    52.273466   -158.94792   -40.379939    12725.643 
   25550     288.8921    8.1291829    51.532952   -161.41981   -390.89259    12725.643 
   25560    261.80923    9.3847597    49.451099   -163.32679   -1778.1043    12725.643 
   25570    281.98233    9.7106905    51.018332   -164.41443    213.73932    12725.643 
   25580    285.14295    11.826671    50.033068   -165.03587   -889.81114    12725.643 
   25590    299.53893    11.896348    47.288356   -165.21375   -145.83267    12725.643 
25600        0.97997063612290558066 10.155113354156322103 1 68 -293.41235229434516896
   25600    284.03005    10.091052    52.588207   -164.72313    1561.8144    12725.643 
   25610    296.77584    6.2548878    51.173392   -163.03923   -703.04121    12725.643 
   25620    310.86412    5.0013795    45.867249   -159.78939    2183.9692    12725.643 
   25630    292.30302    7.7661568    56.254474   -155.66411   -511.16135    12725.643 
   25640    285.91223    9.3862891    55.845076   -150.58185   -958.69782    12725.643 
   25650    309.57643    8.4854871    54.752682   -144.98671   -1797.5281    12725.643 
   25660    302.38461    9.3882101    59.031763   -140.10808    405.49946    12725.643 
   25670    313.92349    9.4481826    55.693363   -136.19954   -676.99204    12725.643 
   25680    307.36485    6.6654401    55.540709   -133.33221    265.29022    12725.643 
   25690    313.47982    4.9054302    55.281988   -131.05791   -430.79266    12725.643 
25700        0.97955112535243560323 10.143822882558705345 1 67 -274.50775444932281744
   25700    320.79363    5.6302855    55.717269   -129.16157    3465.7835    12725.643 
   25710    301.58983    7.9780384    64.367509   -127.49877   -50.975958    12725.643 
   25720    336.48698    10.618896    54.237979   -126.18052   -1045.3634    12725.643 
   25730    324.97257    10.186974    65.775369   -125.78881   -653.33627    12725.643 
   25740    341.84792    9.1260432     53.91079   -126.18613     939.0853    12725.643 
   25750    323.43756    7.5405811    61.675383    -127.6559    921.94486    12725.643 
   25760    321.12684    8.6090962    56.919444   -130.06794   -1447.6429    12725.643 
   25770    326.50074    8.5166763    52.498024   -133.04563    2120.1354    12725.643 
   25780    304.92859    7.5460295    61.002572   -136.53852    2259.2884    12725.643 
   25790    297.03542    7.5055472    66.857577   -140.22692    2840.7568    12725.643 
25800        0.97734596829855802103 10.155209521574482423 0.99735449735449732689 68 -284.26382726681799795
   25800    309.25661    10.258823    55.243195   -144.14487    1597.3903    12725.643 
   25810    294.46724    10.441009    52.686461   -147.94878   -2049.9385    12725.643 
   25820    328.44703    8.6379839    55.375454   -151.11302   -2889.2993    12725.643 
   25830    306.28182    8.6237436    59.356654    -154.4784    58.758351    12725.643 
   25840     315.0146    8.2065145    49.992579   -157.16933    -196.6303    12725.643 
   25850    291.84344    7.7604474    60.124227   -159.31169   -159.47103    12725.643 
   25860    299.31866     5.513478    55.044253   -160.69068   -4116.2348    12725.643 
   25870    302.19023    5.1651362    52.046327    -161.6875    335.87273    12725.643 
   25880    303.06281    6.7957787    47.240372   -162.52484    -1392.872    12725.643 
   25890    287.35658    8.0753006    47.816037   -162.79492    1063.7504    12725.643 
25900        0.97414852242285066009 10.143656652116211703 0.99470899470899465378 69 -282.49072726037644543
   25900    264.85245    6.0825131    60.341213   -162.49055    687.47524    12725.643 
   25910    264.85138    7.2821507    57.161466   -161.56569    2114.4843    12725.643 
   25920    284.45055    5.5350396    52.545303   -159.95062    -5.537682    12725.643 
   25930    282.14196     6.481145    60.092619   -158.08236    467.62991    12725.643 
   25940    271.66449    6.8687892    53.682879    -155.9137    -2433.644    12725.643 
   25950    277.99349    7.3275269    54.859026   -153.30619   -306.84521    12725.643 
   25960    271.40488    5.8615945    64.693249   -150.34621    1562.3081    12725.643 
   25970    305.87171     6.259152    56.228699   -147.36675    1439.3812    12725.643 
   25980    305.03565    5.0614495    59.998849   -145.09697    23.666797    12725.643 
   25990     318.1331    4.9694758    60.275288   -143.70286    1750.4861    12725.643 
26000        0.97163512915711591766 10.151360670991225632 0.99206349206349198067 68 -281.59668774074850717
   26000    306.01051    3.9091324    57.523448   -142.94849   -780.16741    12725.643 
   26010     304.8113    4.0537977     54.47871   -142.50816    22.062997    12725.643 
   26020    294.81595    4.1473591    60.591796   -142.08656     -73.0543    12725.643 
   26030     310.4799    5.3408954    51.128922   -141.62983    689.75678    12725.643 
   26040    283.99043    8.3561982    55.488916   -141.37093   -1166.2243    12725.643 
   26050    293.28087     11.51829     55.14783   -140.75752   -1283.1761    12725.643 
   26060    295.81696    10.596805    55.315421   -139.69028    -803.5783    12725.643 
   26070    317.32415    11.356976    53.440512   -138.41763    1876.2564    12725.643 
   26080    324.49425    11.562811    59.147064   -137.56459    512.46329    12725.643 
   26090     337.1925    8.7610831    51.232937    -137.6427    342.59369    12725.643 
26100        0.97767132386089850016 10.138972413849634435 0.99470899470899465378 68 -289.47810714299976098
   26100    332.19838    7.2361525    54.017751   -138.96463    -1315.242    12725.643 
   26110     325.0123    6.9753016    53.206889   -141.77916   -491.62315    12725.643 
   26120    311.14065     6.103477     53.82846   -145.54448    684.30353    12725.643 
   26130     277.9163     4.858861    60.031032   -149.88863    2456.5546    12725.643 
   26140    261.88888    4.8762786    60.683467   -153.71074   -296.14032    12725.643 
   26150    256.26797    4.4924626    59.051823   -156.74854    598.16714    12725.643 
   26160    273.80832    5.7239016    53.396307   -158.87815   -1866.2293    12725.643 
   26170    276.44103    7.1013576     59.02997   -160.20153    1729.4826    12725.643 
   26180    291.52322    6.9763573    50.136986   -161.20781    1395.8936    12725.643 
   26190    263.12141    5.1801549    62.731105   -162.10578    853.67951    12725.643 
26200        0.97970018035677941537 10.155691575572253882 1 69 -297.20432676608322708
   26200    296.46857    3.5952968    54.500924   -162.87942   -509.33145    12725.643 
   26210    305.33052    5.0244104    49.059351   -164.67453   -2142.9827    12725.643 
   26220    277.69965    8.1810663    55.137528   -168.55699   -2192.7914    12725.643 
   26230    278.25589    9.5620235    49.434819   -173.60382   -480.85387    12725.643 
   26240    262.96143     9.931644    48.656325    -178.4335   -639.75907    12725.643 
   26250    252.99498    10.737894    53.039981   -182.04567    3408.6082    12725.643 
   26260    261.67129    7.6350154    48.652601   -184.36425    410.43659    12725.643 
   26270    261.34538    4.3075594    48.258814   -185.56292   -726.26225    12725.643 
   26280    255.70196      4.93338    46.859924   -185.42324   -2425.0094    12725.643 
   26290    261.83554    7.6644109    44.030825   -183.71912   -3035.6497    12725.643 
26300        0.97672125874390691713 10.172655128803137714 1 72 -296.1169647956109543
   26300    255.06777    8.0736415    54.400498   -180.55006    735.84602    12725.643 
   26310    258.64985    8.8164553    47.745163   -176.32057    2747.6725    12725.643 
   26320    260.91019    12.602621    45.554645   -171.36297    2171.1147    12725.643 
   26330    295.51821    13.566365    47.451279    -166.1204    1792.0637    12725.643 
   26340    300.81425    10.229384    50.290349   -160.96922   -441.85235    12725.643 
   26350    294.36648    9.8454539    53.475726   -157.06999     1613.351    12725.643 
   26360    281.50891    11.242577    56.417258   -153.82953   -3065.6942    12725.643 
   26370     278.4614    12.499977    52.638496   -150.78553   -2288.8376    12725.643 
   26380    287.65274    10.394846    50.652152   -147.43487   -2261.8586    12725.643 
   26390    310.86077     8.542773    57.519207   -144.03841    1752.7601    12725.643 
26400        0.97165402800666145211 10.202411471820276745 1 67 -279.6945187389108014
   26400    305.99994    6.8933408    61.065442   -141.05111    2002.2476    12725.643 
   26410    293.72523    6.4338677    56.702659   -138.66599   -1477.4603    12725.643 
   26420    299.19716    6.5387012    58.889193   -136.74166   -1373.7349    12725.643 
   26430    308.10659    5.2771506    61.766121   -135.09657     1648.591    12725.643 
   26440     325.5141    4.2830797    58.838244   -134.01417    852.27666    12725.643 
   26450    294.46599    4.4623434    67.782493   -133.65091   -2158.7022    12725.643 
   26460    310.14328    6.3193099    53.533736   -133.78369   -2681.2073    12725.643 
   26470    302.76652    6.3818105    69.463297   -134.50227   -1017.5365    12725.643 
   26480    308.23778    7.1444852     55.99787   -136.19478    1698.6241    12725.643 
   26490    300.85248    7.5876703    59.597492   -138.53698   -485.51351    12725.643 
26500        0.97044767178667212804 10.193896510992617621 1 69 -274.54746198560212633
   26500    294.37003    8.1745356    57.027546   -141.17337    2272.5712    12725.643 
   26510    303.52546    7.2954224     54.51989   -143.92097   -361.82837    12725.643 
   26520    279.25471     5.520837    54.816674   -146.76189    2442.5607    12725.643 
   26530    302.12577    4.6553494    54.887978    -149.4357   -677.68934    12725.643 
   26540     294.8788    6.5010055    52.867702   -151.98561    -263.7582    12725.643 
   26550     300.5835    7.2635166    52.374302   -154.61349   -1655.8921    12725.643 
   26560    299.31006    8.9093324    51.003012    -157.2509    17.513947    12725.643 
   26570    278.14735    9.3679931    58.698919   -160.27167    772.06229    12725.643 
   26580    287.76536     9.098836    52.332874   -163.04982    487.23741    12725.643 
   26590    277.68938    8.8271619    55.533914   -165.98481   -2349.7459    12725.643 
26600        0.96904676414442636467 10.169383645870411215 1 65 -296.02963645032951945
   26600     281.3905    8.2080902    53.364652   -168.53635    189.15487    12725.643 
   26610    277.01204    7.4531533    57.826269   -170.88681    1555.3884    12725.643 
   26620    271.66855    6.2031905    51.758551    -173.0662    521.26261    12725.643 
   26630    263.71932    7.0896529    51.209107   -174.73902   -357.81669    12725.643 
   26640    286.91781    4.9756456    49.716026   -175.83768   -1017.1429    12725.643 
   26650    304.24482    2.8606798    49.429776    -176.7986    398.11411    12725.643 
   26660    266.61254    3.5562431     53.14353    -178.0332   -1419.2822    12725.643 
   26670    273.25581    4.4460135    41.624106   -178.85633   -2391.8973    12725.643 
   26680    266.57514    5.0686488    53.746564   -178.65667    1666.7827    12725.643 
   26690    292.91731    3.5776663    43.235599    -177.2858    1311.7168    12725.643 
26700        0.97780313368296500887 10.139235693238346059 1 66 -292.85451875422904777
   26700    260.51025    5.1401297    53.440918   -174.82172    2219.1286    12725.643 
   26710    286.69552    5.3231763    52.326136   -170.97886    3551.2689    12725.643 
   26720    294.27198    4.1779233    56.320413   -166.19493   -728.35381    12725.643 
   26730    301.03224    4.4135409    53.177439   -161.42915    -4995.059    12725.643 
   26740    301.83386    6.0107037    46.589828   -157.37018   -5763.0993    12725.643 
   26750    293.07681    4.7736451    58.121942   -153.63611   -717.31892    12725.643 
   26760    286.28132    5.0882231    56.781745   -150.25351    4997.9657    12725.643 
   26770    291.84173    4.6130568    55.097881   -146.81272    1973.8673    12725.643 
   26780    291.66751    6.8202058     58.35572   -143.57756   -4.7146366    12725.643 
   26790    310.49229     8.245185    57.252276   -140.70319    -1035.817    12725.643 
26800        0.97747429984615019638 10.146880647330998926 1 66 -291.23466644085925736
   26800     337.2045    8.6463585    59.999549     -138.453   -1106.9139    12725.643 
   26810    332.89232    10.983737    58.948607   -137.45501    1335.3352    12725.643 
   26820    292.61699    12.430868    59.740977   -137.22211   -1158.9094    12725.643 
   26830    309.18712    10.326071    60.979342   -137.33423     579.2105    12725.643 
   26840    310.02926    10.180421     60.58593   -137.88631   -24.014438    12725.643 
   26850    318.04752    10.132277    54.230895   -138.84423    2374.6203    12725.643 
   26860    312.30328    7.6051982    62.826973   -140.30942    2345.4801    12725.643 
   26870    311.23019    6.2747641    61.730463   -142.61365    475.65297    12725.643 
   26880     313.7221    6.8005671    56.116918   -145.92436   -2177.1447    12725.643 
   26890    316.47616    6.3917794    51.569939   -149.74385   -543.92489    12725.643 
26900        0.98085846309057556081 10.116378351740218378 1 67 -293.81683116394299304
   26900    308.28298    6.0140176    55.486608   -154.13901    512.98902    12725.643 
   26910    283.19375    7.1265464    58.219979    -158.2534   -2011.6852    12725.643 
   26920    291.33012    8.2464216    49.515531   -161.75713   -3699.7149    12725.643 
   26930    268.90181     9.878054    53.194993    -164.3846   -813.10755    12725.643 
   26940    264.06695    10.898291    56.835797   -165.88849    3406.9407    12725.643 
   26950    268.26017    9.8866047    54.103249   -166.29949    3911.1749    12725.643 
   26960    272.76286    8.0972161    50.931729   -165.76886    790.54219    12725.643 
   26970    278.72329    8.4549234    50.558569   -164.28187   -619.73502    12725.643 
   26980    284.40795    8.5828385    55.237804   -162.02704    267.27932    12725.643 
   26990    292.46038    6.3655997    55.832099   -159.78036    1061.3622    12725.643 
27000        0.98179595139074060661 10.121019432321386233 1 66 -294.82437462709583542
   27000    302.02377    7.2301713    56.011888    -157.9825   -2234.6569    12725.643 
   27010    311.06801    9.1621335    54.768804   -156.77446    -2134.167    12725.643 
   27020    309.51063    8.7842042    52.866151   -156.07574    -4488.069    12725.643 
   27030    294.85241    10.787102    55.994164   -155.72354   -851.82336    12725.643 
   27040    320.84897     6.505559    52.398986   -155.24752    492.10347    12725.643 
   27050    300.05907    7.3266928    61.119885   -155.01911    3634.0375    12725.643 
   27060    296.25645    6.6000181    59.423231   -155.00372     3017.265    12725.643 
   27070    286.25875    7.7316765     53.19949   -154.86733    2248.2036    12725.643 
   27080    290.60248    10.145761    53.201391   -154.17907   -600.16781    12725.643 
   27090    308.85811    9.1998432    53.860976   -152.92142    -1124.968    12725.643 
27100        0.98247031228450176776 10.117406510022435739 1 66 -285.36783383196035402
   27100    295.54505    6.2094131     57.25431   -151.46136   -2786.6832    12725.643 
   27110    317.19372    4.6314544    47.385007   -149.73741    398.21681    12725.643 
   27120    286.10707    5.9796028    61.212985   -147.96451     2277.193    12725.643 
   27130    309.76529    7.1662205     54.92902   -145.90853    4412.6485    12725.643 
   27140    306.32786    9.0562156    56.157952    -143.2147    1076.6376    12725.643 
   27150     344.4535    8.7624234    49.494875    -140.2634    276.92733    12725.643 
   27160    342.16218    5.7687826    48.949801   -137.40794   -769.01443    12725.643 
   27170    321.69409    3.8460971    60.402762   -135.35392   -2853.1258    12725.643 
   27180    295.52554    5.2917407    62.884633   -133.53803   -1829.5384    12725.643 
   27190    308.13453    5.0169123    58.098444   -131.27726   -1167.3142    12725.643 
27200        0.97952138024618784495 10.144337512388146294 0.99735449735449732689 68 -278.27298163838281653
   27200    331.40118    5.7170235    55.291387    -128.1207    622.54789    12725.643 
   27210    305.81186    4.8949798    61.717937   -124.32351      1313.79    12725.643 
   27220    321.81834    4.0748103    57.816708   -119.40405    344.42925    12725.643 
   27230    314.89443     4.032986    73.549846   -113.71817    2468.8439    12725.643 
   27240    340.05496    5.1260563    62.286109   -108.68471   -2396.2475    12725.643 
   27250    322.69391    6.5724533    65.888224   -105.28618   -2438.9131    12725.643 
   27260    349.45862    8.0351796    59.965108   -103.12034   -1737.7545    12725.643 
   27270    322.33048    7.2668857    71.416736   -102.42288   -1262.4616    12725.643 
   27280    337.35345     7.340888    63.299181    -103.2764   -727.24871    12725.643 
   27290     307.4518    7.0861477    65.345789   -105.25171    582.14365    12725.643 
27300        0.97385367733125294265 10.164156009544212722 1 71 -250.6837990785591046
   27300    315.72537    6.1286618     64.05403   -107.63396     1941.733    12725.643 
   27310    313.88325     6.529751    65.458791   -110.43439    2522.7747    12725.643 
   27320    318.02224    7.8713622    61.671644   -114.05131   -1563.4471    12725.643 
   27330    301.61762    10.610289    62.926458   -118.46788   -1122.9412    12725.643 
   27340     311.5078    12.043254    56.669693   -123.07811    915.05127    12725.643 
   27350    314.42472    11.763988    52.535326   -127.37111    1022.5899    12725.643 
   27360    308.74904    12.735686    56.457629   -130.54291    191.05174    12725.643 
   27370    318.58197    8.8235089    62.462088   -132.95526    1671.3312    12725.643 
   27380    311.49029    6.4168401    61.999339   -134.98679    2103.5828    12725.643 
   27390    318.09806     7.426173    54.631957   -136.72877   -3079.2996    12725.643 
27400        0.97290949636962809066 10.196373341467948492 1 70 -287.9178126523810306
   27400    329.76343    8.8439925    51.205734   -138.50756   -1155.3539    12725.643 
   27410    314.03265    7.2415872    58.598118   -140.21492   -2248.3388    12725.643 
   27420    331.48833    5.0076015    52.448225    -141.8752    51.922015    12725.643 
   27430     299.0042    6.9353134    61.235858   -143.69373    197.83862    12725.643 
   27440     292.4029    9.0650814    56.621557   -145.45233   -1746.7639    12725.643 
   27450    278.86823    8.0201963    60.995653   -146.93585    891.85741    12725.643 
   27460    264.81951      8.82894    60.659323   -147.90785   -138.59349    12725.643 
   27470    277.45228    7.2424689    48.510844   -147.84296   -520.79331    12725.643 
   27480    268.93951    6.7591919    69.066409   -146.85649    12.939737    12725.643 
   27490    302.03067    5.2992456    56.072067   -145.26896   -2476.9712    12725.643 
27500        0.98241860891891974461 10.15430949228772306 1 73 -276.43965000233919227
   27500    293.26507    4.4857866    63.691804    -143.5662    1789.3973    12725.643 
   27510    281.51218    6.2216959     61.89242   -142.14448    2336.5196    12725.643 
   27520    297.81294    7.2251573    57.203087   -140.20253    1416.1886    12725.643 
   27530    283.99982    8.0532303    63.868436   -137.89473   -616.20782    12725.643 
   27540    318.63072    10.341361    57.548404   -135.10113   -1787.5488    12725.643 
   27550    298.86382    12.325105    64.074911   -132.24105    2717.5695    12725.643 
   27560    301.11245    11.554394    57.723787   -129.21535    2067.9102    12725.643 
   27570    307.78447    9.6454991    63.734387   -125.00177   -1049.0036    12725.643 
   27580     319.5238    9.7482121    61.084932   -120.03962   -534.87413    12725.643 
   27590    344.73302    8.3858927    61.521642   -115.45932   -2432.5287    12725.643 
27600        0.98829451780749810741 10.122194846392842393 1 70 -264.0934416713042765
   27600    333.81521    9.7982514    68.545904    -112.8474     1798.326    12725.643 
   27610    344.06337    9.2999409    56.467736   -111.84817   -2021.6933    12725.643 
   27620    338.90529    10.232822    62.741914   -112.05447   -763.39636    12725.643 
   27630    340.84797    10.554349    67.325909   -113.99254    286.92758    12725.643 
   27640    314.96536    11.278644    67.077959   -117.93702    3713.0876    12725.643 
   27650    328.74132    13.982337     59.70222   -123.14006    1753.1741    12725.643 
   27660    323.00407      11.6557    55.244509   -129.05593   -591.88763    12725.643 
   27670    322.65475    6.9471512    57.628165   -134.53002   -3101.7893    12725.643 
   27680    295.88665    4.7099565    62.755901   -138.74482   -188.80977    12725.643 
   27690    262.05467    4.1142994    58.164428   -140.81624   -4230.1741    12725.643 
27700        0.9815463676149235317 10.116367153062968853 1 69 -273.19320125814152789
   27700    290.97332    5.4377168    55.073249    -141.3581    1004.9499    12725.643 
   27710    286.54551    7.0718062    56.556975   -141.24576    79.151392    12725.643 
   27720    304.24109    6.3461339    52.016551   -140.66849    4201.4777    12725.643 
   27730    282.43826    6.1683474    61.984168   -139.86256    4697.2971    12725.643 
   27740    307.22201    5.7035238    53.056903   -138.87541    3126.8532    12725.643 
   27750    288.26818    5.0796917     60.90434   -137.81182   -669.10827    12725.643 
   27760     288.0686    6.1964808     60.19546   -136.67136   -1427.8895    12725.643 
   27770    311.06144     5.119814    60.201671   -135.31585   -3664.1334    12725.643 
   27780    305.72627    5.3311839    60.643739   -133.95736   -313.79991    12725.643 
   27790    325.27286    4.2347563    57.217458   -132.78641    -3533.344    12725.643 
27800        0.98122328095551702987 10.12577110585629292 1 67 -273.48901197305787036
   27800    311.61439    4.5203088    61.017086   -132.30179    2037.0174    12725.643 
   27810    304.42114    4.1038109    53.070151   -132.28867    1189.1867    12725.643 
   27820    294.41391    4.0663546     57.97532   -132.54138    228.80816    12725.643 
   27830    311.20814    5.2004553    55.759495   -132.90689   -399.48619    12725.643 
   27840    304.33386    7.3185689    65.182917   -133.71243    -1564.332    12725.643 
   27850    308.79695    8.2265152    57.057315   -135.28039   -1420.6238    12725.643 
   27860    289.52992    9.0916597    64.830644   -137.59282    1338.2819    12725.643 
   27870    286.74579    7.5781427    57.856481   -140.40173   -1068.2428    12725.643 
   27880    272.82507    8.4054229    60.967724   -143.41114    2204.4731    12725.643 
   27890    249.03951    7.9048379    65.472865   -146.03978   -1514.5312    12725.643 
27900        0.9782894385760058098 10.16020107830002317 1 73 -273.792872189975526
   27900    277.63848    8.0413974    54.319249   -147.99956    2163.8994    12725.643 
   27910    291.32661    6.2737872    55.369153    -149.4361    769.37218    12725.643 
   27920    313.65665    5.7720016    47.033867   -150.82593    321.15419    12725.643 
   27930    305.45054    5.3968814     57.53386   -152.74192    1152.1165    12725.643 
   27940    295.47068    7.3134693    57.313359   -155.44706    695.45152    12725.643 
   27950    311.68549     5.874813    49.100908   -159.03353   -3085.2909    12725.643 
   27960    283.58357    5.3628888    51.800477   -163.30835   -2707.9625    12725.643 
   27970    276.14207    6.5538754    48.824645     -167.505   -3165.0428    12725.643 
   27980    269.54138    9.5296132    57.932891   -171.09574    4706.8781    12725.643 
   27990    266.22645    11.132252    51.202871   -173.66944    2582.1707    12725.643 
28000        0.97484411872920850861 10.156470967374676917 1 70 -286.63128149822352952
   28000    246.37794    10.852492    51.237456   -175.00159    3011.8889    12725.643 
   28010    253.30012    7.9834156    56.322695   -175.03675    108.69313    12725.643 
   28020    280.75385    7.8003242    48.778584   -173.90474    444.42456    12725.643 
   28030    304.79041    5.8044584    48.481067   -171.96578   -1362.2208    12725.643 
   28040    281.38842    4.2397011    47.684453   -169.58886   -5083.8945    12725.643 
   28050    259.65369    4.7957468     53.83632   -166.32474   -4340.2265    12725.643 
   28060    268.88034    6.0257837    60.000936    -161.6191   -495.91071    12725.643 
   28070     298.6418    6.6936639    47.633791   -155.88736    3171.0087    12725.643 
   28080    301.68888    8.6159171    49.301297    -150.8349    1248.6017    12725.643 
   28090    304.21969    7.5512481    44.660093   -147.61513   -1430.3327    12725.643 
28100        0.97004401527519867887 10.176528659135462007 1 67 -282.33275432980093456
   28100    302.12949    7.1298563     54.69155   -145.44298     1115.529    12725.643 
   28110     302.4514    8.3929762     48.72762   -143.98555    3732.6896    12725.643 
   28120    304.34024    6.8260703    49.575611   -143.07037     3143.695    12725.643 
   28130    298.20734    7.1237259    56.367157   -142.38518   -749.31439    12725.643 
   28140    308.38339     8.836119    55.373887   -141.73576   -2130.5383    12725.643 
   28150    307.95857    8.6299336     58.04251   -141.37328   -1587.2812    12725.643 
   28160    298.80804    8.2942451    60.878089    -141.4387    1236.7609    12725.643 
   28170    318.48925    8.7002919    45.944653   -141.65773   -1136.9624    12725.643 
   28180    300.10626    7.7582426    49.349333    -141.9887   -3306.9328    12725.643 
   28190    309.47961    6.9398038    55.351547   -142.39672    311.87065    12725.643 
28200        0.96402755357576908057 10.207208099277648827 0.99206349206349198067 70 -279.94965308682344585
   28200    301.08422    6.8705066    61.808645   -143.53347    2063.8854    12725.643 
   28210    274.48445    5.2109193    63.585627   -145.35266    1685.7129    12725.643 
   28220     271.1864     6.309105    47.618884   -146.90022   -3412.6941    12725.643 
   28230    254.34847    6.7507477    56.861193    -147.5249   -3189.3202    12725.643 
   28240    278.85833    6.6536082    52.736409    -146.9053    356.99994    12725.643 
   28250    264.17219    7.8605737    58.615375   -145.27743    980.27711    12725.643 
   28260    280.49527    11.715013    57.742761   -142.80144    2055.3497    12725.643 
   28270    289.38659    11.365223    57.673921   -139.50748    802.40655    12725.643 
   28280    317.89557    8.8047131    47.354657   -135.72378    1542.8436    12725.643 
   28290    318.07269    6.1055331    48.476429    -131.8155    896.25547    12725.643 
28300        0.95788410484284014501 10.212956690230477363 0.99206349206349198067 70 -270.45835259151942864
   28300    314.11423     5.550505    59.181781   -128.13849   -1721.8861    12725.643 
   28310    303.93348    4.5784711    60.712277   -124.98219    153.22327    12725.643 
   28320    328.67326     3.446391    58.990556   -122.48305    24.456204    12725.643 
   28330    347.62775    2.9020477    45.567065   -121.16271   -498.62788    12725.643 
   28340    325.99953     2.873367    50.870057   -120.69742    554.39568    12725.643 
   28350    296.60443    3.7890572    53.036241   -120.30367   -1222.9532    12725.643 
   28360    299.35308    3.2734414     64.99201   -119.73826    1250.9727    12725.643 
   28370    317.89128    3.3753469    60.959488   -119.58576   -631.09988    12725.643 
   28380     325.9758    5.3510173    56.604294   -120.06775   -1419.8636    12725.643 
   28390    318.15849    8.4717629    48.905538   -120.94371   -886.86431    12725.643 
28400        0.96025913781897243027 10.210021337282293885 0.99206349206349198067 72 -255.03817250194884991
   28400    293.23261    7.6000469    61.941172   -122.17943    147.24563    12725.643 
   28410    297.33906    5.8793892    69.340781   -123.99582    401.15805    12725.643 
   28420    310.00764     6.811191    62.062466   -127.57769    1004.4398    12725.643 
   28430    323.31802    7.0574941    51.857629   -133.63928   -1572.4385    12725.643 
   28440    313.40638    4.4931925    56.592621   -141.56259    2353.0103    12725.643 
   28450    285.86051    3.3610394    59.927872   -148.04165   -170.73056    12725.643 
   28460    267.77494    4.8696242    56.200302   -152.28911   -1586.5633    12725.643 
   28470    260.66412    6.1200414    56.317777    -154.6435   -5513.7009    12725.643 
   28480    280.91026    8.0282943    45.726765   -155.74291   -2443.9226    12725.643 
   28490    291.55682    9.4940113    46.366226   -156.04707    2219.2328    12725.643 
28500        0.96781831579624144624 10.181459979248051795 0.98941798941798930755 67 -284.4282761704503173
   28500    284.59918    10.216597    50.805483   -155.48119    3344.3555    12725.643 
   28510    298.76369    10.385514    52.227951   -153.99032    994.76779    12725.643 
   28520    299.40915    7.9223041    56.353801    -152.1662    2175.2623    12725.643 
   28530    285.86763      7.00033    60.300534   -150.38739   -1459.1851    12725.643 
   28540    285.71815    8.8112113    56.548544   -148.36653   -1358.7736    12725.643 
   28550    288.79944    11.260177    51.232759   -145.89794   -2328.4745    12725.643 
   28560     295.7168    14.642617    51.218292   -143.02504    1718.0978    12725.643 
   28570    293.08974    9.0011567    61.995183   -139.69115     2050.716    12725.643 
   28580    313.99417    5.2229956    50.248257   -136.06668    1652.9473    12725.643 
   28590    301.13057    5.2230002    55.694728   -132.68124    888.52787    12725.643 
28600        0.97180328004382698914 10.169584489061611166 0.99206349206349198067 70 -261.57431135222407192
   28600    291.33765     4.924205    56.845364   -129.57414    660.28283    12725.643 
   28610    296.40157    6.6945328     58.61967   -126.35548   -2827.8788    12725.643 
   28620    292.42362    8.1988156    63.139499   -123.35846    468.13963    12725.643 
   28630    306.60293     10.65218    59.809216   -120.86966   -197.03812    12725.643 
   28640     326.4192     12.24062    50.732507   -118.94478    2185.0455    12725.643 
   28650    306.65121    10.100706    64.169328   -117.80694    480.76889    12725.643 
   28660    309.20382    8.1909714    58.121787   -117.43601    -3149.882    12725.643 
   28670    296.29939    7.6203062    71.373653   -117.74528   -1902.1589    12725.643 
   28680    334.44406    5.2928714    57.620807    -118.6263   -693.13869    12725.643 
   28690    359.53753    6.4182881    59.140949   -121.07864   -27.434457    12725.643 
28700        0.97069951094337181274 10.166320570909917365 0.99470899470899465378 68 -279.67445332758177301
   28700    340.89958    6.6374465    59.607774    -125.2186    634.79344    12725.643 
   28710    306.03626    7.0653526    58.694035   -129.65173    -1064.785    12725.643 
   28720    272.32598     8.099702    61.421759    -132.8699    2652.3742    12725.643 
   28730    292.19327    9.0237945    58.830892    -134.6751    102.67501    12725.643 
   28740     285.3129    7.5702572    55.022195   -135.50091    1910.1524    12725.643 
   28750      309.839    6.3425485    51.153591   -135.75583   -2147.2821    12725.643 
   28760    303.54721    6.4543426    59.074853   -135.93615   -1540.6796    12725.643 
   28770    318.38618    5.5425762    53.015649   -136.35467    1440.6091    12725.643 
   28780    279.57541    5.4247574     58.88274   -136.86937    658.14749    12725.643 
   28790    293.29304    5.4154232    51.195473   -136.95939    1452.6387    12725.643 
28800        0.96684975610713719263 10.168214616304799947 0.99206349206349198067 69 -261.24673781690239593
   28800    275.38078    7.9087496    55.889363   -136.47635   -1007.1981    12725.643 
   28810    303.04777    7.1683598    56.397901   -135.29982    1148.9354    12725.643 
   28820    288.20345     7.097859    69.169332   -133.81689    227.64452    12725.643 
   28830    327.69212    8.2322251    57.547062   -132.08911    -1359.623    12725.643 
   28840      304.032    7.8011815    55.685845   -130.53242    -753.1599    12725.643 
   28850    297.21409    7.3001593    58.785192   -129.20818   -492.80736    12725.643 
   28860    282.66259    7.9351041    60.115543   -127.35717   -1160.6184    12725.643 
   28870    280.46075    7.3766208    63.045047   -124.76444    2714.0498    12725.643 
   28880    322.18776    4.4577026    60.267785   -120.77331    1559.0583    12725.643 
   28890    336.55882    4.9070997    61.856751   -116.11099   -300.51677    12725.643 
28900        0.97315248607422188964 10.146868081962992392 0.99735449735449732689 71 -264.06322324921666223
   28900    335.88293    7.8010956     63.01426   -111.88034   -633.91076    12725.643 
   28910    300.12135    10.341731    76.172274   -109.19615    553.71971    12725.643 
   28920    330.36481    7.7383114    60.527574     -107.203   -292.54696    12725.643 
   28930    336.02955    5.5544409    57.683719   -105.90561    -467.2767    12725.643 
   28940    331.36831     4.518157    58.917476    -105.4985   -2493.5525    12725.643 
   28950    310.71102     5.237039    66.900661   -105.78617    421.21938    12725.643 
   28960    310.08158    6.9405276    63.057237   -106.78887   -487.26002    12725.643 
   28970    311.32645    8.3594122    63.383198   -108.92181     1063.057    12725.643 
   28980    333.17784    9.0771602    57.929022   -112.84299   -42.063235    12725.643 
   28990    337.45553    8.7919415    52.160585   -118.83187    -540.3097    12725.643 
29000        0.97413889505842499172 10.160257634107003 1 71 -263.13780847049292788
   29000    303.72199    7.9031035    63.252387    -125.5265    845.82227    12725.643 
   29010    306.00471    4.9732703    57.139712    -131.2336    3693.5206    12725.643 
   29020    288.77418    4.4589158    60.573903   -135.70342    2410.4714    12725.643 
   29030    294.76084    6.4655065    51.854865   -138.87561    1282.4148    12725.643 
   29040     297.9033    6.5411066    54.054882   -141.22977   -3607.6114    12725.643 
   29050     294.2366    7.2335898    57.806788   -142.95081   -307.19329    12725.643 
   29060    301.65782    8.3221141    58.030003   -144.36237   -1293.1794    12725.643 
   29070    308.14115    9.9775265    57.535307   -145.87679    83.800296    12725.643 
   29080    315.14103    7.0985196    52.780494   -147.90532   -1691.5003    12725.643 
   29090     289.9481    6.6683114    53.923176   -150.28592   -675.12937    12725.643 
29100        0.97231303085202214209 10.210061168536334719 1 70 -282.09603138181807935
   29100    286.53088    6.6839821    48.767222   -152.27373   -435.51718    12725.643 
   29110    290.75152    5.3275884    54.712835   -153.74003    -98.07795    12725.643 
   29120    303.19802    4.6827976    48.465612   -154.79693   -390.22147    12725.643 
   29130    290.78117    5.7544749    51.365941   -155.62964   -13.316752    12725.643 
   29140     274.8853    5.6256844    57.374829     -156.201   -853.77005    12725.643 
   29150    288.96009    4.5576769    50.316654   -156.28847    993.32033    12725.643 
   29160    301.97923    3.6376379    48.857142   -156.02569     1234.909    12725.643 
   29170    295.62141     3.939293    48.032975   -155.41695    231.87747    12725.643 
   29180    275.86859     6.626939    49.944636   -154.07404    950.80251    12725.643 
   29190     279.9622    6.3240554    51.537043   -151.36903    489.58152    12725.643 
29200        0.97464429956142617506 10.19654996868475294 1 72 -291.35383223622352489
   29200    319.53237    6.2566777    50.436216    -146.5791    2581.0769    12725.643 
   29210    296.94805    5.0845688    57.862984   -141.25705   -2808.7811    12725.643 
   29220    304.52448    6.3060441    52.837069   -135.99736   -4357.6514    12725.643 
   29230    279.32992    7.2380277    63.725913   -131.47134   -2549.1335    12725.643 
   29240    307.24811    6.4500502     55.05047   -127.48982   -112.73316    12725.643 
   29250    310.13962    6.0901169    60.377062    -124.1867    2580.5596    12725.643 
   29260     339.9647    8.4865411    53.452309   -122.08563       663.46    12725.643 
   29270    323.41899    13.395421    53.755916   -121.58941   -1066.5838    12725.643 
   29280    319.84652    13.604486     59.01412   -122.13842    1255.3481    12725.643 
   29290    324.57357    13.774992    58.610746   -123.27779    525.15179    12725.643 
29300        0.97241556575619247926 10.191756024011846549 1 71 -285.94181932370435106
   29300    354.66506    14.609041    50.752203   -125.24907    -136.6838    12725.643 
   29310    329.49948    13.423663    60.549074   -128.71478    642.68368    12725.643 
   29320    305.81555    12.532816    53.632074   -132.81261   -807.81066    12725.643 
   29330    275.07559    7.6779574    66.094452   -136.51963    973.31228    12725.643 
   29340    283.61303    6.9923848    55.692208   -139.12802    1018.7642    12725.643 
   29350     275.0107    6.2160387    58.464588   -140.56639    1444.3995    12725.643 
   29360    288.32891    4.3391738    55.490626   -140.97385   -317.49207    12725.643 
   29370    275.17142    4.8369326    55.446381   -140.77246   -1545.0329    12725.643 
   29380    302.82718     7.824868    51.753815   -140.10969   -458.94731    12725.643 
   29390    294.25044    12.021988    52.726893   -139.33858    2630.9001    12725.643 
29400        0.97738824301842530673 10.152549210977753091 1 67 -275.18755463975958264
   29400     301.8395    10.865395     53.93979   -138.42917    1038.2189    12725.643 
   29410    306.34709    5.6027027    52.033768   -137.44943     660.8245    12725.643 
   29420    315.95718    3.9488114    57.132112    -136.7638    -3991.498    12725.643 
   29430    328.81641    2.5399398    48.648354   -136.62999   -932.32835    12725.643 
   29440    294.73119    2.6888145    59.092195   -137.23078   -934.73177    12725.643 
   29450    290.41334     2.935681    55.559403   -137.84621    1040.0842    12725.643 
   29460    294.83337    4.2001271    59.471565   -138.18919   -701.10498    12725.643 
   29470    330.66991    6.5491969    51.889918   -138.69608    133.83308    12725.643 
   29480    312.66197    7.0825081    53.428716   -140.13267    2444.4799    12725.643 
   29490    321.84633    5.6242169    50.672407   -143.16263    2488.7512    12725.643 
29500        0.97807432052331833017 10.153810899798589418 1 67 -274.70352107012905662
   29500    280.04771    5.2576806    54.951898   -147.81863   -1212.5189    12725.643 
   29510    272.01329    7.1136208    51.798547   -153.31288    -2190.631    12725.643 
   29520    259.64054    8.9527486    56.700721   -158.42173   -683.72575    12725.643 
   29530    266.94349    7.2654372    57.404912   -162.83409    621.18872    12725.643 
   29540     279.7688    5.8878198    48.058028   -166.02623   -788.81917    12725.643 
   29550    283.77162    7.5766166    47.011231   -168.06534   -2199.6565    12725.643 
   29560    265.02105    8.9594363     46.65853   -168.96407    376.81553    12725.643 
   29570    271.07722    6.0544197    50.929573    -168.5957    2693.7926    12725.643 
   29580    277.71773    6.3990972      48.5913   -167.15532    2952.4991    12725.643 
   29590    279.74792    8.0382593    46.846262   -164.95205   -1717.0276    12725.643 
29600        0.97982482421193484168 10.143277206400998836 1 71 -287.88317187570595479
   29600    277.67414    7.0366509    50.754728    -162.0737   -3605.2059    12725.643 
   29610    296.09051    6.0410597    53.783841    -158.8642    574.57485    12725.643 
   29620    301.48844    4.7196863    55.727654   -155.94471    3022.9982    12725.643 
   29630    303.83575    6.0971643    53.874523   -153.75068    4133.4443    12725.643 
   29640    301.35009    4.2757982     52.45698    -152.5404   -1995.3276    12725.643 
   29650    305.30919    4.2960653    53.867051   -152.01668   -1273.3629    12725.643 
   29660    289.74214    4.5373851    59.162239   -151.76129   -502.61832    12725.643 
   29670    276.59814    5.5118223    60.668029   -151.22799   -2007.9111    12725.643 
   29680    272.56396    6.5246862    61.896851   -150.42575   -2741.9561    12725.643 
   29690    302.04202    8.1843446    49.957845   -149.48479   -1907.7971    12725.643 
29700        0.98469541266009708025 10.117368022798322258 1 68 -281.36625863906942868
   29700    293.20456    8.0423471    58.177283   -148.52022    3077.6124    12725.643 
   29710    327.94001    6.5454558    48.619795   -147.57894    3493.4598    12725.643 
   29720    288.66058    6.5377433    62.037919   -147.11049   -980.57467    12725.643 
   29730    293.92943    6.0309384    54.713031   -146.82427   -3473.2707    12725.643 
   29740    300.09258    7.6367223    53.477128   -146.15063   -659.51368    12725.643 
   29750    327.78434    8.1917437    54.836697   -145.20765    1197.8045    12725.643 
   29760    323.12148    12.010027    55.576207   -144.77629    1544.1936    12725.643 
   29770    317.25424    12.186496    53.932331   -145.23513   -3822.2379    12725.643 
   29780    318.38832    9.6401558    54.992584   -146.23222   -1594.3859    12725.643 
   29790    342.76825    7.7124787    49.890208   -148.03866    938.66446    12725.643 
29800        0.98975838552500317036 10.103399175288851453 1 68 -290.74110517310538171
   29800    307.06836     5.270324    53.324117   -151.61361    3719.4447    12725.643 
   29810    281.90307    4.9870673    58.991298   -156.36987    1899.2591    12725.643 
   29820    276.17816    6.5565673     50.80363    -161.2025    2115.1485    12725.643 
   29830    291.75984    10.504466    43.120625   -165.29071    3025.8261    12725.643 
   29840    274.73729     15.22463    50.884284   -168.50105    706.31541    12725.643 
   29850    255.10035    14.094968    54.399429   -170.38336   -2247.9172    12725.643 
   29860     271.2482    11.286868    52.452063    -170.9784   -4046.4397    12725.643 
   29870    277.11434    7.7343947    53.246708   -170.58401   -1658.9823    12725.643 
   29880    294.77263    7.9004712    51.736846   -169.55749    17.693132    12725.643 
   29890    268.20295    6.4472295    63.246874   -168.04168    3569.0025    12725.643 
29900        0.98703923622850120445 10.084081628371471595 0.99735449735449732689 65 -303.17576175768328994
   29900    303.27184    4.7995642    55.989421   -165.76841    2164.5043    12725.643 
   29910    277.98624    5.1396878      64.0327   -163.28516    1014.2616    12725.643 
   29920    293.02317    5.3534814    53.320929   -160.62816   -1697.7906    12725.643 
   29930    308.04454    6.1403467    55.880611   -157.49884   -1587.2062    12725.643 
   29940    305.61368    6.1723783    61.157627   -154.19438    357.07473    12725.643 
   29950    274.95213    6.5307263    65.059638    -150.7135   -608.75601    12725.643 
   29960    289.37254    7.6687601    62.811116   -146.31515   -989.45068    12725.643 
   29970    316.08789    6.8366809    59.562245   -140.68323   -111.66006    12725.643 
   29980    337.83537    7.5988319    60.338723   -135.42986     657.2816    12725.643 
   29990    311.33699    7.3818535    68.253112   -131.99165    1612.6063    12725.643 
30000        0.98243700204058337366 10.121796991388269049 0.99470899470899465378 66 -274.96878092855365594
   30000    319.73956     8.341288    52.856143   -130.10018    1648.0686    12725.643 
   30010    309.58045    9.6369688     58.16589   -128.98118    1026.8051    12725.643 
   30020    331.72907    9.0128412    54.605371   -128.29231     130.5119    12725.643 
   30030    332.22743    6.4306285    59.075737    -128.4842   -684.43971    12725.643 
   30040    326.84548    7.5705392    59.787644   -129.38099    -426.0864    12725.643 
   30050    297.32912    11.563096    58.515547   -130.57559   -4825.7163    12725.643 
   30060    310.49974    12.351357    59.185127    -131.5095   -1857.3771    12725.643 
   30070    319.81214    9.6311804    64.555863   -132.82066    1356.5405    12725.643 
   30080    333.99829    7.6211775    52.972843   -134.63113    3932.2637    12725.643 
   30090     309.2643    7.8838087    55.752314   -136.86718    2576.7742    12725.643 
30100        0.97588443747940178952 10.144823588031838923 0.99206349206349198067 66 -274.21167442113687684
   30100    298.66787    6.6815472    60.711464    -138.8903   -1978.4723    12725.643 
   30110    295.13351    4.2994423    62.157693   -140.52495    1918.3756    12725.643 
   30120    324.94548    3.3047592    60.176624   -142.58842    1023.7509    12725.643 
   30130    291.19661    5.7311078    60.127709   -145.14039   -573.53309    12725.643 
   30140    282.92531    4.7873601    59.204746   -147.64131   -1885.3273    12725.643 
   30150     279.1356    3.8076367    60.671197   -149.45664   -1616.8149    12725.643 
   30160    293.42264    2.8402298    54.792941   -150.89804   -1008.1716    12725.643 
   30170    295.05647     4.243779    55.219436   -152.18537    2152.4796    12725.643 
   30180    288.67825    5.1194513    54.325683   -153.12298    209.42855    12725.643 
   30190    292.32807      6.30427    49.490996   -153.90263   -667.18846    12725.643 
30200        0.96875166206354057508 10.180413581237969467 0.99206349206349198067 63 -281.87228272558360231
   30200    281.81426    5.8925401    56.548272     -154.187   -3393.5955    12725.643 
   30210     312.5453    7.4560694    42.126456   -153.77817    824.10085    12725.643 
   30220    292.19896    6.7746386    53.597811   -152.88087    948.33061    12725.643 
   30230    311.07516    4.3555757    53.552363   -151.06667   -539.71286    12725.643 
   30240    293.79164    4.8240457     58.65546   -148.28502   -1157.8466    12725.643 
   30250    301.98244    4.3079418    53.643401   -144.40281    509.43553    12725.643 
   30260    304.93992    7.1760119    56.895913   -139.25531    2084.4832    12725.643 
   30270    319.90156    8.3884768    57.846278   -133.64101    1185.2196    12725.643 
   30280    308.35358    10.369233     59.44308   -127.99228   -2564.0845    12725.643 
   30290    312.53751    11.845951    61.709428   -123.77223   -981.87432    12725.643 
30300        0.96562344997441840189 10.189480896674892207 0.98677248677248674547 65 -285.16262340474463599
   30300    362.64241    9.9859532    55.085698   -120.85546    387.37065    12725.643 
   30310    359.43144    7.6670604    56.689976   -120.36908    289.37612    12725.643 
   30320    327.45678    9.5923662    57.021363   -121.90449   -802.43025    12725.643 
   30330    295.22378    11.000315    59.968929   -123.91395   -1965.6227    12725.643 
   30340    336.72779    9.7832227    53.331853    -125.9995   -989.92602    12725.643 
   30350    307.60322    7.9091581    63.974113   -128.64116    3143.6211    12725.643 
   30360    307.61904    9.6169494    56.286614   -131.46273   -1024.8626    12725.643 
   30370    266.56083    7.5062423    66.862835   -134.17639    814.73579    12725.643 
   30380    277.78239    6.2348006    59.953771   -136.11782   -1769.6392    12725.643 
   30390    298.19218    4.4650724    56.074687   -137.40227    1556.8135    12725.643 
30400        0.96070698277484722905 10.192299068229267789 0.98148148148148139924 66 -284.82358125249419345
   30400    323.08921    4.7922142    49.187043   -138.43731    1137.7455    12725.643 
   30410    296.99187    6.3780848    51.463221   -139.41884   -1558.6188    12725.643 
   30420    272.89032    6.4756059    60.781085   -139.92583    -1367.213    12725.643 
   30430    288.49079    7.2269145    56.947857   -139.79867   -2003.6168    12725.643 
   30440    287.98802    7.3903423    68.365434   -139.48309   -341.23924    12725.643 
   30450    314.20102    6.3277831    55.901331   -139.06334   -364.42502    12725.643 
   30460    302.84278    4.8477278     55.28104    -138.6964    649.84079    12725.643 
   30470    288.24249    4.9448584    58.255001   -138.25705    1343.6967    12725.643 
   30480    277.25575    6.4372732    61.559351   -136.97599    1163.5105    12725.643 
   30490    308.24052    4.5321451     67.18813   -134.43487    3298.3848    12725.643 
30500        0.97206377256712084289 10.143632488654404256 0.98148148148148139924 69 -275.93893357086557216
   30500     319.4398    7.1356052    62.381892   -131.20615    882.05308    12725.643 
   30510    319.96925    11.522113    61.531108   -128.26756   -4432.8296    12725.643 
   30520    316.86596    12.842219    60.342406   -125.89781   -811.74734    12725.643 
   30530    307.60516    9.9532252    66.805569   -124.08772   -426.04768    12725.643 
   30540    325.47558    10.863141    60.881933    -122.8911    2040.9293    12725.643 
   30550    317.58305    11.441716    57.963886   -122.51055    393.38512    12725.643 
   30560    314.10487    8.6333842    58.199347   -122.60769   -1940.1115    12725.643 
   30570    291.40755    9.4001855     65.24894   -122.75454   -141.64147    12725.643 
   30580    309.56492    12.242901    61.971106    -122.9011    -377.9283    12725.643 
   30590    285.14076    14.313926    76.687298   -123.22212    3943.0633    12725.643 
30600        0.96763806405950525402 10.145499061650740558 0.98148148148148139924 69 -282.15111181312511235
   30600    348.98433    12.102122    55.712368    -124.0322    1114.6154    12725.643 
   30610    333.53747    11.277578    58.863295    -126.1623   -3015.9395    12725.643 
   30620    331.30545    8.8101892    53.995496   -130.07555    200.19505    12725.643 
   30630    306.17096    7.9951684    56.341902   -134.55574   -512.36656    12725.643 
   30640    303.58019    4.8500897    59.882266   -139.32992    1752.0769    12725.643 
   30650    305.44336    4.7311264    53.144072   -143.61265   -1289.7763    12725.643 
   30660    288.53861    6.9960249    58.380545   -147.10197    698.50924    12725.643 
   30670    288.50989    8.0215067    53.027413   -149.88047    2923.3123    12725.643 
   30680    275.72094    9.3027458    54.466543   -151.45084    1626.0324    12725.643 
   30690     288.3187    6.8820305    54.337367   -152.09214    2459.0372    12725.643 
30700        0.96473032109163803227 10.144384788189197977 0.98148148148148139924 66 -289.00472714577790612
   30700    301.79966    6.3176147     56.55527   -152.26439   -2743.7053    12725.643 
   30710    287.50636    4.7100132    59.117879   -152.19551   -2525.2395    12725.643 
   30720    305.74292    4.0144343    49.549704   -152.03377   -213.29928    12725.643 
   30730    277.64239    5.3725643    58.083603   -151.56175   -1884.6575    12725.643 
   30740    302.84592    6.5166067     55.10759   -150.51877   -919.36266    12725.643 
   30750    288.49477    8.7116242    58.422547   -149.01164   -66.066837    12725.643 
   30760    302.22412    7.7643276    56.111592   -147.14497    3629.0792    12725.643 
   30770    291.52257    7.1049562    65.721519   -145.17728    4160.5215    12725.643 
   30780    296.85336    6.5320898    60.726423   -142.64833   -2877.7153    12725.643 
   30790     300.5431    5.3518476    59.804136   -139.35181   -1729.4575    12725.643 
30800        0.95588097182841580413 10.196769745699327814 0.98148148148148139924 66 -267.66059931776055691
   30800    293.04193    5.1354939    63.951316   -134.88824   -2704.3276    12725.643 
   30810    285.56881    5.2262946    69.738077   -129.62713    617.50572    12725.643 
   30820    311.13245    7.9720075    60.347472   -123.53914    2200.5158    12725.643 
   30830    304.59491    11.249425    65.114889   -117.93921    1347.6066    12725.643 
   30840    329.30703    10.183852     64.07805   -113.57563    483.97041    12725.643 
   30850    345.81888    6.1993839    63.856689    -110.8646   -2305.7813    12725.643 
   30860    327.99116    4.3389109    72.621181   -110.62395     1069.048    12725.643 
   30870    325.25104    3.7058176     63.04567   -111.87658   -1719.5062    12725.643 
   30880    314.84062    3.7162404    67.861363   -113.70143   -2750.7206    12725.643 
   30890    329.38489    3.7369115    58.578138   -115.49044   -3066.5981    12725.643 
30900        0.93491505249805417765 10.268056603547424999 0.97354497354497349093 67 -265.93544659080930614
   30900     326.8206    2.8040302    60.539771   -117.85855    10.531069    12725.643 
   30910     321.8065    4.2379165    61.896513   -120.71353    1241.8329    12725.643 
   30920    299.19648    7.9123715    57.357709   -123.70337    1746.2703    12725.643 
   30930    288.16953    9.5270544    63.376459   -125.83483   -836.97589    12725.643 
   30940    308.80219    7.2051239     61.36486   -127.72792    2826.6449    12725.643 
   30950    289.40341    9.1416726    61.505878   -129.56345   -1109.3596    12725.643 
   30960    321.05178    10.716988    54.268982    -131.1516    368.73373    12725.643 
   30970    298.48563    10.038609    63.389737   -132.61312   -2821.3936    12725.643 
   30980    314.93592      8.87195    53.798685   -134.00586    1910.5881    12725.643 
   30990    273.58317    8.0962132    65.657362   -135.66431    1659.0413    12725.643 
31000        0.93335819361249605652 10.259396327965875528 0.97619047619047616404 64 -264.13186678556127163
   31000    280.82199    7.2729176    58.319744   -136.89616    3207.5334    12725.643 
   31010    301.82848    4.9261633    61.384865   -137.70056   -575.41592    12725.643 
   31020    326.20877    2.5622095    57.467685   -139.00806    430.34869    12725.643 
   31030     308.1469    4.4002425    58.131661   -141.08761   -2670.1707    12725.643 
   31040    304.10274    4.6428635    56.899092   -143.82857    287.56944    12725.643 
   31050    297.19737    2.5489854    55.925688   -146.77912   -1133.5914    12725.643 
   31060    268.91287    3.0662445    62.861148   -150.07273    132.00771    12725.643 
   31070    272.90823    3.9775892    50.005233   -153.23592   -1030.3657    12725.643 
   31080    262.45844    5.2993656    55.020377   -156.37628    -642.9611    12725.643 
   31090    270.48095    3.7747388    59.096611   -159.46257   -606.90493    12725.643 
31100        0.94020537102755930015 10.248906265618451528 0.97619047619047616404 66 -282.93615242758880868
   31100    264.98348    4.5562936      57.6584   -162.87661   -815.65864    12725.643 
   31110    274.79328    5.7632908    54.514464    -167.0341    338.15253    12725.643 
   31120    263.57037    5.9424743    49.530276   -171.38089   -271.70844    12725.643 
   31130    258.03559    5.2390431    52.513415    -174.9077   -1007.7781    12725.643 
   31140     241.7857    6.2963946    54.676075   -177.22571   -108.79285    12725.643 
   31150    247.08137    7.8234717     55.81369   -178.27397   -1145.6028    12725.643 
   31160    266.31864    8.5835568    49.197151   -178.17117    106.71933    12725.643 
   31170    264.94248    7.3798691     50.39015   -176.88111   -437.21454    12725.643 
   31180    267.82927    6.4734449    51.942717   -173.98821    2292.1483    12725.643 
   31190    276.82439    6.0276654    53.135334   -169.22461    844.50635    12725.643 
31200        0.94687878159446470239 10.211836144165644669 0.97883597883597883715 71 -293.40293297632075564
   31200    287.19607    6.1260202     54.96099   -163.27924   -2237.4252    12725.643 
   31210    285.65238    5.7441261    57.986175    -157.7949   -29.281523    12725.643 
   31220    297.76647    4.6011938    56.540681   -153.61309    1503.2469    12725.643 
   31230    280.66338    4.8892104      57.6692   -150.77308    233.24595    12725.643 
   31240    296.43928    4.5894135    51.371235   -148.48255   -1477.4557    12725.643 
   31250    300.10025    3.2879757    54.231584   -146.55331   -1002.2188    12725.643 
   31260    303.32122    2.7158961    58.353831   -145.03305   -295.40797    12725.643 
   31270    316.74218     6.286079    56.367679   -143.72143    1885.7474    12725.643 
   31280    320.60902    8.8954094     56.34571   -142.82878    266.78067    12725.643 
   31290    308.17908    9.8801381    55.553654   -142.30751    2652.8458    12725.643 
31300        0.95804728602173261365 10.152043614805508653 0.98677248677248674547 72 -269.24450970505665737
   31300    280.97849    8.4729609    64.066198    -141.9379   -645.62937    12725.643 
   31310    291.60847    6.6367184    58.684679   -141.33279    1532.7481    12725.643 
   31320    291.48887    8.0577053    58.770128   -140.41053    266.00161    12725.643 
   31330    298.57717    6.8353987    55.016433   -139.02819    1485.5002    12725.643 
   31340    291.54305    6.9794317    59.296169   -136.76753    -1080.548    12725.643 
   31350     304.5673    10.481405    58.926442   -133.77117   -411.35019    12725.643 
   31360    294.98859    9.3072681    63.574954   -130.73886    -248.9298    12725.643 
   31370    321.96057    8.8319531    57.509723   -127.57428   -286.59358    12725.643 
   31380    334.45381    9.0603836    52.969369   -124.46391   -2581.2845    12725.643 
   31390     339.2058    6.7330017     52.60095   -122.01661    2382.7865    12725.643 
31400        0.96686536653548615927 10.134961291530993677 0.99206349206349198067 74 -263.85310565078276568
   31400    316.61076    6.4310611    60.894228   -120.40211    478.54748    12725.643 
   31410    317.70913    5.7751862    63.242365   -119.26976    5821.0562    12725.643 
   31420    312.71825    7.7784241    60.827732   -118.62507    639.82013    12725.643 
   31430    327.96239    8.3865078    51.852363    -118.4587    662.54549    12725.643 
   31440    315.54485    6.6844441     61.02162   -118.95843   -3279.3933    12725.643 
   31450     306.4699    7.1639876     54.95605   -120.05657   -2243.3119    12725.643 
   31460    306.01664    6.5118774    63.768289   -121.90613    624.08723    12725.643 
   31470    306.22114    5.5232878    60.407928    -124.9178   -237.18335    12725.643 
   31480    312.32067    4.6661972    62.082876   -129.31365    -616.9489    12725.643 
   31490    297.19935    6.1054432    53.393066   -134.40907   -911.62793    12725.643 
31500        0.9728531153916821772 10.134419133661586088 1 70 -273.83835869142887987
   31500     297.3401    8.1212166    56.089348   -139.11858   -1397.7972    12725.643 
   31510     317.4588    8.9901206    52.626587   -143.55324    4302.1034    12725.643 
   31520    277.95855    9.8460036    55.943484   -147.74737   -815.23467    12725.643 
   31530    278.80581    9.6130667    53.409044   -150.58381    67.060853    12725.643 
   31540    265.68191    10.184176    55.909684   -152.40968    238.95646    12725.643 
   31550    283.97981    8.4400755    57.173747   -153.35213    800.46868    12725.643 
   31560    291.50273    5.1752232    58.312441   -153.68204    892.49842    12725.643 
   31570    297.67816    6.6504942    53.832119   -153.87086   -1337.5139    12725.643 
   31580    273.00982    7.3759854    63.384358   -153.96892    551.36714    12725.643 
   31590    292.93229     7.769866    55.013794   -153.73463    -204.3759    12725.643 
31600        0.97134955886732232688 10.200855164645089346 1 68 -296.64532911846163188
   31600    316.15224    6.7370027    51.738246   -153.40208   -326.67133    12725.643 
   31610    295.19559     8.219734    52.143033   -153.21995   -1155.4358    12725.643 
   31620    283.94438    10.630524    52.308392   -152.57571   -1221.7083    12725.643 
   31630    279.61772     9.196793    57.021074   -150.97663    490.47853    12725.643 
   31640     290.3556     7.499767    50.129997   -148.41028    1076.5262    12725.643 
   31650    298.14532    6.0823308    51.400995    -144.3831   -944.58736    12725.643 
   31660    302.49296    4.9854068    57.143467   -138.93877    69.556613    12725.643 
   31670    290.25075    6.0551349    58.388329   -133.13594   -3436.4973    12725.643 
   31680    321.05372    5.7321734    53.721006   -127.85834    1369.5942    12725.643 
   31690     330.1887    5.7852975    56.284458   -123.89069    592.53933    12725.643 
31700        0.96697144989040340057 10.189839994929155154 1 62 -264.5884218380148809
   31700    315.60852    5.3596155    58.149513   -121.59153    2417.0682    12725.643 
   31710     324.1072    5.4515903    53.672783   -120.45996   -568.94989    12725.643 
   31720    317.60981    5.6557885    61.645181   -120.23772    2493.8102    12725.643 
   31730    351.21135    4.6971078    50.884168   -120.88148    1605.9212    12725.643 
   31740    311.87951    3.5807617    61.825173   -122.52164    424.24624    12725.643 
   31750    313.89066    3.9293741    58.949209   -124.47058   -1847.9079    12725.643 
   31760    306.35857    3.9493845    53.171493   -126.68756   -2279.2528    12725.643 
   31770    315.48141    2.9760587    55.184136   -128.86861    -1397.183    12725.643 
   31780    314.17665    4.8471452    59.973215   -131.41315   -1403.0682    12725.643 
   31790    308.61425    8.6805026    49.333629   -134.08821   -888.02417    12725.643 
31800        0.96125824352049227262 10.196347473575466225 0.99735449735449732689 62 -270.29614280555915684
   31800    295.46069    7.7896351    50.696885   -136.42789    145.23025    12725.643 
   31810    273.29201     5.810831    57.639379   -137.88196     261.4049    12725.643 
   31820    291.93534    5.5016533    50.513057   -138.60292    176.97916    12725.643 
   31830    275.69645     5.180602     56.00105   -138.75914    465.89289    12725.643 
   31840    308.69515    2.9335523    51.670105   -138.14044     1293.448    12725.643 
   31850    294.03898    4.1568344    58.417153   -137.29737    168.07813    12725.643 
   31860    282.07584    6.3053647    57.223997   -136.64346   -1553.4454    12725.643 
   31870    280.57194    6.7492025    62.811998   -135.54679    167.21188    12725.643 
   31880    304.86518    8.2299753    55.659281   -133.25989   -498.57088    12725.643 
   31890      276.535     7.490082    65.933039    -129.2881    1689.4273    12725.643 
31900        0.96005353188721509472 10.195618882799990956 1 66 -257.03382592998701739
   31900    295.86239    5.8325184     66.14006   -122.98357    297.79265    12725.643 
   31910    296.74282    4.4721311    67.256554   -115.39686    495.66781    12725.643 
   31920    318.47308     5.308058    62.417052   -108.83729   -350.12556    12725.643 
   31930    338.95888    6.7899287    56.942194   -104.20211   -1570.1313    12725.643 
   31940    338.52163    6.9146158    55.776572   -101.70442   -1430.3976    12725.643 
   31950    335.32485    6.0681805    59.741355   -100.52712   -751.20797    12725.643 
   31960    319.41757    4.4948546    73.109928   -100.32341   -628.54873    12725.643 
   31970    355.59986    5.7098442    65.601894   -101.49375    6.5296903    12725.643 
   31980    342.15392    7.0101559    63.623233    -104.8431   -1290.5358    12725.643 
   31990    329.56651    9.5492638    60.795493   -109.32422   -326.87559    12725.643 
32000        0.97166890240660364064 10.166943706580489959 1 64 -269.1352049752395601
   32000    342.32946    11.045667    55.667911    -114.0315    3316.5683    12725.643 
   32010    335.92102    8.2115169    59.594484   -119.12766     1467.701    12725.643 
   32020    310.89942    8.5091293    62.024758   -124.03614    1118.8296    12725.643 
   32030    295.14552    7.1144207    68.117585   -128.10501   -2101.8996    12725.643 
   32040    316.09833    7.8030824    63.389618   -131.36656   -2518.7508    12725.643 
   32050    337.39821    7.1976263    50.415531   -134.41297   -3444.2837    12725.643 
   32060    321.07829    4.3144643    52.262672   -137.43086   -298.61434    12725.643 
   32070    292.13166    6.4481033    56.969755   -139.91162    401.76386    12725.643 
   32080    265.12258    7.1058281    64.880123   -141.88392    1251.8022    12725.643 
   32090    265.78206    7.9575853    68.367866   -143.07945    1707.2505    12725.643 
32100        0.98009586157030770259 10.116333241190186953 1 66 -284.10900760471344029
   32100    309.97341    5.5200353    53.868541   -143.66529    1447.7861    12725.643 
   32110    283.25076    5.7706601    58.922487   -144.10878   -777.72634    12725.643 
   32120    272.10417    7.1717677    62.340883   -143.80707   -348.78647    12725.643 
   32130    307.39766    4.9863438    57.999423   -142.73575   -1437.9908    12725.643 
   32140    305.89255    4.9923275    62.786818   -141.83346    750.34419    12725.643 
   32150    333.23693    6.5335306    51.625985   -141.54391   -1971.7019    12725.643 
   32160    306.17974    9.4990647    63.363838   -142.41808    31.096589    12725.643 
   32170    299.02661    12.518629    58.399322   -144.26066    1487.1989    12725.643 
   32180    277.17307    12.198394    58.379519   -146.44582    2777.5432    12725.643 
   32190     298.3313    10.383728     55.22108   -148.63908    167.98039    12725.643 
32200        0.99015646115913302783 10.065676770917516336 1 68 -270.56614734434413094
   32200    264.24133    8.4324945    57.183832   -150.84286      -1022.5    12725.643 
   32210    263.21334     5.963377    60.002657    -152.5199   -1084.4427    12725.643 
   32220    256.95213    6.7833408    58.069049   -153.46386    194.56272    12725.643 
   32230    263.08446    8.4817841    62.511694   -153.41391   -439.43285    12725.643 
   32240    284.95507    9.7164101    51.442339   -152.06799    220.84361    12725.643 
   32250    274.79115    9.6934264    58.481915   -149.44408     460.1268    12725.643 
   32260    302.33979    7.9444164     53.15913   -145.46188    991.29828    12725.643 
   32270     276.3011    11.217838     67.62485   -140.67025    3575.0499    12725.643 
   32280    299.77531    13.039146    52.846357    -135.6653    603.99366    12725.643 
   32290    282.47294    11.692137    62.322908   -130.44249    -322.8232    12725.643 
32300        0.99319684826106702236 10.038909011464099308 1 69 -271.72931016534414539
   32300    321.16355    7.1413791    68.268245   -126.21552   -4038.8822    12725.643 
   32310    344.08441    8.4472866    63.712695   -123.77539    611.83532    12725.643 
   32320    331.48382    9.2213133    62.523249   -123.68923    667.15637    12725.643 
   32330    337.07347    11.492384    58.282599   -124.82184    5015.0273    12725.643 
   32340    296.94258    10.610799    67.399797   -126.53907    1280.1207    12725.643 
   32350     309.1141    9.3082375     58.51163   -128.24467    1527.1742    12725.643 
   32360    310.23962    8.6808948     61.81737   -130.36577   -3981.6175    12725.643 
   32370    316.67712    8.7973138    61.025464   -133.17505   -1999.7124    12725.643 
   32380    306.33993    10.231339    59.139187   -136.32817   -296.44082    12725.643 
   32390    302.54094    10.703262    58.476546   -139.24222    1189.5976    12725.643 
32400        0.99183882787384713975 10.056564651398256061 1 69 -269.09222796595241789
   32400    280.82809     12.90606    60.106698   -141.85376    3150.3996    12725.643 
   32410    285.35084    15.121908    52.951981   -144.01506    956.31331    12725.643 
   32420    299.32735    12.235724    55.689215   -145.84289   -1363.8925    12725.643 
   32430    303.32255    12.881077    49.203979   -147.52505   -1541.6003    12725.643 
   32440    284.32402    12.609797     54.90774   -148.71335   -2166.7257    12725.643 
   32450     306.0793    12.631382    53.486719   -149.41088    2168.3855    12725.643 
   32460    288.54756    8.1333829    55.701299   -149.94181   -1622.2581    12725.643 
   32470     295.1682    7.4984978    50.032731   -150.37653   -1254.8993    12725.643 
   32480    304.46382    6.7725233    55.587543   -150.71524    26.642382    12725.643 
   32490    330.61608     6.894644    46.810754   -151.22504    1682.4608    12725.643 
32500        0.98997468941384314522 10.107920894340868045 1 67 -299.10033722697318126
   32500    323.39406    5.9893811    54.299605   -152.57595    623.52038    12725.643 
   32510    305.41519     9.948543     56.69402   -154.98598   -2473.2108    12725.643 
   32520    287.32849    9.9668365    59.192835   -158.98874   -1507.0685    12725.643 
   32530     279.8574    9.7133044    59.561292   -165.11301    955.73769    12725.643 
   32540    276.32691    7.0171397    51.756713   -172.51898    3246.7969    12725.643 
   32550    253.12432    5.6939486    50.359703   -178.48685     2747.047    12725.643 
   32560     244.2805    5.8983486    46.701951   -181.63692   -744.55227    12725.643 
   32570    251.17197    5.3267974    49.344742    -182.4904   -437.60073    12725.643 
   32580    277.15133     5.538128    49.036454   -181.83698   -1364.7594    12725.643 
   32590    286.11718     6.235957    44.522665   -180.31294   -799.57886    12725.643 
32600        0.98222884967577839266 10.143688657394786645 1 66 -310.37653577805861005
   32600    291.13575     5.113628    47.643028   -178.46784   -1472.8096    12725.643 
   32610    294.24915     6.868313    48.840719     -176.548   -568.39302    12725.643 
   32620    277.65624    8.2527691    50.550115   -174.40279    1542.0032    12725.643 
   32630      269.626    9.7004035    52.373247   -171.87492    3949.9662    12725.643 
   32640    274.75738    8.0347698    49.222405   -168.82182    -574.0469    12725.643 
   32650    274.57492    7.2144342    50.531425   -165.53739   -4043.9115    12725.643 
   32660    282.05189    6.4927398    51.637832    -162.0057   -2981.2977    12725.643 
   32670    299.19781    8.4648394    56.509551   -158.51604     2414.063    12725.643 
   32680    325.63854    10.320103     55.56873   -155.67752    604.41143    12725.643 
   32690    300.17381     14.76078    50.990709   -154.33167   -70.821026    12725.643 
32700        0.96850004521612353958 10.202629081832133906 1 68 -283.76395391285484493
   32700    287.65278    15.421576    52.150207   -153.43333   -2312.2393    12725.643 
   32710    273.19881    13.136923    48.655715   -151.99967    1704.7947    12725.643 
   32720    280.93366    10.865762    60.922054    -149.7922   -67.841766    12725.643 
   32730    279.44567    8.8112086    59.739152   -147.36364      511.972    12725.643 
   32740    307.43806     7.546746    51.425972   -144.82878   -1429.5999    12725.643 
   32750    293.20096    6.7696394    58.458485   -142.44661   -333.49698    12725.643 
   32760    294.91254    8.3440587     59.79036   -140.22491    1224.1104    12725.643 
   32770    284.82005       6.2367    65.606289   -138.06369    930.07533    12725.643 
   32780    316.31421    4.6549006    55.259368   -136.10246   -293.31516    12725.643 
   32790    298.87321     3.383204    64.438979   -134.82015   -2563.9388    12725.643 
32800        0.96361152017385443003 10.200942933390342304 0.99735449735449732689 65 -259.41628886385223041
   32800    276.58422    4.0374636    62.048573   -134.10064   -1780.0623    12725.643 
   32810    301.88754    4.5856161    56.598143   -133.20218    60.754029    12725.643 
   32820    323.58434    6.5878643    56.651303   -132.31937    1738.6624    12725.643 
   32830    339.61313    7.4753232    51.799509   -131.96234    815.87589    12725.643 
   32840    299.73959    6.3706278    64.484494   -132.53805    1721.6248    12725.643 
   32850    309.73652    6.1768411    54.951692   -133.33129     1376.768    12725.643 
   32860    298.67024    3.4864596    60.728391   -134.58783   -542.14191    12725.643 
   32870    296.46115    4.0399372    56.611823   -136.19339   -4557.2416    12725.643 
   32880    293.79921    5.8987337    57.917043   -138.47498   -2207.6133    12725.643 
   32890    285.12813    7.4288898    62.954143   -141.77143   -2144.0906    12725.643 
32900        0.96847189350592821633 10.194419944886428553 1 66 -280.29115225339114659
   32900     294.5789    6.5809885    52.403343   -146.82242   -313.58608    12725.643 
   32910    276.92172    8.0738027    55.454179   -152.25705    1492.7927    12725.643 
   32920    291.99602    7.2949901    49.632876   -157.26138    1282.1613    12725.643 
   32930    296.26876    6.6227245     53.06256   -161.40141    816.19343    12725.643 
   32940    291.34466    2.9336156    50.843472   -164.95082   -53.202211    12725.643 
   32950    286.40506    3.6663602    56.295421   -167.80033     537.7334    12725.643 
   32960     283.3563    6.4998763    51.094382   -169.93083    557.11443    12725.643 
   32970    277.66487      8.52259    47.680938   -171.24674   -1234.6662    12725.643 
   32980    270.05471    9.0467083    51.619352   -171.68862    841.80806    12725.643 
   32990    259.55414    10.708421    50.848583   -171.11324    2358.4225    12725.643 
33000        0.97568161814179454883 10.147788129955204184 1 69 -290.6127816940112325
   33000    267.54903    12.405905    47.822763   -169.39083    2681.2406    12725.643 
   33010    265.43207    13.040994    50.739441   -166.59923    858.66513    12725.643 
   33020    257.22952    10.860905    56.301908   -162.65182    426.03931    12725.643 
   33030    282.61501     8.574079     52.76596   -157.96175   -1289.9205    12725.643 
   33040    285.11403    6.5729462    60.222912   -153.30918   -230.06667    12725.643 
   33050    277.69121    6.0834239    60.635748   -150.00037   -1122.9631    12725.643 
   33060    296.94103    4.8715265    57.406698    -147.5704   -660.81491    12725.643 
   33070    301.91633    6.2849905    57.459369   -145.92266   -1797.7653    12725.643 
   33080    297.00391    5.5218629    54.229454   -144.60767     722.9661    12725.643 
   33090    301.20432    7.3093868    54.939713   -143.36951   -615.67454    12725.643 
33100        0.97308439741243912824 10.167471981089560629 1 71 -276.03327295533847519
   33100    295.44506    7.0842531    59.670426    -142.1721    239.40435    12725.643 
   33110    304.29605    7.5334154    60.092632   -141.38238   -1440.2443    12725.643 
   33120    281.65601    7.4325269    55.413443   -140.92206    1116.4023    12725.643 
   33130    313.77889    6.6147627    51.762968   -140.24548     793.0572    12725.643 
   33140    301.58162    5.8967741      56.0512   -139.31426    3608.3143    12725.643 
   33150    309.71747     6.912574    52.533149   -138.13205   -870.18722    12725.643 
   33160    293.59549    7.7749965    60.814627   -136.70528     786.2241    12725.643 
   33170    291.79047    7.6575688     59.71304   -134.97826   -3690.3164    12725.643 
   33180    303.19756    10.140578    56.002848   -132.81489   -93.030129    12725.643 
   33190    329.28396    8.3313517    57.133407    -130.4342   -3356.2375    12725.643 
33200        0.97205648440639347285 10.17226956576750041 1 74 -278.21983292746540428
   33200    330.92155    7.5646867    57.134746   -128.28486    2392.0531    12725.643 
   33210    313.88408    5.9098673    68.614651   -126.87817    1850.5867    12725.643 
   33220    324.94061    4.6204851    57.275878   -126.11517     3679.274    12725.643 
   33230    317.14623    3.6790429    61.763174   -126.27041   -1041.4849    12725.643 
   33240    330.00201    5.1734929    55.051171    -127.5459   -1340.9006    12725.643 
   33250     306.5719    9.6363881    61.737079   -130.53737   -1978.9699    12725.643 
   33260    302.22778    10.175909    58.102096   -134.95898    650.57625    12725.643 
   33270    291.98177    7.9272238    62.042559   -140.11168   -1346.3253    12725.643 
   33280    305.72349    5.0198866    57.766636   -145.54675   -342.27703    12725.643 
   33290    288.37443    4.6723931    52.714889   -150.14067   -8.4750038    12725.643 
33300        0.96918538746125992844 10.174132788772645597 1 69 -280.85675123497657069
   33300    280.84266    4.2734996    54.186461   -153.61168    1757.4092    12725.643 
   33310    267.88169    4.4151318    53.400477   -155.76261   -1538.3292    12725.643 
   33320    277.14434    4.4121819      52.6653   -156.72499    684.99975    12725.643 
   33330    279.82204    4.3264979    50.522934    -156.8695     261.7719    12725.643 
   33340    291.17215    4.6994181    50.050618   -156.29602     3467.441    12725.643 
   33350    301.52468    5.4794461    48.859893   -155.21596    284.55768    12725.643 
   33360    315.50513    5.4167415    49.212176   -154.09287   -1941.7676    12725.643 
   33370    300.89363    5.9208816    58.521951   -153.22386   -3894.4285    12725.643 
   33380    315.00359    5.7904648    48.011539   -152.55582   -1177.0671    12725.643 
   33390    295.39919     5.677615    56.099107   -151.95464   -289.58279    12725.643 
33400        0.97051551935140933924 10.174606014527432407 1 69 -290.34363026556326304
   33400    307.34794    7.5343095    50.641935   -151.08946    1107.8668    12725.643 
   33410    292.26834    8.5113722    55.060797   -149.72308    940.91377    12725.643 
   33420    303.96346    7.4591696     53.22096   -147.73421    360.91128    12725.643 
   33430    305.71551    6.5418964    55.504772   -144.73413    657.14076    12725.643 
   33440    343.58793    8.0786713    48.540691   -140.61454   -1073.9856    12725.643 
   33450    319.51362    8.1902789    57.503645   -136.42172    -2148.867    12725.643 
   33460    329.82493    8.0665248    57.005245   -132.55337   -1570.7588    12725.643 
   33470    311.41449    9.8605479    58.552538   -128.79578    1346.8093    12725.643 
   33480     337.1316    5.6682711    63.279297   -125.72672    2847.8771    12725.643 
   33490    317.37446    4.4597026    60.322578   -123.61191    69.316378    12725.643 
33500        0.97230589158308000641 10.176177577550911124 1 67 -267.29251378878387868
   33500    319.61895    3.8173422    60.325644   -122.47856    1500.7525    12725.643 
   33510    311.42021    5.5784832    59.013402   -121.63563    1284.0299    12725.643 
   33520    323.00971    6.8424486    61.171013   -121.35691     656.8106    12725.643 
   33530    306.44433    10.396574    59.940053   -121.73366   -712.32583    12725.643 
   33540    308.63266      11.6476    62.586482   -122.71006   -3634.4757    12725.643 
   33550    322.00524    11.509871    60.987549   -124.69336    2941.3432    12725.643 
   33560    306.81069    9.6969424    60.873532   -128.50398   -1447.6172    12725.643 
   33570    320.92386    7.4905099    50.901907   -133.71198    2306.0576    12725.643 
   33580     299.6207    5.0871212    62.998672   -139.62345    1220.4934    12725.643 
   33590    310.40487     5.657463    53.439623   -145.05431    1406.7743    12725.643 
33600        0.97473634863073910228 10.177352214783521589 1 70 -278.7690837517055229
   33600    285.09527    6.0907283     58.40725   -149.59723    1219.8618    12725.643 
   33610    286.42238    8.2348756    54.443847    -152.7833   -2704.0114    12725.643 
   33620    310.90545    8.9827875    52.808275   -155.16444    566.55829    12725.643 
   33630    316.07213    9.5951428    51.451923   -157.44972     -1390.07    12725.643 
   33640    315.27545    10.666782    48.678307   -159.95098    646.86105    12725.643 
   33650    282.73633    11.471282    57.211785   -162.13851    1574.4776    12725.643 
   33660    304.07118    8.5321942    49.152907   -163.74866   -2736.8369    12725.643 
   33670    298.10274    5.3967059    55.499444   -165.17474   -1169.9994    12725.643 
   33680    283.50652    5.8979486    55.660388   -166.66427   -483.48852    12725.643 
   33690    247.86767    6.6871081    62.286015   -167.49931    1147.6081    12725.643 
33700        0.9748247297014245305 10.188102292476346022 1 65 -287.55319423961384473
   33700    265.62102    6.0736015    55.577519   -167.20479   -289.99192    12725.643 
   33710    281.59777    5.5953819    54.793208   -166.05517   -1945.6405    12725.643 
   33720    294.73512    7.9872381    54.805106   -164.31495    -307.6612    12725.643 
   33730    291.34567    9.2056629    49.517126   -161.97116   -711.65004    12725.643 
   33740    277.05401    8.6202159    58.557836   -158.86008    1011.5204    12725.643 
   33750    286.81942    7.7868072    54.879679   -154.68216    1985.0236    12725.643 
   33760    294.18716    7.3863282    56.460086   -149.80663    862.87528    12725.643 
   33770    290.56693    7.5499354    55.730388   -145.11125    858.88541    12725.643 
   33780     304.0786    6.4797302    58.121868   -140.88529   -210.33996    12725.643 
   33790    323.03863    7.3626071    56.762997   -137.53641    2.5612049    12725.643 
33800        0.9706221818473850238 10.20661708344683305 0.99735449735449732689 68 -281.6781264314870441
   33800    321.69734    6.6037617    58.025583   -135.92249   -180.69286    12725.643 
   33810    300.88771     6.599091    56.456417    -135.4282   -1736.2856    12725.643 
   33820      308.275    7.3492264    52.061173   -135.16824     22.45742    12725.643 
   33830      309.343     7.931727    58.313179   -134.91968    495.39752    12725.643 
   33840    295.22733    7.5040595    59.588307   -134.63726   -713.94612    12725.643 
   33850     312.0126    6.1943939    49.300344   -134.18461   -1282.7137    12725.643 
   33860    297.97986    5.8759866    59.640325   -133.74567    560.10491    12725.643 
   33870    305.54795    7.9225158     54.11734   -133.19667    721.43503    12725.643 
   33880    293.80361    7.2541715    58.648641   -132.58013    999.94529    12725.643 
   33890    304.68446    7.2615642    53.059991   -132.05596   -2634.7778    12725.643 
33900        0.96954923428837691546 10.210082644258777762 0.99735449735449732689 68 -270.00926873189348498
   33900    305.42502    5.0429046     59.59512   -131.62634    961.20458    12725.643 
   33910    321.97281    5.7827826    46.773752   -131.15339   -44.231497    12725.643 
   33920    319.53281    6.9474704    49.933827   -130.46745   -267.77258    12725.643 
   33930    311.22251    8.1930241    53.568085   -129.66809   -1218.1246    12725.643 
   33940    301.31327     7.965912    59.293376   -128.67078   -2871.2118    12725.643 
   33950     319.5904    7.7351899    54.280871    -127.5587    1116.4299    12725.643 
   33960    307.75293    8.2456638    67.294523   -126.66871    8.4833852    12725.643 
   33970    326.66561    8.1661351    53.401952   -126.14947    2079.3111    12725.643 
   33980    307.64207    7.7071721    56.558227   -126.09229   -2103.2814    12725.643 
   33990    312.71599    5.7040604    56.350154   -126.18724    1502.6868    12725.643 
34000        0.97725372355441164629 10.142254425382489558 1 66 -268.00687909583541568
   34000    311.98563    4.0371715    65.647864   -126.65145     191.4055    12725.643 
   34010    334.92935    7.2284814    54.898311   -128.33283     500.3987    12725.643 
   34020    318.05792    10.856675    57.165257   -131.92246   -964.45252    12725.643 
   34030    318.01425    10.527039    47.634238   -136.55124   -238.66606    12725.643 
   34040    298.11229    9.6333412    61.322093   -141.23466    3293.9935    12725.643 
   34050    302.11805    8.1498567    59.658519   -145.21394    88.891151    12725.643 
   34060    308.88088    6.4232612    58.260743   -149.23432   -3880.6225    12725.643 
   34070    301.43123     5.797541    53.782535   -153.03827   -1373.6822    12725.643 
   34080    302.89723    6.6893336    49.782031    -156.3392    3514.9995    12725.643 
   34090    292.28852    9.2316025    50.688056   -158.80183    1931.0844    12725.643 
34100        0.98341821393611139612 10.122527337286021165 1 67 -297.82827633987199079
   34100    302.91779     10.38545    48.581992   -160.58134    540.20318    12725.643 
   34110     287.7404    12.609431    52.589117   -162.10593   -2231.8061    12725.643 
   34120      277.037    10.624363    53.256051     -163.234    653.12353    12725.643 
   34130    267.79714    8.3080535    62.551485   -163.67458     292.2758    12725.643 
   34140    274.29088    7.8709618    55.267145   -163.31228    916.29458    12725.643 
   34150    297.89195      5.65161    57.241533   -162.22559   -1463.1859    12725.643 
   34160    296.93983    5.5683595      49.4227   -160.75296   -1774.1629    12725.643 
   34170    287.82856    5.1653426    51.020956    -158.9891   -322.78854    12725.643 
   34180    283.30308    6.7700321      58.5365   -156.64739    2591.3375    12725.643 
   34190    291.56171    7.6864006    53.163787    -153.5714    1696.3883    12725.643 
34200        0.98135752008435284122 10.104455279308737659 0.99735449735449732689 64 -276.11561654946945055
   34200    279.23753    7.4590181    61.844407    -149.5978   -366.86987    12725.643 
   34210    293.80664    7.9104077    57.090552     -144.799   -1587.6113    12725.643 
   34220    291.20669     9.495129    65.417123   -139.46171    691.96242    12725.643 
   34230    294.20869    10.786962    53.462191   -134.69508   -1845.7159    12725.643 
   34240    299.59306    10.956146    55.767605   -130.68185   -1039.4535    12725.643 
   34250    290.02282     8.115077      61.4401   -127.90467   -327.80403    12725.643 
   34260    298.87419    6.6949977    59.629684   -125.93939    1829.1748    12725.643 
   34270    313.84208     4.324447    64.113566   -124.67625    3516.9991    12725.643 
   34280    307.87061    4.5561653    62.774522   -124.32708    330.86348    12725.643 
   34290    301.49214    4.9099472     58.71622   -124.51389   -2300.9656    12725.643 
34300        0.97071689419834472634 10.09253434622687351 0.98941798941798930755 65 -262.23864109888626217
   34300    303.84514    8.2922102    54.822952   -124.57153   -2131.4651    12725.643 
   34310    310.61346    8.0607772    55.705442   -124.70405    -1665.036    12725.643 
   34320    305.90502    9.1591607    63.498378    -125.0915    3499.9294    12725.643 
   34330    308.51375    9.5287898    65.739097   -125.83339    365.12005    12725.643 
   34340    309.19803     10.96162    54.830186   -127.12678   -1645.4023    12725.643 
   34350    278.78737    8.8210725    62.072235   -128.44145   -1007.8612    12725.643 
   34360    315.99401    6.6362647    53.605035   -129.45147    2565.9693    12725.643 
   34370     311.6475    5.9438919    63.886372   -130.67124    1910.6707    12725.643 
   34380    315.61342    7.4901887    56.140222   -132.66311   -2432.6004    12725.643 
   34390     277.8818    7.4854182    60.672844   -135.40727   -1849.2574    12725.643 
34400        0.96409233015584272497 10.099498074951739568 0.98941798941798930755 68 -259.85220818607729143
   34400    268.90002    9.7871311    63.579128   -138.01814    552.48028    12725.643 
   34410    292.10402    9.6679058    57.178946     -140.474    379.20456    12725.643 
   34420    304.09042    7.8916657    58.402884   -143.20131    1176.2644    12725.643 
   34430    303.62256    5.0385369    53.890325   -146.84598   -1450.0841    12725.643 
   34440    274.37311    4.4046819    56.187589   -150.66737   -699.94412    12725.643 
   34450    273.31617    4.8297675    53.280382   -154.31816    1324.6784    12725.643 
   34460     252.9069     6.854622    67.345422   -157.32412   -1536.3679    12725.643 
   34470    272.97773    7.5729727    50.753131   -159.72205    1253.5055    12725.643 
   34480    262.12372    6.8164418    60.140398   -161.51966     -1996.01    12725.643 
   34490    250.89106    7.0760214    55.520811   -162.41199    739.06966    12725.643 
34500        0.97163772271398396452 10.092062765048314787 0.99735449735449732689 68 -274.34050510912430809
   34500    247.91598    5.8233341    57.200117   -162.01396    1380.1122    12725.643 
   34510    269.71433    7.2207094    58.162265   -159.78914    1471.9642    12725.643 
   34520    304.70856    7.5200035    51.892393   -155.28799    2096.3427    12725.643 
   34530    297.72931     7.207636    54.362029   -149.26257   -3587.6309    12725.643 
   34540    319.22138    7.2909622    53.710519   -142.30747    1702.8975    12725.643 
   34550    306.97913    7.3502316    69.530131   -136.82087    1641.9763    12725.643 
   34560    333.29364    10.177293    52.463061   -133.26701    2073.5759    12725.643 
   34570    309.93536    8.8585712    67.830517   -131.64493   -1704.6664    12725.643 
   34580     328.8863    8.1841442    56.845622   -131.07074   -3581.7152    12725.643 
   34590    314.44733    8.7151044    62.442161   -131.51532   -148.16036    12725.643 
34600        0.98127124990269865012 10.080933467522504188 1 67 -281.04963008169994509
   34600    328.01659    8.8944597    56.636632   -132.43085    967.67969    12725.643 
   34610    314.97992    7.9206152    56.026982   -133.90683    -2760.073    12725.643 
   34620    310.57881    6.5045418    59.299565   -135.44661    294.50929    12725.643 
   34630    295.00379    6.6012052    61.457998   -137.08866   -318.57665    12725.643 
   34640    318.08756    7.5058526    51.125394   -138.81976    3843.6084    12725.643 
   34650    291.17896    7.0777162    65.031649   -140.72897    955.74941    12725.643 
   34660    302.28508    7.1131094    53.644716   -142.43795   -1150.1561    12725.643 
   34670    285.64907    7.9089088    58.319509   -143.70915    1168.5619    12725.643 
   34680    297.31859     8.160521    60.429571   -145.00086   -238.52674    12725.643 
   34690     293.3144     6.802931    63.888468   -146.61507    3356.9211    12725.643 
34700        0.98687497633503273864 10.090011211549168024 1 63 -286.63706657947744816
   34700    303.80828      5.62478     54.65168   -148.98666   -2491.4839    12725.643 
   34710    296.82212    5.9352042    55.404267   -151.86756   -5645.6314    12725.643 
   34720    291.68226    6.6445372     56.14677    -155.2011    853.20253    12725.643 
   34730    298.98466    8.2954716    55.607093    -158.8347    -1012.389    12725.643 
   34740    281.37882    8.3059546    58.113236   -162.81222    2258.0128    12725.643 
   34750    296.97249    10.732554    50.463987   -166.89911   -2404.2827    12725.643 
   34760    299.06012    12.171424    47.245808   -171.18392     50.28981    12725.643 
   34770    290.29738    11.411142    49.666059   -175.48963    1211.2653    12725.643 
   34780     265.8577    8.8089152    55.925164   -179.00933    354.77951    12725.643 
   34790    270.90143    6.2270382    49.323214   -181.20212    66.524217    12725.643 
34800        0.98885084595576866473 10.105572896146441053 1 63 -305.17302548074064816
   34800    271.67679    7.5720415    42.350448   -182.08085   -2079.6488    12725.643 
   34810    262.24618    6.2281935    55.641429    -181.7545    707.20758    12725.643 
   34820    268.30416    5.7992509    47.912121   -180.44031    2979.1744    12725.643 
   34830    250.03934    8.3611788    51.582742   -178.61177   -967.74299    12725.643 
   34840    270.95396    7.9907724    49.074079   -176.52586    2486.5506    12725.643 
   34850    273.81041    8.1744608    48.840358   -174.18761   -356.47855    12725.643 
   34860    293.77582    6.4688742     52.53741   -171.76685    2436.0198    12725.643 
   34870    308.01884    8.0060381    47.730542   -169.29017     274.8327    12725.643 
   34880    314.33521    9.4343021    46.177115    -167.2374   -810.12882    12725.643 
   34890    298.27544    12.002302    56.752812   -165.84438   -840.64319    12725.643 
34900        0.98288530759571490769 10.13770699281798926 1 64 -287.06371599963256358
   34900    269.89934    11.938371    57.641847   -164.77688   -1246.3993    12725.643 
   34910    280.71324    11.956442    49.911627    -163.3053    174.87269    12725.643 
   34920    294.03151    10.146229    51.654358     -160.953    267.80866    12725.643 
   34930    289.32973    7.9513186    53.879447   -158.14396   -1449.6959    12725.643 
   34940    309.33393    7.4700746    50.095714   -154.79201   -694.24669    12725.643 
   34950    268.39828    8.4363859    63.908964   -151.69121    779.52304    12725.643 
   34960    305.15582    10.494491    55.926288     -148.375    925.26426    12725.643 
   34970    304.67326    10.274349    63.843072   -145.31214    173.48586    12725.643 
   34980    336.00759    10.783501    48.813253   -142.68692   -839.23412    12725.643 
   34990    302.06978    11.889381    58.845107   -140.86135    733.81888    12725.643 
35000        0.97397026154405463849 10.164240961470085267 1 65 -275.71705245165344422
   35000    300.73209    8.7813184    57.298834   -139.46042    2266.5879    12725.643 
   35010    291.91253    7.1682677    65.858847   -138.19564    280.48545    12725.643 
   35020    313.50044    5.1593791    56.848871   -137.05274   -213.55448    12725.643 
   35030    319.51221    4.6437449    58.655301   -136.45059     -5844.36    12725.643 
   35040    312.43702    7.2630126    61.270269    -136.6306   -1068.7415    12725.643 
   35050    326.32098    8.4085184    62.184676   -137.47119    782.87656    12725.643 
   35060    309.61252    9.1416049    61.890723   -139.59518    1487.0126    12725.643 
   35070    305.35156    9.7351327     61.10864   -142.80373   -748.97721    12725.643 
   35080     276.3325    8.2707784    64.579606   -146.84223   -233.02794    12725.643 
   35090    266.07839     7.149856    59.417558   -150.79107    1123.5618    12725.643 
35100        0.96885133250275135008 10.201759180311922748 1 67 -275.12915827439053373
   35100    266.06384     7.841601    58.447971   -154.58012   -1828.2568    12725.643 
   35110    278.63765    7.5451481    60.062693   -158.58048    349.00313    12725.643 
   35120    299.46185     6.891822    54.078854   -162.79619    351.84194    12725.643 
   35130    282.36755    5.6823656    54.407141   -167.59502    1712.5375    12725.643 
   35140    255.49974    5.5357489    58.685183   -171.60854    2286.4357    12725.643 
   35150    254.02274     5.830167     53.50609   -174.53631   -1851.0435    12725.643 
   35160    252.67179    4.4897841    57.088938   -176.09573   -111.63011    14806.238 
   35170    280.52393     3.917541    51.417701   -176.58478   -2833.3008    14806.238 
   35180     282.9587    6.5356169    50.002925   -176.38408     270.7469    14806.238 
   35190     275.3918    7.2901081    50.857649   -175.27583   -76.189456    14806.238 
35200        0.97291767332430822979 10.188676320306015555 1 65 -298.74453887715128531
   35200    277.67335     8.554589    48.053545   -172.93543    910.00916    14806.238 
   35210    269.54764    9.2724783    56.734687   -169.07692     2352.957    14806.238 
   35220    305.59217    8.7020504    52.575815   -163.03154      2339.14    14806.238 
   35230    324.20083     7.094795    55.975986   -155.67065    301.79408    14806.238 
   35240    328.52496    5.9717539    57.428091   -149.60002   -2040.8615    14806.238 
   35250    311.87613    9.2367239    61.500452   -146.13204   -1879.8988    14806.238 
   35260    303.90724    11.606428    55.167887   -144.72089   -1386.4302    14806.238 
   35270    326.53774    9.0676258    51.884869   -144.08444   -595.39213    14806.238 
   35280    307.71874      8.29244    65.233949    -143.8359    3038.1686    14806.238 
   35290    352.97338    9.7777096    50.616908    -144.0504    819.89984    14806.238 
35300        0.95783418692600375 10.234779529002933529 0.99735449735449732689 66 -284.99079385363506844
   35300    308.36163    8.7872116    64.356265   -145.27734   -22.308186    14806.238 
   35310    343.62077    7.0986124    51.106398   -147.25739    -2507.514    14806.238 
   35320    303.71303    5.3417951    56.080863    -150.1198   -3266.7444    14806.238 
   35330    315.00726     5.639895    56.414736   -153.14605   -1248.0253    14806.238 
   35340    302.56057    5.4624957    59.513341   -156.24089    628.17304    14806.238 
   35350    321.51318    4.7405901    49.479752   -159.45816    1329.7394    14806.238 
   35360    283.25562    5.7891471    63.907342   -162.55093    1811.7332    14806.238 
   35370    290.66249    7.3479917    53.112328   -165.08176     559.5939    14806.238 
   35380    260.83776    6.2849792    64.431529   -167.01118    2074.9824    14806.238 
   35390    284.52308     3.424229    56.980385   -168.38346    520.45757    14806.238 
35400        0.95053504268055255544 10.247697273598026513 0.99735449735449732689 66 -288.74758863108684181
   35400    264.17116    4.9995351    61.222445   -169.05609    -2691.004    14806.238 
   35410    289.97754    5.5354307    50.803955   -168.98453   -845.74556    14806.238 
   35420    268.56572    5.5393381    62.252485   -168.38254    564.96775    14806.238 
   35430    292.05379     3.804651    54.491697   -167.07254    2838.3595    14806.238 
   35440    282.55495    3.5151257     55.14846   -165.19485     768.1447    14806.238 
   35450     292.0995    3.9465455    53.180049   -162.66004   -1609.2886    14806.238 
   35460      264.953    4.5715158     69.29827   -159.52679   -1374.4905    14806.238 
   35470     294.5706    5.6398314    48.981772   -155.67708   -2990.0679    14806.238 
   35480    280.26146    5.1533449    62.218772   -151.27927    1502.8887    14806.238 
   35490    296.88017    3.9027452    53.778082   -146.79708    2976.8692    14806.238 
35500        0.94507176866103759227 10.250709156983123904 0.99735449735449732689 66 -276.65553099832641237
   35500    296.74086    3.8340871    59.947228   -142.20726   -1018.2824    14806.238 
   35510    297.63944    3.0648595    60.309878   -138.55759   -399.58478    14806.238 
   35520    299.89363    3.2171589    61.757907   -135.88512   -1843.5627    14806.238 
   35530     295.1477    2.3838336    67.196739   -134.40542    1823.5553    14806.238 
   35540    314.10972    2.7584327     56.51031   -133.67253   -1942.0023    14806.238 
   35550    295.82613    4.7769693    56.272928   -133.35481    -1973.767    14806.238 
   35560     304.0686    5.9577876    60.849254   -132.96299   -8.6251943    14806.238 
   35570    298.94544    5.7616767    64.460602   -132.55802    1228.5264    14806.238 
   35580    300.57283    4.4255837    61.450016   -132.73725    2328.7505    14806.238 
   35590    311.60118    3.4572892    55.710198   -133.13883    1698.8439    14806.238 
35600        0.9375606074633499043 10.275168302742123672 0.99206349206349198067 67 -280.30388922912089811
   35600    323.40234    3.7432389    57.632085   -133.77575   -1804.7291    14806.238 
   35610    322.56663    3.8854521    54.911179   -134.95165   -82.518241    14806.238 
   35620    298.64378    5.7368789    57.527781   -136.65563   -1658.5807    14806.238 
   35630    300.27035     4.706654    57.768563   -138.35209    1256.8322    14806.238 
   35640     316.2197    4.8516269    53.006621   -140.45414   -1365.4903    14806.238 
   35650    302.26937    5.1365028    61.211037   -143.42612     6.534964    14806.238 
   35660    321.50267    5.7448667    47.926297   -147.45577   -710.66695    14806.238 
   35670    287.34101    5.0743809    52.551389   -152.48365    1639.7892    14806.238 
   35680    279.98741    3.6914657     61.74527   -157.26171    437.80991    14806.238 
   35690    286.81446     3.015354    53.752831   -161.10249    1205.6262    14806.238 
35700        0.94624876472354368939 10.252316954050353814 0.99735449735449732689 70 -305.55860155470190875
   35700    311.65384    3.9486346    50.351025    -164.3535   -1299.3568    14806.238 
   35710    292.76705    7.5035379    55.667155   -167.20428   -480.69616    14806.238 
   35720    286.67576    10.687404    51.290782   -169.22421   -993.18345    14806.238 
   35730    290.49986    10.311708    50.327251   -170.30344    1606.7368    14806.238 
   35740    276.99752    10.659302    53.946002   -170.51152   -927.46064    14806.238 
   35750    289.30907    8.7173079    54.182509   -170.09107    388.25528    14806.238 
   35760    296.87981    5.5955644    56.906386    -169.4802   -1832.3989    14806.238 
   35770    295.97961    5.1344741    51.298747   -169.04908   -764.26755    14806.238 
   35780    283.69612    4.3995827    50.204709   -168.51205   -1495.3004    14806.238 
   35790    267.14934    5.2664557    58.091197   -167.35564   -385.36602    14806.238 
35800        0.96254652810761354154 10.216274014737631859 1 69 -296.09528206471327394
   35800    287.82127    8.1082936    56.386929   -165.68832   -1764.8729    14806.238 
   35810    272.22516    10.969863    61.531716   -163.85399    177.90409    14806.238 
   35820    299.97754    9.7686031    53.806623   -161.86262    1146.4704    14806.238 
   35830    296.26279    11.453756     52.69056   -159.81826    2152.3848    14806.238 
   35840    287.85425     12.12413     55.03917   -157.75853   -117.20605    14806.238 
   35850    290.00368    10.427421    50.121382   -155.46025    846.10173    14806.238 
   35860    294.48702    7.3323491    51.733998   -152.61088    741.44451    14806.238 
   35870    288.91936    6.7673855    57.868738   -149.51791   -152.60496    14806.238 
   35880    280.08803    8.0540313    61.159305   -146.35269   -1646.7428    14806.238 
   35890    308.89072    10.025847    54.274122   -143.21887    397.79215    14806.238 
35900        0.97530970642900005618 10.139023950005510599 1 67 -287.05666088307049222
   35900     322.8073    13.255078    53.570019   -140.79812   -166.39525    14806.238 
   35910    309.74165    11.491331    52.636476   -139.21768    -258.6542    14806.238 
   35920    307.79941    9.6333067    60.293507   -138.16456    832.61975    14806.238 
   35930     310.0022    8.3123202    60.950037   -137.71151    754.90226    14806.238 
   35940    310.75101    7.9830479    60.126774   -138.35278    2392.8173    14806.238 
   35950    299.85103       7.7356    64.571164   -139.35628   -574.46653    14806.238 
   35960    322.59473    7.9161817    52.967175   -140.52653   -303.55529    14806.238 
   35970    307.94395    8.1238135    61.026545   -141.92336    997.53441    14806.238 
   35980    306.81717    10.183183    59.056674   -143.60521    366.45785    14806.238 
   35990    305.62676    8.4870072    59.516477   -145.43112    1758.1005    14806.238 
36000        0.98248822494621546042 10.10046387745445351 1 69 -287.07000912445482754
   36000    308.17587    9.1240054     64.26319   -147.44072    1616.3043    14806.238 
   36010    296.82376    8.7965543    59.065299   -149.66168   -365.04148    14806.238 
   36020    278.53455    10.230906    53.277217   -151.22153   -562.02262    14806.238 
   36030    298.78716    11.353475    50.032188   -151.89626   -2749.5317    14806.238 
   36040     307.1091    9.6233364    55.267502   -152.37353    265.24379    14806.238 
   36050    296.34969    9.6948402     58.42602   -152.92653    53.517471    14806.238 
   36060    287.86869    10.893838    55.921572    -153.3637    1156.7719    14806.238 
   36070     278.0954    11.606633    56.792368    -153.5014    1402.1808    14806.238 
   36080    305.16932    9.6948312    58.199711   -153.45387    228.09166    14806.238 
   36090    309.97534    6.9331513    53.268535   -153.71512     -732.467    14806.238 
36100        0.98394239315210063612 10.137926955239162652 1 65 -293.92591243143556312
   36100    308.05127    7.7326102    49.993777   -154.35308   -1223.9154    14806.238 
   36110    300.37806     9.330039    62.352964   -155.49903    703.87152    14806.238 
   36120    279.71287    8.6449413    66.058245   -157.63819    1563.6995    14806.238 
   36130    302.08601     9.342446     50.22771   -160.80528   -537.56711    14806.238 
   36140    288.12423    8.0439231    57.216829    -164.7089    1131.0469    14806.238 
   36150    293.52232     7.488482    48.849188   -168.69038   -206.39967    14806.238 
   36160    285.71867    7.2894842    46.748279   -171.89836   -60.408803    14806.238 
   36170    279.68767    5.6160933    56.124355   -174.26683   -2447.1349    14806.238 
   36180    298.02774    5.1439061    48.554341   -176.05654    1590.9103    14806.238 
   36190    278.49997    6.0476097    58.656285   -177.78031    1442.6093    14806.238 
36200        0.97954421740235919636 10.164658595680618802 1 68 -305.04453170635531478
   36200    277.88064    6.7296518     48.21496    -179.1415    128.46343    14806.238 
   36210    252.36844    6.7494901     49.12452   -179.43495   -2336.7887    14806.238 
   36220    265.85201    5.9425044    51.118186   -178.15541    1470.8992    14806.238 
   36230    277.17061    4.3494755     52.75341   -175.29696   -2120.6744    14806.238 
   36240     272.2612    5.0381705    52.725387   -171.41849   -2471.9764    14806.238 
   36250    286.16513    3.1566473    52.682426   -166.97199   -2263.8805    14806.238 
   36260    291.68911    4.1354985    52.427979   -162.55558    3252.0715    14806.238 
   36270    298.20358    6.6896681    52.385056   -158.43473    3365.4947    14806.238 
   36280    281.20387    10.490776    58.182423   -155.07288    2159.9152    14806.238 
   36290    321.78893    10.502898    50.626895   -152.16117   -2.5859217    14806.238 
36300        0.97350721005281581899 10.184147228473978686 1 66 -284.66641864579128196
   36300    296.66452    7.9900976    65.973377   -150.25273   -469.69076    14806.238 
   36310      325.147      5.49447    48.353789   -148.96279   -3134.5611    14806.238 
   36320    303.47066    3.7747246     64.00453   -148.22338   -402.75682    14806.238 
   36330    322.52165    3.7511703    55.160546   -147.77321   -1259.8295    14806.238 
   36340    294.99908    5.4904983     58.71901   -147.81318   -2150.1666    14806.238 
   36350    304.61657    5.2056665    54.769293   -147.83178   -1129.0892    14806.238 
   36360    310.89752     6.095927    52.445185   -147.89543    484.69844    14806.238 
   36370    306.82254    8.6050758    54.153176   -147.99364     1466.066    14806.238 
   36380    292.08269    8.4754503    53.046712   -147.86158    318.15086    14806.238 
   36390     270.6578    5.8553803    62.873637   -147.19693   -366.10875    14806.238 
36400        0.96805675832830750949 10.191328857320359091 0.99735449735449732689 66 -262.81296533472402643
   36400    258.64646    6.4407012    62.228014   -145.62462    138.15203    14806.238 
   36410       282.19    7.9957437    67.976152   -142.89002   -1671.2404    14806.238 
   36420    322.32919    8.2729389    56.202464   -138.72753   -461.05248    14806.238 
   36430    331.85345    7.1029252    63.844103    -133.9603    1242.4108    14806.238 
   36440    329.54605     8.268378    63.908992   -129.71144    1937.6843    14806.238 
   36450     315.5625     9.102717    63.006483   -126.66463   -519.91403    14806.238 
   36460    326.27489    7.2405773    64.291154   -124.52138   -762.11741    14806.238 
   36470    336.89789    4.1697706    57.537054   -122.94008   -748.48199    14806.238 
   36480    324.80682    5.5517316    61.125131   -122.22124   -85.783655    14806.238 
   36490    295.84219    5.3728125    72.081755   -122.50768    1062.7448    14806.238 
36500        0.97763332004006919806 10.170628445074065382 1 67 -269.74811917024857166
   36500     322.2395     4.235922    61.572104   -123.74684   -546.60665    14806.238 
   36510    345.34403    3.8232397    58.347641   -126.91508   -448.47011    14806.238 
   36520    330.90439    4.7373654    55.635123   -132.91604    1898.2733    14806.238 
   36530    283.94101    5.0889717    57.407791   -139.84499    930.61032    14806.238 
   36540    284.38135    7.3149244    57.698832   -145.60783    229.72003    14806.238 
   36550    294.22269    5.2090622    56.481766   -149.59552   -2659.6523    14806.238 
   36560    301.04439    3.7519148    51.615808   -152.58026   -1312.7974    14806.238 
   36570    271.64349     3.770208    64.155899   -154.54134   -1147.6209    14806.238 
   36580    273.81429    6.7053171     52.42177   -155.40728   -1908.5788    14806.238 
   36590      271.318    8.7253415    59.549666   -155.43241   -1203.2813    14806.238 
36600        0.98428962901332539559 10.124376970719760394 1 68 -282.14997256759806987
   36600    280.82799    6.8860019     55.19813   -154.91155    2406.7051    14806.238 
   36610    264.03836    10.820781     65.35465   -154.10822    1490.8837    14806.238 
   36620    298.46158    13.238617    53.671654   -152.86551    1661.1463    14806.238 
   36630    284.18118    14.043423    59.469649   -151.25542   -1699.5461    14806.238 
   36640    320.29862      11.2668    51.576177   -149.33371    1143.7873    14806.238 
   36650    296.24712    10.370065     57.75848   -147.43167   -166.40648    14806.238 
   36660     315.9148    9.6345863    44.956575   -145.40463   -604.38219    14806.238 
   36670    329.01341    8.3443652    49.916594   -142.99626   -1790.0442    14806.238 
   36680    342.55396     7.076849    52.233589    -140.5563    836.65019    14806.238 
   36690    346.80441    7.5064769    53.881966   -138.90594    1742.0807    14806.238 
36700        0.99189191627970951792 10.03823790898477597 1 69 -287.34397863877200052
   36700    329.01874    8.7121226    59.143151   -138.27114    1187.4277    14806.238 
   36710     318.0383    7.2258836    59.747887   -138.63604    -770.2474    14806.238 
   36720    303.99493    6.8482865    58.061246   -139.96454   -1093.8098    14806.238 
   36730    296.60782    6.0179092    52.504437   -142.12746   -36.773899    14806.238 
   36740      299.356    6.8484978     57.82611   -144.72259     334.0119    14806.238 
   36750    324.17498    8.4408984    51.229242    -148.3628    387.97174    14806.238 
   36760    319.91946    7.5985038    51.544311   -153.68584    1239.4606    14806.238 
   36770    282.25773    7.9612034    51.101161   -159.36493    506.11358    14806.238 
   36780    273.43889    8.7803109    50.452369   -163.42002   -122.70605    14806.238 
   36790    275.80805    11.121412    52.796742   -165.87885    997.54091    14806.238 
36800        0.991003934314704793 10.028799853452351698 1 66 -292.59316801406168906
   36800    276.56564    8.9717061    53.125412   -167.28594   -2283.1621    14806.238 
   36810    291.87244    5.9678673    57.588815   -168.09298    855.67884    14806.238 
   36820     281.1862    7.1907072    55.613941   -168.77394   -103.74962    14806.238 
   36830     270.1685     7.529462    57.069556   -168.98423    1624.4947    14806.238 
   36840    263.69712    9.1372362    58.660532   -168.25883    444.97888    14806.238 
   36850    270.04529    9.6966612    52.720464   -166.43009    1033.4773    14806.238 
   36860    278.83355    8.3356839    60.551979   -163.34457    2641.5496    14806.238 
   36870    297.45378    7.6763398    55.712925   -159.47985    1344.0928    14806.238 
   36880    283.95254    9.2979351    55.208101   -155.57278   -1943.6244    14806.238 
   36890    291.53957    10.174815    62.346713   -151.62504    -1418.832    14806.238 
36900        0.99242722290226426107 10.060340008913122745 1 71 -290.66848922218639473
   36900    314.70063    8.9279934    59.527566   -148.08295   -2825.3729    14806.238 
   36910    301.89178    10.946931    67.989807   -145.66482    896.05183    14806.238 
   36920    297.63547    12.151335    59.762306   -144.37284   -1360.9992    14806.238 
   36930    287.44418    13.231156    62.094502   -143.61702    2672.9669    14806.238 
   36940    316.11353    11.022645    51.534227   -143.10722    2073.7058    14806.238 
   36950     303.5216    9.8137316    57.641409   -142.85759     1702.413    14806.238 
   36960    305.58456    8.2579866    61.544155   -142.83155   -456.30075    14806.238 
   36970    294.52874     7.167977    66.238781   -142.99136   -520.12461    14806.238 
   36980    310.87069    7.2280859    54.110933   -143.35967      132.406    14806.238 
   36990    276.68527    8.1592273    64.021309   -143.66352   -1049.1496    14806.238 
37000        0.98894236331543317053 10.099079318961864615 1 69 -277.61824587111777873
   37000    295.69911    7.1890922    60.926659   -143.64197   -421.55649    14806.238 
   37010    295.06662    8.0738613    68.174756   -143.78245   -736.83768    14806.238 
   37020    304.18016     7.092165    53.166176   -144.11439   -14.588231    14806.238 
   37030    282.83009    7.3580984    61.120455   -144.52997   -390.37176    14806.238 
   37040    281.16237    6.8766946    57.400047   -144.65215   -565.48053    14806.238 
   37050    289.50894    5.8889757    59.484885   -144.33275    -55.17421    14806.238 
   37060    335.18449    5.6964955    55.277157    -143.8792    4.7464277    14806.238 
   37070    332.44779    7.4641723    51.259409   -144.17922   -171.74693    14806.238 
   37080    323.61616    9.5755992    48.103962   -145.55727   -388.61856    14806.238 
   37090    286.67349    9.9400737    67.979097   -147.66322   -289.43074    14806.238 
37100        0.98359409888494164775 10.144642443837811996 1 68 -295.22744831003700483
   37100    318.15892    10.896431    51.177308   -151.07501   -220.25869    14806.238 
   37110    302.35215    12.582674    58.445132   -156.74645   -513.11737    14806.238 
   37120    294.30679    10.651466    52.587338   -163.54623    642.69389    14806.238 
   37130    278.40214    7.4518034    49.944217   -169.34186   -361.10715    14806.238 
   37140    272.86534     5.317619    51.154851   -173.19311    405.13917    14806.238 
   37150    270.49978    5.1843939    49.151756    -175.4219    836.15043    14806.238 
   37160    259.72946    5.7425387    52.436892   -176.15589    -876.3326    14806.238 
   37170    274.07625    5.0622963    52.313412   -175.75572   -457.37083    14806.238 
   37180    280.55736    6.0461384    54.039924   -174.49047    -2751.774    14806.238 
   37190    271.42718    7.5504362    53.828297   -172.51346    1104.2461    14806.238 
37200        0.982507053920753326 10.145649715528520574 1 66 -299.28792189944869051
   37200    285.60928    6.9589372    53.649022   -169.88318   -320.15214    14806.238 
   37210    301.19508    5.0895132    50.994011   -166.26174    1472.4836    14806.238 
   37220    273.42181    3.9752039    57.960433   -162.85795    1877.9294    14806.238 
   37230    288.92906    5.1442302    48.625275   -159.18707    627.23679    14806.238 
   37240    279.80658    3.2361032    64.387308   -155.58567   -1994.0123    14806.238 
   37250    331.09877    2.5453524    54.869096   -152.32597   -94.429717    14806.238 
   37260    300.63161    3.5253136    58.528069     -150.281   -1231.9163    14806.238 
   37270    317.71276    6.5958087    55.459921   -149.19892    1673.9153    14806.238 
   37280    298.04451    8.8697028    62.352454   -148.52923   -860.27041    14806.238 
   37290    342.06037    7.0955229    48.690771   -148.24329    1300.8559    14806.238 
37300        0.97715461613765763893 10.156707482189034408 1 68 -287.36302115294108717
   37300    305.27263      5.70154    65.143736   -149.04914   -405.81788    14806.238 
   37310    311.05995    6.0442178    53.416799   -150.27329   -1537.4298    14806.238 
   37320    299.07801    5.6881359    54.469132   -151.82188    811.22018    14806.238 
   37330     286.0253    5.1370659     65.30567   -153.12516    1718.3499    14806.238 
   37340     306.9499    5.5996901    55.511432   -154.19074   -867.99837    14806.238 
   37350    277.03274    7.6458107    60.375737   -155.24765   -2137.7677    14806.238 
   37360    275.12677    9.0118383    57.943268   -155.84789   -1945.1953    14806.238 
   37370     280.2426     8.870811    57.576847    -155.8253    2064.4844    14806.238 
   37380    283.38387     9.259243     61.05393   -155.35098    2556.4582    14806.238 
   37390    304.76517    10.733682    51.526972   -154.53709    1454.8623    14806.238 
37400        0.97469028179959193992 10.137920814189364194 1 66 -280.14615660768765792
   37400    279.96348    7.9738067    57.772048   -153.29943   -1265.9772    14806.238 
   37410    285.96168    8.1270059    55.077157   -150.87233   -2126.4083    14806.238 
   37420    306.53465    9.1003268    53.904051   -146.26461    1084.0997    14806.238 
   37430     314.5187    8.6426284    58.345971   -140.40982    998.40994    14806.238 
   37440    338.12381    6.6725935    59.145797   -134.68604    2930.8844    14806.238 
   37450    346.19277     7.235821    55.638401   -130.25564    -432.5171    14806.238 
   37460    329.32443    4.9356331    57.593112   -127.89346   -600.14917    14806.238 
   37470    324.04867    3.4520918    57.749416   -126.75725   -1315.5715    14806.238 
   37480    321.49876    4.2203221    62.995742   -126.80866   -1246.5665    14806.238 
   37490    300.00648    4.4554446    65.874118    -128.0395    451.26595    14806.238 
37500        0.97311333168050651032 10.154480849405386422 1 65 -270.68657660609119375
   37500    311.07174    5.2660051    60.014666   -129.74522   -1134.0418    14806.238 
   37510    309.63118    4.7211374    61.440783   -131.87381   -575.44703    14806.238 
   37520     291.6691    4.0580477    64.267197   -134.25519   -1896.8827    14806.238 
   37530    290.37006    2.9351386    62.957687   -136.89386   -807.97747    14806.238 
   37540    284.92462    3.9234441    61.957678   -139.51295    2845.5807    14806.238 
   37550    294.14737    7.9843447    52.861255   -141.90032    2799.7634    14806.238 
   37560    306.22303    8.2725947     54.39987   -144.10756    765.09127    14806.238 
   37570    285.24253    7.9660178    54.774616   -146.53048    -402.7968    14806.238 
   37580    308.36643    7.6958303    50.836567   -149.14523   -800.50942    14806.238 
   37590    297.52611    8.6070335     64.31981   -152.74407    3698.2002    14806.238 
37600        0.96926353602750225935 10.181170177590281867 1 67 -294.23204695010724663
   37600    302.12341    9.9895282    50.537753   -157.34503    2001.2808    14806.238 
   37610    272.02457    8.2747505    56.899846   -162.34584    685.60861    14806.238 
   37620    260.34111     6.298207    52.749144   -166.60124   -3641.6637    14806.238 
   37630    278.51455    6.7895744    47.022482   -169.66411   -2785.3733    14806.238 
   37640    281.04693    6.0859368    56.236512   -172.03747   -1248.7043    14806.238 
   37650    283.21124    6.8309285     52.54643   -173.64355    347.05559    14806.238 
   37660    280.76667    5.8915364    54.632037   -174.55125    1192.5033    14806.238 
   37670    279.01125      5.18358    45.741084   -174.88417    -275.0619    14806.238 
   37680    246.29738    5.2867124    58.461664   -174.37892   -329.34813    14806.238 
   37690     277.7694    4.2747697    54.779885   -172.85104   -16.724183    14806.238 
37700        0.96128444651322675352 10.228816870826035412 0.99735449735449732689 73 -304.02211633604287044
   37700    293.83577    4.3962318    55.220583   -170.89009    1202.0395    14806.238 
   37710    313.44376    4.0782854    49.135339   -169.38779    580.27639    14806.238 
   37720     288.9006    5.8384395    52.815065   -168.49947   -1387.5535    14806.238 
   37730    251.78541    7.6960992    55.335311   -167.67385   -851.60917    14806.238 
   37740    251.71728    6.7857356    56.544912   -166.28129   -1896.6007    14806.238 
   37750    272.69048    8.1109776    52.815336   -164.05174   -124.11313    14806.238 
   37760    281.50995    8.8577236    52.143252   -161.37151     909.9334    14806.238 
   37770    287.95987    8.3744035    55.255916   -158.54831    2512.0637    14806.238 
   37780    290.69911    6.2709216    57.220109   -155.50292    2469.1299    14806.238 
   37790    281.67928    3.4219433     55.76734    -152.5867   -241.92965    14806.238 
37800        0.94913104546075155454 10.269136411445314749 0.99735449735449732689 70 -275.95434388857080421
   37800    278.63106    3.2095702    63.042541   -149.71131   -2056.1345    14806.238 
   37810    312.56054    3.7065623    57.652734   -146.67362   -3474.8043    14806.238 
   37820     302.7318    5.0955812    61.176069   -143.94077   -1617.4981    14806.238 
   37830     310.1637    6.5692222    54.790006   -141.84195    1238.1961    14806.238 
   37840    288.64832    5.9621914    61.173224   -140.10566    494.06395    14806.238 
   37850    308.90509    7.5241371    56.579487   -138.53014   -417.14912    14806.238 
   37860    296.19372    6.6122008     63.63438   -137.29762   -1490.5752    14806.238 
   37870    310.05643      8.53234     56.37025   -136.39708    254.36193    14806.238 
   37880    308.40322    10.322064    59.984137   -135.83434    3139.7427    14806.238 
   37890     323.3857    9.8849388     62.14671   -135.80158    1426.6416    14806.238 
37900        0.93899121274183006136 10.290531854948337553 0.99470899470899465378 65 -278.30662229168490285
   37900    312.51167    9.0146075    53.856122   -136.71286   -1101.1604    14806.238 
   37910    301.56008    7.6769682    62.918468   -138.24926   -3610.4591    14806.238 
   37920    307.41175     6.138641    51.786865   -140.21042    84.078443    14806.238 
   37930    277.34394    5.0406075    61.267383   -142.40221    2048.0519    14806.238 
   37940    309.65418    5.4823584    52.458688   -145.13154    2785.8546    14806.238 
   37950    277.41918    5.9661474    65.787283   -148.77707    244.59882    14806.238 
   37960    288.17681     6.727866    48.835714   -153.04836   -2115.9978    14806.238 
   37970    270.23158    6.6614794    61.601452   -157.42867   -2359.2104    14806.238 
   37980      283.954     10.25394    50.252556   -161.37489   -778.16222    14806.238 
   37990    270.52349    8.1363771    53.754445   -164.34502   -260.58428    14806.238 
38000        0.93967047967347205883 10.288406925085610055 0.99735449735449732689 66 -295.03986883660257945
   38000    283.77746    6.6392864    52.776869   -166.46509    688.00983    14806.238 
   38010    273.76314    4.7425547    59.826515   -168.06353   -703.81838    14806.238 
   38020    286.50646    5.4536815    48.184736   -169.09051    1228.7162    14806.238 
   38030    287.20445     4.954836    46.663754   -169.37047   -490.56309    14806.238 
   38040    293.15949    5.0365527    46.688665   -168.97981    691.43552    14806.238 
   38050    283.71737    7.4053206    51.542531    -167.9453   -581.50537    14806.238 
   38060    296.60333    6.5406381    49.445643   -166.09678    540.45513    14806.238 
   38070    294.72382    5.1379369    57.839748   -163.41015   -235.40191    14806.238 
   38080    295.50094    5.8375079    54.400712   -159.30674   -395.68312    14806.238 
   38090    311.29882    7.4999123    48.876439   -153.62332   -1442.6852    14806.238 
38100        0.94858603522690598808 10.255868653509239152 1 66 -278.10046524061567652
   38100    289.44448    9.0318256    59.047811   -146.95805   -1441.6392    14806.238 
   38110     283.6673    8.0024674     61.08828   -140.77803    142.16086    14806.238 
   38120    306.06971    8.7474985    53.045993    -135.9911    3043.4565    14806.238 
   38130    328.51217    9.8783528    56.790072   -132.86785   -386.53373    14806.238 
   38140    340.27364     9.250697    49.785142     -131.649   -881.89297    14806.238 
   38150    309.11093     8.741836    58.786091   -131.58044   -2306.1353    14806.238 
   38160    309.67486     7.194752    59.841172   -132.03631     1013.987    14806.238 
   38170    302.91761     6.799712    63.495588    -132.6932   -87.605112    14806.238 
   38180    334.60674    7.9705767    47.545352   -133.57073   -1690.7695    14806.238 
   38190    316.14897    8.0841449    54.063323   -134.87949   -409.45761    14806.238 
38200        0.96307899478806602289 10.204904913036791925 1 68 -280.37262413494022439
   38200     316.9676    5.4468901    55.206346   -136.75995    1314.9558    14806.238 
   38210    295.14483    4.6029212    60.310792   -139.14156   -113.95597    14806.238 
   38220    294.61755    4.5388063    59.359193   -141.74898    220.48311    14806.238 
   38230    284.23356    4.5653179    56.874049   -144.35135   -2124.7716    14806.238 
   38240    303.62954    4.3896729    57.040816   -146.91827   -301.86133    14806.238 
   38250    310.29741    3.9765615    50.186884   -150.02249   -21.049019    14806.238 
   38260    307.92418    3.8493848    53.158386   -153.33719    349.37449    14806.238 
   38270     290.7235    5.3895247     49.92977   -156.77246    1508.7055    14806.238 
   38280    285.55877    6.2270115    53.287022   -159.59886     983.1133    14806.238 
   38290    292.43179    5.7691736    50.538859   -161.98855    3427.3634    14806.238 
38300        0.97851388906716496585 10.1606691136508136 1 67 -288.17485000905674042
   38300    274.48804    6.1147038    55.497674   -163.80895    21.797047    14806.238 
   38310    284.84708    6.6075383    43.754886    -164.7404   -2953.5309    14806.238 
   38320    296.22205      4.68987    54.328764   -165.18948   -1391.9512    14806.238 
   38330    299.61047    4.6042653    53.037902   -165.67619   -1058.4784    14806.238 
   38340     291.2525    6.6409039    50.693132   -166.25426    2911.1866    14806.238 
   38350    296.44102    11.607676    49.973398   -166.69848     1455.407    14806.238 
   38360    296.44035    13.683678    45.425184   -166.97009    2336.8639    14806.238 
   38370    303.43375    11.677887    52.632697   -167.23143    493.25224    14806.238 
   38380    294.10485    8.2846158    49.401365   -167.67016   -435.05661    14806.238 
   38390    287.58536     6.613387    57.834037   -168.25333    374.03343    14806.238 
38400        0.98726811382206258738 10.102639734685965323 1 70 -299.13897105062301307
   38400    287.54334    9.2226484    47.978128   -168.85794   -1665.9327    14806.238 
   38410    275.08745    9.9669894    47.322219   -169.18529   -420.70112    14806.238 
   38420    277.01904    10.193518     46.01275   -168.58344    43.619822    14806.238 
   38430    266.74288    10.560256    52.225136   -166.57082   -687.28777    14806.238 
   38440    294.31171    9.8530519     45.76505   -163.08194    1178.7042    14806.238 
   38450    276.05689    10.615102     52.48748   -158.73833   -1868.9059    14806.238 
   38460     285.9142     9.726942    49.413473   -154.02786    441.07751    14806.238 
   38470    317.39923    8.6711986    50.950445   -148.91671    895.03293    14806.238 
   38480    315.84946    8.1937114    46.718441   -144.64325    1236.8448    14806.238 
   38490    327.68511    7.9437473    54.316348    -141.2789    314.10127    14806.238 
38500        0.98984419435650172758 10.083466510075922429 1 68 -284.69252216204705519
   38500    322.07331    7.4435099    52.807551   -138.76654   -2049.5437    14806.238 
   38510     323.5559    6.9906448    53.445811   -137.10613   -1115.4752    14806.238 
   38520    306.05907    6.2647793    56.387987   -136.04547   -503.16673    14806.238 
   38530    318.40607    6.4347903    60.086858   -135.32742   -386.70682    14806.238 
   38540    318.69533    7.9442365    55.559006   -135.35657    612.29779    14806.238 
   38550    302.58782     9.317692    69.536777   -136.45404    522.20041    14806.238 
   38560    321.94106     11.20195    57.244911   -138.10603    1269.3388    14806.238 
   38570    302.03806    14.455007    55.151962   -140.53276   -448.05687    14806.238 
   38580    307.67974      14.3223    45.743434   -143.06981   -320.24188    14806.238 
   38590    303.56075    9.8571602    56.925596   -145.79689    544.30986    14806.238 
38600        0.98651070968048704124 10.101449740392228094 1 72 -297.07754159286145068
   38600    326.53464    5.2605539    46.018084   -149.13021   -154.45201    14806.238 
   38610    301.96929    4.4680808     51.10352   -153.36668     1355.635    14806.238 
   38620    299.15164    6.0182034    47.870748   -157.42542    1067.9843    14806.238 
   38630    300.12534    7.6652532    54.209494   -160.88678    3161.4267    14806.238 
   38640    320.70468    7.3665702    47.156656   -164.32276    376.63839    14806.238 
   38650    281.87459    10.050867    44.201792   -167.30251   -2635.9899    14806.238 
   38660      267.755    9.1890884    49.701489   -168.83774   -1584.2852    14806.238 
   38670    282.33588    8.7227647    45.851141   -169.11038   -5.6674951    14806.238 
   38680    268.23099    5.7226691    56.843781   -168.53173    1224.4732    14806.238 
   38690    290.73185    6.5173975     49.07442   -167.22928    1473.6265    14806.238 
38700        0.98450034628192384378 10.098922454481481736 1 68 -291.32971831551117248
   38700    277.87661    7.8327179    50.546809   -165.42851   -1774.7164    14806.238 
   38710    300.67264    7.8298801    49.923975   -163.25091    3068.7356    14806.238 
   38720    306.26267      7.07493    51.786172   -160.99579    1859.1858    14806.238 
   38730    321.21469    6.7848079    45.582703   -159.06896   -344.97888    14806.238 
   38740    283.61612    8.0805101    57.131287   -157.72297   -2661.4423    14806.238 
   38750    300.77847    6.7619163    51.635325   -156.50461   -3692.4001    14806.238 
   38760    263.74046    6.3807001    65.266444   -155.38826   -985.93762    14806.238 
   38770     277.3115     5.089966     52.21804   -153.92681   -600.42543    14806.238 
   38780    277.47871    5.3461655    54.004765   -151.99853   -2235.0893    14806.238 
   38790    285.77074    6.8205489    49.034947   -150.00464    669.30612    14806.238 
38800        0.97950965905307241233 10.086980093625422583 1 66 -271.50311041760829767
   38800    272.75085    7.3114416    50.294246    -147.9243     1450.464    14806.238 
   38810    286.36173     5.613867    61.153299   -145.74056    3474.5521    14806.238 
   38820    301.31636     5.298284    57.093388   -143.84559     183.8486    14806.238 
   38830    298.20363    3.7093105    57.736874   -142.46975   -868.59453    14806.238 
   38840    296.29138    4.3444741    60.478505    -141.4543   -1103.8904    14806.238 
   38850     301.5423    6.4322973    54.019036   -140.46365    502.19645    14806.238 
   38860     309.9742    5.4123175    55.078237   -139.53348   -811.47131    14806.238 
   38870    310.88354    7.0073319    54.765408   -138.81433   -1909.3284    14806.238 
   38880    287.83829    8.1946797    60.959969   -138.28183    123.72275    14806.238 
   38890     303.0327     7.924304    57.117537    -137.7428    1803.7848    14806.238 
38900        0.97898699878814021691 10.102606413276376429 1 68 -274.29647059337821702
   38900    302.38816    6.6148197      58.2423    -137.2895    2083.0236    14806.238 
   38910    304.96297    5.9501792    53.432243   -136.95031   -1266.2737    14806.238 
   38920    303.01019    5.5700256    57.742393    -136.6642   -900.98887    14806.238 
   38930    293.49561    8.5888986    61.728095   -136.17919   -805.50189    14806.238 
   38940    306.43282    6.7557259    56.848003   -135.44454    709.94646    14806.238 
   38950    315.19481    6.1539406    60.558378   -135.02654   -624.34746    14806.238 
   38960    314.23709    7.4515416    56.275843   -135.27355   -244.67762    14806.238 
   38970    314.73133     8.865519    63.011962   -136.42488    1158.6897    14806.238 
   38980    310.22159    10.937217    64.381223   -138.78155    1969.9836    14806.238 
   38990    320.89826    10.481198     60.13789    -143.1935   -190.63468    14806.238 
39000        0.98341133239020117607 10.094688347162408704 1 68 -290.91398476326190803
   39000    312.21169     9.546145    59.433471   -149.45614    516.01197    14806.238 
   39010    309.03498    8.6066736    52.363639   -155.96328    747.51756    14806.238 
   39020    311.40136    7.2691359     51.59428    -161.5204    1554.3975    14806.238 
   39030    300.36723    7.8373168    53.594369   -166.07743   -953.47153    14806.238 
   39040    280.13834    7.6132474    47.447372   -169.21951   -4786.6494    14806.238 
   39050    266.32471    8.1648185    56.586465   -170.78501   -1783.6588    14806.238 
   39060    294.39776    9.4966503      47.2875   -171.26828    1419.3741    14806.238 
   39070    291.85642     11.25185    52.312853   -171.29606    3626.3506    14806.238 
   39080    272.94776     14.10633    45.551021   -170.75506   -286.80579    14806.238 
   39090    265.17557    13.443968    48.917996   -169.09478   -2419.4128    14806.238 
39100        0.98461550619955873209 10.086010824334140423 1 64 -289.96718218575443871
   39100    273.50409    9.2357829    51.808667   -166.04709    12.285562    14806.238 
   39110    260.68891    9.0727571    58.524975   -161.98963    2993.3353    14806.238 
   39120    272.32786    9.8504604    55.865553   -157.36721     1777.154    14806.238 
   39130    288.30753    8.7512154    54.431224   -152.89633    -996.8847    14806.238 
   39140    327.91505    5.4115283    53.225537   -149.11588   -2263.2386    14806.238 
   39150    308.29732    5.1168116    56.466712   -146.66138    772.72955    14806.238 
   39160    301.29126    5.0388306    60.727162   -144.84619   -1834.2796    14806.238 
   39170    287.29643    6.0976214    62.148336   -143.39795   -755.24954    14806.238 
   39180    288.74225    6.1718218     63.38304   -142.14735   -2178.2153    14806.238 
   39190    316.47342    5.3992782    57.807437   -141.35077    2442.0935    14806.238 
39200        0.98392761091409952634 10.090650346999826326 1 70 -274.3518856614277297
   39200     294.5539    5.2377431    63.685919   -140.89448    1409.5172    14806.238 
   39210    305.09455    6.9375623    48.406398    -140.0568    1001.7294    14806.238 
   39220    283.79707    8.3592827     58.99718    -138.9357    187.15131    14806.238 
   39230    289.54765    9.6189635    57.812611   -137.47289   -436.27102    14806.238 
   39240    311.89354    6.9176874    54.775743   -135.93214    1635.2655    14806.238 
   39250    311.60838    4.7869029    62.299294   -134.58501   -277.51031    14806.238 
   39260    301.08294    4.5929504    62.336627   -133.57891   -2801.1683    14806.238 
   39270    284.83614    5.9618542    70.719552   -132.57715    -3169.326    14806.238 
   39280    312.47789    5.5706685    55.042346   -131.33431   -1172.9735    14806.238 
   39290    321.01082    6.4359136    61.272383   -129.73831    3203.3461    14806.238 
39300        0.98960257354639724614 10.08929734053124605 1 70 -278.93388796896743997
   39300     332.0773    7.2618666    62.227863   -128.47526    1766.3131    14806.238 
   39310     342.2707    9.0938983    53.290345    -128.0068    952.50929    14806.238 
   39320    323.63459    11.133062    58.635321   -128.81879    1363.1026    14806.238 
   39330    340.49571    10.694188    51.544154   -130.80182    2651.9961    14806.238 
   39340    315.78067    8.7694467    62.728684   -134.12101    7.9106307    14806.238 
   39350    321.18111    8.5179176     55.25552   -138.58397   -1427.2726    14806.238 
   39360    306.39294    8.3224265    60.438974   -143.54688   -2331.3021    14806.238 
   39370    337.24082    6.3946908    46.841444   -148.93165     86.89187    14806.238 
   39380    293.59642    5.2376013    62.596104   -154.00043    496.22976    14806.238 
   39390    291.63408    7.9264175     54.16624   -158.21767    1753.5778    14806.238 
39400        0.98881756054726710481 10.102784331082531821 1 69 -284.2718576187232884
   39400    271.85301    10.413368    54.558394   -161.09985    1053.9981    14806.238 
   39410    264.22156    9.5753213    53.847086   -162.61086     -1395.79    14806.238 
   39420    279.63213    9.3352984    52.736438   -162.77569   -422.61163    14806.238 
   39430    279.51154    8.9603138    56.774173    -161.9665   -632.27534    14806.238 
   39440    303.37637     8.768387    55.983921   -160.84442   -207.29224    14806.238 
   39450    311.13655    8.0726053    56.148004   -159.94034    449.72284    14806.238 
   39460    317.87335    8.4721221    53.873169   -159.58577    1097.5914    14806.238 
   39470    314.08602    11.042706    52.666823   -159.88615   -281.54137    14806.238 
   39480    279.64427    14.719917    56.189992   -160.42116   -2062.0781    14806.238 
   39490    287.78367    13.425343    51.696136   -160.39255   -1063.7108    14806.238 
39500        0.98284481919561250685 10.158813666441908197 1 71 -286.48665878656066752
   39500    280.05842    11.925382    55.676192   -159.59692    42.944809    14806.238 
   39510    299.88402     9.214204    54.412841   -158.06895   -547.21996    14806.238 
   39520    299.35616    6.4951519    57.746237   -155.90176    1675.8295    14806.238 
   39530    292.14637    8.2076346    57.534081   -153.28072    2277.9152    14806.238 
   39540    279.93177    8.6501266    56.663491   -149.80605   -370.19043    14806.238 
   39550    312.47128     8.893813    56.569596   -144.81287   -2092.4886    14806.238 
   39560    322.09221    8.7538633    57.079778   -139.41199   -2883.4853    14806.238 
   39570    324.50658    8.9326773    62.185564   -134.84845    579.29354    14806.238 
   39580    327.19728     9.247201    59.644762   -131.69262    809.24593    14806.238 
   39590    300.47803    9.2170443      63.1627   -129.86562    598.41188    14806.238 
39600        0.98113726020346914147 10.159244662709619789 0.99470899470899465378 71 -274.23276232818722065
   39600     321.2146    3.9193196    56.034607   -128.69585    1099.7861    14806.238 
   39610    316.54258    1.6111631    60.128238   -128.41376    1485.2386    14806.238 
   39620    320.06745    3.0831463    58.384546   -129.09171    2261.6827    14806.238 
   39630    324.84862    4.3339458    59.938566   -130.42756    18.628954    14806.238 
   39640    314.28665    7.2574314    60.791278   -132.16891   -2878.6821    14806.238 
   39650    298.43976    8.8450451    59.708037   -134.45803   -3025.9898    14806.238 
   39660    287.11826    8.5884509    61.627571   -136.96522   -313.43919    14806.238 
   39670    309.01198    8.7774246    61.275858   -139.93024    3009.9183    14806.238 
   39680    324.78403    6.5652048    53.126231    -143.5319    1896.1209    14806.238 
   39690    296.46637    5.6678486    54.311296   -147.42293   -274.48372    14806.238 
39700        0.97371334346821192263 10.186261343756569886 0.99735449735449732689 70 -286.21137481491172139
   39700    299.09798    5.6477935    57.726905   -150.69513   -267.68428    14806.238 
   39710    302.94636    5.6869935    52.826218   -153.55739    712.28102    14806.238 
   39720    286.44329    4.0953858    59.659114   -155.67338   -828.33782    14806.238 
   39730    305.58666    4.4513824    50.507713   -156.86229   -3825.3506    14806.238 
   39740    277.67737    6.8569632    64.731861   -157.49789   -787.17958    14806.238 
   39750    300.91209    9.0622319    48.583414   -157.71945   -161.79568    14806.238 
   39760    265.67538    9.8487618    57.542332   -157.56579     1027.959    14806.238 
   39770     300.1481    11.884857    45.129403   -156.72852   -1616.9637    14806.238 
   39780    293.16559    8.6500573    50.529366   -155.34412   -177.45026    14806.238 
   39790     312.0757    5.8769166    53.770495   -153.74515    2992.0487    14806.238 
39800        0.97205885190297525167 10.177932856379635851 1 71 -291.20007596223450719
   39800    306.43266    5.0561756    51.322975   -152.36061    1264.5544    14806.238 
   39810    303.06306    5.1895112    58.191039   -151.39039   -195.53674    14806.238 
   39820    281.49338    3.2094495    58.701954   -150.39873   -2214.8294    14806.238 
   39830    297.62173    3.5772601    55.555535   -148.91714   -2517.1107    14806.238 
   39840    293.17817    5.1398289    61.637954   -147.02984    1534.1735    14806.238 
   39850    293.08165    6.1818235     55.25335   -144.89177   -34.751198    14806.238 
   39860     282.9931    6.8367855    58.396339   -142.10897     1867.634    14806.238 
   39870    322.83485    7.1943852      53.1394   -138.79517    1283.0331    14806.238 
   39880    325.46452    4.8193414    52.425028    -135.5056    2036.0934    14806.238 
   39890    352.26418    4.2807644     51.34365    -133.0115    1509.4773    14806.238 
39900        0.97228397657896692419 10.164184180920026179 1 65 -276.01520640384023864
   39900    318.64096    4.0308601    71.659593   -131.64436   -4179.2632    14806.238 
   39910    327.68591    3.9453354    59.403608   -131.44786   -3164.4335    14806.238 
   39920    285.04893    9.5668663    59.022376   -132.01025   -3309.3999    14806.238 
   39930    302.22829    11.722524    58.479088   -132.55722    2677.4207    14806.238 
   39940    275.61504     11.61318    67.321979   -132.87446    2113.1956    14806.238 
   39950    303.18153    10.354677     60.67965   -133.17634    2352.0257    14806.238 
   39960    308.64714    9.2794332     67.19231   -134.16981    1436.3476    14806.238 
   39970    337.98256    6.8763569    52.228009   -136.83343    975.59846    14806.238 
   39980    284.72753    7.7690322    65.319607   -141.00162    710.14744    14806.238 
   39990    282.46529     7.534244    56.490017   -145.43498   -1542.9109    14806.238 
40000        0.97230507060220972004 10.142866463169896818 1 68 -270.78902504092940262
   40000    267.74123    6.9540557    65.904074   -149.47999   -2373.0052    14806.238 
   40010    306.25208    6.3623123    52.630915   -153.04198     337.7168    14806.238 
   40020    309.68789    7.3730492    54.491007   -156.70639    -1496.463    14806.238 
   40030    291.19531    7.3144917    58.829641   -160.06694     198.7096    14806.238 
   40040    284.52745    5.9241069    55.948098   -162.79451   -206.79983    14806.238 
   40050    282.70548    5.6372211    53.398656   -164.67229    1549.7165    14806.238 
   40060    285.17617    7.9813784    56.049836   -166.09814    2057.4822    14806.238 
   40070    270.28482    7.4404775    57.358121    -166.8171   -64.743922    14806.238 
   40080    267.01616    6.0863635    52.467767   -166.64552   -343.27348    14806.238 
   40090     256.3857    6.2140122    51.702908   -165.34407    309.33572    14806.238 
40100        0.96404402055488536138 10.1882016005661864 1 70 -285.57801363657205229
   40100    271.82499    5.5002676     51.13447    -162.4187   -1277.6672    14806.238 
   40110    278.37183    6.5746456    53.852859   -158.24724   -170.00113    14806.238 
   40120    279.23208    6.8652968    59.720456   -153.34254    89.726593    14806.238 
   40130    263.00246    7.9473235     60.93835   -148.85427   -414.95159    14806.238 
   40140    275.66862     7.061253    65.687143   -144.81116   -389.88383    14806.238 
   40150    313.33442     6.628283     50.83762   -141.73609   -873.27212    14806.238 
   40160    313.46235    5.3503631    57.843732   -139.93402   -1657.7308    14806.238 
   40170    326.12506     6.720781    49.738312   -139.20343   -669.30853    14806.238 
   40180     322.5448    8.5116856    55.108548   -139.21626   -1371.5341    14806.238 
   40190    295.39287    8.7652138    57.248214   -139.74784    2311.0624    14806.238 
40200        0.95700942764933338847 10.209131539553876422 0.99735449735449732689 65 -278.33075171070532861
   40200     304.9887    7.9684901    60.245764   -140.14552    2079.6828    14806.238 
   40210    336.74092    7.9546339     53.57588   -140.85543    1166.9435    14806.238 
   40220    331.39322    6.0244671    55.050862    -142.4601   -1221.6581    14806.238 
   40230    320.02846    4.5788982    48.145193   -144.77774   -1269.8623    14806.238 
   40240    307.25109    4.0569279    57.189856   -147.40342   -763.22048    14806.238 
   40250    320.23823    5.6130529    55.095762   -150.44548   -1084.0796    14806.238 
   40260    297.76829    8.9752695    56.461563   -153.72534    1290.8259    14806.238 
   40270    289.95023    8.0503534    51.718037   -156.74855   -890.57212    14806.238 
   40280    290.72504    5.4903825    51.897451   -158.96341    1342.9528    14806.238 
   40290    287.52378     4.264692    52.721554   -160.60717    871.63312    14806.238 
40300        0.95614637554189807478 10.217627678996763052 0.99735449735449732689 64 -287.74936538978647604
   40300    278.80041    5.0025978    55.111804    -161.4296    1709.7303    14806.238 
   40310    267.68566    5.5653772    55.629357   -161.36876    1579.0382    14806.238 
   40320    284.77659    5.7122065    50.963578   -160.26528   -614.66998    14806.238 
   40330     306.8998    4.2573228    54.225542   -158.13463   -1368.5175    14806.238 
   40340    312.01091    5.2478094    49.821991   -155.66864   -106.12841    14806.238 
   40350    309.02577    9.7147282    51.446228   -152.48293    577.50904    14806.238 
   40360    299.90598     12.75042    59.374108   -148.44634   -627.10352    14806.238 
   40370     319.2325    12.930484    55.457609   -143.00077   -1466.1441    14806.238 
   40380      286.469    8.4838308    67.420824   -137.12851   -693.45979    14806.238 
   40390    302.39298    5.0737298    61.785536   -131.20039   -1320.8005    14806.238 
40400        0.95936386262402151281 10.229767629623454539 1 63 -265.61839827565415817
   40400    308.02818    4.6728107    73.565115   -126.05603    1770.0365    14806.238 
   40410    343.36326    6.2486201    60.893411   -122.74468    1631.0967    14806.238 
   40420    317.14405    7.6933603    65.189241   -121.62341   -1188.6461    14806.238 
   40430    314.85119    6.2455469    60.861492   -121.46691   -3897.5736    14806.238 
   40440    312.65714     5.167089     64.55627   -121.72367    -432.1792    14806.238 
   40450    307.82396    4.3805073    66.828464   -122.38457    3021.1762    14806.238 
   40460    304.36556    4.6486766    61.846121   -123.92969    2716.2092    14806.238 
   40470    274.49868    4.8515956    65.449564   -125.60583   -6.4472933    14806.238 
   40480    338.48959     3.599301    51.577111   -127.15791    524.01897    14806.238 
   40490    321.73562    2.8627628    65.605755   -129.73061   -239.13735    14806.238 
40500        0.963806830715550511 10.223225922537313437 1 64 -270.07982540807421401
   40500    302.36265    3.9958596    60.816046   -133.08441   -1214.6736    14806.238 
   40510    279.92053    5.3574478    63.118583   -136.05338   -3185.7822    14806.238 
   40520    304.84436      4.24311    58.120469   -138.59536   -154.92357    14806.238 
   40530    298.89162    5.0895348    61.155435   -141.08445    1281.2672    14806.238 
   40540    288.92994    4.6960605    54.904153   -143.21625    2159.9396    14806.238 
   40550    288.14199    4.4975264    61.627693   -144.63967   -1650.3463    14806.238 
   40560    290.31848    4.8783073     61.92868   -145.68325   -2160.8079    14806.238 
   40570    304.28873    5.8475934    56.443624   -146.70517   -612.32253    14806.238 
   40580    290.43638    6.7469387    55.675477   -147.61129   -139.43975    14806.238 
   40590    295.92732    10.276157    54.852473   -147.96667     170.7986    14806.238 
40600        0.96929709142300002345 10.209306110643021626 1 64 -291.25401767973050937
   40600    316.29582    10.052958    54.290577   -147.94572   -2605.0579    14806.238 
   40610    313.55877    9.5093385     55.79707   -148.42141   -421.09041    14806.238 
   40620    293.16859    9.0722834    59.273571   -149.17537    75.730628    14806.238 
   40630    323.28139    7.8308099    55.950857   -150.00275    3006.0395    14806.238 
   40640    315.82647    9.1405755    62.052789   -151.49204    1644.4927    14806.238 
   40650    314.53531    8.8882961    48.967806   -153.40687    -181.8052    14806.238 
   40660    297.99172    10.890283    56.311576   -155.48395   -997.19164    14806.238 
   40670    295.14921    11.439436    53.068195   -157.21154    -337.9993    14806.238 
   40680    279.49643    11.532652    55.970302   -158.45345    1021.9581    14806.238 
   40690    293.77429     9.112172    53.829342   -158.90535    3593.7048    14806.238 
40700        0.98405472209243571857 10.126862005438432845 1 64 -293.48188314772539798
   40700    296.95118    7.5280378    48.799869   -158.93831    768.30575    14806.238 
   40710    291.83109    9.0563568    54.823214   -158.70376     2453.009    14806.238 
   40720    315.14867    8.7854131    51.622135   -158.39443    -3513.421    14806.238 
   40730    316.90687    9.7532628    52.920299   -158.36289    -3057.373    14806.238 
   40740    317.49731    11.199766    48.127049   -158.43688   -3082.9788    14806.238 
   40750    295.78832     9.129026    60.510686   -158.51457    1871.5161    14806.238 
   40760    309.17831    9.2145752    56.583462   -158.60591    3125.5719    14806.238 
   40770    268.99196    10.114546    64.731431   -158.79517    1944.5179    14806.238 
   40780    319.30401    11.063557    52.023255   -158.77381    1256.2801    14806.238 
   40790    279.87022    11.758712     62.12134    -158.9537    900.45377    14806.238 
40800        0.98641934254186536268 10.117684363291177263 1 69 -286.6691993415053048
   40800    282.24715    11.767172    57.596306   -158.78778    -2481.842    14806.238 
   40810    273.94571    10.643163    59.050926   -157.84188   -262.58487    14806.238 
   40820    269.93157    9.0326116    65.275941   -156.22961   -1356.2026    14806.238 
   40830    269.16365    8.9494398    64.682247   -153.92456    941.39781    14806.238 
   40840    282.56372    8.1912214    59.539889   -151.01424   -2969.1521    14806.238 
   40850    313.98656    8.1800394    59.125917   -147.53141     454.2001    14806.238 
   40860    308.00724    6.9589978    65.501188   -144.53116    586.51174    14806.238 
   40870    323.06635    6.8308282    58.950997   -142.14394    2201.0134    14806.238 
   40880    309.76604    6.2851601     68.72327   -140.84153   -792.73601    14806.238 
   40890    291.89652    7.4296384    67.473929   -140.18279    542.19553    14806.238 
40900        0.98855322133904111048 10.129807258113434187 1 67 -275.56626160476912446
   40900    300.13791    8.1975155    65.295852   -139.57884   -1591.4904    14806.238 
   40910     330.2074    6.9351515    55.215522   -139.44419    1211.6466    14806.238 
   40920    314.47922    6.2970533    55.946515   -140.17641   -1800.3148    14806.238 
   40930    303.75699    7.5596166    59.101953   -141.47999    852.51689    14806.238 
   40940    302.54638    8.6545571    58.397231    -143.6676   -1408.0501    14806.238 
   40950    284.33311    9.3319918    53.268564   -146.62101   -1661.6286    14806.238 
   40960    296.63722    5.9647632    53.336532    -150.0103   -651.77694    14806.238 
   40970    283.99072    5.5453549    59.059292   -153.90691    377.09837    14806.238 
   40980    273.02305    5.2074016    58.335733   -157.81903    1126.2106    14806.238 
   40990    287.88927    5.5720895    55.797695   -161.66748    1292.0205    14806.238 
41000        0.98436267726544246504 10.138572211271004164 1 68 -300.73201844141948413
   41000    299.30984    6.0749167    46.119682   -165.11978    1667.9606    14806.238 
   41010    286.77471     5.827801    50.431817   -167.82232    2287.1586    14806.238 
   41020    283.19667    6.5223996    49.093314    -169.8324   -772.91494    14806.238 
   41030    284.06218    8.8490961    53.718276   -171.45952   -745.62105    14806.238 
   41040    267.97374    8.9134095    58.771435   -172.35079    77.058309    14806.238 
   41050    273.24468    9.8304833    53.720141   -172.14085   -910.24766    14806.238 
   41060    289.63754     7.947078     50.77856   -170.79397    1281.0144    14806.238 
   41070    301.08565    7.2262757    50.062348   -168.20726   -2034.4829    14806.238 
   41080    289.28144    7.0500701    54.916134   -164.12852    1146.9543    14806.238 
   41090    292.01275    6.4556062    54.673014    -158.3477    116.37725    14806.238 
41100        0.98264573628645968117 10.148037223602436541 1 67 -281.04447633092900105
   41100    285.93679    4.9413187    57.983378   -151.49134    608.20725    14806.238 
   41110    323.72034    4.3023462    54.797499   -144.90272   -784.69655    14806.238 
   41120    297.60558     6.305553     59.51693    -140.6208   -191.52989    14806.238 
   41130     307.7468    7.1490679    57.475773   -138.18675    -2392.758    14806.238 
   41140    298.37761    9.7371788     57.92901   -136.62029    1203.3788    14806.238 
   41150    297.59012    10.397715    71.607302   -135.43874   -184.44123    14806.238 
   41160    319.02021    11.597919    65.506313   -134.93879    1011.3473    14806.238 
   41170    310.15161    10.262875    65.405746   -135.78831   -3100.9027    14806.238 
   41180    319.73548    7.5787158    54.170487   -137.48216    218.68408    14806.238 
   41190    296.87964    8.5793881    61.531701   -139.39615    -581.9917    14806.238 
41200        0.98165875898062571192 10.144585634381058981 1 68 -259.75345218915049372
   41200    261.77382    8.8318641    59.588486   -141.14815    537.48773    14806.238 
   41210    260.15172    8.7466705    62.933115   -142.05677   -913.02695    14806.238 
   41220    292.45936    10.263969    63.847911   -142.19484    2166.7772    14806.238 
   41230    298.86744    10.085305    62.436769   -142.20471    1371.0265    14806.238 
   41240    291.25904    9.7514845    58.503358   -142.36246   -2494.2759    14806.238 
   41250    319.87226    8.5551268    53.000255   -142.77186   -4130.4414    14806.238 
   41260    308.05231    7.5876922    58.448688   -143.59792   -433.10327    14806.238 
   41270    310.54948    8.3501437    56.903039   -144.93761   -446.28877    14806.238 
   41280    301.25102     8.759912    58.362337   -147.00029    246.51655    14806.238 
   41290    296.34172    8.8343426    54.477571   -149.91841    266.21814    14806.238 
41300        0.98826078806187522829 10.075504272078527279 1 67 -281.28924651442559934
   41300    282.77827    7.6044976     53.20179   -153.16718    2720.0532    14806.238 
   41310    301.81166    5.3341806    49.083763   -156.58631    3450.4336    14806.238 
   41320     279.2216    4.3275032    55.558768   -160.00614   -428.64087    14806.238 
   41330    292.04223    5.5228454    50.148886   -163.00449     183.3975    14806.238 
   41340     292.8547    8.8884706    48.742574   -165.93793   -1118.3812    14806.238 
   41350    257.89341    12.778769    52.112032   -168.08885    -557.3507    14806.238 
   41360    275.34163    11.435014    47.206219   -168.88696    666.89259    14806.238 
   41370    275.19661    10.953422    54.777571   -168.48946    459.36203    14806.238 
   41380    305.24265    10.630562    46.684128    -167.1093    901.98345    14806.238 
   41390    265.62239    11.612746    55.611295   -165.04207    142.74774    14806.238 
41400        0.99030651751181753006 10.079161368471936555 1 72 -293.88863206057385469
   41400    291.81438    10.286397    51.548265   -161.67246    12.077131    14806.238 
   41410     294.3736    7.7777312    60.883815    -156.4982   -1143.9882    14806.238 
   41420    315.91114    6.7539197    58.409494   -150.32842   -1753.9174    14806.238 
   41430     310.8179    7.7542821    59.558357   -144.80724     1194.688    14806.238 
   41440    303.85812    8.3681533    62.562152   -140.77919    1617.4888    14806.238 
   41450    315.16757    7.1969936    55.356678    -137.9952    1819.3597    14806.238 
   41460    297.28764    5.8377711     66.87604   -136.30153   -2268.4006    14806.238 
   41470    342.74865    5.9319547     52.83014   -135.38251    289.92494    14806.238 
   41480    317.30657    7.5573009    67.192052   -135.73661     2094.954    14806.238 
   41490    325.33544    7.6170302    58.493141   -137.11243    563.81394    14806.238 
41500        0.98835173551561106287 10.104415509063638723 1 70 -270.50113466535515272
   41500    290.77238      6.28214    68.892712   -138.75708   -3453.2085    14806.238 
   41510    323.66514    6.9376042    52.564451   -140.42515   -1307.3434    14806.238 
   41520    284.57186    7.2823389     65.11618   -142.16367   -1041.0718    14806.238 
   41530     295.3605    7.3631003     60.68644   -143.85465    3440.2838    14806.238 
   41540     260.5578    7.5681422    62.883936   -145.13053   -772.77972    14806.238 
   41550    276.06368    5.9474737    62.020016   -145.50232    2326.3034    14806.238 
   41560    294.79746    4.8560631    57.635803   -145.20076   -4.3682121    14806.238 
   41570    283.66137    3.6848817    65.558169   -144.75941   -822.27421    14806.238 
   41580    324.51266     4.250302    61.658633   -144.48596   -2041.5133    14806.238 
   41590    309.98518    5.9971846    63.524996   -144.97566   -1530.5822    14806.238 
41600        0.98570322608501237394 10.123010350580925021 1 71 -292.9614452052550746
   41600    322.74868    6.7853402    57.333955   -146.72946   -1130.1018    14806.238 
   41610    287.32017    7.9226706    61.895216   -149.33445    547.33442    14806.238 
   41620    298.18686    8.3018949    55.243894   -153.12267    670.48852    14806.238 
   41630    274.93113    9.3593163    60.107966   -157.69251    403.78105    14806.238 
   41640    278.77779    9.1253129    51.088937   -162.80885   -215.78758    14806.238 
   41650    260.71062    10.137377    58.628409   -167.36366    3823.3476    14806.238 
   41660    247.75593    11.534926    59.202171   -170.91183    1681.3072    14806.238 
   41670     255.0854    11.331769    56.668369     -173.006   -131.65736    14806.238 
   41680    291.29155    8.5936763    48.008268   -173.97185   -2909.3556    14806.238 
   41690    277.36928    6.1899605    53.622982   -174.48242    270.19164    14806.238 
41700        0.98514476008992146738 10.122601214400326342 1 74 -294.66113205302195865
   41700    265.90648    6.9757443    52.890423   -174.18339   -741.76377    14806.238 
   41710    261.50292    7.7951934    55.914162   -172.83797   -183.81698    14806.238 
   41720    282.64405    6.5894236    50.904189   -170.62173   -247.36204    14806.238 
   41730    301.22098    6.0580429    58.264223   -167.68714    2798.5689    14806.238 
   41740    311.58323    4.9646983    50.176005    -164.9955    158.01192    14806.238 
   41750    272.08457    4.5726758    53.351618   -162.02091   -1602.3903    14806.238 
   41760    265.42834    3.2425969    63.589646   -158.39442    -3937.497    14806.238 
   41770    277.31262    4.8909206    59.587211    -153.9624    152.66403    14806.238 
   41780    280.72223    5.8746468    68.924494   -150.18425    713.57725    14806.238 
   41790    335.56802    6.8471067    48.770858   -148.03996    1174.1566    14806.238 
41800        0.98208119757630729652 10.134861990222860939 1 66 -285.24833815892122857
   41800    304.18747    7.6413443    61.899219   -147.42613   -2243.5429    14806.238 
   41810    322.31619    8.7829316    46.781106   -147.23053     1873.614    14806.238 
   41820     282.7074    8.7855583    64.231038   -146.91671    2620.4433    14806.238 
   41830     321.6165    5.2071619    58.342281   -146.68818    2954.2375    14806.238 
   41840    324.36324    7.4715803    60.535533   -147.11101    -1301.547    14806.238 
   41850    304.84537    9.2252556    56.469626   -148.19092   -2298.8501    14806.238 
   41860    326.20054    10.861651    50.989585   -149.67855    748.00206    14806.238 
   41870     304.0878    8.4326514    62.620244   -151.93705    725.42295    14806.238 
   41880    309.12119    8.3294736    49.857607   -154.53804   -1468.9732    14806.238 
   41890    288.31587    8.9435928    62.331653    -157.1226   -2523.6597    14806.238 
41900        0.97369078698543654049 10.165294036838158576 0.99735449735449732689 69 -296.23000082506729314
   41900    301.55921    10.742869    49.672166   -159.59861    913.28308    14806.238 
   41910    281.64461    11.806892    53.614973   -161.66102    1712.5406    14806.238 
   41920    279.58865     10.59041    56.094839   -163.10552    384.10172    14806.238 
   41930    289.70488    9.1021877    53.275389   -163.99287    -1471.365    14806.238 
   41940    296.13902     7.997685    53.647079   -164.76362    1345.1127    14806.238 
   41950    291.14479     6.304007    49.976062   -165.37291    103.54644    14806.238 
   41960    278.73763    4.0450686    52.263372   -165.40322   -1523.7012    14806.238 
   41970    282.83257    4.1196091    57.947567   -164.53225   -733.28078    14806.238 
   41980    277.81847    5.2304108    52.758622   -162.68826    191.97308    14806.238 
   41990    283.98207    5.2233364    53.288026   -159.97148    1137.9178    14806.238 
42000        0.97218496020028499771 10.141703364466780002 1 69 -283.26602842329316445
   42000    281.01657     5.332478    54.040255   -155.94216   -478.81852    14806.238 
   42010    315.11291    5.8844526    53.354795   -150.74479   -322.54719    14806.238 
   42020    318.64292    4.8532716    62.301665   -145.55241    573.77478    14806.238 
   42030    326.04503    4.9222976    57.346932   -141.86412     404.4717    14806.238 
   42040    323.14151    4.6088919     57.97991   -139.61984   -79.729203    14806.238 
   42050    312.88542    4.7099805    60.486716   -138.49855    1067.3101    14806.238 
   42060    308.85391    8.4850837    59.997927   -138.11746    2491.3359    14806.238 
   42070     277.5417    8.6815365    67.159741   -138.00301    1521.8917    14806.238 
   42080    301.75222    7.7860743    59.229404   -137.66795    -438.0575    14806.238 
   42090    305.85323     7.508732    65.766555   -137.50154   -1512.0778    14806.238 
42100        0.9717564048342247629 10.174556909835077434 1 70 -282.62111804400655046
   42100    319.75346     6.934441    54.621013   -137.74622   -1702.7181    14806.238 
   42110    326.20116    5.5630226    62.016258   -138.60276    34.041534    14806.238 
   42120    301.88369    4.2882739    67.743672   -140.14935   -541.30426    14806.238 
   42130    286.50487      6.20894    61.944604   -142.13435   -685.55764    14806.238 
   42140    251.82149     8.668042    69.510589   -144.00395    138.39893    14806.238 
   42150    306.79723    9.1681854    53.644901   -145.37308   -1137.0566    14806.238 
   42160    294.55528    9.1203948    60.567608   -146.66627    1259.2058    14806.238 
   42170    301.47287    7.3919306     56.56501   -147.93662    1118.8269    14806.238 
   42180    271.04937    6.0725359    55.789034   -149.00476   -889.83372    14806.238 
   42190    298.30402    4.7272241    57.727204   -150.26703    -989.0765    14806.238 
42200        0.9727148290897337235 10.174448620308975677 1 71 -285.84657224003154852
   42200    294.16802    2.6033746    57.943072   -152.56401   -1433.8105    14806.238 
   42210    259.06585    2.1067712    61.098982   -155.92968   -88.436991    14806.238 
   42220    260.55165    3.3740203    53.815662   -158.88661   -215.01909    14806.238 
   42230    288.02933     4.477693    55.391422   -161.48324    355.88569    14806.238 
   42240    277.34064    6.2840259    54.921482   -163.79069    1324.7881    14806.238 
   42250    263.68266    5.4002945    58.508466   -165.68083    950.98857    14806.238 
   42260     262.9279    5.0681466    54.350448    -166.6073    444.13885    14806.238 
   42270    294.25322    6.4599829    51.085884   -166.86416    190.72473    14806.238 
   42280     294.6009    7.1266461    54.534828   -166.77653   -201.28648    14806.238 
   42290    303.24593    6.6911031    48.004648   -166.28049   -1289.6266    14806.238 
42300        0.9771859863179789274 10.171598426668889914 1 68 -302.29091636892206907
   42300    302.56557    5.8013388    49.583819   -165.20356   -38.340378    14806.238 
   42310    308.36981    6.7290996    50.987518   -163.30609    1012.1473    14806.238 
   42320    286.04398    8.9182594    56.058995   -161.15352    -283.3339    14806.238 
   42330     295.2093    9.4179825    64.297591   -158.56399     -2224.57    14806.238 
   42340    305.39045    12.231493    55.887964   -155.80102    856.40058    14806.238 
   42350    300.07092    11.372773    62.625198   -153.30516     1170.538    14806.238 
   42360    304.99187    7.8403862    57.329656   -150.89218    869.81754    14806.238 
   42370    280.83963    5.5143608    64.019911   -148.53651   -2579.8632    14806.238 
   42380    319.90363    5.4804092    52.825778   -145.92562   -537.92893    14806.238 
   42390    312.08408    7.1414502     61.06992   -143.50305    1501.3036    14806.238 
42400        0.97805843088612476333 10.170794935100602174 1 66 -283.74264851835482659
   42400    313.93552    7.6920964    57.220611   -141.50376    592.39705    14806.238 
   42410    303.89959    6.9448212    58.291084   -139.59078    989.31217    14806.238 
   42420    298.48164    7.9143893    65.968302   -137.49758   -216.78588    14806.238 
   42430    303.42615    8.8009725    60.773223   -135.09036   -965.42611    14806.238 
   42440    298.86494     7.903309    68.048274   -132.32557     -1281.83    14806.238 
   42450    331.75679    8.4890654    52.243266   -129.10276   -525.11371    14806.238 
   42460    311.44126    9.7123645    72.976149   -125.48348   -1303.4944    14806.238 
   42470    339.33825    10.377104    60.783105   -121.61078    474.66553    14806.238 
   42480    334.88914    7.4609818    64.904447   -117.73834   -434.70675    14806.238 
   42490    332.42583    8.4226615    66.962777   -114.78572    1516.4403    14806.238 
42500        0.98164045204351912943 10.135692679405096328 1 66 -273.73754634803219687
   42500    354.93113    9.0923966    62.473503   -112.92424    2225.2703    14806.238 
   42510    355.19118    8.1837424    61.330458   -112.95902    3335.2527    14806.238 
   42520    325.37251    5.3746134    66.323809    -115.2194    391.62678    14806.238 
   42530    327.96247    3.9583444    62.321916   -119.11083    640.51362    14806.238 
   42540    314.78151    4.9926811    60.858292    -124.9505   -3159.6523    14806.238 
   42550    314.36303    4.1617771    64.250858   -131.61299    -3620.466    14806.238 
   42560    294.28978    5.5132825    61.119004   -137.95987   -2926.1015    14806.238 
   42570     311.9229    4.3980282    49.857172   -142.29292    757.18369    14806.238 
   42580    312.84613    4.3204497    54.395225   -145.54114    1773.7345    14806.238 
   42590    317.42222      5.64244    55.248869   -147.90488    1815.6092    14806.238 
42600        0.98131229115336437996 10.152799598212176591 1 67 -286.63728618772506707
   42600    301.76617    4.3029437     55.96932   -149.91213   -216.32594    14806.238 
   42610    305.12818    5.2825517    53.113036   -151.81902   -1332.7438    14806.238 
   42620    292.50995    7.6285718     56.03376   -153.35605   -2877.9129    14806.238 
   42630    283.23924    11.212745    54.995565   -154.47752    1065.8619    14806.238 
   42640    308.43938    9.5485113    45.429544   -155.14149    2152.2559    14806.238 
   42650    295.23558    6.8789361    55.056294   -155.57199    2817.4982    14806.238 
   42660    292.66696    7.3124941    50.066489   -155.72546    194.85578    14806.238 
   42670    302.48729      5.75798    52.983941   -155.50839     475.9665    14806.238 
   42680    302.45118    6.9141012    53.729978   -155.22502   -354.79056    14806.238 
   42690    282.57894    7.5727059    58.739575   -154.83933   -1574.8573    14806.238 
42700        0.97869566333237156819 10.170207100479984774 0.99735449735449732689 67 -284.28443155900185957
   42700    288.11506    8.0255061     52.97107   -153.74436   -2477.2539    14806.238 
   42710    325.57859    9.5504603    48.617081   -151.83062   -593.46765    14806.238 
   42720    317.76534     9.988211    58.480472   -149.87784    2404.8219    14806.238 
   42730     326.2081    8.7366768    54.866672   -148.27117    1286.0962    14806.238 
   42740    281.15572    9.6068579     51.03506   -147.02181    9.5431037    14806.238 
   42750    313.64877    10.564792    52.019158   -145.26779   -2720.4093    14806.238 
   42760    287.26096    10.874786    54.084352   -143.03461   -1491.1268    14806.238 
   42770    288.88001    10.467108    54.112627   -140.03875   -787.88729    14806.238 
   42780    319.68826    7.6137896    60.518646    -136.0713    180.20991    14806.238 
   42790    331.88327    6.0279269    63.053534    -132.0738   -492.16773    14806.238 
42800        0.98482423184144840533 10.128666647064154205 1 66 -278.06590465864326234
   42800    327.96975    4.5591529    60.485144   -129.46835    1395.3613    14806.238 
   42810    301.03998    4.7516709    64.610049   -127.94149    2640.8807    14806.238 
   42820    317.04155    4.0120591    51.952204    -126.7051    1040.9133    14806.238 
   42830    326.73504    4.0279999    61.652829   -125.95837   -2992.2128    14806.238 
   42840    315.23335    6.7390156    62.107552   -126.20365   -2899.8773    14806.238 
   42850    302.26175    8.6859984    60.538873   -127.32491    10.748055    14806.238 
   42860    298.63458    8.0014253     64.30812   -129.14016    3751.9297    14806.238 
   42870    306.53614    6.6387657    61.438333   -132.00073    697.78823    14806.238 
   42880    292.11312     8.239113    63.029951   -136.30709   -419.24564    14806.238 
   42890    293.38978    11.667901    56.741429    -141.3868    263.53608    14806.238 
42900        0.98562206108532146587 10.101099626525703812 1 72 -286.00580281394655913
   42900    307.11751    11.891415    54.125616   -146.85604    5320.0856    14806.238 
   42910    296.56464    11.499316    56.993191   -151.85104     3071.553    14806.238 
   42920    307.31177    9.7111337    44.123364   -156.08885   -2120.0563    14806.238 
   42930    296.34922    5.6351225     51.74866   -159.35591   -4291.5954    14806.238 
   42940    297.18152    2.9736997    53.710949   -161.76827   -1566.9105    14806.238 
   42950    285.98119    3.5093491    52.026425   -163.26012   -973.18968    14806.238 
   42960    299.46175    5.0053058    48.910312   -163.73819    -539.6628    14806.238 
   42970    297.71053    9.1060116    55.536136   -163.82899   -814.84057    14806.238 
   42980    309.93449    11.601136    43.291715   -164.00492    95.997832    14806.238 
   42990    256.86696     11.07262    56.871382   -163.93771   -345.37649    14806.238 
43000        0.98652500358517314361 10.119561571868207039 1 66 -296.85045698563374117
   43000    295.31367     9.821996    44.963328   -163.04882    1165.2067    14806.238 
   43010    284.77942    8.1886147     53.08443   -161.39157    500.99097    14806.238 
   43020    303.37324    6.9097872    52.608947   -159.20623   -88.381449    14806.238 
   43030    277.79471    7.9381027     52.26268   -156.76108    1231.8822    14806.238 
   43040    301.67831    8.7752073    53.358701   -153.77018     831.7808    14806.238 
   43050    290.90055    11.750371    55.350578    -150.3704    1500.6163    14806.238 
   43060    300.72035    8.3654753    56.375833   -146.50772   -1621.3877    14806.238 
   43070    323.33106    5.9035534     56.62534   -142.52146    935.54271    14806.238 
   43080    314.48274    5.3128894    60.531708   -139.61662    1697.4045    14806.238 
   43090    300.25111    6.7105509    61.477172   -137.92476    979.38217    14806.238 
43100        0.98336057337582172266 10.1400829020101515 1 69 -275.24971167819398943
   43100    305.28055    6.5491911    56.966862   -136.93225   -144.86041    14806.238 
   43110    304.60334    8.1855467    56.104005    -136.3831   -895.32619    14806.238 
   43120    313.35759    10.907306    58.129609   -136.29014   -1715.8967    14806.238 
   43130      301.824    10.187684    64.976155   -136.75115   -992.71786    14806.238 
   43140    309.03953    11.320556    57.589878   -137.56381    -1631.812    14806.238 
   43150    302.94228    8.9306375    61.147438   -138.66886    929.65553    14806.238 
   43160    304.48135    8.6052047    60.898352   -139.66584   -1679.4041    14806.238 
   43170     313.3863    9.4019022    48.196329   -140.34752    1195.0059    14806.238 
   43180    301.27228    7.1234904    54.353599   -140.97021     881.6433    14806.238 
   43190    294.26827    8.2314373    56.765601   -141.25282    2719.9155    14806.238 
43200        0.97863713176643607472 10.164701499438335119 1 68 -276.15244208881171062
   43200    297.55571     10.38874     56.65246   -141.33497   -1420.7021    14806.238 
   43210    314.79179    11.574903    58.466789   -141.77027   -2590.9671    14806.238 
   43220    331.90712     7.712071    56.700662   -143.24348   -2366.0051    14806.238 
   43230    301.78541    7.1811691    60.101769   -146.03229    1071.0197    14806.238 
   43240    300.97924    8.2070677    59.580023   -149.38193    84.826869    14806.238 
   43250    278.86607    8.8085387     54.03618   -152.88411     2996.491    14806.238 
   43260    295.49957    5.5097926    48.228831   -155.78459    666.54819    14806.238 
   43270    245.79536    4.8657271    65.838947   -157.87438    250.79694    14806.238 
   43280    265.39741    4.0905429    57.226986   -158.49871    968.71894    14806.238 
   43290    275.81509    4.7108921    57.677592    -158.0778   -1967.7996    14806.238 
43300        0.97534307956016563779 10.161364348101994182 1 67 -282.30405512460657746
   43300    276.17063    4.7248969    55.145329    -157.1758   -806.69643    14806.238 
   43310    287.66617    5.8860457     53.47752    -155.7075   -1697.7405    14806.238 
   43320    290.75284    4.9728348    54.099911    -153.4435    819.74996    14806.238 
   43330    301.25636    6.1355098    58.093786   -150.12088   -1532.3721    14806.238 
   43340    313.10009    7.4788391     57.34568    -146.0063   -339.52795    14806.238 
   43350    285.38834    8.8332425    64.618245   -140.76439    40.854185    14806.238 
   43360     302.4872    9.9209571    58.324722   -133.77465    1048.1701    14806.238 
   43370    332.08348    8.2209413     58.32738   -125.00019    1157.6531    14806.238 
   43380    351.32465    7.8814265    62.053878   -118.48264     2018.081    14806.238 
   43390    355.51216    10.408125    66.266703   -115.65376    349.75815    14806.238 
43400        0.97849732462521532561 10.116587872744414511 0.99735449735449732689 71 -269.05745523131685104
   43400    338.17879    10.822474    67.187841   -115.83435    698.85488    14806.238 
   43410     334.0988    13.800467     59.41203   -117.62255   -303.04077    14806.238 
   43420    316.73388    10.772119    61.249229   -119.81695   -1007.7055    14806.238 
   43430    344.40905    8.2971409     63.33184   -122.22903   -2262.3046    14806.238 
   43440    344.55804    8.3666832    59.428397   -125.74296   -2981.4736    14806.238 
   43450    330.14528    13.572933     54.67987   -130.31619   -933.85344    14806.238 
   43460    288.23397    13.539156    65.484542   -134.84798    2651.8058    14806.238 
   43470    310.28451    8.8655825      55.2855   -138.78588    1767.7548    14806.238 
   43480    283.95085    8.9544047    59.652458   -142.26052   -158.33968    14806.238 
   43490    304.33858    5.9658402    59.283275   -145.14091    -163.2838    14806.238 
43500        0.98142186363439931629 10.122570062113222633 1 71 -280.9197742519362464
   43500    293.59958     5.347769    55.785971   -147.89476    1807.4279    14806.238 
   43510    282.52422    6.2128338    55.797084   -150.08834    1283.6755    14806.238 
   43520    302.54366    8.6648803    53.037935   -152.02569   -889.43365    14806.238 
   43530    307.61225    8.2538243    53.399038   -154.04445   -3925.2087    14806.238 
   43540    308.31253    9.0010183    50.688826   -156.68169   -50.401675    14806.238 
   43550    264.10791    10.133045    58.081811   -158.91236    352.55678    14806.238 
   43560    280.29052    11.358476    46.650161   -160.15659    1751.8585    14806.238 
   43570    283.90724    10.562762    51.898359   -160.68855    132.29725    14806.238 
   43580    288.32129    9.4291074    51.567719   -160.61456   -387.08123    14806.238 
   43590    292.05047    8.6278635    48.062767   -159.95055    1850.2641    14806.238 
43600        0.98204392297362663733 10.132885013381498496 1 69 -291.37026449058271282
   43600     293.0202    7.3839466    51.639554   -158.60776    2341.4858    14806.238 
   43610    282.95446    6.8152484    56.158553   -156.51096    146.09049    14806.238 
   43620    312.24678    6.8594492    49.915178    -153.4036   -2315.5207    14806.238 
   43630    335.05745    7.1872668    47.285881   -149.49067   -129.88992    14806.238 
   43640    315.63193    6.7375541    56.286319   -146.05217   -1114.9437    14806.238 
   43650    318.15471    6.9985956    49.440277   -142.79072   -66.623998    14806.238 
   43660    303.30536    8.4941059    61.151537   -139.38769   -2202.0643    14806.238 
   43670    323.37919    8.2823599      55.2736   -135.42117    2048.6891    14806.238 
   43680    310.74171    11.218862    64.975142   -131.46072    3655.7574    14806.238 
   43690    298.20628    11.543127     67.45502   -127.49109    2489.8915    14806.238 
43700        0.97774744647574396428 10.162880138746103853 1 69 -269.97736943702886947
   43700    322.69141    8.8174301    63.772589   -123.77134   -930.56327    14806.238 
   43710    318.44149    7.1822564    71.254204    -120.9645   -3040.2945    14806.238 
   43720    324.26764    7.8028449    67.756578   -119.47535   -5371.8961    14806.238 
   43730    347.75891    6.0493921    60.463805   -119.62488   -1464.3399    14806.238 
   43740    313.32738     5.431409    70.292431   -121.79988      2541.34    14806.238 
   43750    335.75719    5.7242791     57.92869    -125.8238    4105.7737    14806.238 
   43760    282.20438    7.1978791    66.596484   -131.86059    535.91885    14806.238 
   43770    306.38735    7.4596979    49.072394   -138.58261    163.69358    14806.238 
   43780    274.54462     5.724433    63.387229   -144.71669   -1472.2518    14806.238 
   43790    299.47939      6.32799    55.141914   -148.70134    3.8855142    14806.238 
43800        0.96830962171881551637 10.197317766109810222 1 70 -280.24651213479984335
   43800    284.06478    7.4294673    55.152992   -151.54155    -706.4368    14806.238 
   43810    299.12196    5.6752805    49.744559   -153.22211   -1265.0741    14806.238 
   43820    296.00688    3.8417879    56.880552   -154.42771   -534.59071    14806.238 
   43830    314.12146    3.4066675    53.769829   -155.43223    1189.3146    14806.238 
   43840    292.53511    5.9288995    59.309631   -156.37938    3351.7294    14806.238 
   43850     287.7437    8.3438603    55.092766   -156.93224   -81.300206    14806.238 
   43860    300.43986     9.913588    51.567472   -156.98378   -2103.8697    14806.238 
   43870    302.90346    8.6720086    56.058433   -157.04685   -1906.4996    14806.238 
   43880    311.34856      10.1755    52.137492   -157.35751    1503.7285    14806.238 
   43890    282.34223    9.0885555    59.930552   -157.84028    829.02425    14806.238 
43900        0.96118227606375372662 10.241244132113463294 0.99735449735449732689 72 -286.65184347912014573
   43900    284.18043    5.8374362     55.02671   -157.89448   -517.89036    14806.238 
   43910    277.38492    8.4622424    53.703363   -157.12306   -651.16662    14806.238 
   43920    281.23351    10.415912    58.015158   -155.46939    943.04559    14806.238 
   43930    294.14294    9.4410484    57.727393   -152.74519     424.2774    14806.238 
   43940     329.1414    8.0484711    51.307815   -148.85944   -3243.8727    14806.238 
   43950    327.43324    7.8775992    53.453293   -144.81945   -1657.2689    14806.238 
   43960    325.80103    5.7225996    57.776161   -140.91138    463.25158    14806.238 
   43970    314.35458    4.2351691    62.145649   -137.71392    3760.2728    14806.238 
   43980     300.8575    4.3062103    59.181005   -134.92821     1032.394    14806.238 
   43990     307.7488    5.1374898    61.605519   -132.27161   -1980.7282    14806.238 
44000        0.96680717754033707045 10.197500541685590392 1 67 -270.10339714696385727
   44000    310.52187      5.25993    63.599932   -129.41118   -2365.8582    14806.238 
   44010    327.00874    6.3799678    59.492798   -126.60664    60.844604    14806.238 
   44020     308.3616    6.8427122    68.007403   -124.23393   -377.90405    14806.238 
   44030    300.59267    8.6450309    56.812603   -122.18041    906.26225    14806.238 
   44040    287.99935    9.1777519    60.396354   -119.95707   -424.23406    14806.238 
   44050    305.84082    9.5478924     61.77932   -116.72685    692.81321    14806.238 
   44060    334.79257    7.3962275    64.217825   -112.28272    1573.5708    14806.238 
   44070    349.96991    6.3666452    65.271875   -107.81834   -897.58855    14806.238 
   44080    353.63752    7.2026436    62.274464   -104.68082   -3809.7354    14806.238 
   44090    374.35096    7.8963179    64.363454   -103.47603   -2248.4242    14806.238 
44100        0.96891502121168249229 10.173322022792918418 1 71 -262.93388352619422221
   44100    348.00692    8.4675688    65.171817   -105.25782    2088.0361    14806.238 
   44110    313.23614    7.9356422     66.84696   -109.73026    3960.0066    14806.238 
   44120     306.6445    7.9211186    69.515906   -116.14176    585.87326    14806.238 
   44130    324.39536    5.5756192    57.141652   -123.24863   -255.32908    14806.238 
   44140     323.5022     5.084847    57.442949   -129.63125    1431.7453    14806.238 
   44150    310.26438    8.3682903    59.601227    -134.1059    1293.9091    14806.238 
   44160    293.41407    11.000901    57.797629    -137.1255   -1129.1138    14806.238 
   44170    299.55229     8.085614    53.677619   -139.12031   -2883.0732    14806.238 
   44180    292.33037    5.8689163    58.752599   -140.70238    913.29442    14806.238 
   44190    309.51731    6.4914988    46.432981   -141.65149    505.19937    14806.238 
44200        0.97298007761030891327 10.147336678205892468 1 66 -283.15704263135938845
   44200    310.57249    6.5535782    53.931247   -142.44189    1434.4557    14806.238 
   44210    314.32063    6.9065219    57.423912   -143.17703    1170.2116    14806.238 
   44220    328.07635     3.458425    50.634824   -144.54951   -352.39138    14806.238 
   44230    306.26297    3.5995467    57.628639   -146.78506   -1082.8193    14806.238 
   44240    327.65758    5.7343578    48.631555   -149.60335    305.08481    14806.238 
   44250    286.88865    7.3400076    54.610377   -152.31868    592.92094    14806.238 
   44260    310.38502    7.4599522    47.378977   -154.67922   -91.014862    14806.238 
   44270    279.87477    6.9069041    55.991655   -157.10281   -2630.6231    14806.238 
   44280    292.13801    7.4254419    46.661207   -159.51439   -1229.9161    14806.238 
   44290    277.26256    7.3551752     57.90958    -161.5697   -279.02753    14806.238 
44300        0.97377144999645182111 10.134964901345268729 1 66 -304.43748253101807677
   44300    311.19823    8.2464707    48.215613   -163.43882     3773.681    14806.238 
   44310    276.26762    6.9269728    55.686493   -165.43533     2057.427    14806.238 
   44320    265.04971    7.9093444    51.646315   -167.07579    2158.8933    14806.238 
   44330    260.88004    5.8765781    59.684439   -168.00242   -1440.1261    14806.238 
   44340    272.96895    4.2066069    52.777249   -168.00123   -1431.4758    14806.238 
   44350    273.00381     4.593411    51.793485   -166.93716   -4251.7528    14806.238 
   44360    285.03853    6.7829914    48.356207   -164.42605   -2925.2208    14806.238 
   44370    289.73804    5.6002911    52.975756   -159.89872   -2177.2131    14806.238 
   44380    292.53386     7.174414    58.898838   -153.80656    3267.5781    14806.238 
   44390    315.53344    9.0132896    52.857411   -146.79841    3894.1235    14806.238 
44400        0.96966001392285028349 10.151351580148116227 1 67 -293.13220111137707136
   44400    335.01862    11.408532    46.357187   -141.34092     2306.295    14806.238 
   44410    310.33321    9.5420488    52.093775   -137.89348   -1015.1828    14806.238 
   44420    309.43495    5.9743813     58.03168   -135.72842   -1763.4996    14806.238 
   44430     290.5748    8.8137244    66.107953   -134.34929   -513.49483    14806.238 
   44440    281.02933    11.221766    63.038473   -133.32772   -544.73764    14806.238 
   44450    305.97667    9.7841671    58.443054   -132.11079    982.06579    14806.238 
   44460    305.86697    7.0617241    56.347099   -130.96891    481.47451    14806.238 
   44470    316.64518    5.3303778     58.02925    -129.8985   -7.9577886    14806.238 
   44480    316.09807    4.3625015    61.058081   -129.21014    2497.9759    14806.238 
   44490    300.95578    5.8567652    62.026296   -128.94338    1341.7322    14806.238 
44500        0.97211406640890807296 10.136474739321693406 0.99470899470899465378 68 -270.57137132717332406
   44500    312.47794    8.6689201    61.139317   -128.99289   -168.62694    14806.238 
   44510    325.86002    8.2518917    60.495126    -129.9355   -2898.1694    14806.238 
   44520    297.38669      6.59887    60.559891   -132.20994   -1040.5244    14806.238 
   44530    292.04285    7.5477318    54.270414   -134.59972   -615.41505    14806.238 
   44540    299.63985    8.4793581    59.928522   -137.09379   -1163.1231    14806.238 
   44550    300.03787    9.4385673    58.880462   -140.25089   -70.143791    14806.238 
   44560    274.03267    9.2081094    62.388612   -144.06391    1320.0607    14806.238 
   44570    278.63704    8.5040806    60.434616   -148.41144    659.74138    14806.238 
   44580    278.99159     8.495174    59.358862   -152.71318    320.78228    14806.238 
   44590    296.42955     6.911868     52.27296   -156.91064   -970.15371    14806.238 
44600        0.97995316777284124932 10.14925982783580416 1 65 -294.24239561125432374
   44600    295.12491     6.929273    54.878502   -160.52628   -1435.6078      15382.9 
   44610    292.63087    7.8056462    46.178797   -163.43327     285.6191      15382.9 
   44620    288.68887    7.1603238     47.40488   -165.08238    2748.7895      15382.9 
   44630    291.08096    8.6877326    50.113699   -166.03184    1335.8151      15382.9 
   44640    281.28809    8.4732499    51.457959   -166.45993   -2201.7854      15382.9 
   44650     285.4611    6.4481806    49.384064   -166.16942    -2713.222      15382.9 
   44660    287.19836    7.3455642    52.146686   -165.27726    1835.8166      15382.9 
   44670    293.97821    5.9681352    52.301205   -163.96718    1374.6514      15382.9 
   44680    285.71799    3.8285722    52.969982    -162.5302    941.17817      15382.9 
   44690    280.75867    2.9906257    56.611321   -160.93744   -860.48666      15382.9 
44700        0.98354702740900201707 10.141217414123984142 1 65 -291.95342495589261489
   44700    292.54129    4.5386097    54.514538    -159.4079    1678.3246      15382.9 
   44710    302.73748    7.0251987    58.951163   -158.22539    1370.1017      15382.9 
   44720    312.25471    7.7529634    51.673872   -157.35632   -1594.1164      15382.9 
   44730    286.85419    8.3763537    62.605579   -156.91079   -2819.6193      15382.9 
   44740    287.72781    7.5327089    52.954476   -156.40522   -1175.1492      15382.9 
   44750    296.32282    4.8527231    57.870656   -155.67286    243.86312      15382.9 
   44760       298.64    4.4808406    61.388242   -154.70855    2385.8135      15382.9 
   44770    288.02955    5.0366349    56.583763   -153.82607   -170.35721      15382.9 
   44780    291.92333    7.3680577    55.754348   -152.83702   -717.14597      15382.9 
   44790    303.67525    10.212516    56.376108   -151.29422   -226.91571      15382.9 
44800        0.9816201762385354801 10.159573157225809226 1 67 -293.78532475325283713
   44800    318.24413    12.347314    54.257906   -149.59428     121.4381      15382.9 
   44810    312.42736    13.741211    59.179494    -148.2477    110.92357      15382.9 
   44820    316.17756    12.741638     55.78038   -147.65544   -2590.3873      15382.9 
   44830     326.7422    11.641521    54.657623   -147.74489   -1792.2274      15382.9 
   44840    317.72507    12.604883    54.589873   -148.79171    815.13748      15382.9 
   44850    324.90219    11.767078    51.091529   -150.76612    2712.3385      15382.9 
   44860    296.64121    9.0854384    58.506562   -153.62227    1344.4937      15382.9 
   44870    315.24174    9.1384367    52.420355   -157.69527   -534.74849      15382.9 
   44880    283.28838    8.5566228    61.419146   -163.32081   -2010.0757      15382.9 
   44890    283.12257    7.2363985    51.043493   -168.77598    64.493001      15382.9 
44900        0.98063096342015809714 10.145938343562107775 1 66 -287.00975188809849215
   44900    252.19641    7.2690084    51.403993   -172.74381    1095.3436      15382.9 
   44910    263.02313    7.3257267    52.803761   -174.98124     2549.218      15382.9 
   44920     274.1728    7.8992694    51.406815   -175.90252    753.98575      15382.9 
   44930    274.16622    6.3716115    49.843496   -175.83686    1126.9383      15382.9 
   44940     260.7726    5.6128287    57.448276   -174.82922   -1958.8793      15382.9 
   44950    264.90573    6.0009589    61.558027   -172.95664    -2701.676      15382.9 
   44960    304.60595    5.6145733    49.172375   -170.58867   -2526.6189      15382.9 
   44970     312.2598    5.9198412     53.86649   -168.36472    233.50538      15382.9 
   44980    298.01179    6.0287109    59.148693     -166.912    2559.1993      15382.9 
   44990    292.50662    6.1544422    51.156091   -165.74562    730.35085      15382.9 
45000        0.98059231437805605136 10.160404165562704648 1 66 -295.0314548076357255
   45000    287.94504    7.1479698    54.478798   -164.56841   -218.11054      15382.9 
   45010    296.77878    10.461762    54.189872   -163.14795   -447.45723      15382.9 
   45020    286.58828    10.419557    55.940702   -161.79314   -2422.4835      15382.9 
   45030    285.97689    6.9168866     57.71193   -160.70711    1533.6993      15382.9 
   45040    290.89101    6.2878336    63.614492   -159.83272    634.08117      15382.9 
   45050    289.73566    8.2061205    55.251105   -158.98914    779.34298      15382.9 
   45060    271.64378    9.0849657     64.25008   -157.93905   -1279.0187      15382.9 
   45070     282.0265    8.5259796    59.782402   -156.58547   -373.42542      15382.9 
   45080    271.99216    8.1951242    63.071115   -155.07802    -200.8502      15382.9 
   45090    302.41132     8.900987    46.246357   -153.15195    13.021981      15382.9 
45100        0.98494074046624502383 10.153116003117734323 1 70 -277.15656340721403694
   45100    278.12566    7.0287632     61.96058   -151.14252   -1570.6465    15364.144 
   45110    314.34216    5.8867316    57.687567   -149.12153    3638.7553    15364.144 
   45120    314.59714    5.7019445    61.783422   -147.87438    396.38419    15364.144 
   45130    323.31114    6.2863959    52.691589   -147.55748   -633.75425    15364.144 
   45140     306.4099    6.7183212    65.200779   -147.84039   -2832.4078    15364.144 
   45150    331.07676    6.2802475    62.530929   -148.68858   -1270.7852    15364.144 
   45160    315.21676    10.364031    53.598399   -150.34647    358.47111    15364.144 
   45170    295.88437    10.835891    55.202751   -151.86218    422.39164    15364.144 
   45180    278.22042    10.214517    61.743966   -152.83297     753.9753    15364.144 
   45190    291.72248    8.4326868    61.625306   -153.22063    676.03741    15364.144 
45200        0.99053837605994765614 10.114205078541242955 1 67 -293.46352495737806976
   45200    309.45197    7.7649484    48.953305   -153.25606   -1949.7565    15364.144 
   45210     306.4665    7.8671965    53.184297   -153.10948    -1178.113    15364.144 
   45220    291.55095    8.1219051    63.858955   -152.73363   -1411.5279    15364.144 
   45230    310.83053    6.0366372    55.225768   -152.32447    4449.6956    15364.144 
   45240    311.53852    7.1106157    65.769695   -152.25326    2412.5642    15364.144 
   45250    289.56858    6.5629862    57.055017    -152.6677    128.58138    15364.144 
   45260    288.26643    7.8444088    56.287238   -153.27279   -2892.7807    15364.144 
   45270    313.97193    8.6284602    54.832351   -154.11163   -1152.3122    15364.144 
   45280    301.67782    7.3895771    64.520012   -155.83237    1157.6423    15364.144 
   45290    313.80387     9.361957    58.831392   -158.67856    2622.2479    15364.144 
45300        0.99224589859728340446 10.089672919366476478 1 67 -299.65348975807887655
   45300    303.09355    11.480809    60.238016   -162.32691   -640.59261    15364.144 
   45310    310.63892    10.802753    51.560119    -166.6897    1024.3103    15364.144 
   45320    267.76104    9.6747122     59.51542   -170.77469   -70.056831    15364.144 
   45330    297.47322    10.284994    49.597496   -173.92306      1056.54    15364.144 
   45340    245.35202    11.241001    58.711359   -176.33474   -1540.8251    15364.144 
   45350    256.81322    8.5792336    52.037851   -177.24339    1170.9609    15364.144 
   45360    253.48226    6.8269459    61.475966   -176.68858   -200.14297    15364.144 
   45370    284.32235    6.5103241    57.271891   -174.96754    -628.8642    15364.144 
   45380     277.4765    7.7371374    54.249659   -172.47632    -1836.859    15364.144 
   45390    280.92461    9.0672139    47.377054   -169.38237    1949.3389    15364.144 
45400        0.98668613704052388069 10.108553728951227058 1 67 -291.55442270437384877
   45400    278.12147    10.072882    54.359045   -165.54228    2098.1831    15364.144 
   45410    302.83457    10.727854    52.913214   -160.76184    1331.7421    15364.144 
   45420    289.84578    9.0412501    59.377317   -156.15585    423.80723    15364.144 
   45430    290.90092    7.7291633    58.476035   -152.48639   -1528.7987    15364.144 
   45440    302.05418    6.0902507    63.186003   -149.49549   -710.46149    15364.144 
   45450    311.01385    5.0572344    53.772332   -147.39076    236.61772    15364.144 
   45460     304.7093    3.6443386    59.038346   -145.71604    1376.6094    15364.144 
   45470    321.89301    3.4572329      54.7983   -144.24172   -1502.1318    15364.144 
   45480    301.51086     4.799703    57.498281   -143.20591   -1373.7008    15364.144 
   45490    289.55436    7.3914133    62.015232   -142.63003   -510.62276    15364.144 
45500        0.97931615286702333734 10.123862560859222981 1 68 -274.45875358357199048
   45500    292.16035    7.1720858    61.134665   -142.08583    1428.0365    15364.144 
   45510    308.44784    7.9627017    55.677753   -141.42575    458.79091    15364.144 
   45520    311.23811    6.5348805    58.768028   -141.01525   -1920.2654    15364.144 
   45530    282.03357    7.2932604    59.748957   -141.04706    100.41536    15364.144 
   45540    289.18049    7.2677533    65.337166   -140.87849     2600.969    15364.144 
   45550     320.3772    8.6457566    52.950194   -140.48207    1880.9393    15364.144 
   45560    307.24582    7.7972542    61.104616   -140.45249    3097.0093    15364.144 
   45570     323.4146    7.1871325    54.281351     -140.877   -522.17653    15364.144 
   45580     306.8751    5.3642473    58.174413   -141.97242   -907.04671    15364.144 
   45590    298.75748    2.6769172    62.942821   -144.00909   -1992.8201    15364.144 
45600        0.9700741505504708595 10.193372375487795622 1 71 -273.83175711956397436
   45600    279.97712    2.3595477    70.350088   -146.97885   -2359.3941    15364.144 
   45610    295.23723    4.7960934    60.968129   -150.78411     -2052.64    15364.144 
   45620    292.35216    5.1871958    56.989967   -155.28668   -1172.3971    15364.144 
   45630    274.53841    5.8244173    58.056707   -159.75514    70.308728    15364.144 
   45640    274.26382    6.6397081    49.754634   -163.25404    1345.7098    15364.144 
   45650    260.05387    7.8076391    55.594721   -165.30328   -402.76022    15364.144 
   45660    288.17392    6.1442991     41.42534    -165.9742    514.39649    15364.144 
   45670     283.2306     4.537075    56.117764   -165.54456    2163.6104    15364.144 
   45680    286.89814    5.2903117    52.698815   -164.35584     305.4933    15364.144 
   45690    255.72276     7.092272    59.980109    -162.6315   -93.783245    15364.144 
45700        0.957114775218877889 10.237618477325501232 0.99735449735449732689 68 -276.28400763615252345
   45700    256.99484    9.0340834    58.680613   -159.84398   -1856.0235    15364.144 
   45710    293.67635     7.274899    44.436227    -155.7747   -2966.9657    15364.144 
   45720    300.23016    6.0707646    50.641516    -150.7702   -3677.2342    15364.144 
   45730    281.93039    9.2715359    57.352093    -146.2551   -998.65044    15364.144 
   45740    270.49115    11.261575    66.336662   -142.57801    2175.8754    15364.144 
   45750    285.27427    9.8019621    54.424475   -139.75662    2341.3631    15364.144 
   45760    289.49219    7.1012289    60.414025   -137.59357     1384.643    15364.144 
   45770    293.28127    7.6151322    65.680508    -135.7908    2282.0012    15364.144 
   45780    298.30055    11.720134    61.392116   -134.32437    4.7853517    15364.144 
   45790    322.15457    11.023416    55.405918   -133.06031    765.43657    15364.144 
45800        0.96095584130023359304 10.20402000916634222 0.99470899470899465378 70 -276.32815181464951593
   45800    317.88768     7.663679    57.061982   -132.29861   -134.86629    15364.144 
   45810    293.70028    6.6784672    59.454452   -132.05131   -2383.8253    15364.144 
   45820    294.44811    5.2214734    61.171753   -131.95471   -2245.5777    15364.144 
   45830    322.56187    4.0325095    59.054252   -132.06102     1203.957    15364.144 
   45840    326.48757    4.5510699    56.940305   -132.86149    1556.9863    15364.144 
   45850    310.36577    4.7906294    57.189974    -134.6414   -211.02055    15364.144 
   45860     296.7361    6.3635729    62.264284   -136.97482   -1900.0007    15364.144 
   45870    312.56598     8.569967    53.484005   -139.76202    1068.0709    15364.144 
   45880    310.47798    8.6017297    55.798364   -142.87391      2566.17    15364.144 
   45890    302.03488     9.955087    55.294771   -146.58971   -1244.4024    15364.144 
45900        0.96866678941411121784 10.204273550159447481 0.99735449735449732689 69 -279.66521973394509359
   45900    285.52771    7.6564086    57.895832   -150.29743   -699.87428    15364.144 
   45910    302.89659    6.4068687    57.985903   -153.95746    249.48556    15364.144 
   45920    299.08121    6.4637569    53.625981   -157.35678    620.83494    15364.144 
   45930    292.20097    8.0029038    53.082097   -160.33876   -1276.8282    15364.144 
   45940    296.61235    7.3725309    54.914932   -162.99337   -1602.5558    15364.144 
   45950    306.27196    8.6167036    55.056725   -165.34444     -421.802    15364.144 
   45960    309.20801    9.0400536    47.074826   -167.40467    684.86631    15364.144 
   45970    282.73628    8.2619995    48.314465    -168.7643    1523.8729    15364.144 
   45980    276.64101    5.2028907    53.109215    -169.1119    724.26394    15364.144 
   45990    270.50494     3.139424    53.835827   -168.57434   -601.56559    15364.144 
46000        0.97656314120124021461 10.173844371214228133 1 73 -299.02813700506067107
   46000    290.28681    3.7513604    55.435997   -167.50408   -1830.0468    15364.144 
   46010    283.86558    7.4628191    49.511766   -166.45931    -449.8169    15364.144 
   46020    275.38711    7.7209852    60.073324   -165.46446   -1866.2256    15364.144 
   46030    282.22136    10.060582    53.068677   -164.11346    1180.3664    15364.144 
   46040     299.8748    13.331409     50.81584   -162.40229   -832.68156    15364.144 
   46050    300.71933    14.273706    49.004423   -160.76897    3548.9887    15364.144 
   46060    291.37139    9.3474851    59.108173   -159.31254    1017.9626    15364.144 
   46070      289.523    7.2822569     57.24627   -157.99034    1874.2158    15364.144 
   46080     279.1078    7.5795213    64.231838   -156.79774   -1122.8661    15364.144 
   46090    291.02617    8.4698918    60.878192   -155.38555    719.08767    15364.144 
46100        0.97222400043148360371 10.181824397821022998 1 71 -289.0283930951001139
   46100    298.49806    7.9716409    53.105151   -153.78396    279.97118    15364.144 
   46110    275.92681    7.2888146    62.508981   -151.99685    279.71533    15364.144 
   46120    289.38275    7.0903895    58.698817   -149.87949   -1480.4896    15364.144 
   46130    296.87649    7.4450854    57.265922   -147.76818    -1977.117    15364.144 
   46140      314.789     4.512492    53.921652   -145.54403   -2087.0976    15364.144 
   46150    329.55882    4.9093306    57.839564   -143.68284    2385.5834    15364.144 
   46160    300.08319    8.8101693    62.409481   -142.44998    1541.9053    15364.144 
   46170    305.22126    9.2444042    57.625474   -141.55052    959.24383    15364.144 
   46180    300.19891    9.2972353    60.912194   -140.57046   -320.76946    15364.144 
   46190    320.19751    7.3415868    56.745146   -139.43771    1591.5369    15364.144 
46200        0.96597832001598482599 10.198658613808746054 1 72 -277.63614231278899069
   46200    307.46505    6.6839096    53.670624   -138.32892    1006.4589    15364.144 
   46210    300.23539    6.3817047    58.078107    -136.8677    -2625.475    15364.144 
   46220    327.16388    4.7231366    57.926865   -134.27007   -1875.6125    15364.144 
   46230    330.00716    4.8758958    61.874959   -130.78401    1668.7072    15364.144 
   46240    328.88395     7.614716    65.307199    -127.2121    897.04913    15364.144 
   46250    298.86883    11.793277    81.114758   -124.09609   -459.27096    15364.144 
   46260    321.73719    13.169151    61.385985   -121.42398   -1375.9851    15364.144 
   46270    308.13929    12.462755    71.347803   -119.41786    1248.4633    15364.144 
   46280    324.26665    8.1570618     59.41475   -117.90622    686.83541    15364.144 
   46290    314.27398    5.5675142    67.757135   -116.99617   -1802.8551    15364.144 
46300        0.96149571775937214824 10.222214259386943169 0.99470899470899465378 72 -265.31539133833882715
   46300    327.75415    4.5373015    67.925572   -116.81551   -2233.5375    15364.144 
   46310    320.08931    6.3735679    67.504277    -117.8197   -2853.4543    15364.144 
   46320    333.47894    6.9830319    63.979255   -120.55494    1774.8476    15364.144 
   46330    302.70366    5.1634321    69.425199   -125.19656    786.92288    15364.144 
   46340    294.78205    4.5923793    55.710077   -129.70016    1961.2049    15364.144 
   46350    310.92679    4.8657633    51.596003   -133.66767   -807.21394    15364.144 
   46360    293.03929     3.978488    68.915279   -137.01244      1000.85    15364.144 
   46370    308.66461    3.2961832    56.655214   -140.16741    1133.2479    15364.144 
   46380    295.37243    3.1362354    59.873854   -142.87558   -1000.6408    15364.144 
   46390    308.21799    4.9599085    53.350706   -145.22231   -158.79367    15364.144 
46400        0.9653292470803762626 10.210786337912436395 1 68 -286.09832570144880037
   46400    306.37689    4.8806971    60.482275   -147.28413   -217.67035    15364.144 
   46410    312.39612    4.5811155    55.644806   -149.30758    454.39564    15364.144 
   46420    297.60412    5.1361605     57.65793   -151.35443    -1115.628    15364.144 
   46430    287.43121    5.7935819    54.984022   -152.86207   -1519.5135    15364.144 
   46440    279.07056    4.8706131    57.232011   -153.82128   -1995.2501    15364.144 
   46450    267.15834    4.8649549    55.104255   -153.93104    1859.7768    15364.144 
   46460    291.19328    6.5577936     55.15361   -153.21251   -432.74352    15364.144 
   46470    293.21418    8.0967645    57.642745   -152.05007   -604.35319    15364.144 
   46480     309.8821    8.4047886    57.705543   -150.77864   -442.29543    15364.144 
   46490    276.03736     9.685486    62.804492   -149.62329     2926.585    15364.144 
46500        0.97116361364259895517 10.19041882459076831 1 70 -285.74319465939618112
   46500    304.02029    11.713937    57.570369   -147.99673   -322.75675    15364.144 
   46510    306.68696    14.763682    53.396968   -146.20513   -731.24269    15364.144 
   46520    307.95459    11.689064    59.691178   -144.21459   -1823.8358    15364.144 
   46530    314.67047    11.191978    54.511595   -142.04619    47.497306    15364.144 
   46540    304.53351    8.2331297    64.262479   -139.33291   -546.52077    15364.144 
   46550    328.26851    5.9001446     62.93917   -135.35444    1922.5822    15364.144 
   46560    342.73879    3.5407313    59.918686   -130.34742   -1429.2062    15364.144 
   46570    351.48647    6.8580991    65.165934   -124.52314    1073.8724    15364.144 
   46580    347.32922    10.104928    62.022418   -119.47781    1867.3154    15364.144 
   46590    356.60381    11.831425    55.609637   -115.65966     914.5595    15364.144 
46600        0.97960632206459086202 10.151293832298758701 1 68 -259.57320376842358201
   46600     322.0548    10.512877    73.079507   -113.65561   -1621.9359    15364.144 
   46610    351.75568    8.5871336    53.276273   -112.47831   -774.97895    15364.144 
   46620    332.54777    7.8058467    68.652119   -112.54208    182.89307    15364.144 
   46630    356.08888    7.1110075    56.625473   -114.23973   -207.25954    15364.144 
   46640    303.54249    5.0765061    74.179193   -117.90181   -456.23693    15364.144 
   46650    332.14829    4.3939273    62.069024    -123.0103    768.15953    15364.144 
   46660    308.86562    7.1451625    60.030218   -129.05876    2398.5764    15364.144 
   46670    301.08741    11.003348    60.631997   -134.76309    1833.4066    15364.144 
   46680    290.18111    12.530406    63.447388   -138.94055    173.42907    15364.144 
   46690    307.49877      9.39189    51.994212   -141.77617   -1441.0427    15364.144 
46700        0.98442480902873552573 10.117410355037902647 1 73 -275.33405161186476562
   46700    290.56129     7.226746    63.469142   -143.68563    146.88459    15364.144 
   46710    278.71479    6.2626541    63.614171    -144.8611   -1230.8557    15364.144 
   46720    293.16571    6.5690687    59.631343   -145.74319    83.753332    15364.144 
   46730    304.71917    7.1708167    61.586041   -146.67179    310.39912    15364.144 
   46740    320.64083     7.966715    51.809536   -148.08186    1045.1417    15364.144 
   46750     288.8481    6.7777762    64.132096   -149.84218    268.84566    15364.144 
   46760    296.30554    4.9216801    55.924651   -151.28505    338.36243    15364.144 
   46770    276.54544    3.7908932    63.065067   -152.29788   -2723.8881    15364.144 
   46780    313.37101    3.8630652    53.494747   -153.15139    1296.5357    15364.144 
   46790    276.38705    6.3648643    55.109673    -154.1593   -624.24183    15364.144 
46800        0.98479902176008726755 10.120047042124250325 0.99735449735449732689 71 -287.54153867511541876
   46800    293.15514    11.267619    51.068155   -154.71789   -815.04362    15364.144 
   46810    303.12271    12.658636    53.230757   -154.71424    -2051.395    15364.144 
   46820     312.3546    10.994982    50.258272   -154.60064   -385.48229    15364.144 
   46830    299.97525    7.0803595    54.352307   -154.50851     1836.829    15364.144 
   46840    295.38964    5.3844161     56.62239   -154.15739    677.48025    15364.144 
   46850    289.07784    5.1259585    58.620953   -153.23808    2017.6603    15364.144 
   46860    285.92455     3.504052    55.240513   -151.42947    446.63212    15364.144 
   46870    285.11631    3.5234711    58.714565   -148.71581    409.58292    15364.144 
   46880    297.42734    5.4820824    57.126553   -144.88043   -874.91593    15364.144 
   46890    303.35745    7.7933002    55.514281   -140.75031   -1861.9768    15364.144 
46900        0.98131220810740860117 10.135208659758006888 0.99735449735449732689 71 -279.94292482477140993
   46900    316.79161    8.7568044    56.399026   -136.40999    -516.1134    15364.144 
   46910    319.85612    10.403334    56.034146   -132.50349    271.00401    15364.144 
   46920    300.59416    11.100149    65.481166   -129.06883    2452.2609    15364.144 
   46930    289.89116    11.501789    60.780513   -126.31288    449.94823    15364.144 
   46940    308.17318    10.498201    67.063286    -123.9086   -494.33748    15364.144 
   46950    313.41548    7.3529704    63.852879   -122.24772   -2592.9226    15364.144 
   46960    312.90926    7.6068557    64.644865   -121.53748    91.897559    15364.144 
   46970     313.9411    6.5209933    64.227058   -121.70281   -317.65564    15364.144 
   46980    310.16536    7.4958977    65.561377   -122.66634    391.04183    15364.144 
   46990    305.52963    9.1224423    57.748251   -124.15405   -990.71846    15364.144 
47000        0.9739302843752315475 10.134790886760475459 1 70 -256.76260252156856723
   47000     289.1801    9.4359625    56.805616   -125.73998    1662.0615    15364.144 
   47010     327.0693     8.786018    55.390044   -127.30327    2818.3275    15364.144 
   47020    323.69701    8.1548568    54.637403   -129.78884    -324.0445    15364.144 
   47030    318.81466    6.6890535    56.894677   -133.98171   -860.02675    15364.144 
   47040    277.72166    6.1370502    64.322938   -139.30612   -806.35789    15364.144 
   47050    283.14541    5.8350778    57.269778    -145.0247    494.22126    15364.144 
   47060    288.46542    5.6895401    61.248547   -149.86722    484.29459    15364.144 
   47070    314.00799    3.7023772    49.355383   -153.90865   -437.69048    15364.144 
   47080     307.3005    4.2832815    46.187131   -156.85406    1596.3611    15364.144 
   47090    298.47747      5.07728     55.44839   -159.00841   -27.244892    15364.144 
47100        0.98115533185322745258 10.136719247345192585 1 66 -289.84720278447093733
   47100    285.92208    5.6293669    56.556801   -160.30073    159.98342    15364.144 
   47110    292.21464     5.674227     50.28193   -160.97571   -1477.7168    15364.144 
   47120    295.43398    4.6978058    52.682434   -161.42791   -1852.2712    15364.144 
   47130    286.41669    3.6067932     50.86021   -161.64528   -548.27969    15364.144 
   47140    266.38025    4.9499139    53.907557   -161.31084    1729.8403    15364.144 
   47150    251.66945    5.6428343    60.593159   -160.02705   -689.15236    15364.144 
   47160    269.09162    7.0476211    55.180907   -157.74636   -711.75342    15364.144 
   47170    270.32609     6.422668    56.920726   -154.79019   -2694.6168    15364.144 
   47180    290.49009    8.1552822    49.103627   -151.18144    946.74865    15364.144 
   47190    284.67308    10.942739    58.886696   -147.39126    4361.2012    15364.144 
47200        0.98271114993448138719 10.141416613950209324 0.99735449735449732689 70 -282.64611465681889513
   47200    306.37032     8.934858     64.73328   -143.83489    2135.2845    15364.144 
   47210    325.81836     6.900818    62.218603   -141.32911   -71.850167    15364.144 
   47220    310.93697    6.2409616    55.197425   -140.47613   -4622.2194    15364.144 
   47230    286.14072    7.2582908    63.466891   -140.38112   -2382.4163    15364.144 
   47240    288.02118    8.2827027    62.727071    -139.9257   -1188.7141    15364.144 
   47250    323.93609    7.7015801    50.427295   -139.36495    106.59533    15364.144 
   47260    304.77811    9.4940113    55.956295   -139.46971     2005.721    15364.144 
   47270    306.12423    8.4787234    58.689775   -140.01186    3018.1929    15364.144 
   47280    293.63554    5.8196386    63.966572   -140.72966    3793.0995    15364.144 
   47290    325.41533    5.8996871    52.346101   -141.67107   -564.88068    15364.144 
47300        0.98146819628025516735 10.146737539167633102 0.99470899470899465378 69 -279.27449042786940936
   47300     300.4981    6.6406864     61.87282   -143.12387   -3513.9809    15364.144 
   47310    303.54195    5.6740104    59.614399   -144.68253   -2061.7606    15364.144 
   47320    307.35933    6.3916734    52.818094   -146.42781   -1938.6019    15364.144 
   47330    299.41906     6.520283    61.282858   -148.71511    1279.7912    15364.144 
   47340    304.01743    6.8740178    55.882924   -152.03172   -700.05912    15364.144 
   47350    278.75409    6.2810274    55.658258    -155.9086    721.78385    15364.144 
   47360    285.16405    6.3885133    51.442279    -160.2886    1922.2006    15364.144 
   47370    272.61942    7.3624193    57.942997   -164.58837    1030.9572    15364.144 
   47380    287.38987    9.4619983    53.179053   -168.85682    1813.8846    15364.144 
   47390      272.687    10.565395    52.083615   -173.10988   -2314.2832    15364.144 
47400        0.98193283444601198173 10.128774690549052551 0.99735449735449732689 64 -304.59373830082500945
   47400    282.09381    10.007742    44.369777   -176.78179   -1671.1009    15364.144 
   47410    269.79765    8.9139873    54.436346   -179.72756   -16.151372    15364.144 
   47420    287.09578    7.7556063    49.971255   -181.64386    733.01114    15364.144 
   47430    258.26711    7.0251119     50.94704   -182.72648    130.85511    15364.144 
   47440    280.49612    6.6694916    48.298148   -182.76506    -882.2982    15364.144 
   47450    269.78941    8.9759125    53.097654   -181.83828    1410.0525    15364.144 
   47460    280.72925    9.1034847    49.306936   -179.91213    471.81088    15364.144 
   47470    259.96732    9.0057685    54.015926   -176.40287    1523.2672    15364.144 
   47480    273.04864    6.6518745    58.985164   -170.27053    108.63306    15364.144 
   47490    296.59185    5.3653155    56.655588   -160.96249   -94.769453    15364.144 
47500        0.97615955993860992201 10.156009419960350115 0.99470899470899465378 70 -293.62614107219559401
   47500    310.21843    4.9030943    57.659741    -153.0714   -841.61682    15364.144 
   47510    281.79238    5.7390759     66.73771   -149.14082   -931.39848    15364.144 
   47520    289.84836     4.138896    53.471978   -147.22621   -716.94343    15364.144 
   47530    286.02533    5.1013862    62.170717   -145.54704   -56.316744    15364.144 
   47540    319.09476    7.2236212    49.866325   -143.97109    161.41949    15364.144 
   47550    294.49473    10.176984    60.949965   -142.69913    371.81108    15364.144 
   47560    295.01843    7.3418702    62.547505    -141.3022    824.96454    15364.144 
   47570    283.56541     4.127352     60.21745   -139.85715   -796.74099    15364.144 
   47580    295.46652    2.7522739    66.214061   -138.23022   -3023.6263    15364.144 
   47590    315.94357    3.5064678    56.732605   -136.66293   -2348.7916    15364.144 
47600        0.97314545176547417871 10.158222127838776316 1 68 -279.63327237089958999
   47600    318.41249    4.8917881    58.483779   -135.36594   -1979.5756    15364.144 
   47610    320.99007    7.4797656    51.620873   -134.19879    1873.2746    15364.144 
   47620    294.18698     10.93789    55.307319   -132.99165    2053.7767    15364.144 
   47630    326.94433     10.66158    56.723006   -131.45201    4724.6002    15364.144 
   47640    313.99511    5.2601979    62.731017   -130.44213    932.27667    15364.144 
   47650     315.9401    4.3917012    48.920512   -129.78237   -64.460255    15364.144 
   47660    303.99684    5.6391616    64.303133   -129.25347    470.24914    15364.144 
   47670    328.45525    6.1503641    66.202984   -128.90834    418.57127    15364.144 
   47680    326.48505    6.1774812    56.431192   -129.49373   -3162.3064    15364.144 
   47690    303.50161    6.6319986    54.765679    -130.8446   -2556.5905    15364.144 
47700        0.96970534957868570469 10.149623741527770804 1 68 -270.11433534428061876
   47700    304.61565    7.0430497    52.938908   -132.09813    -1030.488    15364.144 
   47710    308.59152    6.2189003    58.535785   -133.52355    2960.0911    15364.144 
   47720    269.12937    5.9757344    69.933023   -135.36815    2232.6213    15364.144 
   47730    301.87192    5.3266787    59.349263   -137.12958     2107.211    15364.144 
   47740    302.92434    5.6622542    58.799853   -139.44932     570.5059    15364.144 
   47750     308.6064    6.9316154    56.208806   -142.37033   -1384.5213    15364.144 
   47760    282.91612    7.4695019    57.078146   -145.51147   -1861.0171    15364.144 
   47770    311.38545    7.3427911    54.375718   -148.79061   -1768.1422    15364.144 
   47780    256.83981    5.4882028    65.166954   -152.66966    14.546637    15364.144 
   47790    266.75598    4.7708801    61.090438   -155.97871   -1157.6174    15364.144 
47800        0.9687299661096147041 10.169810396746617798 0.99735449735449732689 69 -284.40453231459628114
   47800      277.622    5.2653113    57.187249   -158.61869   -1230.2647    15364.144 
   47810    305.88665    6.3305529    53.111137   -160.95603   -943.52062    15364.144 
   47820    292.79736    8.1258083    52.227324   -163.10235   -164.36433    15364.144 
   47830    300.34524    10.571647    58.032554   -165.10752    791.54487    15364.144 
   47840    286.01338     12.43058    54.598731   -167.38962    2092.3786    15364.144 
   47850    265.56349     10.01902     58.05026   -169.32552     842.2401    15364.144 
   47860    287.69364    7.0371851    50.060353   -170.58905    1116.4363    15364.144 
   47870    270.21684     5.129586    52.630492   -171.15915   -1509.7199    15364.144 
   47880    274.53162    4.9727523    45.141223   -170.91098     599.1231    15364.144 
   47890    277.20947     6.036986    51.529828   -169.53132    416.08602    15364.144 
47900        0.96487992560269741915 10.182128637547961603 0.99735449735449732689 70 -292.8447218897069888
   47900    279.64882    6.1272909     55.35353   -166.14056   -518.71883    15364.144 
   47910    297.70073     8.401656    57.955023   -159.92697   -779.08193    15364.144 
   47920    315.08316    7.3355306    56.326069    -151.8542   -524.76374    15364.144 
   47930    319.64262    7.0135609    56.460577   -144.83747   -828.25979    15364.144 
   47940    339.26022    8.3857681    48.833072   -140.25007    3559.3956    15364.144 
   47950    309.34508    7.5396526    64.662424   -137.76749    1494.1095    15364.144 
   47960    305.29595    7.2520371    57.228907   -136.62063    1412.2092    15364.144 
   47970    304.39644    6.5856814     56.48272   -135.69056   -1029.6349    15364.144 
   47980    328.86407    5.1898906    51.688139   -134.81421    1154.1557    15364.144 
   47990    316.79209    3.4482406    53.292041   -134.20263   -245.98915    15364.144 
48000        0.96635765607216894679 10.190872963698783593 1 67 -277.92274316482115637
   48000     317.5816    3.0229053    61.046293   -134.03188    -1585.833    15364.144 
   48010    310.60139     5.351459    60.417834   -134.77693   -1268.3564    15364.144 
   48020    307.03707    5.2190913    57.803091   -136.14733    -2202.664    15364.144 
   48030    311.02325    4.7174606    58.639653   -137.57361    365.47773    15364.144 
   48040    329.45709    3.2316671    55.958884     -139.679    40.524955    15364.144 
   48050    317.58166     3.346404     55.38209   -142.89558    1913.5344    15364.144 
   48060    308.66455    4.5838423    54.963158   -147.05943   -420.38691    15364.144 
   48070    285.17251    5.9904323     56.10728   -151.50565     -427.795    15364.144 
   48080    263.65535    6.6977977    60.065015   -155.02293    294.86261    15364.144 
   48090    261.18847    6.6595106    53.688167   -157.10957    637.89988    15364.144 
48100        0.96304945644662831583 10.23387178099331507 1 68 -278.97473242979634733
   48100    267.31954    6.1133943    56.250701   -157.85676    294.35493    15364.144 
   48110    287.66786    5.1425896    47.687869   -157.62134    397.30635    15364.144 
   48120    290.65041    3.7313468    48.869027   -156.70593   -3169.0054    15364.144 
   48130    276.58181    3.4251289    54.842222   -155.08634   -2227.0284    15364.144 
   48140    251.01135    3.6585018      60.9475   -152.63711   -685.57977    15364.144 
   48150    284.30004    5.0273611    61.517408   -149.37737    642.97212    15364.144 
   48160    303.48972    6.3916064    55.445869    -146.3295   -210.87288    15364.144 
   48170     293.4115    8.0621305    51.082039   -144.16544    480.27208    15364.144 
   48180     314.0366    7.8071359    45.842245   -142.19208    428.69424    15364.144 
   48190    301.73187    5.5124138     56.14494   -140.41015   -679.43022    15364.144 
48200        0.96950637105414394501 10.201838781083887753 1 73 -263.20996377997505533
   48200    273.78728    6.8842384    58.875676   -139.16157   -32.242766    15364.144 
   48210    288.31693    4.3264427    62.398836   -138.12549   -1006.5507    15364.144 
   48220    305.70195    3.5003405    59.771975   -137.48491    785.77991    15364.144 
   48230     304.1702    3.6767406    56.921385   -137.38268    890.06803    15364.144 
   48240    290.24098    4.5420762    56.859295    -137.4082     1782.289    15364.144 
   48250     279.0852    4.5472665    59.397255   -137.02573   -803.70686    15364.144 
   48260    276.76563    4.2462919    58.860866   -136.05008   -438.84753    15364.144 
   48270     301.9887    6.0210794    61.626909   -134.62738   -74.914308    15364.144 
   48280    303.16399     8.057018    61.486651   -133.11481   -1008.6047    15364.144 
   48290    340.91995    5.2017203    53.714535   -132.21749   -801.23457    15364.144 
48300        0.97778422501921369303 10.13576988096382081 1 66 -270.24998294665817866
   48300    303.62441    6.3521158    67.521147   -132.68289   -597.13368    15364.144 
   48310    299.84146    7.4690982    57.766499   -133.57499    1644.6699    15364.144 
   48320    303.00394    8.5695524    56.744443   -134.43122    1325.3039    15364.144 
   48330    293.62018    9.9483083    60.883762   -135.52546   -49.158463    15364.144 
   48340    306.26883    12.143307    67.130546   -137.67684   -1317.9926    15364.144 
   48350    282.08234    12.331838    65.065368   -141.00787   -1329.0027    15364.144 
   48360    277.53869    10.870721    57.190185   -144.79062   -694.73984    15364.144 
   48370    267.71898    8.4131166    59.459657   -148.21868    1909.8921    15364.144 
   48380    288.09885    7.1007813    53.486833   -151.41803    104.39443    15364.144 
   48390    277.89858    5.4863337      57.8456   -154.34651    697.41166    15364.144 
48400        0.98467202057756131328 10.107164105801999199 1 71 -284.78257096563970663
   48400     282.2231    6.2331748    56.320365   -156.91205   -1517.7285    15364.144 
   48410    294.90906    8.6344108    48.207392   -159.43956   -495.04662    15364.144 
   48420    300.49492    10.512736    51.705044   -161.86827    -1621.706    15364.144 
   48430    298.78332    8.3378476    50.064323   -164.37125    1750.6386    15364.144 
   48440    290.38633    8.6058813    46.481467    -167.1626    356.11498    15364.144 
   48450     280.6281    8.2322861    53.880508   -169.82909    1711.1899    15364.144 
   48460     283.7801    6.8686273    53.914639   -172.29044    1622.6254    15364.144 
   48470    274.84744    8.7997965    46.377351    -174.6079   -601.72292    15364.144 
   48480    262.72256    10.023846     51.01602   -176.72107   -50.287847    15364.144 
   48490    248.81168    9.8662644    53.644705   -178.23807    1047.4974    15364.144 
48500        0.98881107006481883115 10.085614609301829958 1 67 -292.64181437223498961
   48500    251.23938      9.73151    49.980719   -178.80949    70.267044    15364.144 
   48510    289.76472     8.382238    45.433318   -178.00531   -1163.7571    15364.144 
   48520    256.96211    8.5872341    51.900729   -175.50313   -3139.9931    15364.144 
   48530    285.78475    6.3674505    45.225161   -170.98294   -1647.8707    15364.144 
   48540    294.56083    6.5960451    48.477588   -164.86112    1442.0294    15364.144 
   48550     285.3868    7.6507016    47.874562   -159.15768    2453.0139    15364.144 
   48560    276.13646    6.2746999     50.97948   -154.43415    2604.2484    15364.144 
   48570    279.71536    6.2890354    53.089539   -149.82571    1086.7691    15364.144 
   48580    285.91548    7.4485472    53.147604   -145.72004   -578.88778    15364.144 
   48590    288.62132    8.2664377    57.960624    -141.7175    284.66792    15364.144 
48600        0.98162998478110730094 10.084293463107586675 0.99735449735449732689 68 -272.29733957606822514
   48600    295.71193    7.0749143    57.852425   -138.31526    1980.5076    15364.144 
   48610    321.91661    8.4724165    53.447429     -135.057    875.21312    15364.144 
   48620    339.59561    9.8934533    53.103274   -132.46248   -335.69263    15364.144 
   48630     313.5528    11.487431    58.706371   -130.79699   -984.46982    15364.144 
   48640    306.21803    10.714549    62.207576    -129.8091   -1061.6729    15364.144 
   48650    311.26627    8.9743426    60.022754   -129.06206   -2209.5834    15364.144 
   48660     322.5253    6.1836198    50.521425   -128.35053    -1322.312    15364.144 
   48670    306.84345    5.7039344    64.459598   -127.67371   -1564.1339    15364.144 
   48680    312.45313    5.9098932    63.969351   -127.31109    1085.4238    15364.144 
   48690    314.75947    7.7710687    69.645002   -128.03954    807.25221    15364.144 
48700        0.97074376704727627363 10.10221610305229234 0.99735449735449732689 68 -283.72652106907742109
   48700     339.0955    10.029792    49.953172   -130.08807    3227.7321    15364.144 
   48710    312.01097    11.212054    59.068359   -133.17496    1343.7151    15364.144 
   48720    306.16139    9.9937905    58.310871   -136.34526    919.88701    15364.144 
   48730    301.80195    8.1916351    57.576834   -140.06588    -1560.483    15364.144 
   48740    287.26355    6.5828987    60.561193   -143.94639    -221.0528    15364.144 
   48750    276.11907    5.1385992    57.438216   -147.42003   -274.00904    15364.144 
   48760    283.55912    4.3539769    57.299269   -150.03628   -137.02748    15364.144 
   48770    288.54518     8.487262    54.210387   -152.18907   -2659.4212    15364.144 
   48780    273.04775    11.647494    57.423163   -153.68984    105.91484    15364.144 
   48790    269.38919    7.9556757    53.760422   -154.28566   -2234.7139    15364.144 
48800        0.9689907282102542263 10.15047299736417763 0.99735449735449732689 66 -274.15096861251652172
   48800    265.19982    8.7307738    62.542119    -153.9934    779.73498    15364.144 
   48810     275.6019     6.925661    60.842083   -152.97246    298.41148    15364.144 
   48820    266.44784    4.6824024      57.5499   -151.44685    750.47605    15364.144 
   48830    267.20555    5.5136376    60.844427     -149.229    274.20642    15364.144 
   48840    295.78678    4.6570983    55.702013   -145.87786   -779.06866    15364.144 
   48850    343.22367    4.1224537    51.820575   -141.71772   -804.06396    15364.144 
   48860    318.79122    6.7195242    54.496172   -138.13831   -1531.9682    15364.144 
   48870    324.06247    7.0466227     54.58307   -135.26292    -648.6273    15364.144 
   48880    297.39399    8.1386701    61.821315   -132.95603    1606.4374    15364.144 
   48890    320.36699    6.8831827     56.64555   -130.85291     1364.502    15364.144 
48900        0.97540026890390207903 10.130789260955637587 0.99470899470899465378 69 -262.8389265964017909
   48900    295.21022    6.5945079    73.442775   -129.08416    1001.2469    15364.144 
   48910    325.98787    6.9410156    51.949061   -127.55082   -1280.0769    15364.144 
   48920    323.28444    5.7067659    59.586091   -126.20056    359.54282    15364.144 
   48930    337.29568    4.5548647    51.118746   -125.08066    829.42924    15364.144 
   48940     311.9178     5.681209    59.183476   -123.79606   -983.94578    15364.144 
   48950    315.25228    8.0793262    59.163435   -122.08845    1578.7583    15364.144 
   48960    304.28223    10.825173    64.623918   -119.67048    49.146904    15364.144 
   48970    348.63982    12.609011    56.617456   -116.83589    614.22053    15364.144 
   48980     352.5646    9.2694704    62.959336   -114.53005   -773.48272    15364.144 
   48990    333.81725    8.0469953    58.120483   -113.78165   -868.83851    15364.144 
49000        0.98177328505287597693 10.135139662902858504 1 68 -252.29403072396780772
   49000    304.75526    6.0225743    68.800233   -114.21456   -837.28324    15364.144 
   49010    322.57056    5.7270933    59.985159   -115.05073    1084.5703    15364.144 
   49020     337.7152    6.8580475    54.541243   -116.62652   -1151.6916    15364.144 
   49030    326.86137    5.3670665    54.880277   -119.28799   -431.13506    15364.144 
   49040    319.30714    4.8174726    63.359509    -123.0358   -758.24192    15364.144 
   49050    323.18024    10.872243    53.880517   -127.58506    1748.6266    15364.144 
   49060    301.55441    13.558248    56.727255   -132.22196    1633.7152    15364.144 
   49070    299.78215    11.743352    59.642769   -135.96703    898.75736    15364.144 
   49080    280.25823    12.262049    57.194424   -139.06144   -2026.5689    15364.144 
   49090    298.52041    7.4056368    59.772356   -141.56621   -399.79123    15364.144 
49100        0.9900998165748366997 10.104805418887359281 1 71 -284.18095716793845895
   49100     309.5151    6.8908581    52.423584   -143.94489     1535.309    15364.144 
   49110    313.22172     6.168889    48.826546   -146.46963    1197.2211    15364.144 
   49120     299.0289    6.0077675    58.957387   -148.73148   -339.49722    15364.144 
   49130    307.68774    6.3916492    52.933581   -150.89737   -207.78562    15364.144 
   49140     281.8716    7.1995608    58.427428   -153.02369   -1414.2623    15364.144 
   49150    306.77535    7.9441277    50.593371    -154.9936   -801.73003    15364.144 
   49160      282.602    7.5365893    57.530882   -157.07227   -913.72118    15364.144 
   49170    278.84649     7.178287    54.406012   -158.63613    1125.6839    15364.144 
   49180    278.65495    7.4021565     54.84156   -159.69654   -759.08213    15364.144 
   49190    300.70705     9.457372    44.779379   -160.27936    917.42369    15364.144 
49200        0.99045991805284860909 10.096694410063784986 1 70 -301.58760638811298804
   49200    310.78739    10.799891    52.035034   -160.77508    989.23636    15364.144 
   49210    285.03617    9.5224364    49.889649   -161.19526    1149.3335    15364.144 
   49220    271.27741    10.574857    61.774092   -161.08225   -501.00274    15364.144 
   49230    282.44894    11.418528    51.631298   -160.28177   -967.55698    15364.144 
   49240     269.6757    8.7084452    62.936334   -158.65106    191.52146    15364.144 
   49250    308.53057    8.6345268    57.719524   -155.73287   -1598.4173    15364.144 
   49260    334.56553    8.5480219    46.958481   -151.59973   -1467.8218    15364.144 
   49270    294.93729    10.744529    62.556462   -147.69053   -496.02521    15364.144 
   49280    310.46112    13.532485    53.709048   -143.46883    1177.5404    15364.144 
   49290    281.39343    12.378739     64.79955   -139.36854    1914.1285    15364.144 
49300        0.98834595853781381791 10.100118128382561622 1 69 -284.06221146927845211
   49300    328.03516    8.8315914    55.906936   -135.43502    3236.7254    15364.144 
   49310    322.50788    6.0746322     50.81248   -132.21335    1985.3975    15364.144 
   49320    321.70382    7.4290334    52.234602   -129.75798   -1853.6793    15364.144 
   49330    337.84825    7.7140081     51.66519   -127.63397   -2114.6264    15364.144 
   49340    321.61221    6.7315937    61.255819    -126.3303   -63.919882    15364.144 
   49350    294.37152    5.1411901    64.448808   -125.76838    -1843.261    15364.144 
   49360    311.85709    3.2882687    64.008112   -125.49546   -1260.2334    15364.144 
   49370    332.92464    4.3184037     64.73464   -126.04316    -392.8227    15364.144 
   49380    333.67048    6.3941974    55.243491   -127.88983    836.28414    15364.144 
   49390    332.41824    5.1453039    50.897168   -131.14228    3560.6743    15364.144 
49400        0.97967676253885849214 10.128331219678120334 0.99735449735449732689 71 -276.49925261248642983
   49400     311.1647    6.9744921    58.091744   -135.51578    370.95183    15364.144 
   49410    313.79276    9.0555954    56.045793   -140.60552    1610.5235    15364.144 
   49420    308.72771    11.648738    54.201941   -146.01277   -518.92036    15364.144 
   49430    309.65243    11.412004    51.415034   -150.67117   -1472.4778    15364.144 
   49440    299.25988    10.841229    55.212502   -154.25088   -43.273366    15364.144 
   49450    305.60674    8.3935997    45.147628   -156.20411   -1205.3586    15364.144 
   49460    297.51485    7.8330538    52.205609   -157.07868   -1176.1141    15364.144 
   49470     303.5614      6.09225    50.480225    -157.2015   -950.65337    15364.144 
   49480    274.69178     6.292818    60.447936    -156.8875    1796.2246    15364.144 
   49490     290.6367    6.5684072    53.176907   -156.10483    2614.3305    15364.144 
49500        0.97382261292875682557 10.162619890955088664 1 71 -288.13237344550441321
   49500    293.81697    7.6285193    55.802037   -155.00886   -97.725105    15364.144 
   49510      316.037    8.3700394    53.708053   -154.07841    1301.7767    15364.144 
   49520    309.91001      8.24244    51.635244   -153.56513   -142.91481    15364.144 
   49530    300.60935    7.2542493    52.753968   -153.37201   -2160.5751    15364.144 
   49540       306.53    7.5082858    50.335544   -152.99392   -1853.2555    15364.144 
   49550    276.77084    9.9382305     57.80064   -152.19282    -1996.839    15364.144 
   49560    291.79355    10.487134    53.820698   -150.75062    888.13064    15364.144 
   49570    267.29949    9.1585864    63.571429   -148.75163    490.32454    15364.144 
   49580    296.61826    7.4521397    56.353798   -145.98486    3046.5713    15364.144 
   49590    300.24361    8.0327493    62.380756   -142.59292    2522.6597    15364.144 
49600        0.97177858974864805841 10.188371018279134717 1 67 -280.25016375112915057
   49600    311.66154    7.3079993     54.64164   -139.04158   -1950.0856    15364.144 
   49610    300.12345    6.2017332    58.898272   -135.56422   -1026.0948    15364.144 
   49620    310.70908    6.1292916    58.461372   -132.02119   -2511.1264    15364.144 
   49630    290.32066    7.8600587    64.239503   -128.77971   -1785.3445    15364.144 
   49640    302.14031    12.149322    56.570056   -125.45902   -2272.7213    15364.144 
   49650    309.12901    11.375069    63.465812   -122.21791   -247.97456    15364.144 
   49660    329.51509    10.918831    60.233934    -119.6563    3412.6128    15364.144 
   49670    347.09252    9.7837053    55.117127   -118.37191    3003.8918    15364.144 
   49680    344.53473    7.0389121    64.536976   -118.95331   -87.571562    15364.144 
   49690     326.7449    5.4149586    65.715708   -121.14463     1233.051    15364.144 
49700        0.97057281426676933478 10.17444927282396705 1 65 -269.49381349280321274
   49700     321.0792    2.9591798    57.609755   -124.01825   -942.97862    15364.144 
   49710    275.54874     4.152929    75.154945   -126.75226    100.26809    15364.144 
   49720    285.94843     6.166289    68.763658   -128.47446   -3365.8043    15364.144 
   49730    308.56616    6.6860722    68.597371   -129.80261   -1170.4242    15364.144 
   49740    358.14473    5.4284637    55.820192   -131.65436   -1057.0246    15364.144 
   49750    320.54651     4.276492    64.561931   -134.75036    1107.2564    15364.144 
   49760     292.1501    6.1364273    63.753214   -137.91194    823.64252    15364.144 
   49770    296.27937    7.2006385    61.972314   -140.15279     1515.706    15364.144 
   49780    323.67181    5.2643847    55.680358   -142.51572    1373.8512    15364.144 
   49790    310.56715    4.5717365    55.986189   -145.12786    3.2106588    15364.144 
49800        0.97395601994973557414 10.187446763401515781 1 61 -286.65467304053737507
   49800    306.74222    3.2982809    55.106853   -147.67495    -2454.548    15364.144 
   49810    294.70559    3.0987497    55.756826   -149.62444   -906.92349    15364.144 
   49820    298.40032    3.1272055     54.03299   -151.13689   -2882.1806    15364.144 
   49830    303.88742    3.5374505       54.525   -152.35815    1774.8766    15364.144 
   49840    310.21356    5.3458891    54.433218    -153.6599    3170.7399    15364.144 
   49850    292.23454    6.8456343    51.547069   -155.14718    2670.8633    15364.144 
   49860    282.96431    7.3060171    52.844715   -156.22174   -805.05513    15364.144 
   49870    286.31892    9.2294143    56.924327   -156.72671   -304.49711    15364.144 
   49880    303.40295    9.8867138    49.848757    -156.9603   -2524.1447    15364.144 
   49890    293.74682    9.1102215    47.083758   -157.24168   -779.50872    15364.144 
49900        0.97755629445916425446 10.157182835422043254 0.99470899470899465378 63 -283.61537673549344163
   49900    279.28706    6.5387966    53.435543   -157.07512   -1817.9206    15364.144 
   49910    272.89534    5.6158311    56.944475   -155.70735    151.38443    15364.144 
   49920    281.18418    5.1513297    60.898467   -152.67516     1058.733    15364.144 
   49930    306.39472    6.0264729    56.056042   -147.55707    936.22244    15364.144 
   49940    306.28891    9.0525387     58.34902   -141.29624    150.10838    15364.144 
   49950    313.33712    9.0429692    61.227852   -135.53865    194.13603    15364.144 
   49960    327.49738    11.071551    62.766603   -130.97056   -171.89337    15364.144 
   49970    334.43257     9.391435    58.826245    -128.4923     2139.086    15364.144 
   49980    319.36684    9.1477809    63.678347   -127.68513    691.21183    15364.144 
   49990    343.71838    9.6907567    61.369463    -128.0166   -196.41331    15364.144 
50000        0.97943066432471848071 10.139167539501892534 0.99470899470899465378 65 -284.80589283728915007
   50000    341.65619    8.3480531    50.620511   -130.00724   -4066.6724    15364.144 
Loop time of 198.095 on 1 procs for 50000 steps with 153 atoms

Pair  time (%) = 8.62721 (4.35508)
Bond  time (%) = 0.651469 (0.328866)
Neigh time (%) = 0.00533676 (0.00269404)
Comm  time (%) = 0.0415123 (0.0209557)
Outpt time (%) = 0.681155 (0.343852)
Other time (%) = 188.088 (94.9485)

Nlocal:    153 ave 153 max 153 min
Histogram: 1 0 0 0 0 0 0 0 0 0
Nghost:    0 ave 0 max 0 min
Histogram: 1 0 0 0 0 0 0 0 0 0
Neighs:    6016 ave 6016 max 6016 min
Histogram: 1 0 0 0 0 0 0 0 0 0
FullNghs:  12032 ave 12032 max 12032 min
Histogram: 1 0 0 0 0 0 0 0 0 0

Total # of neighbors = 12032
Ave neighs/atom = 78.6405
Ave special neighs/atom = 2.64052
Neighbor list builds = 7
Dangerous builds = 0
