LAMMPS (9 Oct 2012)
# 3d protein simulation

units real

timestep 2

dimension	3

boundary s s s
#boundary p p p

neighbor	10 bin
neigh_modify	delay 5

atom_modify sort 0 0.0

special_bonds fene

atom_style	peptide

bond_style harmonic

pair_style vexcluded 2 3.5 3.5

read_data data.testeo
  3 = max bonds/atom
  orthogonal box = (-200 -200 -200) to (200 200 200)
  1 by 1 by 1 MPI processor grid
  153 atoms
  202 bonds
  5 = max # of 1-2 neighbors
  5 = max # of special neighbors

pair_coeff * * 0.0
pair_coeff 1 1 20.0 3.5 4.5
pair_coeff 1 4 20.0 3.5 4.5
pair_coeff 4 4 20.0 3.5 4.5
pair_coeff 3 3 20.0 3.5 3.5


velocity	all create 300.0 8292695

group		alpha_carbons id 1 4 7 10 13 16 19 22 25 28 31 34 37 40 43 46 49 52 55 58 61 64 67 70 73 76 79 82 85 88 91 94 97 100 103 106 109 112 115 118 121 124 127 130 133 136 139 142 145 148 151
51 atoms in group alpha_carbons

group		beta_atoms id 3 6 9 12 15 18 21 24 27 30 33 36 39 42 45 48 51 54 57 60 63 66 69 72 75 78 81 84 87 90 93 96 99 102 105 108 111 114 117 120 123 126 129 132 135 138 141 144 147 150 153
51 atoms in group beta_atoms

group		oxygens id 2 5 8 11 14 17 20 23 26 29 32 35 38 41 44 47 50 53 56 59 62 65 68 71 74 77 80 83 86 89 92 95 98 101 104 107 110 113 116 119 122 125 128 131 134 137 140 143 146 149 152
51 atoms in group oxygens


fix		  1 all nvt temp 300.0 300.0 100.0
fix		  2 alpha_carbons backbone beta_atoms oxygens fix_backbone_coeff.data testeo.seq
Chain flag on
Chi flag on
Rama flag on
Rama_P flag on
SSWeight flag on
ABC flag on
Dssp_Hdrgn flag on
P_AP flag on
Water flag on
Burial flag on
Helix flag on
Fragment_Memory_Table flag on
DebyeHuckel on

Reading fragments...
Computing FM table...

variable      biasinge equal f_qbias
# output wham.dat, a file with collective variables that can be used to compute pmfs
compute     qw alpha_carbons qwolynes rnative.dat 2 0.15
variable    qw equal c_qw
compute     rg alpha_carbons gyration
variable    rg equal c_rg
compute     qo alpha_carbons qonuchic cutoff 12.0 nativecoords.dat 1.2
variable    qo equal c_qo
compute     tc beta_atoms totalcontacts 6.5 2
variable    tc equal c_tc
variable    step equal step
variable    E_P equal pe

fix         wham all print 100 "${step}        ${qw} ${rg} ${qo} ${tc} ${E_P}"

thermo		10
dump		1 all atom 50 dump.lammpstrjPH


dump_modify	1 sort id

reset_timestep	0
run		50000
Memory usage per processor = 0.857471 Mbytes
Step Temp E_pair E_mol TotEng Press Volume 
       0          300    54.408864    955.49334    707.03278    -33253.58    10890.368 
      10    1276.9289    60.951886    295.44053    647.11974    11780.986    10890.368 
      20    739.43642    23.706465    495.87184    559.16179    7552.9161    10890.368 
      30    1055.5782    13.900299    337.94746    488.28474    27924.961    10890.368 
      40    790.27772    8.8082232    345.71766    394.39444   -30380.059    10890.368 
      50    766.03021     7.147426    273.77344    326.69451   -4875.8916    10890.368 
      60    768.72099    5.6108411    229.49292    253.11631   -6215.4339    10890.368 
      70    645.29549    7.7011703    230.77793    197.53469     22721.99    10890.368 
      80    629.33989      18.5839    182.31849    147.83042    1120.7277    10890.368 
      90    444.07278    14.231635     201.4224    105.34061   -16987.397    10890.368 
100        0.99323332627664151495 10.042857208458196183 1 69 -148.38949256312866964
     100    467.90915    9.5655482    192.96681    63.612249    3261.4253    10890.368 
     110    498.01476    4.9859376    146.94603    27.861886    7281.7506    10890.368 
     120    458.17319    6.4513002    140.89027   -2.1134659    300.15458    10890.368 
     130    445.72623    4.4195857    109.48574   -29.504253   -6323.0125    10890.368 
     140    423.82978    4.2095851    113.38253   -51.984376   -8905.4215    10890.368 
     150    376.67356    5.4440096    126.50093   -75.663321    11596.842    10890.368 
     160    399.59058    8.9768215     95.53152   -96.196651    5838.6691    10890.368 
     170    390.41351    8.8830125     91.30772   -114.81656    2668.2261    10890.368 
     180    328.18143    6.9108967    100.73359   -132.16765   -8601.7376    10890.368 
     190    339.08909    8.8638519    79.475541   -146.07624   -3070.6925    10890.368 
200        0.99330423893108632516 10.082164994095904831 1 71 -282.02131789127173533
     200    270.36135    8.0014212     110.9737   -159.52515     3377.286    10890.368 
     210     281.5707    9.2083504    88.558238   -170.41108   -394.27813    10890.368 
     220    284.05132    7.0758554    83.653549   -179.60106   -3684.4372    10890.368 
     230    261.18526    9.3864534    78.949219   -187.09776    3198.6853    10890.368 
     240    289.28985    12.563623    62.526488   -192.82893    73.064071    10890.368 
     250    276.25483    9.4678493    70.975336   -197.35124    3256.5962    10890.368 
     260    267.66826    8.3661011    75.513138   -200.22585   -1310.0217    10890.368 
     270    279.02721    8.7471098    67.230031   -202.10073   -2264.0444    10890.368 
     280    266.44212     10.29743    70.151186   -202.78633   -1741.0235    10890.368 
     290    255.27233    7.6604576    73.442334   -202.12393   -485.95207    10890.368 
300        0.99074549548832568924 10.087670902663459671 1 67 -312.70715113968111609
     300    248.47704    6.5351965    77.798427    -200.1264    5411.9454    10890.368 
     310    272.71671    6.2569187    71.964577   -196.65217   -1270.9123    10890.368 
     320    262.65089    9.0414634     75.84782   -192.22583   -1035.3245    10890.368 
     330    276.97594     7.709235    76.036966   -186.86102    -2457.761    10890.368 
     340    305.31524    8.2307569    65.983028   -180.39377   -337.46182    10890.368 
     350    279.64141    7.7643054    89.959407   -173.58383    5634.5864    10890.368 
     360    322.83113    8.3877349    67.627822   -165.93217   -2663.7442    10890.368 
     370    279.32374    9.0133794    89.719494   -158.48298   -1366.8647    10890.368 
     380    340.29561    8.3956733    78.103258   -150.75868     2333.674    10890.368 
     390    312.17258    6.8488995    93.659391    -143.2075    949.13699    10890.368 
400        0.98952113850262490846 10.118563535785360941 1 69 -305.11939902361154964
     400    371.71668    4.7667371    78.441291   -136.70084     650.8964    10890.368 
     410    336.99548    6.6121533    91.386925   -130.71329    -7308.418    10890.368 
     420     343.9668    6.1636044    96.239389   -126.56427    -777.6643    10890.368 
     430    354.12097    5.8529843    95.721069   -124.15672    8012.1128    10890.368 
     440    335.72378     8.043718    98.656047   -124.10074    1920.6699    10890.368 
     450    347.84476    10.768123    84.772599   -125.27549     612.8062    10890.368 
     460    304.82435    8.6729391    100.75424   -128.10289   -7887.0289    10890.368 
     470    317.91914    6.1517015    98.929211   -132.08008     2261.564    10890.368 
     480    327.98031    5.4656165     94.18922   -137.75121    4503.5365    10890.368 
     490    314.70325    6.5803347    84.899684   -143.70051    109.14242    10890.368 
500        0.98498566634978113044 10.135372660615326268 1 70 -292.80427663016331508
     500    315.18042    7.3652851     87.06639   -150.00134   -876.50248    10890.368 
     510    268.48763    5.7064867     101.9822   -156.53803    -5013.675    10890.368 
     520    301.24144    7.5329758    88.257645   -163.18913    4938.7335    10890.368 
     530    283.76647    9.1273492    87.998174   -169.69393     -2776.38    10890.368 
     540    294.77179    9.9559502    73.355251   -175.00846   -1847.2085    10890.368 
     550    256.11058    9.2449206    85.694888   -179.70512   -3312.5038    10890.368 
     560    273.64698    8.4949849    76.892912   -183.25336    1397.6384    10890.368 
     570    248.21713    7.1167352    91.746059   -186.45152    5434.8428    10890.368 
     580    253.17292    5.1944604    78.476973   -188.43515    1148.4369    10890.368 
     590    285.16362    2.4426369    71.907649   -189.29818   -2454.0336    10890.368 
600        0.98214283632795618129 10.148046899350806171 1 69 -303.59688061097898526
     600    252.58407    3.3365172    83.140073    -189.1553   -469.27148    10890.368 
     610    272.27044    5.1731147    77.541166    -187.6632   -4770.5423    10890.368 
     620    255.37354    4.3467175    92.880226   -185.30457    2203.3464    10890.368 
     630    278.70793    4.7744107    73.359512    -182.4434   -120.71292    10890.368 
     640    270.02407    5.3633901    80.875526   -178.53234    3162.3938    10890.368 
     650      278.317    8.3612695    82.557158   -173.62108   -397.63489    10890.368 
     660    289.80701    6.6533146    83.831925   -167.81827   -1403.5252    10890.368 
     670    275.80045    6.5927372    91.902628   -162.20063    1926.2444    10890.368 
     680     318.3232    8.0609307    78.699534   -156.38493   -303.92731    10890.368 
     690    299.23751    6.8927209    88.247068   -151.04533   -2663.3151    10890.368 
700        0.97704164843765273218 10.166607759138235778 1 70 -290.85048464805629465
     700    319.49267    7.9845672    77.927954   -146.09375   -1442.3181    10890.368 
     710    311.41967      3.73427    93.010958   -144.01009    249.32417    10890.368 
     720    331.06706    7.0379856    90.033423   -140.21068    8204.9762    10890.368 
     730    324.93064    8.3355958    88.480519    -137.7229   -4898.0999    10890.368 
     740    348.23832    9.6443799    79.178152   -135.87083   -1680.0403    10890.368 
     750     349.5493    10.061674    84.245957   -135.13079   -2878.5404    10890.368 
     760    327.12956    8.4730094    98.085633   -133.36722     7365.875    10890.368 
     770     307.9074    8.3876064    100.77825   -135.08981    2737.7962    10890.368 
     780    303.90329    7.2943463    87.127522   -137.93607   -917.24805    10890.368 
     790    307.89889    6.9465448    90.412155   -141.50302   -4242.8916    10890.368 
800        0.97827901295196173503 10.166921297371940724 1 72 -292.85339939261325526
     800    325.23639    6.6042932    80.141458   -145.49428    2389.1737    10890.368 
     810    320.14694     4.675229    88.738638   -149.85071   -2230.9033    10890.368 
     820    329.53473    6.2718519    77.017155   -155.13866    706.95421    10890.368 
     830    274.26226    7.1080343    87.385261   -160.31123   -4116.7718    10890.368 
     840    291.61109    8.7029656    75.850134   -164.58447    2141.1416    10890.368 
     850    290.54575    8.3479539    84.207255   -168.40715    3701.7734    10890.368 
     860    286.25656    8.7484314     75.48085   -171.64229   -577.86869    10890.368 
     870    287.32822    7.2654728    69.268398   -174.03194   -6893.4212    10890.368 
     880    275.66122    7.4434408    75.844209   -175.55377   -3428.8683    10890.368 
     890    268.12919    6.8332004    84.575406   -176.44296    2655.8724    10890.368 
900        0.97924095716857773031 10.144536306831469119 1 68 -301.32566125639027632
     900    275.31941    8.2634859    75.384054   -176.58308    6157.4888    10890.368 
     910    293.24214    8.8687206    72.979017   -176.02312   -981.60806    10890.368 
     920     264.9172    5.5726432    82.129724   -174.92678    398.89277    10890.368 
     930    274.33885    7.6271433    72.527348   -172.85409    1923.1742    10890.368 
     940    306.15208     7.567022    71.593736   -169.59059    1813.2675    10890.368 
     950    310.83459    5.3831204    72.292863   -165.70785    354.49875    10890.368 
     960    314.77899    5.9735296    77.477118   -161.48356   -4515.5974    10890.368 
     970    332.02276    5.1405803    74.290384   -156.91414   -225.04103    10890.368 
     980    317.07152    7.7825908     79.04848   -152.72423   -2320.1636    10890.368 
     990    327.35291    9.5719156     78.85283   -148.93645    2310.5335    10890.368 
1000        0.97693435879819434664 10.173044042218140959 1 66 -277.81479718077571306
    1000    291.44962    8.3494367     95.28502   -145.76389    2062.5506    10890.368 
    1010     312.1283     7.838149    84.923732   -142.88588   -1007.8106    10890.368 
    1020    322.89664    5.1423662    89.657081   -140.51713   -1561.2935    10890.368 
    1030    324.06875    7.6466249    84.993754   -139.07635   -4916.8702    10890.368 
    1040    306.07987     5.936146    92.956877   -138.48284     1103.981    10890.368 
    1050    292.05482    5.6829647    94.506203   -138.35374    525.37283    10890.368 
    1060     326.6327     5.136342    86.067585   -138.79661    3046.3112    10890.368 
    1070    328.29432    4.6389256    77.914396   -139.88641   -205.61269    10890.368 
    1080    327.88303    5.4728251    85.230531   -141.61367   -1269.5576    10890.368 
    1090    300.29576    6.3346349    91.949802   -144.13962   -247.21493    10890.368 
1100        0.9786910614523869345 10.169897801350797906 1 67 -275.12898760734958614
    1100    281.61473    6.7039097    95.151999   -147.53411      497.404    10890.368 
    1110    297.74916    8.4354494    79.661726   -150.83775    1039.1408    10890.368 
    1120     304.9242    8.5524951    77.905819   -153.80965    8.5868924    10890.368 
    1130    314.34169    8.9605526    81.603158   -156.57322    2118.3598    10890.368 
    1140    300.29542    6.6363403    88.470311   -159.84502    275.20587    10890.368 
    1150    288.05418    7.1938331    78.704743   -163.59483   -3548.3175    10890.368 
    1160    303.53351     6.557621    74.770719   -167.41009   -4120.1262    10890.368 
    1170    305.94266    7.2296596    71.960169   -171.01352    5036.7493    10890.368 
    1180    276.85125    6.4345049    81.556311   -173.87317    2096.9659    10890.368 
    1190    282.25426    7.3529454    73.645766   -176.43189    2047.6843    10890.368 
1200        0.97974108898191236694 10.158504758645964472 1 65 -297.96693484664814378
    1200    263.80435    8.2195821    81.357468   -178.44164   -5568.3349    10890.368 
    1210    293.38887    8.7048219    71.459343     -179.596   -1114.2736    10890.368 
    1220    295.29493    9.2401258    79.754987   -180.48892    1942.5917    10890.368 
    1230    298.22323    10.623486    64.646554   -181.15319    703.58351    10890.368 
    1240    266.34999    8.9676909    73.302352    -181.2157   -2006.1872    10890.368 
    1250    257.15949    7.2839994    79.088534   -180.12069   -3437.5845    10890.368 
    1260    282.88079    7.9424526    69.470865   -177.83308    873.08774    10890.368 
    1270    261.34761    8.9271953    85.412832   -175.03051    6505.5632    10890.368 
    1280    292.67867    8.3471544    74.757744    -171.2727     1631.002    10890.368 
    1290    270.94732    6.3941981    86.855754    -167.2439   -270.75414    10890.368 
1300        0.98104250860311936755 10.144055397258387785 1 64 -291.65435841013504614
    1300    284.64289    7.7114507    84.368153   -162.68747   -939.17726    10890.368 
    1310    300.66638    8.0379468    85.066053   -158.22702   -1579.4466    10890.368 
    1320    293.93425    7.2816448    94.269771    -153.7289   -814.16833    10890.368 
    1330    303.67865    8.2464562    81.324022   -149.70589   -2547.4306    10890.368 
    1340    296.42861    9.5129632    88.538626   -145.82242   -532.04884    10890.368 
    1350    306.06857    9.2708991    88.352378   -142.80754    1954.7098    10890.368 
    1360     342.7848    8.5143093    79.457867   -140.28171    441.89094    10890.368 
    1370    320.85583    6.4384743    79.350474     -138.488   -2692.2852    10890.368 
    1380    343.41958    5.7444507    79.788496   -137.20411    727.92062    10890.368 
    1390     316.8668    7.5078094    90.257464   -136.63516    3522.2136    10890.368 
1400        0.984583143289947893 10.148345403266018749 1 67 -288.21237627662304703
    1400    333.91555    5.3862716     77.73733   -136.92087    -562.7096    10890.368 
    1410    336.07041    4.4813248     76.81267   -138.42437   -2501.8781    10890.368 
    1420    327.47672      3.14728    74.558504    -140.6837   -1535.6421    10890.368 
    1430    314.49934    4.4910086    80.307744   -143.61577   -134.12172    10890.368 
    1440    318.12189    6.7717736    76.315886   -146.66215     1276.769    10890.368 
    1450    301.17767    5.0653502    79.472055   -150.20021    3468.7113    10890.368 
    1460    329.81671    6.2039377    81.647659   -153.67751    2369.7697    10890.368 
    1470    318.37906    10.166422    69.640777   -157.87288   -1127.1362    10890.368 
    1480    327.72284    7.4625808    65.087014   -162.00085   -4022.5087    10890.368 
    1490    287.37232    5.7305373    77.237172   -166.29949   -2461.7292    10890.368 
1500        0.98916018024669061237 10.114000494310515066 1 64 -318.85919313248888329
    1500    328.27456    6.5344935    65.981304   -170.12353   -167.30779    10890.368 
    1510    300.82753    8.1663642    70.598218   -174.26185    3209.3678    10890.368 
    1520    297.67443    8.8151122    65.777342   -177.74076    1560.0511    10890.368 
    1530    269.30452    8.9125107    75.462117   -180.19431    660.78763    10890.368 
    1540    287.65782    9.6137492    61.097404    -181.8164   -2644.6973    10890.368 
    1550    268.70228     8.909929    68.520254   -182.67141   -1320.9575    10890.368 
    1560    286.24563    5.8862881    69.965828   -182.45816     1252.854    10890.368 
    1570    272.83792    4.9833747    71.857508   -181.43508   -790.15749    10890.368 
    1580    268.90677    5.0456659    68.999276    -179.7636    739.27594    10890.368 
    1590    295.63158    6.1272669    69.037152   -177.23361    1375.1305    10890.368 
1600        0.99133725185057353091 10.086908839359237433 0.99735449735449732689 67 -302.93398716047090602
    1600    284.03397    6.1750659     80.34173   -174.24299    2697.7405    10890.368 
    1610    268.89069    6.6010233    81.268628   -170.75402    1165.3772    10890.368 
    1620    242.97821    8.8713724    75.618813   -167.08292   -4925.5687    10890.368 
    1630    304.01394    10.535744     71.50747   -162.33922   -1714.3452    10890.368 
    1640    295.68114    7.6730047    81.206764   -157.61947    32.573616    10890.368 
    1650     306.2867    6.7266907    80.118342   -152.96697    1200.4758    10890.368 
    1660    288.39583    5.5124183    85.465885   -148.72744   -125.12527    10890.368 
    1670    308.40095    6.2809977    81.006559   -144.87516    3383.1633    10890.368 
    1680    322.00801    7.6812897    81.009184   -141.52719    3222.0599    10890.368 
    1690      368.702    11.216848     60.45449   -138.76622   -447.17216    10890.368 
1700        0.98986986919850761257 10.084972582231017668 0.99470899470899465378 71 -276.87544687113035025
    1700    308.55341    12.734116    85.184153    -137.0751   -1920.1371    10890.368 
    1710     345.3603    10.227924    79.759667   -136.01736   -359.76326    10890.368 
    1720    293.24635    9.0656981    88.293556   -136.09353   -1469.4496    10890.368 
    1730    335.47413    7.8770653    77.862552   -136.84695    655.85066    10890.368 
    1740    331.18281    7.9051886    78.009367   -138.47239     1231.469    10890.368 
    1750    338.82275    7.3705963    69.788336   -140.91287   -2066.7064    10890.368 
    1760     309.4812    6.6599459    74.305335   -143.75013    254.81529    10890.368 
    1770    313.18067    9.2173575    70.037552   -146.34424   -52.901781    10890.368 
    1780    329.27044    7.0534094    72.538321   -149.24076    2423.0759    10890.368 
    1790    323.74254    7.3916149    68.987905    -152.6921   -948.09789    10890.368 
1800        0.98451739810423655186 10.096970984285505324 0.99206349206349198067 66 -294.86547815393458905
    1800    305.74239    8.0177206    70.507259   -156.33876    2454.0958    10890.368 
    1810    307.55043    7.4721175    73.421519   -159.64114    671.30548    10890.368 
    1820    307.12656    7.7911793    68.521919   -162.74866   -6098.9573    10890.368 
    1830    310.95681    7.6758905    67.816664   -165.50723   -2146.4061    10890.368 
    1840    265.63178    10.125783     80.41415    -168.1858    3891.1718    10890.368 
    1850    279.94058    7.7761048    76.606976   -169.80952     4688.406    10890.368 
    1860    275.95469    6.5719379    75.283689   -170.83863   -769.95324    10890.368 
    1870    287.27644    4.4532524    71.514227   -171.28272   -3944.7742    10890.368 
    1880    294.75469    3.1924691     74.11987   -171.16711    2796.2443    10890.368 
    1890    282.40309    4.4305929    75.651792   -170.79693   -2608.4226    10890.368 
1900        0.98521650167570473666 10.112689528293071106 1 67 -299.20759397680222946
    1900    285.50033    5.8698909    77.134914   -169.85221   -1748.1916    10890.368 
    1910    288.43212    6.6822138    76.259402   -168.50551   -3781.6706    10890.368 
    1920    286.20089    8.1315329    79.652117   -167.06794    4001.7164    10890.368 
    1930    279.49633    8.8721324    81.263916   -165.39005    4248.3882    10890.368 
    1940    287.34085    11.587446    69.515705   -163.43344   -785.45403    10890.368 
    1950    283.04838    10.936528    74.100094   -160.76192    1491.5411    10890.368 
    1960    308.31446    8.0859975    75.248741   -157.35474    1147.9882    10890.368 
    1970    309.07266    6.9424569    78.842304   -153.93883    975.96437    10890.368 
    1980    311.68619    6.6305649    83.973875   -151.08886   -1538.9289    10890.368 
    1990    304.84769    5.5288487    75.461144    -149.1601   -2344.0565    10890.368 
2000        0.98698900196681582653 10.111134834047488695 1 65 -291.14043251861301087
    2000    316.53631    6.5936955    76.866489   -147.72317   -1610.9422    10890.368 
    2010    326.33821    8.4228215    67.385752   -146.89171   -158.18168    10890.368 
    2020     305.9056    6.8164356    85.363742   -146.47928   -735.56978    10890.368 
    2030    308.35947    8.9681963    75.135263   -146.25154    1503.4809    10890.368 
    2040    294.49865    12.211593    85.624279   -146.33695   -3090.8139    10890.368 
    2050    311.07909    13.156514    73.736406   -146.90056    1597.5353    10890.368 
    2060    305.86647    12.118406    79.062836   -148.33103    1466.8222    10890.368 
    2070    301.56083    9.2327752    76.820523   -150.31724    2576.8482    10890.368 
    2080    311.38521    5.3722786    74.268861   -153.07875    531.57435    10890.368 
    2090    297.82684    5.0998697    77.609141   -156.53665    66.263237    10890.368 
2100        0.98574500978292500797 10.145640184377400672 1 65 -299.34166661900246709
    2100    305.48435    4.7650197    78.548345   -160.93186   -1322.5977    10890.368 
    2110    284.97535    6.5534154    80.839735   -166.11559   -3998.8035    10890.368 
    2120    265.51212    9.9903545     70.29368   -170.89426   -3617.2583    10890.368 
    2130    273.73725    8.1828875    69.781954   -174.27268    2708.4626    10890.368 
    2140    262.20932    10.430879    68.557929   -176.21884    3009.8449    10890.368 
    2150    291.34574    7.9493247    67.088721   -177.09163     1923.869    10890.368 
    2160    285.27784     6.167448    66.235453   -177.31182    816.21963    10890.368 
    2170    280.67577    6.0535176     71.44304   -177.13996    -2813.928    10890.368 
    2180    279.85632    8.0302117    71.322776   -176.46434   -2536.5729    10890.368 
    2190    284.65243    7.6967853    68.710159   -175.22616   -5591.4152    10890.368 
2200        0.98280978958887466046 10.151275374792318118 1 67 -307.50964709307527301
    2200    295.51364    7.0186896    69.042356    -173.6174    2976.2279    10890.368 
    2210    273.80127    5.7001642    70.468044   -171.65755    4078.0606    10890.368 
    2220    281.01193    5.0580861    72.433185   -169.03586    1153.6903    10890.368 
    2230    301.99723    5.2953781    72.163239    -165.7941    1038.5128    10890.368 
    2240    307.15426    6.0395796    65.891716    -162.5407   -3751.1421    10890.368 
    2250    319.26821    8.3588834    69.051576   -159.63754     430.0002    10890.368 
    2260    291.54754    8.0556881    75.497994   -157.09927   -1166.2327    10890.368 
    2270    280.73505    8.6774612    81.209173   -154.90685   -417.30035    10890.368 
    2280    305.61261    9.4361954    73.285936   -153.14763    1751.4296    10890.368 
    2290    275.69574     9.128716    83.677328   -152.31813   -906.70917    10890.368 
2300        0.98283893245866793542 10.153035794984207385 1 66 -306.65565262356523135
    2300    341.46869    6.9654351    64.360298   -151.94195    1019.8443    10890.368 
    2310    298.13428    7.2437679    80.976774   -152.20712    29.585698    10890.368 
    2320    297.91835    8.3953106    78.853578   -152.68736   -3415.5104    10890.368 
    2330    289.44408    9.0325953    83.380712   -153.00597    1871.4829    10890.368 
    2340    313.42835    8.8055394    71.051119   -153.40854   -3251.8758    10890.368 
    2350     295.5007    12.248298    82.545342   -154.36913    3563.8258    10890.368 
    2360    291.45398    10.087637    77.944402   -155.65911    1224.5852    10890.368 
    2370    267.84383    12.091656    77.185837   -157.12939    2883.9795    10890.368 
    2380    292.22118    8.3985911    79.669235   -158.49946    369.88249    10890.368 
    2390    299.98626    9.0699082    68.896941   -159.85486   -1897.5364    10890.368 
2400        0.98459929806025303645 10.148871381713815865 1 64 -315.88826884170458698
    2400    341.06832    6.0752438    64.451232   -161.35597   -1739.1102    10890.368 
    2410    287.91689    5.2127049    73.259284   -163.21333   -1880.6497    10890.368 
    2420    275.37222    6.2851736    69.086561   -164.56372     -2247.78    10890.368 
    2430    274.96499    7.8728616    79.667881   -165.28826    2149.8672    10890.368 
    2440    300.03183    6.4138155    72.808453   -165.84603    1759.0659    10890.368 
    2450    303.19965    7.4000732    67.932949   -166.63128    798.56119    10890.368 
    2460    291.21063    8.3870701    68.056169    -167.5706   -548.36664    10890.368 
    2470    281.45409    11.297688    67.577766   -168.34732   -2156.9971    10890.368 
    2480    278.05292    7.7505329    75.734198   -168.91144    1914.4919    10890.368 
    2490     272.6195    6.4145282    76.282619   -168.83321   -2083.6166    10890.368 
2500        0.98175141336772253631 10.156814050797997595 1 66 -300.15964552383758246
    2500    292.04248    6.9750618    64.949207   -167.84013    1710.3868    10890.368 
    2510    262.81768     7.174635    87.680866   -166.24767   -1505.2478    10890.368 
    2520    310.38464    7.4647742    61.948409   -166.01691    902.79168    10890.368 
    2530    292.35445    8.0609758    71.100408   -163.06871   -2882.9375    10890.368 
    2540    308.79478     7.689864    61.626053   -159.68063    225.60586    10890.368 
    2550    307.66981    8.0270924    66.513743   -155.44318   -903.85951    10890.368 
    2560    299.09106     8.628956    75.069853   -150.84561    2540.9806    10890.368 
    2570    308.65684    10.039582     84.45583   -144.36637     1429.065    10890.368 
    2580    317.18206    8.3807397    80.926874    -141.1941      1671.42    10890.368 
    2590    335.36995    9.5827817    67.172849   -139.24677   -2410.4091    10890.368 
2600        0.98396469661393748396 10.137651275644394389 1 70 -275.03587796256823594
    2600    301.64903    7.0533501    81.947369   -138.36379    -303.9311    10890.368 
    2610    321.19295    7.8377939     75.56811   -137.81726    2169.7343    10890.368 
    2620    335.24309    9.0719865    80.954942   -138.12599   -98.324845    10890.368 
    2630    310.88248    9.2306504    83.540248   -139.88841    2738.7951    10890.368 
    2640    323.19876    8.8379447    75.528266   -143.05608    987.34202    10890.368 
    2650     305.9885     8.431975    74.700084   -146.86965    2421.4483    10890.368 
    2660    314.62473    8.4677742       71.667   -151.06186   -798.52892    10890.368 
    2670    305.16389    10.454584    69.521023   -154.85749   -4232.3648    10890.368 
    2680    301.61665    9.4912174    73.364742   -158.38867   -57.427332    10890.368 
    2690    293.65289    10.778035    67.965638   -161.42128   -4769.9072    10890.368 
2700        0.97880187707030996691 10.142713813898318165 1 72 -295.93020682402675448
    2700    292.60213    9.0019446    73.238109   -163.35712    1398.8503    10890.368 
    2710    301.30941    9.1102372    66.559252   -164.59056    2580.3563    10890.368 
    2720    307.56458    8.2771549    58.832107   -165.08557    890.24255    10890.368 
    2730    281.18162    6.8145824    73.415468   -164.82669   -2254.2449    10890.368 
    2740    289.73334    5.9363981    73.551208   -164.29569   -1113.1807    10890.368 
    2750    275.48307    4.8356782     78.84353   -163.86313     54.48278    10890.368 
    2760    291.67633    6.5234665    72.206753   -163.64725    3067.9414    10890.368 
    2770    292.55396    6.9628116    67.764552   -163.59867    4305.3114    10890.368 
    2780    296.80611    9.3497593    69.136304   -163.32705    4938.7851    10890.368 
    2790    300.24232    10.682347    64.983428   -162.65515   -2980.1034    10890.368 
2800        0.97486985174028262247 10.154993867206909997 1 71 -290.89716655059226014
    2800    285.25358    7.4697369     75.16577   -161.65358   -2207.1246    10890.368 
    2810    310.56281    6.5002473    69.232349   -160.64131   -4370.6087    10890.368 
    2820    288.26336    4.5548148    76.877868   -159.68377   -1595.7329    10890.368 
    2830    289.45751    5.4053049    72.691809    -158.7311    2003.3539    10890.368 
    2840    275.06679    5.2422438    73.966351   -157.40694     932.2532    10890.368 
    2850    290.90589    5.7268574    66.560842   -154.86967    2026.7207    10890.368 
    2860    323.81034    5.6680768    71.558284   -150.85812    1256.6668    10890.368 
    2870    313.88309    6.6750799    69.484558   -145.71192   -2175.6633    10890.368 
    2880    314.48883    7.4612063    79.417871   -140.14577   -552.01796    10890.368 
    2890    293.33969     6.836368    90.800546   -134.49215    -861.7544    10890.368 
2900        0.97282881007402177698 10.177991413450040881 1 69 -280.35094998262962918
    2900     332.0738    6.0962187    80.005758   -129.89392   -1998.4391    10890.368 
    2910    319.77319    5.7522342    86.587053    -126.6985    -3270.895    10890.368 
    2920    317.73679    2.9408379    83.842433   -125.20211    1110.9072    10890.368 
    2930    315.86529    2.8824688    87.309087   -125.49647    4706.7806    10890.368 
    2940    287.93593    3.4738933    93.569513   -126.77211    1471.9872    10890.368 
    2950    298.98328    8.4265367    78.386207   -130.95799    1249.7049    10890.368 
    2960    303.88359    8.9212985    77.453196   -132.74046   -3855.2907    10890.368 
    2970    331.19486    8.3310872    84.124583   -134.63438   -2912.2673    10890.368 
    2980    338.23953    6.5269384    75.766454   -137.08635    2730.9832    10890.368 
    2990    313.79335    5.8527221    81.957201   -140.27836    -1886.325    10890.368 
3000        0.97418407395393447068 10.16850544937804024 1 71 -272.63154429740819751
    3000    284.70588    5.0751929    93.301129   -143.63611    2610.5568    10890.368 
    3010    289.53961    5.1243659    78.464879   -143.66581     1186.482    10890.368 
    3020    322.00152    3.9117484    69.665628   -145.71604     1512.465    10890.368 
    3030    322.92992    4.2195776    72.797893   -147.55722   -1061.5475    10890.368 
    3040    281.47475     3.045263    79.011518   -149.23241   -2157.2199    10890.368 
    3050    286.47691    5.7086771    79.597663   -150.26604   -3598.3174    10890.368 
    3060    289.16795    5.6396441    82.987795   -151.10872   -2680.2718    10890.368 
    3070    318.77819    3.8967623    68.886146   -152.25283   -605.80851    10890.368 
    3080    320.26107    4.6639116    66.320194   -153.78395    3133.8168    10890.368 
    3090    309.23171    6.9344082    71.395824   -155.51835    1904.2579    10890.368 
3100        0.97937673460663343672 10.160465433858540507 1 67 -300.9977438289548104
    3100    317.32359    6.4695048    69.210703   -157.22378     2165.226    10890.368 
    3110    302.12358    8.0332623    66.940621   -159.38707    45.287694    10890.368 
    3120    290.56929     6.833319    74.340018   -161.81447   -2503.5427    10890.368 
    3130    305.77478    5.1990354    61.796286   -164.21946   -4279.4103    10890.368 
    3140    281.69769    5.0276024    75.592167   -166.25086    -2350.773    10890.368 
    3150    297.49865    6.1289181     64.40464   -167.92975    4097.7225    10890.368 
    3160    285.14502    6.0226692     71.47537   -169.57775    3078.4815    10890.368 
    3170    284.19405    6.9454451    63.017017   -170.90959    2469.6498    10890.368 
    3180    265.79707    8.0876533    72.267508   -171.77544   -2538.3172    10890.368 
    3190    274.04543    10.767275    66.516228   -171.96574   -279.93859    10890.368 
3200        0.98196753224352173461 10.150154279745921215 1 67 -302.84047528454141229
    3200    290.26482    8.9344436    66.057675   -171.32638      860.195    10890.368 
    3210    297.22518    9.1484913    66.395742   -169.76157    512.64828    10890.368 
    3220    280.79449    8.8477474    75.554127   -167.05926      788.964    10890.368 
    3230     265.9825    9.8816273    78.938925   -162.79358   -1340.3783    10890.368 
    3240    290.15947    9.9611528    76.161946   -157.10665   -1140.6467    10890.368 
    3250    311.81678    11.001397    66.376048    -151.2778   -1463.2588    10890.368 
    3260    300.74499    12.060653    80.897413   -146.01274   -3277.1655    10890.368 
    3270    329.80844    9.7173231    71.475653   -142.02666   -2062.8709    10890.368 
    3280    312.20577    10.370115    73.802546   -139.64879    2330.1942    10890.368 
    3290    334.02759    7.9147009    74.300589    -138.1949    1940.0665    10890.368 
3300        0.98867350271573406495 10.098369301611052506 1 70 -288.04735536292076858
    3300    332.10695    8.6522941    74.154275    -137.5753    5511.5671    10890.368 
    3310    328.16434    7.4675053    78.819439   -138.03434    -2528.227    10890.368 
    3320    341.23799    6.9913103    67.190029    -139.5419   -3828.0036    10890.368 
    3330    316.86101    6.9388451    73.145553   -141.80313   -1781.1408    10890.368 
    3340    307.35851    7.7424769    78.320389   -144.09443    453.12302    10890.368 
    3350    318.42034    7.1766809    75.693428   -146.98886    -527.1648    10890.368 
    3360    311.19859    6.2945917    71.595525   -150.59328    2725.7481    10890.368 
    3370     282.1037    4.9692656    82.934978   -154.22549    2495.3722    10890.368 
    3380    296.36715    6.9754602    68.886613   -157.49086     956.1908    10890.368 
    3390    279.32391    8.3210191    73.695745   -159.79625   -3488.4482    10890.368 
3400        0.9903967851946035017 10.079112664893182583 1 67 -290.98748589269274589
    3400    286.10526    7.0295419    71.904358   -161.35802     3297.025    10890.368 
    3410    281.39824    6.6551703    69.514141   -162.21823    3279.3821    10890.368 
    3420    297.52441    7.4399985    70.758122   -162.59463    539.33452    10890.368 
    3430    294.04422    10.548393    77.009804   -163.07739     790.8503    10890.368 
    3440    299.73397    10.420717    68.777163   -163.62707   -2802.7151    10890.368 
    3450    309.50957    10.731478     70.60853   -164.15237    157.74209    10890.368 
    3460    305.33414    8.1809923    69.762608   -164.88209   -1587.6324    10890.368 
    3470    307.61459    7.2360007    63.227052    -165.4417    671.59592    10890.368 
    3480    293.41037    8.0122249    77.027466   -165.70064    471.49394    10890.368 
    3490    279.35839    9.1589779     71.70804   -165.89928   -631.71976    10890.368 
3500        0.98468934000519181549 10.119076506155474604 1 65 -290.6041249135732869
    3500     275.3797    8.8582458    74.511786   -165.83423     2473.556    10890.368 
    3510     277.2493    9.2002168    69.563294   -165.35832    598.86384    10890.368 
    3520    301.27388    8.3172657    64.133815   -164.47456     736.8159    10890.368 
    3530     293.4817    9.1692381     64.21654   -163.27678   -1395.2595    10890.368 
    3540    275.02301    8.6417337    73.454796   -161.89619   -4482.4187    10890.368 
    3550    280.63274    9.7584414    78.214192   -160.69896   -962.55675    10890.368 
    3560    306.79295    7.6623811    65.648743   -159.88423   -2302.8692    10890.368 
    3570    307.63613    9.4022544    68.171479   -159.27857    1159.5734    10890.368 
    3580     306.7951    8.1160451    63.638553   -158.75615     1627.921    10890.368 
    3590    291.71572    7.8068993    73.703811   -158.19831    3324.2086    10890.368 
3600        0.9811032087920481537 10.143860417760684811 1 65 -300.71550955650207015
    3600    316.01019    8.8154343    67.316074   -157.53662    182.88829    10890.368 
    3610    298.63007    12.323301     70.85782   -156.81132   -4560.1501    10890.368 
    3620    303.97162    6.8308149    74.223451   -156.17761    1099.0203    10890.368 
    3630    283.52768      5.57644    77.946872   -155.74353   -347.75672    10890.368 
    3640    298.89659     5.009801    75.867384   -155.48727    1058.7665    10890.368 
    3650    304.48515    6.6059381    72.835488   -155.59812    1178.1307    10890.368 
    3660    322.28159    5.7690402     66.91016   -156.11287   -628.59711    10890.368 
    3670    316.31704    6.8598527    69.136389   -157.17206     263.7891    10890.368 
    3680    317.77292     8.229754    61.770245   -158.75094   -2140.5711    10890.368 
    3690    274.92995    10.982846    80.018214   -160.50014    1469.9893    10890.368 
3700        0.98061987931402316843 10.176034124119901492 1 65 -292.51453580106374375
    3700    286.77308    12.325908    69.118491   -162.58249   -3706.5051    10890.368 
    3710       271.31    10.619858    76.144517   -165.18008     786.0186    10890.368 
    3720    281.18077      10.0704    71.477057   -168.13993   -1571.1408    10890.368 
    3730    293.97705    9.3036598    65.028236   -171.57503   -199.41864    10890.368 
    3740    265.64071    7.4259642    77.078066   -175.46497   -1811.4614    10890.368 
    3750    290.60981     6.512721    58.140276   -179.02091     2285.519    10890.368 
    3760    286.65659    5.1816459    61.250784    -182.3243    951.33544    10890.368 
    3770    303.25502    6.0158407    51.328031   -184.84683    1325.9458    10890.368 
    3780    267.57196    6.2735364    61.839876   -186.54199   -3997.5118    10890.368 
    3790    293.69282    5.3100563    57.999762   -187.24465    867.53796    10890.368 
3800        0.98647011242699012001 10.137269119064438172 1 68 -305.32814451009738832
    3800    260.82226    4.9750559     63.38898   -187.15398    769.60958    10890.368 
    3810    268.55636    5.3026735    64.451884   -186.18843     287.0696    10890.368 
    3820    270.63226    6.0691123    67.491811   -183.93187    465.89725    10890.368 
    3830    274.07032     6.758176    69.537939   -180.13293     266.8056    10890.368 
    3840    306.51933     7.711162      58.7822   -174.87014    1201.9008    10890.368 
    3850    280.76443     7.294238    73.644064   -168.94694     195.9796    10890.368 
    3860    295.80656    9.9780716    62.740666   -163.97103   -1393.7476    10890.368 
    3870    287.12073    10.134182    77.095724   -160.03613    1031.1338    10890.368 
    3880    314.17483    10.124943    61.842334   -157.19183    -3471.485    10890.368 
    3890    300.49751    9.2504384    71.150438    -155.3343    2128.9691    10890.368 
3900        0.98933777306208903202 10.116273041702562807 1 67 -303.56535014061103084
    3900    330.31802    8.8524536    66.535149   -153.90383     818.5913    10890.368 
    3910    325.20362    7.6339051    70.910888   -153.17875    3340.9515    10890.368 
    3920     310.0452    9.4210096    66.380117    -153.0528   -1038.5149    10890.368 
    3930    298.04926     11.14999    67.557127   -153.19046    198.72868    10890.368 
    3940    302.46938    11.933851    76.435827    -153.2492   -1714.2892    10890.368 
    3950    297.38443    13.163189    69.957337   -153.49488   -155.86902    10890.368 
    3960    292.26893    11.553552    77.532542   -153.87645   -1323.5012    10890.368 
    3970    293.19901    13.351658    68.495691   -154.48879    3158.4824    10890.368 
    3980    301.76257    12.131412     74.98479   -155.36938   -7.0551308    10890.368 
    3990    325.43803    7.8271852    66.747798   -156.61993    1216.9945    10890.368 
4000        0.98994616112546518494 10.105787595614756924 1 68 -298.89302988026702224
    4000    309.11547    8.4388308    68.735498   -158.83802   -1474.5442    10890.368 
    4010    276.66312    8.6129578    74.404838   -161.35687    279.03678    10890.368 
    4020    289.19943    11.473464    66.484764   -163.94324    1789.0999    10890.368 
    4030    299.36156    9.2425927    65.518737   -166.48068    1092.1381    10890.368 
    4040    304.17398    8.5397986    61.723729   -169.29441    2756.4662    10890.368 
    4050    269.11986    8.0590427    69.453073   -172.31333   -1536.9104    10890.368 
    4060    265.13738     9.827432    67.141049   -175.02107   -1057.4445    10890.368 
    4070    258.26592    13.853536     62.90357   -178.50413   -1930.3243    10890.368 
    4080    262.87241    11.895794    61.255006   -179.61959    727.52299    10890.368 
    4090    300.90065    8.1972929    60.274848   -179.92112    87.444874    10890.368 
4100        0.98520551954513213566 10.146436123285882402 1 75 -298.75251260906372863
    4100    262.57944    6.4672832    65.957532    -179.7822   -3143.5554    10890.368 
    4110    280.39375    6.2300969    58.178356   -178.73266    913.49257    10890.368 
    4120    264.39827    7.5496534    73.976663    -176.4512    797.88548    10890.368 
    4130    275.45144    7.4081306    63.086494   -172.59498   -1284.5327    10890.368 
    4140    276.92095     6.527143    65.814645   -167.47015    -1631.014    10890.368 
    4150    308.15833    7.1951072    61.802566   -161.07404    1122.9389    10890.368 
    4160    319.37043    6.6792251    71.722577   -155.50827    1302.3802    10890.368 
    4170    328.49858    6.4699231    67.212416   -151.40833   -575.57106    10890.368 
    4180    345.23298    5.0548928    64.234701   -147.87972   -1412.5772    10890.368 
    4190    327.36869    5.5647493    62.015706   -147.02004    375.93544    10890.368 
4200        0.98190396980562877349 10.159419855147524103 1 68 -295.95679322041274872
    4200    329.14844    5.7970911    67.279513   -146.82519    976.12104    10890.368 
    4210    301.85527    7.7568904    72.215465   -147.01272    1901.1366    10890.368 
    4220    307.96766    7.7819486    70.661367    -147.4699   -1995.8387    10890.368 
    4230    301.85314    8.9290148    75.662896   -148.12477    648.29239    10890.368 
    4240    306.60302    8.5814082    68.029695   -149.23865   -1814.7125    10890.368 
    4250    298.45935    7.6218754    75.077208   -150.82701    3278.2595    10890.368 
    4260    296.92735    6.3375985    76.292363   -152.70002    -283.2757    10890.368 
    4270    298.42702    7.2999409     67.99058   -154.64323    2351.4535    10890.368 
    4280    283.29093    8.1166464    68.426115   -159.23044   -1827.7265    10890.368 
    4290    286.82106    5.2383829    70.262298   -161.22721   -314.61069    10890.368 
4300        0.97635525880179530045 10.158186029741758105 1 69 -302.77623938874990017
    4300    307.89315    3.8632917    64.268997   -163.27505   -325.43023    10890.368 
    4310    307.80129    4.9925018    62.100714   -162.82479   -821.92806    10890.368 
    4320    299.91712    6.8352414    62.204936   -165.05584   -1807.9373    10890.368 
    4330    300.53808    5.2768105    65.511019   -167.74445    2413.5807    10890.368 
    4340    304.71506    5.9867086    62.089674   -171.57902    2418.2805    10890.368 
    4350    293.83238    8.5270635    61.339553   -175.97469   -521.12279    10890.368 
    4360    276.96816     8.524992    63.660782   -180.44818    -1395.679    10890.368 
    4370    262.58577    7.8677196    63.267435   -184.16524   -3666.6901    10890.368 
    4380    279.22804    8.7438663    59.404144     -186.609    207.38952    10890.368 
    4390    264.87966    9.7130011    62.014259   -188.05722   -1723.3791    10890.368 
4400        0.96954538525767786084 10.194567876014161811 1 66 -315.73481197277340016
    4400    281.09214    7.9314037    57.558471   -188.37671    986.67784    10890.368 
    4410    269.70913    4.3952061    58.089471   -187.67983    2049.9556    10890.368 
    4420    275.69008    4.5642665    57.633349   -185.82389    463.20464    10890.368 
    4430    272.34089    4.3001714    57.947662   -182.40326   -3847.4571    10890.368 
    4440    272.56214     2.894985    65.432811   -177.95895    415.98566    10890.368 
    4450    297.92909    2.3146954    64.106749   -172.74548    151.52036    10890.368 
    4460    294.83664    4.1058418    60.349491   -168.25231   -176.26015    10890.368 
    4470    287.90382    5.3551457    61.278585   -165.23755   -2210.0108    10890.368 
    4480    289.63639    6.8955947    65.334185   -163.13113    49.103311    10890.368 
    4490    301.06337    6.0970656    63.424866   -161.46515    3629.7529    10890.368 
4500        0.97684592836176353803 10.152322798345842614 1 66 -293.09911124227352275
    4500    294.05419    5.6187567    66.839562   -159.86812    3883.0942    10890.368 
    4510     303.7436    6.1565252    61.855727   -158.66733   -1063.7776    10890.368 
    4520    250.03136     5.957942    80.464593   -157.77411   -492.70739    10890.368 
    4530    307.90152    5.1447345    60.697054   -156.24207   -1147.5503    10890.368 
    4540    272.72774    5.8871347    71.321839   -154.27527      1887.71    10890.368 
    4550    295.96601    4.7817391    71.332051   -152.02761   -3222.6898    10890.368 
    4560    289.56356    6.1021523    74.787831   -149.55249    1419.1637    10890.368 
    4570    307.35444    5.9915256    77.524702   -146.98372   -321.59829    10890.368 
    4580    298.84513    8.1875012     76.74125   -145.02251    4596.5683    10890.368 
    4590    297.57207    6.4547814    78.166671   -144.00949   -4072.1385    10890.368 
4600        0.98349023197303142574 10.133284556474114524 1 66 -290.17179490895927074
    4600     322.9092     8.155864    73.017961   -143.86708    787.72378    10890.368 
    4610    316.66133    7.7826651    73.119887   -144.63839   -4665.4496    10890.368 
    4620    325.99162    7.3051965     67.91433   -146.40312    3035.4446    10890.368 
    4630    294.32527    8.9642385    78.296914   -148.82544    1554.4988    10890.368 
    4640    305.22643    10.847443    61.748559   -152.03142   -947.43778    10890.368 
    4650    266.94235    10.644483    75.557291   -155.64842   -1376.5512    10890.368 
    4660      296.139    7.3995721    60.965118   -159.30459    69.156089    10890.368 
    4670    264.13835    7.4515739    76.303272   -162.59235    1965.2656    10890.368 
    4680     268.3206    7.9910732    66.953963   -164.97403   -1361.0939    10890.368 
    4690     279.8767     8.875347     65.19623   -166.76857   -1404.0843    10890.368 
4700        0.98613084557455266133 10.109329646910552469 1 68 -288.59510656106294846
    4700    266.12682    7.0784195    71.002894   -168.01754    3542.5831    10890.368 
    4710     281.8003    8.4795488    63.251407   -168.57059    888.35951    10890.368 
    4720    299.56075    7.9269178    70.041136   -168.47003    1763.2821    10890.368 
    4730    321.12379    8.6933519    56.927868   -168.24203   -1382.1167    10890.368 
    4740    288.64534    8.2242149    68.021104   -168.43084    -1468.281    10890.368 
    4750    274.71243    7.6477009    63.419199   -168.36967    253.11829    10890.368 
    4760    285.60017    8.0070371    62.035784   -167.32077    1396.1448    10890.368 
    4770    289.91275    5.2286822    71.242899    -164.9381    1107.8621    10890.368 
    4780    303.39016    5.9703535    64.105686   -161.37193   -1347.8178    10890.368 
    4790    275.88011    8.0495923    68.896179   -157.35418   -2358.8776    10890.368 
4800        0.98754306813674608279 10.124495614996254389 1 72 -282.57448696780664932
    4800    286.48419    9.1757649    74.044538   -152.77333    3111.0316    10890.368 
    4810    297.65031    10.385222      76.6572   -147.98003    466.74734    10890.368 
    4820    325.31418    10.121324    71.979021   -143.83498    1054.1129    10890.368 
    4830     340.3927    9.5541231    70.923301   -141.22694   -1409.2736    10890.368 
    4840     336.9913    6.5400492    72.253308   -140.25191   -615.85155    10890.368 
    4850    340.29111    6.4074651    72.388186    -140.8814   -24.343283    10890.368 
    4860    317.65097    6.0417745    79.269137   -143.17965   -2688.6698    10890.368 
    4870    307.20998    7.2681263    71.038909   -146.32523    1584.4039    10890.368 
    4880    280.15177    9.8637425    70.584383   -149.69167   -981.24566    10890.368 
    4890    308.30779    9.7155599     62.37652   -152.49562   -241.15043    10890.368 
4900        0.98152907565834435211 10.140701089638275434 0.99735449735449732689 70 -287.68118669148844901
    4900    292.41084    7.5694073     70.57951   -155.19477    906.87921    10890.368 
    4910    299.93666    6.8472965     65.38916   -157.48895    934.20649    10890.368 
    4920     287.6762    6.2663406    67.378409   -159.72158   -286.19085    10890.368 
    4930     294.3836    4.8041046    65.992755    -161.5551   -630.75999    10890.368 
    4940    305.43173    4.1376737    64.080279   -163.39558    667.41116    10890.368 
    4950    280.20929    6.7950193    65.588673    -164.8474   -2494.0325    10890.368 
    4960    298.64703    7.0282353    59.006298   -165.78148   -2218.5888    10890.368 
    4970    308.61352    6.9548387    66.633563   -166.50037    1407.0084    10890.368 
    4980    292.63752    7.8632547    64.538278   -167.38192    1125.9277    10890.368 
    4990    263.82337    7.7347362    67.225254   -168.21708   -100.86011    10890.368 
5000        0.97680924099907739944 10.171830430651647603 1 71 -294.03918802219175177
    5000    277.64842    6.3263763    65.485064   -168.24137    1160.7995    10890.368 
    5010    287.30759    4.5024678    70.411438   -167.36147    3796.8107    10890.368 
    5020    313.92987    4.0438913    62.737526    -165.6342   -1999.8656    10890.368 
    5030    294.35317    5.2771179    73.375303    -163.0172   -4290.6567    10890.368 
    5040     323.0905    5.7555401    67.799922   -159.68113    818.44364    10890.368 
    5050    297.18637      8.43112    79.375663   -156.29864    1824.0425    10890.368 
    5060    304.59793    8.8426426    68.893507   -152.84345   -5600.9218    10890.368 
    5070    297.76616     8.047279    73.631286   -149.74404    -851.7675    10890.368 
    5080    296.85429    5.7973107    74.314887   -146.85813     3166.065    10890.368 
    5090    306.03774    6.2009947    75.166363   -144.28959    4122.2915    10890.368 
5100        0.97745464914777202559 10.181009939379931595 1 70 -283.71461050489375566
    5100    312.70113    7.1265869    75.777461   -142.03501   -1891.3095    10890.368 
    5110    306.61037    6.2274667    76.677124   -140.26657   -1487.4395    10890.368 
    5120    298.50451    6.3280795    84.826964   -139.13584   -2345.5398    10890.368 
    5130     322.6211    6.4018665    71.984348   -139.07179    1977.2857    10890.368 
    5140    311.24358    7.0084788    78.421993   -140.38411    2127.1775    10890.368 
    5150    312.63773    7.3028974    73.238949   -142.91833    1430.0467    10890.368 
    5160    316.43722    5.3303958    73.269666   -146.49673   -914.31299    10890.368 
    5170    277.23185    4.3087399    75.825068   -150.76702   -823.06536    10890.368 
    5180    268.85076    3.7291154    72.440362   -154.60741   -799.63341    10890.368 
    5190    282.57687    4.4408415    76.300338   -157.87753   -324.83294    10890.368 
5200        0.97750588498650436975 10.177577495049487055 1 70 -291.55964485230072114
    5200     288.7027    5.3591742    71.693134   -160.75332   -2078.0854    10890.368 
    5210    288.50784     7.908574    64.257368   -163.33037    -770.1078    10890.368 
    5220    266.64606    9.3219205    73.475783    -165.1093    703.37946    10890.368 
    5230    294.30641    9.8336117    63.531802    -166.0061    1747.9937    10890.368 
    5240    254.00819    9.7540524    82.125323    -166.4892   -1197.0854    10890.368 
    5250    281.86134    9.3308049    65.514785   -166.39196   -2063.0546    10890.368 
    5260     262.7744    6.8706076    76.692396   -165.77942    3324.3239    10890.368 
    5270    284.75863    6.5240002    69.385505   -164.71191   -3006.3716    10890.368 
    5280    281.37502    6.8593996    75.048762   -163.35715    -796.2208    10890.368 
    5290    294.54486    8.9745219    67.665669   -161.87549   -1738.9119    10890.368 
5300        0.97756054422990690256 10.158434325347471372 1 70 -296.12913274625714166
    5300    299.60631    8.0053198    77.457222   -160.38257   -943.94864    10890.368 
    5310    315.29457    8.0314611    59.498089   -159.25355   -137.74434    10890.368 
    5320      283.908    8.4238941    71.582582    -158.4122    522.56013    10890.368 
    5330    264.72985    7.2531371    74.857357   -157.31691     4340.888    10890.368 
    5340    293.81055    7.2059039    75.338063    -155.7337    2009.0716    10890.368 
    5350    298.82124    9.8157913    64.960265   -153.51833   -81.954349    10890.368 
    5360     289.5029    11.087263    70.093261   -149.59483   -3158.7455    10890.368 
    5370    312.86855    9.3862845    71.548907   -142.14784    1343.5787    10890.368 
    5380    321.22443    8.6275952     71.58437   -132.41354    19.617216    10890.368 
    5390    340.08876    10.978492    68.125254   -124.49657    792.11219    10890.368 
5400        0.98407218012259134454 10.128046121579119543 1 68 -262.85608713235808409
    5400    314.90769    7.1749116    85.622153   -120.17673   -845.74741    10890.368 
    5410    322.66389    7.6620428    81.114638   -118.59565   -569.64097    10890.368 
    5420     316.9854    6.1500187    87.296952   -118.78134   -990.37967    10890.368 
    5430    331.42283    6.3729974    73.507358   -120.33941      3441.74    10890.368 
    5440    318.36909     4.768416    79.675977   -122.91468    1060.8428    10890.368 
    5450     316.4957    5.2076241    75.638757   -125.89025    55.014904    10890.368 
    5460    316.67042    7.6589428    76.451934   -129.67751     -488.174    10890.368 
    5470    307.39864    6.8458616    76.696852   -134.17489    4486.4919    10890.368 
    5480    321.25463    7.1222754    67.318516   -140.28709   -4498.5281    10890.368 
    5490    303.70559    6.3674693    67.762678   -145.11623   -4.2450083    10890.368 
5500        0.98935977129952457076 10.086235912011250804 1 68 -289.08647842483463819
    5500    308.75977    7.3671004    69.178438   -149.19264   -1407.2216    10890.368 
    5510    291.98489    9.2020365    66.770931   -151.45611   -406.12024    10890.368 
    5520    285.65827    9.4804719    65.737234   -153.81439     19.34715    10890.368 
    5530    297.96117    7.9732916    65.049722   -155.49488    779.67767    10890.368 
    5540     303.6066    5.1112599    68.351346   -156.98987    1501.5524    10890.368 
    5550    297.33666    5.4308364    59.003338   -158.55669   -3369.3851    10890.368 
    5560    290.82792     5.299017    63.400004   -159.75724    416.98521    10890.368 
    5570    274.31951    6.8566084    70.122323   -160.16443    3992.5395    10890.368 
    5580    306.48122    9.1137308     61.42206   -159.97146    1568.3038    10890.368 
    5590    300.40055    8.1803399    66.507719    -160.0167   -719.42229    10890.368 
5600        0.98580590172566917584 10.088565644087475803 0.99470899470899465378 68 -303.75719509549816166
    5600    316.39851    9.5237077    56.558617   -160.40237    -1137.182    10890.368 
    5610    303.91301    8.0793339    62.395718   -160.99805    1038.9304    10890.368 
    5620    297.89756     5.866656    61.765668   -161.65414    1245.3701    10890.368 
    5630    289.48658    5.1884257    64.161928   -162.45756   -3829.9178    10890.368 
    5640    291.65804    4.8115713    67.696846   -163.60203   -138.91772    10890.368 
    5650     311.1787    5.6526425    56.722728   -164.93666    2037.8264    10890.368 
    5660    294.14325    5.3313374    65.989927   -166.62441     4417.368    10890.368 
    5670    289.67405    8.0203631    61.491577   -168.54632   -1876.3441    10890.368 
    5680    265.62734    7.8845549    68.277055   -170.78431   -5160.3126    10890.368 
    5690    286.15322    8.0892686    62.980424   -172.91763   -3204.4275    10890.368 
5700        0.98483710763254506126 10.13429619366400658 1 67 -303.07151673874750486
    5700    282.87747    8.0604747     59.68725   -174.90451    386.50049    10890.368 
    5710    274.33195    9.8382034    58.580734   -176.35645    1555.3202    10890.368 
    5720    255.41642    12.146328    66.259281   -177.23729    1677.2248    10890.368 
    5730    264.24915    9.4859107    61.680739   -177.33512   -1251.8541    10890.368 
    5740    271.01911    9.2139854    65.451268   -176.61997    1452.9845    10890.368 
    5750    278.51406    8.1442198    63.636769   -175.06824    2009.8202    10890.368 
    5760    289.12847    7.2450839    61.553478   -172.39138    1157.9143    10890.368 
    5770    248.50747     6.757913    70.071437   -168.94271   -2218.9724    10890.368 
    5780    275.97083    6.7730804    63.198238   -164.22728   -2369.6351    10890.368 
    5790    301.47056    7.4167614    64.122468   -158.64537    1028.8998    10890.368 
5800        0.98196955856096457271 10.148964955711399227 1 66 -297.88342594004927832
    5800     317.6152    6.3554111    61.797893   -153.97734    -2072.461    10890.368 
    5810    329.11554    7.2007956    60.962574   -150.55057   -3315.2637    10890.368 
    5820    325.26328     8.298211    64.905993   -148.64967   -2803.1101    10890.368 
    5830    311.04996    7.6242032    70.013438   -147.75972    1242.1005    10890.368 
    5840    316.71576    5.5027779    73.342715   -147.53499    2586.9235    10890.368 
    5850    319.97764    5.1765504    65.886921   -148.10358    4767.9171    10890.368 
    5860    327.71713    5.5291731    65.199832   -149.37531    2531.9443    10890.368 
    5870    304.41368    7.6218053    65.943813   -151.27849    86.160305    10890.368 
    5880    304.98634    5.4495103    69.364416   -153.21111   -3816.2362    10890.368 
    5890     299.7336    3.7016408    70.628386   -156.62743    -3621.509    10890.368 
5900        0.9797954802985646694 10.16396718693793666 1 70 -296.51555063607713691
    5900    303.69974    3.8584685    70.678232   -158.91432   -1710.4145    10890.368 
    5910    296.38855    5.1746974    67.844173   -161.44738     602.6063    10890.368 
    5920    278.26651    8.4304282    69.278716   -163.81638    2962.7115    10890.368 
    5930    279.67765    9.5783622    62.959565   -164.38815    260.88398    10890.368 
    5940    282.01228    11.035044    68.754889   -165.73821      3460.25    10890.368 
    5950     304.1179     7.789977    63.672768   -166.85344    1682.6947    10890.368 
    5960    301.85865    5.1336054    61.691821   -168.22178    1412.4562    10890.368 
    5970    265.01437    3.9267699     69.59325   -169.71914   -3332.7024    10890.368 
    5980    272.25434    3.1807336    63.992797   -170.77302   -4109.9486    10890.368 
    5990    269.33377    4.7701581    69.646552    -171.3144   -3438.5604    10890.368 
6000        0.98087415151728185592 10.158085726976670671 1 67 -307.35743582044892719
    6000    300.04989    4.8496384    59.891705   -171.40989    1253.1904    10890.368 
    6010    286.81931    7.4030726    60.967382   -171.03142   -1298.5341    10890.368 
    6020    293.08164    8.8299447    55.307466   -169.76304    2024.4825    10890.368 
    6030    286.83027     9.673012    62.710101   -167.31346    2969.5082    10890.368 
    6040    292.50746    8.6612056    65.411973   -163.68788    3303.9649    10890.368 
    6050    294.44088    9.8797968    64.054378   -159.74569   -4650.8544    10890.368 
    6060    324.28552    11.861102    56.659835   -155.92934   -2472.7366    10890.368 
    6070    339.86686    12.603299    58.434472   -152.39237   -2002.8783    10890.368 
    6080    339.14866    11.618652    53.541677   -149.52955    4263.7902    10890.368 
    6090    308.07937    13.287136    68.458937   -147.29266   -2806.4773    10890.368 
6100        0.98513232673199113698 10.118652001852103339 1 71 -281.820085925529213
    6100    300.93407    11.716352    65.679294   -145.47194     3963.842    10890.368 
    6110     332.7355    7.9550536    62.928992   -143.72532   -2262.2177    10890.368 
    6120     328.1651    6.6248442    66.909034   -142.75571    4938.1444    10890.368 
    6130    350.42672     4.925494    60.013557   -142.82962    718.93774    10890.368 
    6140      317.766    7.2661104     68.45835   -144.19489    2467.9125    10890.368 
    6150    329.14152    8.0517145    59.679606   -146.48383   -2391.1216    10890.368 
    6160    287.50713    7.0111374    73.280618   -149.71166   -422.50712    10890.368 
    6170     324.0128     8.613292    64.518971   -153.12728   -664.61622    10890.368 
    6180    309.49804    6.3895204    67.746977   -157.43247    175.95759    10890.368 
    6190    304.29556    7.0276068    58.272506    -161.9641   -1565.9233    10890.368 
6200        0.98210477589070599436 10.1423553703977678 1 68 -285.49066155395610167
    6200    264.44967    5.8021823     72.04569   -165.67298    1200.3954    10890.368 
    6210    292.34968    6.6148008     59.75912    -168.1003    1657.2078    10890.368 
    6220    277.76857    6.3248169    65.143078   -169.75641   -38.088139    10890.368 
    6230    286.55582    9.6375696    57.508684     -170.584   -1014.4349    10890.368 
    6240    280.02356    10.389027    67.415672   -170.75981    1002.9477    10890.368 
    6250     293.3992    10.793467    64.097015   -170.65062    2423.8691    10890.368 
    6260    283.92341    9.3933528    64.319541   -170.46311   -185.01181    10890.368 
    6270       272.85    8.7946549    60.128583   -169.95647   -1449.2583    10890.368 
    6280    296.74447    8.2082089    60.354681   -168.84543   -1855.2811    10890.368 
    6290    285.23442    7.0738464     67.12031   -167.42865    2079.4462    10890.368 
6300        0.98297499936758092609 10.140389039045260233 1 67 -309.23475556265481146
    6300    315.76002    5.6009696    60.362288   -166.16922   -518.01932    10890.368 
    6310     280.3441    6.9310543    68.995083   -165.34933    462.10862    10890.368 
    6320    293.85963    7.6291387    57.533438   -164.40227   -1325.6857    10890.368 
    6330    281.49684    8.5424398    71.510087   -163.09673    1700.8028    10890.368 
    6340    301.99016    9.1154138    61.694614   -161.82515   -28.999776    10890.368 
    6350    273.31203    10.161141    70.195577   -160.74489    -1321.857    10890.368 
    6360    300.83919     7.785415    69.023502   -159.67127    1355.0968    10890.368 
    6370    301.22615    7.2605196     59.73588   -158.89736   -1362.1226    10890.368 
    6380    297.90383    6.6860434    70.257692    -158.4473    1639.7714    10890.368 
    6390     301.4717    5.4639143    63.311336   -158.29745   -3567.2458    10890.368 
6400        0.97540940961643607388 10.192277240568969887 1 70 -284.54544044392434898
    6400    278.81161     5.803205    71.776146   -158.22061   -1037.2814    10890.368 
    6410    299.05548    3.9485696    71.638039   -158.14576    184.13721    10890.368 
    6420     269.6626    5.6932928    73.841398   -158.28204   -455.93749    10890.368 
    6430    285.63064    7.4184015    68.043475   -158.14971    410.71923    10890.368 
    6440     301.6242    8.3890214    59.649992   -157.52784   -1413.1678    10890.368 
    6450    293.95678    8.1359001    66.116942   -156.51577    1993.4753    10890.368 
    6460    282.95948    9.9327386    72.914873   -155.33507    1660.5549    10890.368 
    6470    278.30523    11.294076    73.468533   -154.07423    1294.4621    10890.368 
    6480     309.8193    11.108293    61.764068   -152.47224   -1647.4404    10890.368 
    6490    310.31351    6.6904965    64.924185   -150.42209   -865.80466    10890.368 
6500        0.97214351803000942365 10.194528233463525879 1 69 -292.97389383419283604
    6500    320.60704    5.6592332    63.910354   -147.71225    1210.8475    10890.368 
    6510    297.53298    7.5794977    67.306046   -144.32291    900.51508    10890.368 
    6520    320.43741    9.4481121    60.344403   -139.27389   -67.426491    10890.368 
    6530    347.05339    9.9462882    60.767227   -131.85918    -2753.816    10890.368 
    6540    347.16249    10.776564    74.133826   -124.76704    2628.9425    10890.368 
    6550    360.54257    8.5915009    62.076013   -120.21561   -1874.3889    10890.368 
    6560    354.43644    7.8718415    65.138087   -118.31858   -234.59733    10890.368 
    6570    376.92317    8.1376254    61.092075   -117.92901     1235.116    10890.368 
    6580    371.41165    9.0323673    59.936384   -119.17063    3234.5463    10890.368 
    6590    358.68278    10.049406    66.459041   -122.00722    2476.6899    10890.368 
6600        0.97237216641344870194 10.189742110348172233 1 70 -274.32992100667604518
    6600    328.20526    9.8300879    67.457315   -125.62566   -3624.1951    10890.368 
    6610    338.00138    8.8041002    64.371585    -129.4319   -5037.5346    10890.368 
    6620    333.38907    8.0393849    71.759925   -133.95353    1544.9153    10890.368 
    6630    331.06154    7.1063671    64.672978   -138.21197    2303.7185    10890.368 
    6640    330.99236    4.2366069    61.828606   -142.04472    1789.8515    10890.368 
    6650    307.66899    4.0902253     63.41496   -144.69514   -2713.4997    10890.368 
    6660    309.35905    5.0041375    69.740594   -146.96998     436.2903    10890.368 
    6670    299.95007    6.4864623    75.434284   -149.20814     973.4775    10890.368 
    6680    313.27462    5.7058107    60.690975   -151.29821   -2372.0011    10890.368 
    6690     306.4893    5.0516978    64.479044   -153.14946   -740.16269    10890.368 
6700        0.97076197348562542899 10.1910869992931854 1 65 -304.64367216447703868
    6700    331.18513    5.6802346    59.174968   -154.58928   -1161.5199    10890.368 
    6710    325.03153    6.0680337    60.001404    -156.1515    3421.8049    10890.368 
    6720    318.87918    7.0081337    59.778927   -157.88182    2345.4816    10890.368 
    6730    309.38868    6.8243622    52.745579   -159.75304    37.223206    10890.368 
    6740    283.94313     4.165364    64.114607   -161.27419   -2014.5063    10890.368 
    6750    317.37403    4.6645511    58.995016    -162.4421   -2137.5204    10890.368 
    6760    304.46141    6.4000156    64.600348    -164.0048   -1217.8298    10890.368 
    6770     299.1142    7.3498355    59.911432   -165.96879    1201.5218    10890.368 
    6780    293.25548    4.8297689    66.997918   -168.03531    154.12504    10890.368 
    6790     309.2776    6.3027506    58.311864   -170.31443     2641.982    10890.368 
6800        0.96846358998754666914 10.193386567893545802 1 65 -297.3912263788082555
    6800    274.32124    7.8317436    65.652135    -173.1009    41.662799    10890.368 
    6810    256.79962    9.6347437    61.070092   -175.84969   -1147.7234    10890.368 
    6820    245.80656    7.3857883    63.872196   -177.70914    -1177.128    10890.368 
    6830    285.37379    7.3166359    55.993967   -178.48176   -3733.2217    10890.368 
    6840    284.24029    6.8468878    59.308814   -178.55598    1374.3734    10890.368 
    6850    263.81595    7.1506274    66.476048   -178.18274   -288.27988    10890.368 
    6860     249.5368    11.315458    65.211802   -176.75688    797.91468    10890.368 
    6870    288.49545    12.042479    56.331819   -173.29503   -987.53373    10890.368 
    6880    290.36175    13.518796    67.453828   -168.01788    1256.5172    10890.368 
    6890    292.27095    11.500367    65.738899   -162.11771     767.8284    10890.368 
6900        0.97115986709407897681 10.186592820585687491 0.99735449735449732689 62 -287.46061878274582568
    6900    287.84797    10.563088    66.331621   -157.04156    -2637.321    10890.368 
    6910    306.84046      10.4949    61.249838   -152.70137   -966.87961    10890.368 
    6920    306.55344    8.0967817    66.763658   -149.43544    590.58768    10890.368 
    6930    317.57391    6.1115272    57.952321   -146.94628    4453.9933    10890.368 
    6940    307.68706    5.4985057    66.016503   -144.82371    1214.0416    10890.368 
    6950    312.92187    5.4368507    62.004985   -142.84488     216.2878    10890.368 
    6960    298.15594    4.3615393    74.073908   -141.20227   -2729.3591    10890.368 
    6970    292.05727     4.438829    77.475259   -140.24778   -2278.9508    10890.368 
    6980    308.52046    4.9559084    66.249681   -139.93986   -2148.0118    10890.368 
    6990    313.29327    5.2768301    65.116642   -140.09615    3102.6997    10890.368 
7000        0.97827910294829711901 10.133949060609911186 1 65 -283.16883671914001752
    7000    314.99931    6.0629197    68.347075   -140.44797    2189.9698    10890.368 
    7010    320.22527    5.3340058    64.981522   -141.18638    1314.6242    10890.368 
    7020    313.36398    5.6950511    59.728103   -142.71262   -1199.5758    10890.368 
    7030    302.38917    3.1090971    63.408321   -144.52373   -19.171852    10890.368 
    7040    318.47485    3.7467198     63.95361   -146.55667    554.55684    10890.368 
    7050    290.39852    4.6124198    68.735762   -149.58897    1520.0553    10890.368 
    7060    309.10993    4.3835036    61.078332   -153.44585    1657.6271    10890.368 
    7070    310.41757    4.8347685    60.230976   -157.97953     661.7915    10890.368 
    7080    297.98881    6.5561901    62.403091   -162.69686   -2381.3393    10890.368 
    7090     286.5481    9.1605729    58.141511   -166.94134   -3884.1261    10890.368 
7100        0.97959620873409980479 10.14075971020607092 1 68 -291.89859543379185425
    7100    264.64125      10.0769    59.797825   -171.99411    -2903.309    10890.368 
    7110    271.39909     7.658317    61.563853   -172.01303    3327.5866    10890.368 
    7120    268.86605    7.4228884     57.28977   -172.72663   -583.65987    10890.368 
    7130     271.2696    7.4838574    58.391224   -172.47758    348.77848    10890.368 
    7140    283.08375    7.1353723     54.41416    -171.3426   -3612.1804    10890.368 
    7150    272.54438    5.6287955    57.953794   -169.47506     1629.785    10890.368 
    7160    279.84714    5.7868216    58.784638   -166.84377    1576.4548    10890.368 
    7170    283.74818    7.8743752    64.705949   -163.99942    1937.0507    10890.368 
    7180    289.72946    9.2084565    63.866156   -161.50984     557.7702    10890.368 
    7190     317.5888    8.8050131    58.085832   -159.31888    1179.8855    10890.368 
7200        0.97947764389864577783 10.12676124867579297 1 72 -304.82409271668882411
    7200    324.82554    8.9131444    62.113553   -157.65112    1359.9983    10890.368 
    7210    310.41987    4.5030227    67.783404    -157.0091    2778.5329    10890.368 
    7220    280.23554    4.3634691    73.489637   -157.13265   -1847.5191    10890.368 
    7230    272.81001    6.3519266    63.304458   -156.99946   -3712.6022    10890.368 
    7240    295.91315     5.802725    66.249759   -156.46887   -1536.7314    10890.368 
    7250     288.6108    4.7263051    72.553064   -155.89221      2632.93    10890.368 
    7260    266.10167    5.7399865    72.152978   -155.22809    858.37038    10890.368 
    7270    276.65297    6.9704333    64.662029   -153.86751   -719.76317    10890.368 
    7280    289.96821    8.3791557    67.849713   -151.89611    321.51673    10890.368 
    7290    304.34251     6.973436    68.400077   -149.89253    2830.5905    10890.368 
7300        0.97926484845422179237 10.161243502949895756 0.99735449735449732689 69 -278.98884764591076646
    7300    288.73951    5.4314767    65.262023   -148.16585   -1832.3596    10890.368 
    7310    290.20298    5.1395101    59.968319   -146.40572   -2247.7998    10890.368 
    7320    275.24255    6.4045803    68.352553   -144.01875   -3352.2041    10890.368 
    7330    302.91276    7.0135867    71.075444    -140.5321    3127.6454    10890.368 
    7340    311.55197    7.7255886    66.807616   -136.67611   -1063.1846    10890.368 
    7350     318.2078    9.0354247    67.359486    -133.1263    596.52844    10890.368 
    7360    319.88841    8.0581395     68.99873   -129.84137   -1459.9959    10890.368 
    7370    332.76735    8.5034564    60.595775   -127.04638    604.19333    10890.368 
    7380    335.46028    7.7559947    70.351237   -124.83347    2959.4524    10890.368 
    7390    331.79518    10.055767    64.064045   -123.29217    571.06098    10890.368 
7400        0.9812258720169015902 10.140385760548568328 1 71 -270.82968296246264117
    7400    326.65672    10.191255    69.571335   -122.82704   -1434.2702    10890.368 
    7410    332.98841    9.8488933    67.134518   -123.57328   -1188.8893    10890.368 
    7420    324.70767    8.6948189    68.708753   -126.23934   -1821.2656    10890.368 
    7430    309.47463    8.1449059    60.513564   -131.55276    5203.6567    10890.368 
    7440    278.31026    8.5538396    65.423198   -137.93109   -1565.1599    10890.368 
    7450    303.07059    8.0157501     57.38543   -143.91551    539.83964    10890.368 
    7460    284.26796    8.3672597    71.390822   -149.17716   -792.05729    10890.368 
    7470    293.48385    5.7871786    69.392988   -153.49729    573.17229    10890.368 
    7480    281.26032    5.7399053    61.662315   -156.67472   -839.94213    10890.368 
    7490    279.96848    6.1785286    61.621639   -158.81445   -1565.8669    10890.368 
7500        0.98271557341039883493 10.121583317264970958 1 70 -293.0868228787295493
    7500    293.33124    6.3650275    64.607249   -160.18339    1312.1287    10890.368 
    7510    302.37989     6.144587    62.857317   -161.05601    2435.7354    10890.368 
    7520    312.51277    4.0606861    58.716532   -162.40384     -116.496    10890.368 
    7530    244.37528    4.9771777    79.828509   -164.16527   -455.93423    10890.368 
    7540    258.31186    4.9675123    61.874069   -165.07733   -2916.0439    10890.368 
    7550    268.12279    7.2243476    63.770438   -165.06686    -3189.647    10890.368 
    7560    291.98086    7.7655701    58.628475   -164.18724    425.23767    10890.368 
    7570    287.02469     6.998913     63.42299   -162.51357    843.45686    10890.368 
    7580    283.16012    8.9001794    57.786294   -160.07358     1942.896    10890.368 
    7590    277.11763    5.8653379    63.665404   -156.63977   -715.96143    10890.368 
7600        0.98269254340556355665 10.118112295786501065 1 70 -281.1608582423859275
    7600    283.79192    6.4803668    65.211961   -152.57953    937.26163    10890.368 
    7610    299.41414    6.7622577    65.564312   -147.83738    702.28509    10890.368 
    7620    265.66796    7.5706152    70.710075    -143.6231   -699.86978    10890.368 
    7630    311.14073    6.0384524     61.67484   -139.98836   -2188.4432    10890.368 
    7640    302.41268    4.4401151    68.135334   -137.05314   -1186.4816    10890.368 
    7650    333.21448    5.6025769    58.544011   -134.89198   -373.53642    10890.368 
    7660    290.75235    7.5204948     68.54941   -133.52532    1820.2469    10890.368 
    7670    299.73727    6.6799677    64.694822   -132.32118    852.61328    10890.368 
    7680    287.58713    9.3145944     72.31852   -131.07973    2899.5702    10890.368 
    7690    318.08576    10.242318    56.661847   -130.10503   -722.73703    10890.368 
7700        0.98552385607264669787 10.119430452594009751 1 67 -268.68161247150220561
    7700    307.50517    8.4214253    65.382173   -129.35621    264.34416    10890.368 
    7710    349.75748    5.5534126    56.603773   -128.50328    1219.6029    10890.368 
    7720    320.53999    4.0885225      71.2065   -128.35934   -936.10537    10890.368 
    7730    335.73708     2.827678     63.29374     -129.379   -330.15605    10890.368 
    7740    291.39361    3.1867935    75.295087    -131.1565   -1672.5643    10890.368 
    7750    313.62885    4.5059141    69.467003   -135.81807   -110.96191    10890.368 
    7760    297.55763    8.4751326     69.75114   -136.14025    816.85893    10890.368 
    7770    304.30492    8.7598903    61.968485    -139.1043   -815.10916    10890.368 
    7780    295.05176    10.322699    63.831902   -141.65775    488.31066    10890.368 
    7790    288.70948    8.6636431    60.229726   -143.63894    1200.3454    10890.368 
7800        0.98648901267570687779 10.122634137440345015 1 67 -272.96042897815755168
    7800    282.56056    6.5924053    63.742375   -144.93701    987.61205    10890.368 
    7810    287.50488    5.8493025    71.390814   -145.61984     -532.496    10890.368 
    7820    296.06565    4.4445909    73.086186    -146.3839   -3067.3692    10890.368 
    7830    316.79871     3.995522    62.773297   -147.70347   -3492.1276    10890.368 
    7840    330.28332    5.7476052    63.098756    -150.1946    1282.0016    10890.368 
    7850    313.99062    9.1164781    60.950089   -154.21359    3149.4109    10890.368 
    7860    288.59043    9.3673232    59.039404    -159.8308    3246.9104    10890.368 
    7870    266.34717    8.3011441    56.660224   -165.94553   -472.34832    10890.368 
    7880    246.99525    11.310082     60.84979   -174.24401    1794.7673    10890.368 
    7890    250.45629    11.361051    56.822147   -178.43886   -453.82537    10890.368 
7900        0.98493423392870527167 10.130608751649587518 1 70 -303.7981309251333073
    7900      271.879    9.5688902    52.754262   -180.61434   -857.92396    10890.368 
    7910    284.16932    7.0432806    55.602143   -181.16579   -2259.9005    10890.368 
    7920    299.23619    7.7718177    47.811649    -180.6844   -1950.4859    10890.368 
    7930    268.34173    9.4384978    57.657459   -179.70445   -1607.7453    10890.368 
    7940    257.26815    10.038798    58.190976   -175.44155   -8.2455476    10890.368 
    7950    265.81405    9.6825355    58.270328   -173.04221    150.85485    10890.368 
    7960    293.18073    8.8382729    58.872621    -170.4556   -60.094904    10890.368 
    7970     285.3259    10.178893    54.187878   -167.91895   -478.45982    10890.368 
    7980    306.98471    7.8554115    53.501389   -165.18168    1304.1301    10890.368 
    7990      286.484    9.0139595    60.171035   -162.23613    3231.8573    10890.368 
8000        0.98392811612819508493 10.120871087105932418 1 66 -296.87846966616757527
    8000    303.76436    10.011139    54.316287   -159.24796    1454.6961    10890.368 
    8010    294.52886    8.9201088    63.326602   -156.35808    1668.7219    10890.368 
    8020     298.6484    6.9110402    66.940573   -153.69751     456.8024    10890.368 
    8030    281.07699    6.0999045     68.04323   -151.20803     769.3047    10890.368 
    8040    298.29806    5.0416288     61.12621   -148.53074   -665.53029    10890.368 
    8050    290.55687    4.1948643    64.737817   -145.84035   -4143.2622    10890.368 
    8060    300.60997    4.1026208    63.951361   -143.04349   -1792.6498    10890.368 
    8070    313.99324    3.5096604    62.025006   -140.17555    -2013.836    10890.368 
    8080    310.30902    4.4160901    67.747425   -137.54109    1284.6898    10890.368 
    8090    305.94795    5.6358037    72.739768   -135.66668    1204.5044    10890.368 
8100        0.98285606187419416457 10.118804923389166817 1 70 -273.65638261647671925
    8100    307.20329    5.5505147    65.564525   -134.46775    2445.5946    10890.368 
    8110    319.48076    5.5965969    58.629095      -133.73    1226.2722    10890.368 
    8120    300.89738    4.6820583    63.547993   -133.10051   -2543.2357    10890.368 
    8130    329.66922    5.2574004    63.212302   -132.35176   -1814.8611    10890.368 
    8140    315.45745    6.3563076    72.090028   -132.09534    1055.4547    10890.368 
    8150     315.5914    4.8466661    68.070799   -132.81879    1165.0963    10890.368 
    8160    307.04615    3.9316627    72.918034   -134.40805    2419.7056    10890.368 
    8170    311.36792    4.6222973    71.473029   -136.49599    1476.9755    10890.368 
    8180    305.35363    6.0227106    64.898819   -139.67291   -363.21746    10890.368 
    8190    307.16078     5.867349    62.716928   -143.99851    -1121.491    10890.368 
8200        0.97544115281222565361 10.137855108878998323 1 70 -287.19302200223876298
    8200    302.17898    6.3093181    63.493673   -150.28082   -53.917954    10890.368 
    8210     289.3805    7.1189075     55.73838   -157.05592    3747.9692    10890.368 
    8220    261.35645    5.6072566    68.628188   -162.51219    1353.8729    10890.368 
    8230    265.72973    6.1802537    57.584365   -165.70315   -1360.5427    10890.368 
    8240    266.07438    6.0026051    61.873179   -166.91574   -5639.1614    10890.368 
    8250    285.78488     5.491341    59.504108   -166.99706   -1628.3521    10890.368 
    8260    268.49326      5.45948    66.009809   -166.41691   -72.161968    10890.368 
    8270    287.03491    5.7834345    59.897919   -165.29198    1418.7902    10890.368 
    8280    290.68217    8.1238538    53.910505   -163.68255    777.00889    10890.368 
    8290     297.9502    5.3782186    53.811669   -162.64143    1260.9217    10890.368 
8300        0.97148893801361768663 10.14664388811935325 1 68 -285.25716755851362905
    8300    276.11518    4.5342044    59.515035   -160.15404   -123.12091    10890.368 
    8310    304.76304    3.7770017    58.025684   -156.93075    3584.2807    10890.368 
    8320    292.67209    4.1897529    63.083174   -153.58031    305.70167    10890.368 
    8330    301.02866    3.9001978    56.282093   -149.49586   -2304.3827    10890.368 
    8340    301.97666    3.8900091    60.827459   -146.45023   -2022.8289    10890.368 
    8350    309.68789    4.8244678    58.793321    -143.7819   -1051.9555    10890.368 
    8360    301.14443    6.6858417    65.038306    -141.3665   -52.535592    10890.368 
    8370    304.49878    6.3806263    61.044816   -139.14634    1469.5386    10890.368 
    8380    309.05481    4.7538806    60.346039   -136.98853   -249.25951    10890.368 
    8390    290.62247    5.0384981    69.072268    -135.1883    4003.7462    10890.368 
8400        0.9728814245861292509 10.147289011091391586 0.99735449735449732689 66 -275.5150793469152859
    8400    313.40039    4.8450089    65.374605   -133.51865    1712.1596    10890.368 
    8410    325.02351    4.1447802    64.860378   -132.21186    8.6674634    10890.368 
    8420    315.74885    4.8676737    66.194228   -131.52355    -4137.916    10890.368 
    8430     331.1847    4.2379957    68.458012   -131.49778    -1792.344    10890.368 
    8440     298.9126    5.0561185    73.043434   -132.40243   -1455.6322    10890.368 
    8450    282.01412    7.3665004    70.339303   -133.65695    4123.8365    10890.368 
    8460    284.44009    9.7950605    74.417083   -134.55543   -2040.0165    10890.368 
    8470    298.86681     9.814729    68.162456   -135.35822   -1735.5604    10890.368 
    8480    294.93296    9.7909456    69.505146   -136.48544   -2916.6912    10890.368 
    8490    275.59333    9.1086452    71.665707   -138.00553    2476.9924    10890.368 
8500        0.96893523518281543527 10.15964778689575887 1 65 -270.4813014533739306
    8500     288.7933    8.9928585    67.880247   -139.63393     2658.934    10890.368 
    8510    263.25512    6.0970677    72.719761   -141.36572    1953.1769    10890.368 
    8520    288.87244    3.4627239    75.895892    -143.5933    -825.6047    10890.368 
    8530    259.17502    3.5120346     79.90309     -147.504   -1920.4949    10890.368 
    8540    276.05683    3.7040955    70.554717   -152.81057   -380.14763    10890.368 
    8550    290.67057    5.5030838    58.587459   -158.66816   -2676.5423    10890.368 
    8560    291.53899    5.0923273    56.132082   -163.71866   -452.95163    10890.368 
    8570    266.71103     4.182181    65.430493   -167.49225   -205.67436    10890.368 
    8580     268.7144     4.230695    65.266783   -169.99881    1319.0082    10890.368 
    8590    269.97298    4.6331968    58.577947   -171.52358    423.95764    10890.368 
8600        0.9693696190312546257 10.163559905429464081 0.99735449735449732689 67 -293.36628497130504911
    8600     267.5976     5.983945    58.173565   -172.12233    322.13803    10890.368 
    8610    289.93932    5.6570227    59.779705   -171.87275    844.50252    10890.368 
    8620    267.78602    5.1357202    62.180472   -171.19839    294.45925    10890.368 
    8630    248.96059    5.8925848    63.080974   -169.98693    546.42007    10890.368 
    8640    261.08383    5.7019353     64.84081   -167.66743   -1382.6035    10890.368 
    8650    289.96286     4.086727    57.260786    -164.0656   -767.85326    10890.368 
    8660     287.8677    3.7693844    61.677479   -159.67039   -686.39538    10890.368 
    8670    277.63823    2.9335285    66.565212   -155.16148   -947.46396    10890.368 
    8680    271.01901    4.2661433    68.600186    -151.5728   -1142.0901    10890.368 
    8690    292.20208     6.985196    58.621676   -148.36582   -75.749863    10890.368 
8700        0.97574670621657277891 10.157469093641539715 1 69 -284.55935106406235491
    8700    306.44562    8.8614688     61.63588   -145.71401   -789.82893    10890.368 
    8710    322.99253    9.0192487    55.954549   -143.27184    2575.9618    10890.368 
    8720    291.30448    6.5357177     73.28005   -141.67649    589.19983    10890.368 
    8730    302.40178    4.7767303    68.897377   -140.96777    3826.0539    10890.368 
    8740    298.63971    3.1129871    66.049309   -141.12222    1853.8969    10890.368 
    8750    313.61294    3.3512584    61.889993   -141.63151   -255.03715    10890.368 
    8760    303.12636    3.7386244    64.173564   -142.10118    -5492.414    10890.368 
    8770    320.40412     5.511894    56.640071   -142.53157   -2826.3733    10890.368 
    8780    304.99713    8.0779164    59.823707   -142.89042    1824.8751    10890.368 
    8790    294.88358    9.3595227    65.162849   -143.10181    321.34369    10890.368 
8800        0.97914762076172623395 10.1480017043860542 1 69 -268.9327762190441149
    8800    277.81789     9.911246    64.618475   -143.05818    4317.0734    10890.368 
    8810    293.02125     8.212677    74.357818   -142.81327    306.67419    10890.368 
    8820    289.61887     6.573521    68.914328     -142.766    1613.9899    10890.368 
    8830    298.84049    3.6678502    59.918024   -142.97519   -3136.5124    10890.368 
    8840    273.28262    2.6629071    63.789354   -142.86699    138.61046    10890.368 
    8850    303.84983    2.2011566    57.960114   -141.64126   -855.45408    10890.368 
    8860    293.67086     3.786043    74.341325   -139.47005   -32.254055    10890.368 
    8870    289.02706    6.2125641    74.060028   -136.72826   -276.83196    10890.368 
    8880    282.99784    8.1139765    68.741253   -133.52259   -1712.1516    10890.368 
    8890    303.70428    11.440046    72.624271    -129.7184    210.53735    10890.368 
8900        0.97885777127720019486 10.148856654088143969 1 65 -266.96779744377687393
    8900    312.56239    10.622575    68.823282   -125.35105    553.43089    10890.368 
    8910    324.21889    8.0155959    64.563434   -121.10862    1846.6243    10890.368 
    8920    331.90396    5.1996322    72.448058   -117.13883    2253.7565    10890.368 
    8930    326.66881    3.8854148    74.834756    -114.5832   -2979.1598    10890.368 
    8940    313.05188    4.2604429    75.157748   -113.65927   -2515.7478    10890.368 
    8950    316.05276    6.2942634    75.903232   -114.18617   -2943.0399    10890.368 
    8960    319.25691    5.6476994    69.369218   -115.84639    2928.5639    10890.368 
    8970    322.65047    6.6759156    61.335301   -118.02576    2666.1751    10890.368 
    8980    326.87667    8.0160223    67.890162   -120.80424   -360.33776    10890.368 
    8990    312.52357    8.5376599    71.594463   -124.32813   -2623.8316    10890.368 
9000        0.97123959058911890629 10.156268613231427267 0.99735449735449732689 70 -267.57632003757191796
    9000    306.66808    7.0392985    71.064663   -128.63019   -1208.1604    10890.368 
    9010    304.56733    6.1772959    70.349461   -133.32982    3661.7444    10890.368 
    9020    295.47448    5.5214728    70.110339   -137.65548    1506.1755    10890.368 
    9030    311.89466    4.7866827    66.919516   -141.04861    564.96438    10890.368 
    9040    317.04202    5.1884225    64.299934   -143.94335   -553.78757    10890.368 
    9050    294.08284    6.2521721    63.064954   -146.31778   -2388.2268    10890.368 
    9060     283.7716    7.4911321    62.776613   -147.96757    1597.1152    10890.368 
    9070    272.04664    10.411191    64.074981   -148.57981    361.61134    10890.368 
    9080    286.61191    10.501937    61.771065    -148.4149   -756.54633    10890.368 
    9090    287.15485    7.9436689    65.183604   -147.99737   -576.02357    10890.368 
9100        0.97044511463060045831 10.153754053109443234 1 62 -290.60130600461519634
    9100    315.95795    4.7920383    63.108956   -147.44609   -783.39856    10890.368 
    9110    298.82576    3.7622852    65.271481     -147.301    2101.0817    10890.368 
    9120      288.533    4.5110162    61.066855   -147.25567   -349.69668    10890.368 
    9130    279.84779    4.2284619    65.607286   -146.58714    1633.0004    10890.368 
    9140    310.59308    4.3922831    62.438928   -145.18155    805.03137    10890.368 
    9150    311.14615    6.7248288    52.585743   -143.35343   -1241.8366    10890.368 
    9160    327.13849    5.8880526    54.386705   -141.40241   -402.79258    10890.368 
    9170    323.26027    4.6806197    55.881453   -139.17855   -2628.4487    10890.368 
    9180    305.47821    5.7600701    66.468568   -136.81272   -1598.5104    10890.368 
    9190    316.58158    6.8759547    57.118454   -133.92737   -963.19291    10890.368 
9200        0.9699705895829607849 10.162989371858280663 1 67 -276.41067999390844534
    9200    321.30296    5.1972194    67.090792   -130.83373    1480.4352    10890.368 
    9210    344.38842    6.9844366    63.163896   -128.07807    2172.7206    10890.368 
    9220    330.18643    8.7277087    61.809582   -126.14555   -221.98844    10890.368 
    9230    340.09572    5.8012443    60.150662   -124.72716    70.285643    10890.368 
    9240    326.62495    3.4823591    69.729442   -123.67064    1718.7451    10890.368 
    9250    344.50874    6.0868063    60.519318   -123.04923   -138.28251    10890.368 
    9260    334.83575    7.6729999    66.524426   -123.53242    1687.0473    10890.368 
    9270    310.04486    7.9027357    67.046472   -125.24434   -1896.8096    10890.368 
    9280    310.90958    7.9482164    66.253119   -127.94933    2315.2502    10890.368 
    9290    298.22542    6.1727552    66.110708   -131.61006    877.59282    10890.368 
9300        0.96812115884693350498 10.17848968961215661 0.99735449735449732689 67 -270.14473006201433236
    9300    296.81538    6.0571466    64.001358   -135.66269     606.6616    10890.368 
    9310     293.0698    5.7383583      63.3395   -139.56763   -2109.0059    10890.368 
    9320    324.77506    7.4055901    54.252668   -143.37711    -1516.352    10890.368 
    9330    299.64468    7.4271137    68.430834   -147.33102   -589.23813    10890.368 
    9340    280.09397    7.5904291     64.85486   -150.72041    912.76602    10890.368 
    9350    279.52038    6.5255721    61.347995   -153.27722   -3140.3654    10890.368 
    9360    297.07936    4.6594557    60.461978   -155.06707   -1031.7053    10890.368 
    9370    314.51085    3.2101756    57.033841   -156.49165   -2480.0027    10890.368 
    9380    310.70829    3.0751146    62.931696   -157.90517    1793.1827    10890.368 
    9390    301.55137    3.9973164    55.900745   -159.45364     1697.392    10890.368 
9400        0.9790724880595524926 10.15382498617299234 1 61 -292.87059836110478273
    9400    291.26853    6.2025475    56.898572   -160.90174    1062.0248    10890.368 
    9410    281.69599    5.4589553    58.246568   -161.86655    3145.1818    10890.368 
    9420    285.39679    6.7911854     53.67214   -162.07758   -2770.4054    10890.368 
    9430    262.08774    7.4135625     58.90206   -161.36306   -3264.5985    10890.368 
    9440    283.30627     6.177395    64.779451   -159.51006    -2824.077    10890.368 
    9450    272.48516    6.7852719     62.83201    -156.4568   -1763.5079    10890.368 
    9460    295.62367    7.3095698     60.47361   -151.89962    2635.9959    10890.368 
    9470    295.97911    5.8002558    67.286924   -146.06525    1960.5737    10890.368 
    9480    296.99922    4.2623577    62.656262   -139.70424    1527.9373    10890.368 
    9490    300.77111    3.8966174    69.281943   -134.53498    541.26207    10890.368 
9500        0.98070673146885134486 10.125225333360395652 1 65 -280.00754790255757598
    9500    329.13436    4.4940394    63.083186   -130.88232    986.54833    10890.368 
    9510    331.44469    4.0478351    61.007132    -129.1733    1777.0443    10890.368 
    9520    313.65998    4.6474168    62.801472    -128.9276   -3533.8095    10890.368 
    9530    304.22424    6.3976453    71.231989   -129.13651   -1822.2122    10890.368 
    9540     301.3879    4.9636631    58.981757   -129.35411   -3382.9874    10890.368 
    9550    295.35854    5.1740851    65.426757   -129.50233   -740.68399    10890.368 
    9560    314.32164    4.2437701    67.324508   -129.45693    3822.9247    10890.368 
    9570    315.17647    3.7352934    65.336237   -129.72492    2166.4199    10890.368 
    9580    304.94453     4.097511    68.057931   -130.50405    2612.7572    10890.368 
    9590    301.88567    4.9515536    68.851818   -131.55355   -244.94632    10890.368 
9600        0.98238026089007701724 10.110888695036239326 1 67 -268.63775773523258295
    9600    299.37454    8.4406586    77.070018   -132.99621    2265.1959    10890.368 
    9610    301.27967    12.334856     71.13928   -135.21787   -902.85141    10890.368 
    9620    308.69761    9.0782203    64.826647   -138.20071   -3762.9863    10890.368 
    9630    298.06754    7.7380505    68.226939   -141.54269     29.79785    10890.368 
    9640     296.0283    5.6941515    64.112599   -144.94608   -325.92984    10890.368 
    9650    293.91071    8.4580189     62.11333   -148.40873     2232.564    10890.368 
    9660    307.70987    7.3278994    60.175168    -151.9905    46.811395    10890.368 
    9670    276.40652    7.0576488    62.754005   -155.50505    846.44369    10890.368 
    9680    287.30058    6.1566355    64.411375   -158.10737    2379.2723    10890.368 
    9690    265.21152    6.8415731    66.008392   -160.18394   -1111.5726    10890.368 
9700        0.9836366232813968935 10.127032917524159572 1 70 -278.19012273920350253
    9700    258.33511    6.4875306     60.72419   -161.14284   -5014.9932    10890.368 
    9710    261.68483    5.8317574    58.340185   -160.83892   -2395.1356    10890.368 
    9720    263.56362    8.1218247     61.09785   -159.44074   -191.51553    10890.368 
    9730    278.02432     8.221184    63.296926   -157.14864    3753.9319    10890.368 
    9740    277.58273    7.8289783    62.709194   -154.56065    3077.5297    10890.368 
    9750    296.61811     8.463132    60.632473   -151.87344    679.15711    10890.368 
    9760    292.84727    7.4324783    67.547481   -149.59636    711.09161    10890.368 
    9770    316.93208     6.865055    61.861633   -148.11725   -3628.1013    10890.368 
    9780    322.27841    3.3854975     62.00928   -147.70929   -973.37839    10890.368 
    9790     322.4013    3.6018822    50.663413   -148.09645    -3391.618    10890.368 
9800        0.97703959074886204128 10.138214820675035099 1 69 -282.69853671843048915
    9800    296.18907    4.9330738    56.779737   -148.50027    353.70628    10890.368 
    9810    290.23858    5.7483224    60.039746   -148.22063    5781.3903    10890.368 
    9820    274.59762    5.6340802    63.321038   -147.16399    3386.1556    10890.368 
    9830    263.89509    5.9562393    68.461993   -145.54376    1924.5804    10890.368 
    9840    288.12432    6.3001622    63.619121   -143.32801   -3005.1577    10890.368 
    9850    301.17195     5.130366    67.468409   -140.51237    881.94548    10890.368 
    9860    316.68112    5.3279279    60.053331   -137.43024   -2867.4472    10890.368 
    9870     295.3473    6.9743784    68.970384    -134.4594   -3608.8234    10890.368 
    9880    312.18592    5.3999653    73.187271   -131.85736     394.7977    10890.368 
    9890     333.5789    6.7496376    70.589969   -129.95859    1337.1413    10890.368 
9900        0.97742058060215253334 10.164285704974131974 1 72 -280.46813913839059751
    9900    332.84428    8.6180301    71.436089   -129.66201    4079.0213    10890.368 
    9910    339.49008    9.2068849    60.880935   -130.82336   -2475.8254    10890.368 
    9920    289.73841    7.5704565    70.696595    -133.0475   -1869.5187    10890.368 
    9930    303.73377    9.1645244    66.018564   -135.55943   -243.45674    10890.368 
    9940    291.41216    8.3939618    68.310782   -138.15271   -605.06613    10890.368 
    9950    321.18649    4.5261228    65.096586    -140.9095    229.11063    10890.368 
    9960    300.14037    5.9807715    61.232158   -144.37375   -917.57147    10890.368 
    9970     287.3872    6.0361006    60.755708   -147.79964    815.50907    10890.368 
    9980    303.06059    7.1395315    49.017917   -150.66178    1316.4843    10890.368 
    9990     267.0669    7.9697415    59.679279   -153.19038   -521.33005    10890.368 
10000        0.97726954765107554302 10.171104129228838886 1 70 -281.02615527144274665
   10000      278.229    7.2288614    56.406714   -154.96529    2140.0821    10890.368 
   10010    267.56097    6.3404088    64.799271   -155.97602    212.52506    10890.368 
   10020    287.75819    4.7595127    54.150517   -156.33385   -1754.8753    10890.368 
   10030    266.24306    5.5835579    69.178031   -156.08715   -1954.7144    10890.368 
   10040    287.90649    7.4155005    61.835396   -154.79868   -3069.5199    10890.368 
   10050    288.46895    8.3259289    61.763363   -151.80583   -1297.8758    10890.368 
   10060    316.38452    8.2344319    56.456849    -146.6451    274.48768    10890.368 
   10070    307.99781    8.9897362    62.397829   -140.48023    1562.0495    10890.368 
   10080     330.1061    9.0894071    61.598772   -134.87306    1512.5593    10890.368 
   10090     315.8712    10.075062    65.106527   -131.02669    1060.4959    10890.368 
10100        0.97834039096215563713 10.133804057727495262 1 69 -279.82749774415839283
   10100     334.9241    8.2571763    67.049741   -128.07904     1715.209    10890.368 
   10110    327.74891    7.3454434    70.110488   -126.50411     2413.721    10890.368 
   10120    315.58758    8.4345616    69.624712   -126.25593    -1540.807    10890.368 
   10130    310.15864    7.0510415    74.649589   -127.29922    532.61832    10890.368 
   10140    315.57706    7.0199051    69.843377   -129.35075   -3848.2957    10890.368 
   10150    284.31028    7.8456972    76.177299   -132.08934    -2424.478    10890.368 
   10160    302.46984    7.1764217    66.202861   -135.02735    1208.0486    10890.368 
   10170    264.65326     7.842416    72.169229   -137.81113    3129.1266    10890.368 
   10180    274.94093    10.743179    67.557222     -139.788    3768.8839    10890.368 
   10190    274.68205    10.398728    65.619388   -140.93888   -2480.7813    10890.368 
10200        0.97907465061045861887 10.131390311992332087 1 67 -269.23360804472463315
   10200    281.58436    7.9017435    72.007459   -141.65249   -509.77313    10890.368 
   10210    269.43803    7.1101885    78.036831   -142.15727    488.03247    10890.368 
   10220    305.06152    10.658791    62.682004   -142.66014   -331.44091    10890.368 
   10230     286.3659    12.420053     74.50869   -143.47356     1442.627    10890.368 
   10240    325.62397    11.560268    50.199708   -144.44773     2541.233    10890.368 
   10250    296.20094    7.2785949    61.013247   -145.83763   -222.84963    10890.368 
   10260     304.5944    6.3820496    53.901861   -147.18748    -2668.791    10890.368 
   10270    287.63773    5.9044804    63.431056   -148.84039   -4863.6085    10890.368 
   10280    288.91599    4.5261162    67.399974   -150.87525    1070.4371    10890.368 
   10290    289.79004    5.4198978    64.816796   -153.39072    2103.7541    10890.368 
10300        0.97605435318957700641 10.149938210649219528 1 67 -292.32898951059320325
   10300    300.55723      5.95833    57.239992   -156.15158    1657.2362    10890.368 
   10310    304.16626    6.5160121     57.87212    -159.0034    1685.0524    10890.368 
   10320    287.18733    6.8648351    52.171482   -161.68072    167.12974    10890.368 
   10330    257.93035    5.9769598    65.612487   -163.80514     254.4395    10890.368 
   10340    264.98179    4.8692716    64.091396   -164.95739    457.70773    10890.368 
   10350    295.41463    3.3642221    58.048243   -165.50305   -1004.6572    10890.368 
   10360    288.70129    3.7275355    57.238968   -165.87613   -1509.9557    10890.368 
   10370    281.47684    4.1997969    55.526315   -165.67319   -4581.1068    10890.368 
   10380      275.988    5.0578294    60.297842   -166.26239    604.74463    10890.368 
   10390    278.93618    6.1369358    57.871862   -163.78249    1606.7421    10890.368 
10400        0.97160652323267027164 10.161341121557395439 1 65 -290.32188505978569992
   10400    287.42171    7.9370366    63.293902   -160.09596    1437.3591    10890.368 
   10410    284.07882    9.8659592    67.613348   -155.53003    58.103242    10890.368 
   10420       296.63     10.78526    61.080254   -150.26847    1946.7373    10890.368 
   10430    313.14523    10.725199    67.768107   -145.24574     1607.895    10890.368 
   10440    315.74905    11.197291    59.133216   -141.64536   -912.69138    10890.368 
   10450    321.07173    11.754628    61.120016   -139.62775   -781.56875    10890.368 
   10460    332.80185    8.9483246    58.683266    -138.7888    600.63378    10890.368 
   10470    311.51674    8.0010487    62.010116   -138.65349   -281.56152    10890.368 
   10480    313.15995    6.6417684    62.721918    -138.7463   -337.26145    10890.368 
   10490    301.68594    5.8216033    70.552194   -139.23222    848.16789    10890.368 
10500        0.96407384434582732435 10.204964953829048113 0.99206349206349198067 70 -279.24423792924250165
   10500    307.22706    7.1867994    58.999145   -140.04484   -1632.9225    10890.368 
   10510    290.40756    8.9050925    60.408279   -140.58553   -3612.4629    10890.368 
   10520    317.12087    8.9849188    57.360113     -140.668   -7.1244354    10890.368 
   10530    295.71736    6.6159262    70.274365   -140.74612    4775.8445    10890.368 
   10540    296.81959    6.0760877    64.545308   -140.74952   -3667.4569    10890.368 
   10550    295.63361    5.9392048    64.225822   -138.65351   -2751.7393    10890.368 
   10560    310.61995    4.2396922    60.076337   -138.03519   -2734.6679    10890.368 
   10570    306.53614    4.2508484    68.782426   -140.09669    2287.2143    10890.368 
   10580    314.17821      6.19279    64.971798   -140.10308   -469.49315    10890.368 
   10590    319.10531    9.6854888    58.533725   -140.91656    620.17094    10890.368 
10600        0.96522451100240036492 10.183026772797685311 0.98941798941798930755 66 -286.9314958291054154
   10600    318.30087    9.7225339    67.690808   -142.71474    2811.7342    10890.368 
   10610    308.40885    8.7959946    63.413304   -145.76546    1586.9085    10890.368 
   10620    303.45298    6.4035407    64.585109   -149.64792   -597.03492    10890.368 
   10630    303.88697     4.504515    64.824434   -151.86701    430.45074    10890.368 
   10640    279.39204    5.4313228    63.417805   -156.99351   -4514.2396    10890.368 
   10650    283.35007    6.1889387    61.085032   -161.27438    1463.1869    10890.368 
   10660    277.14113    7.9788372    60.486868    -164.4676    2154.1883    10890.368 
   10670    271.49545    10.300764    65.903433   -166.59552    4689.4906    10890.368 
   10680     272.0804    9.2987599    57.402787   -167.91221   -1353.7487    10890.368 
   10690     270.8687    8.0207321    58.570805   -168.40866   -2868.6461    10890.368 
10700        0.95792282166436415469 10.18524327823296538 0.97883597883597883715 70 -295.65070854003454315
   10700    281.26032    5.3374642    62.341808    -168.2164    434.91547    11035.315 
   10710    284.12003    5.4200882    59.851593   -167.57271   -1579.4422    11035.315 
   10720    294.90022    5.5897062    53.216394   -166.61651   -1388.6605    11035.315 
   10730    276.19183    7.4678142    61.989196   -165.27485   -2753.3063    11035.315 
   10740    304.15796    7.5210722    52.820653   -163.21117    2091.1036    11035.315 
   10750     269.0967     7.977667    65.478709   -160.64532    3584.3137    11035.315 
   10760    292.40854    7.3232489    47.796902   -157.06911    9.2086503    11035.315 
   10770    283.57779    6.3019641    69.646817   -152.60585     3811.568    11035.315 
   10780     308.9543    8.2179346    58.309067   -147.56386    157.95893    11035.315 
   10790    289.57442    7.8265203    66.655636   -144.33859   -311.29168    11035.315 
10800        0.95888122761039218389 10.191783897936968373 0.97883597883597883715 69 -271.27717284234904582
   10800    290.98475    7.5198261      66.5863   -139.43689   -1572.6827    11035.315 
   10810    298.89036    8.8403961    65.937322   -136.71125   -1171.7251    11035.315 
   10820    323.39571    9.7956645    65.055439   -134.74402    1197.0535    11035.315 
   10830    298.80171    8.3469217    62.075948    -133.5358   -578.21829    11035.315 
   10840    287.72078    7.7952119    66.813731   -132.86073    2415.0232    11035.315 
   10850    280.20353    7.5159589    80.201144   -132.34395   -313.31973    11035.315 
   10860    310.18963    8.5805008    65.161261   -132.05613   -3386.1118    11035.315 
   10870    322.41286     6.313876     62.69784   -132.34527   -1482.7155    11035.315 
   10880    316.46796    8.6364728    62.921169   -132.86453    2033.6527    11035.315 
   10890    297.38323     7.374601    66.595364   -133.40269     704.5752    11035.315 
10900        0.95764485612214134136 10.201198233783889791 0.97883597883597883715 69 -272.65176443224800096
   10900    305.61226    6.4278206    64.037416   -134.18401   -2074.1605    11035.315 
   10910    301.31698    6.9877709    69.117871   -135.66185   -2896.7136    11035.315 
   10920    296.43974    8.2182513    69.244734   -137.68175    -719.5589    11035.315 
   10930    318.67452    12.107416    58.412776   -140.24797      4504.89    11035.315 
   10940    297.09423    10.565408    63.243323   -143.17955    2853.0551    11035.315 
   10950     318.0012    6.1400828    56.317903   -146.78856    1527.7261    11035.315 
   10960    283.49425     4.361744    67.503713   -151.03655    77.801858    11035.315 
   10970    301.86328    4.8038605    56.607467   -155.28392   -2227.3571    11035.315 
   10980    285.17898    4.7945667    61.468608   -159.17956    72.842214    11035.315 
   10990    279.15203    8.5732562     63.80717   -162.18308   -1130.3978    11035.315 
11000        0.94613674722888030377 10.257760052952598073 0.97883597883597883715 65 -297.92196676850784343
   11000    294.44716    9.7534874    57.868555   -164.51293    1152.3707    11035.315 
   11010    283.23405    7.2191953    62.360214    -166.2147   -2233.1314    11035.315 
   11020    308.70934    5.0772775    51.905029   -167.17763    3217.2658    11035.315 
   11030    267.77593    5.2952636    60.280472   -167.54594   -333.33118    11035.315 
   11040    270.43527    7.0921213    53.239189   -166.90489    -1713.276    11035.315 
   11050    261.72061    6.9588047    63.895882   -165.33835   -1438.6703    11035.315 
   11060     293.3456    6.5321398    52.546026   -163.40947   -942.69129    11035.315 
   11070    290.70168    8.5518827    58.449551    -161.5161    448.74216    11035.315 
   11080    294.07716    9.3279257    53.258243   -159.82714   -634.44693    11035.315 
   11090    281.88061    10.466886    53.074024   -158.14643   -814.65494    11035.315 
11100        0.94852452056053959684 10.252974506498995666 0.97883597883597883715 66 -276.04550206660735512
   11100    264.62574    8.2217727    64.405184   -156.14804    1770.1868    11035.315 
   11110    270.63124    7.3323302    62.423522   -153.63056    427.08974    11035.315 
   11120    269.28932    9.9558985    68.359178   -150.65729    1437.9216    11035.315 
   11130    297.73243    9.7758174    64.883093   -147.21392   -2986.2514    11035.315 
   11140    321.96554    7.5061326    62.603631   -144.18695   -3562.7874    11035.315 
   11150    309.68665    6.4334644    62.195428   -142.15329   -2219.0605    11035.315 
   11160    307.63263    6.6682493    54.837715   -140.72535    -1730.055    11035.315 
   11170    300.53001    7.0378797    66.867268   -139.31626    384.99171    11035.315 
   11180    303.06125    5.6702523    65.274381     -138.112    1210.0934    11035.315 
   11190     293.4441    5.3007067    68.823312   -137.35485    2839.9498    11035.315 
11200        0.95770336902445285521 10.199929931748558332 0.98412698412698407235 64 -274.91772662704545382
   11200    304.87064    6.3296608    60.275738   -136.78599    2612.8334    11035.315 
   11210    312.98115    7.6605944    64.673675   -136.20818   -14.531917    11035.315 
   11220    322.92152    6.7667418     64.60502   -135.61969   -1454.1177    11035.315 
   11230    307.56913    5.8008788    63.366066   -135.49535   -563.97327    11035.315 
   11240    299.57037    6.5924248    66.673532   -135.79703    975.31613    11035.315 
   11250     296.9795    7.1497365    66.839895   -136.28522      1733.61    11035.315 
   11260    295.26363     7.749999    64.023551   -136.83972   -1668.2818    11035.315 
   11270    321.42375    6.4975588    63.233443   -137.60294   -146.28766    11035.315 
   11280    311.74396    6.6863717    69.627321   -139.45534    2857.9253    11035.315 
   11290    328.13253     6.955157    56.595254   -142.51727   -41.491467    11035.315 
11300        0.9674338865310041502 10.185277822966982697 0.98941798941798930755 64 -285.32661662113497414
   11300     305.2474    5.2108338    65.115378   -147.02417   -1160.4277    11035.315 
   11310    292.23873    6.1441027     56.93601   -151.47615   -2121.0318    11035.315 
   11320    277.98077    6.6090399    69.041222   -155.82138   -319.16998    11035.315 
   11330    291.73078    7.5969763    56.859865   -159.19074   -87.498189    11035.315 
   11340    293.87571    8.5083129    61.329821   -162.08767   -1838.1661    11035.315 
   11350    293.17888    7.4144428    57.532589   -164.41852    1689.9841    11035.315 
   11360    283.34139     8.511689    62.646659   -166.29522   -2715.8948    11035.315 
   11370    281.81287    8.3926382    60.508217   -167.67995    3473.6737    11035.315 
   11380    277.79769    8.4532687    57.278813    -168.4376    2547.9148    11035.315 
   11390    272.47443    7.3337087    60.745682   -168.29662    4119.5623    11035.315 
11400        0.97692863995579726222 10.13773259295623852 1 67 -294.39107363946186524
   11400    280.69227    8.1019013    61.680387   -167.21414    236.91298    11035.315 
   11410    266.22892    10.020116    61.424458   -165.26526    -2650.488    11035.315 
   11420    295.05863    8.9868073    59.344027    -162.2949   -398.19451    11035.315 
   11430    282.42024    7.2831432    59.350486   -158.50403   -2121.0174    11035.315 
   11440    303.31504     8.344784    59.189505   -153.80869   -2134.6235    11035.315 
   11450     299.3458    11.316586    57.691105   -149.05779    626.99895    11035.315 
   11460    298.99126    11.410282    59.201977   -144.99606    1175.7081    11035.315 
   11470    324.54628    11.639005    62.853136    -142.0718    4647.0205    11035.315 
   11480    336.01365    10.964099    59.185001   -140.35862   -395.04528    10893.057 
   11490    316.20029    7.6861016    61.765391    -139.9119   -1500.7775    10893.057 
11500        0.97548177826600113161 10.152898778103919497 0.99470899470899465378 71 -272.61155249981879933
   11500    292.98545    6.7838054    59.607758   -139.86479    -558.0871    10893.057 
   11510    278.90471     7.846194    65.800762   -139.39991   -4288.0011    10893.057 
   11520    304.36944    8.0825302    69.904608   -138.63256     1262.465    10893.057 
   11530    295.84785    7.8724499    71.728998    -138.1407   -506.57046    10893.057 
   11540    305.54982    7.7416478    59.932178   -137.96238    3021.3418    10893.057 
   11550    294.57828    7.2979152    67.217211   -137.92803    780.80691    10893.057 
   11560     303.5945    4.6052711     65.92855   -137.67623   -995.65338    10893.057 
   11570    292.73841     4.186368    71.900412   -137.27231   -1567.3292    10893.057 
   11580    307.48388    4.0498659    63.935986   -136.89515   -1296.5222    10893.057 
   11590    292.04581     3.390959    72.274765   -136.66216    1311.4886    10893.057 
11600        0.97446368492069956879 10.164466250432756311 0.99206349206349198067 71 -286.84586337956136504
   11600    331.31235    3.7124036    65.704879   -136.73383    456.86343    10893.057 
   11610     303.8382    5.5340251     72.78235   -138.01976   -1710.9051    10893.057 
   11620     299.3458    8.2363418    76.771596    -140.7585    295.20051    10893.057 
   11630    278.55519    8.7156952    74.250036   -144.55832   -38.004566    10893.057 
   11640     302.2902     9.384542    66.411942   -148.89766    2205.3564    10893.057 
   11650     289.4787     11.22746    67.490941    -154.1509   -1771.7918    10893.057 
   11660    290.87196    12.261304    57.477663   -158.97378   -3074.4303    10893.057 
   11670    270.80079    7.5987625    63.536783   -162.96023   -1253.3031    10893.057 
   11680    270.52994    6.0486274    57.201282   -165.47181    705.11316    10893.057 
   11690    268.67957    4.5265309    60.456965   -166.64129    406.18047    10893.057 
11700        0.97964915394376506086 10.126359704253593108 0.99735449735449732689 71 -284.73897582570373288
   11700    260.48768    5.5984546    65.599097    -166.7164   -595.41388    10893.057 
   11710    301.71334    4.9152776    52.705223    -166.0454   -4028.9566    10893.057 
   11720    283.31904    7.7159683    69.775445   -165.22083    3537.1559    10893.057 
   11730    323.66578    12.843838    51.877383   -164.47164    1925.4704    10893.057 
   11740    272.04445    13.195108    69.008862   -164.01603    2878.7363    10893.057 
   11750    318.23453    9.9967953    48.266017   -163.29805    2976.4981    10893.057 
   11760    260.56449    9.8173682    68.032944   -162.21026    1513.8295    10893.057 
   11770    289.61774     8.545003    53.803104   -160.52051   -2743.8644    10893.057 
   11780    253.69804    8.3073827     71.31984   -158.09513   -5584.2609    10893.057 
   11790    291.66336      8.46619    57.768601   -154.59846   -556.83189    10893.057 
11800        0.98811449202691936655 10.068558095356342719 1 79 -273.62938829414832753
   11800    271.67956    10.773612    74.851888   -150.53596    1934.0978    10893.057 
   11810    298.73499    12.568861    66.925162   -146.62368    3801.3569    10893.057 
   11820    279.31561    15.151208    69.102607   -143.65762    4207.2808    10893.057 
   11830    282.94735    13.692262    71.262241   -141.84807   -588.77783    10893.057 
   11840    297.02632     11.42952    64.401612   -140.73008   -2053.8321    10893.057 
   11850     291.4683    11.216381    61.366849   -139.79585   -1059.1206    10893.057 
   11860    308.32027    9.5247744     63.52917   -139.02681    739.02158    10893.057 
   11870    315.04656    9.3163352     66.71226   -138.60502    1257.8102    10893.057 
   11880    313.69725    5.3791965    59.181277   -138.82347   -3963.2565    10893.057 
   11890    316.37641      5.66545    65.373567   -139.61488    1176.7775    10893.057 
11900        0.98736661428109950833 10.095735727796064651 1 75 -287.47440543968656357
   11900    323.53912    6.1188344    60.498252   -140.88429     1304.801    10893.057 
   11910    332.11151    4.7317339    51.809329   -142.65858   -1351.5715    10893.057 
   11920      301.221    3.3849597     61.79417   -144.84753   -1314.0261    10893.057 
   11930    322.08597    3.9909653    51.374547   -147.03898   -1992.8968    10893.057 
   11940    275.64014    6.0075947    67.889782   -149.00014    4184.3867    10893.057 
   11950     272.3501    5.1492374    61.840189   -150.26912    1749.8113    10893.057 
   11960    266.32555    5.5956635    63.376473   -150.65499    837.45461    10893.057 
   11970    286.27849    6.2555527    58.320724   -150.02059   -361.60137    10893.057 
   11980    304.81213    5.9712691    58.514696   -148.61951    414.32164    10893.057 
   11990    298.69538    5.5251831    66.229727   -146.59848    1000.6674    10893.057 
12000        0.9850534592728834582 10.135916359554773436 1 70 -289.87037200274471616
   12000    322.63376    5.1580196    59.188334   -143.69046   -3326.4358    10893.057 
   12010    306.20337    7.1615605    70.317935    -140.5775    -3549.375    10893.057 
   12020    303.13929    8.2188887    65.778482   -137.22725   -1703.3095    11118.335 
   12030    306.69177    7.8136126    69.652165    -133.7229    429.56063    11118.335 
   12040    323.67808    7.4009965    75.145982   -130.18832    1547.1939    11118.335 
   12050     344.5842    7.8788344    60.005252   -127.53911   -157.60561    11118.335 
   12060    332.95999    7.6346782    76.290665    -126.0957    442.66621    11118.335 
   12070    335.53774     5.358047    71.234047   -126.17507    -743.0701    11118.335 
   12080    318.48913    5.8351271    69.309682   -128.07735    698.97369    11118.335 
   12090    305.22623      9.90388    65.044173   -131.57811    965.14622    11118.335 
12100        0.98410148373423544932 10.11102044887247331 1 71 -271.01618007837430468
   12100    294.85346    11.696812    65.407174   -137.42305   -1037.6167    11118.335 
   12110    291.06312    9.5486816    72.433415   -143.20366    751.13857    11118.335 
   12120    294.91366    9.1284648     66.29952    -149.0282    1032.4755    11118.335 
   12130    298.46263    9.7217594    59.212624   -154.28819   -1090.8091    11118.335 
   12140    279.04875    8.9490006     58.62757   -157.92842    1997.5249    11118.335 
   12150    281.75361    6.1378021    56.704749   -160.20618     814.6805    11118.335 
   12160    279.68517    4.1980685    59.404462   -161.44929    865.09541    11118.335 
   12170    277.33688    5.0240014    56.507296   -162.01281    -1571.127    11118.335 
   12180    288.46019    5.8784715    54.608869   -161.91639   -2711.2717    11118.335 
   12190    284.76981     6.374962    60.264912   -161.29084    1540.2396    11118.335 
12200        0.98036816497876499987 10.113808924734978945 1 69 -285.55722872625773334
   12200    276.53544    8.1914558    58.947505   -160.26369    218.15894    11118.335 
   12210    261.36906    8.1074571     60.17121   -158.57261    780.44253    11118.335 
   12220    270.63548     5.916475    60.539369   -156.05381    921.56665    11118.335 
   12230    294.08852     4.909803     56.61185   -151.09803    2499.4641    11118.335 
   12240    285.62638    6.0154484    62.555485   -147.38995     1221.986    11118.335 
   12250    303.51126    7.0999358    61.014804   -143.82574   -529.49613    11118.335 
   12260    321.47029    5.7823007    62.918876   -141.01031   -5078.4031    11118.335 
   12270    320.03165     5.667045    59.828332   -139.60356   -2805.1136    11118.335 
   12280    311.90797    6.7688261    62.947545   -139.37601     901.5648    11118.335 
   12290    338.83345    5.8651792    56.690486   -139.72532    3338.7719    11118.335 
12300        0.98337641803458775147 10.130845709711410407 1 65 -291.65807083232618879
   12300     333.1158     5.960308    54.559114   -140.72892    1021.2514    11118.335 
   12310    325.29224    6.1933739    60.790876   -142.16898   -528.91436    11118.335 
   12320    306.58439    6.7242919     66.86442   -144.16309    1636.9039    11118.335 
   12330    324.49197    5.6793155    60.485377   -146.40911    -1614.389    11118.335 
   12340    313.23544    9.5579634    54.561161   -148.86027   -2906.9763    11118.335 
   12350    310.04478     8.011182    55.697946   -150.85253   -3565.6115    11118.335 
   12360    296.21823    7.3609892    62.518876   -152.58673    972.43137    11118.335 
   12370    295.53257    8.3859952    55.621008    -153.8342    2399.7932    11118.335 
   12380    282.75839    9.0907539    57.882124    -154.5457     3763.611    11118.335 
   12390    266.15599    8.7321721    63.224592   -154.46413    2561.9443    11118.335 
12400        0.97794268843137877045 10.148515546302656176 1 63 -288.33882401602011214
   12400     297.5475    7.0046608    56.968839   -153.52507    2072.6046    11118.335 
   12410    309.04785     7.202274    62.473254   -152.59584   -1065.4938    11118.335 
   12420    307.59492    6.5497596    58.576487   -152.20715   -2354.7033    11118.335 
   12430    284.50186    7.4586136    57.014244   -152.10216   -2256.6216    11118.335 
   12440    262.85478    7.7771065    63.952307   -151.47485   -1305.8721    11118.335 
   12450    288.32672    8.1833001    54.723399   -149.82655   -2465.8277    11118.335 
   12460    299.63837    5.3738872    63.238127   -147.75795    -2624.127    11118.335 
   12470    307.32329    3.1557321    64.217772   -146.03251    2647.3778    11118.335 
   12480    296.45264    2.5495248    69.316558   -144.81454    3424.7994    11118.335 
   12490    326.09699    4.3426125    50.928458   -143.77542    2043.0992    11118.335 
12500        0.97381155613010239591 10.184045379008049181 1 64 -285.1299093103599489
   12500    313.88956    7.5393683    60.019138   -142.91185    1558.1154    11118.335 
   12510    344.60752    7.1144748       50.419   -142.53959   -1149.7819    11118.335 
   12520    300.19606    6.0529175    70.867225   -143.13701   -1638.9226    11118.335 
   12530    329.58349     5.587666    55.925441   -144.58297    -3264.861    11118.335 
   12540    311.91173     7.303654    65.505216   -146.83571   -3423.4482    11118.335 
   12550    325.45823    10.390075    54.368539   -149.85414    -208.7369    11118.335 
   12560    298.34672    12.272265    54.263196   -153.39391    1581.1098    11118.335 
   12570    299.08346    10.709644    53.106027   -156.44546    4062.3157    11118.335 
   12580    311.18807    7.4538211    54.655002   -158.80039    2716.0248    11118.335 
   12590    313.44733    7.9289543    48.921858   -160.62118   -285.99652    11118.335 
12600        0.9671713487773481166 10.205152485418217623 1 69 -298.75791882818748491
   12600    301.61606    4.3237984    56.804127   -162.10077   -449.22403    11118.335 
   12610    265.91202     4.205863    58.301539   -162.73269   -3712.4613    11118.335 
   12620    279.10678    6.1314611    60.893515   -162.47602   -481.63259    11118.335 
   12630    269.41519      7.63314     61.07654   -161.72101   -3798.6987    11118.335 
   12640    277.27307    7.4396259    56.878137   -160.53058   -1038.3781    11118.335 
   12650    273.15566    5.9704929    59.221074   -158.98491      3777.81    11118.335 
   12660    269.66831     6.464424    59.487279   -156.93844    5212.5885    11118.335 
   12670    279.19723    5.2363973    57.970619    -154.1287    6408.1351    11118.335 
   12680    281.67241    4.4407839    59.985235   -150.81566    -1803.403    11118.335 
   12690    291.16076    3.9108619    67.126393   -147.30646   -4824.3887    11118.335 
12700        0.96600383772124231996 10.197200828137004791 1 71 -278.02899361079204255
   12700     295.3584    5.1388938    64.973654   -144.20708   -6111.4385    11118.335 
   12710    314.12155    5.5781617    64.385884   -141.27222   -4529.1703    11118.335 
   12720    317.18907    5.5339494    69.571606   -138.99042    2179.4622    11118.335 
   12730    328.48868    6.6107212    54.353944   -137.36888    2326.1598    11118.335 
   12740     313.3672    6.2436809     59.84879   -136.56647     5474.421    11118.335 
   12750      298.223    4.4665306    58.733558   -136.00645    1049.5265    11118.335 
   12760    292.61467     3.244836    62.600028   -135.43131    1105.6348    11118.335 
   12770    306.49181    3.6151134    71.365231   -135.07604    219.35754    11118.335 
   12780     322.5827     4.855943    58.300494    -135.4206   -1169.0867    11118.335 
   12790    315.32714    6.0521885    55.586744   -136.45931   -4153.3104    11118.335 
12800        0.96055479233149854146 10.21866901917261039 1 71 -285.92840696529913203
   12800    326.46034    4.7068821    60.106835   -138.01473   -715.39812    11118.335 
   12810    297.17752    7.0098199    60.200849   -139.93501    322.92789    11118.335 
   12820    269.70961    9.8723176    68.286248   -141.82823   -1761.4885    11118.335 
   12830    269.14232    10.475206    65.226239   -143.47501   -2161.8451    11118.335 
   12840    288.80789    6.9881876     67.41944   -145.14239    2677.3612    11118.335 
   12850    317.42334    7.1070758    53.218237   -147.44837    2376.9658    11118.335 
   12860    306.66481    5.4573853    52.001019   -150.37068   -176.91087    11118.335 
   12870    299.48623      3.90632    56.458592   -153.66456   -1670.4603    11118.335 
   12880    300.32145    2.4293359    59.844529   -157.45637    1665.3333    11118.335 
   12890    271.98526    2.7825865    63.909266   -161.71433    178.26415    11118.335 
12900        0.95587767664680345359 10.225060477914938772 0.99735449735449732689 70 -275.7959117332922574
   12900     244.3931    3.2280969    57.595972   -165.06552    846.09466    11118.335 
   12910    257.62274    2.4907428    53.754858   -166.92975   -2733.4512    11118.335 
   12920    278.99986    2.2137781    53.839108   -167.46101   -1180.7556    11118.335 
   12930    295.08133    4.3714836    49.330469   -167.04657   -1556.7793    11118.335 
   12940     276.5536    5.8933588    54.243384   -165.94662    2153.3165    11118.335 
   12950    277.39841    6.4102051    55.263691   -163.96084    39.033602    11118.335 
   12960    286.16326    6.4518057    53.748947   -160.82975   -1256.1349    11118.335 
   12970    288.85423    8.1367777    58.863038   -156.51511   -635.22564    11118.335 
   12980    306.62773    9.8182409    55.689407   -151.36278   -522.31397    11118.335 
   12990    316.45884    11.024864    61.067475   -146.46395    666.41781    11118.335 
13000        0.96595070847264830061 10.205823874727412814 1 69 -295.71385406977333332
   13000    336.78152    10.470268    57.663655   -143.12383    1282.9604    11118.335 
   13010    335.96022    9.3585769    57.601651   -141.57873    1060.9999    11118.335 
   13020     318.2838    8.8002801    65.491384   -141.33388   -820.89465    11118.335 
   13030    294.94708    8.0975464    68.581483   -141.70934    2117.8736    11118.335 
   13040    291.50997     8.622813    66.048282   -142.29487   -2179.5323    11118.335 
   13050    283.19035    7.2954039    69.541702   -142.77593    1805.6558    11118.335 
   13060    308.45015    5.9804642     54.79283   -143.21008    -1247.848    11118.335 
   13070    306.69196    5.2233096    57.604177     -143.596    227.55656    11118.335 
   13080    295.04485    6.1821384    66.769618   -143.92061    867.14877    11118.335 
   13090    290.55365    6.1183293    68.710959   -144.07118   -578.87934    11118.335 
13100        0.97406392142980668947 10.1763935688574918 1 66 -276.97657163020198823
   13100    292.65136    6.7316666    69.749453   -144.38118   -351.22836    11118.335 
   13110    301.46266    7.3323959    61.359032   -144.91515    -3456.147    11118.335 
   13120    300.67136    6.4776507    63.959419   -145.45424     988.0019    11118.335 
   13130    294.73372    5.4258751    61.093982   -146.01287    1907.5801    11118.335 
   13140    274.44249    6.2216273    65.498565    -146.2681   -1588.1402    11118.335 
   13150    312.30205    5.8303298    58.228989   -146.03663   -370.97007    11118.335 
   13160    305.32208    6.8927465    62.929285   -145.74221   -475.06099    11118.335 
   13170    326.05383    8.1974076    60.603559    -145.8694    3963.5772    11118.335 
   13180    317.24528    8.4356975    63.127217   -146.80705   -849.59504    11118.335 
   13190     320.1896    6.5050734    60.022345   -149.20516   -3967.3167    11118.335 
13200        0.97790384134386765247 10.154591524810127723 1 69 -289.71324435654412355
   13200    301.40193     8.233404    60.470404   -153.15312   -3045.2894    11118.335 
   13210    299.53903    7.6459035    57.845021   -157.83796    1500.6329    11118.335 
   13220    306.86712    6.1947427    52.219169   -162.32606    4767.3489    11118.335 
   13230    303.95926    6.5092698    54.199461   -166.39294    2554.5167    11118.335 
   13240    287.43396    7.7054296    57.533111    -169.5935    1728.1435    11118.335 
   13250    277.87587    7.3228161    52.714608   -171.90191   -1737.4495    11118.335 
   13260    258.30834    7.4290416    58.223272   -173.16311   -1140.9429    11118.335 
   13270    282.75754      10.7437    50.968335   -173.26306   -2222.2038    11118.335 
   13280    315.96615    9.0112944    45.763173   -172.38763   -1637.0877    11118.335 
   13290    316.56918    7.3980345     57.37658   -171.14435    1640.5614    11118.335 
13300        0.98163345454935646561 10.133899015862196435 1 64 -296.76237478785867552
   13300    280.09557    6.9971271    54.239719    -169.8558    2776.4611    11118.335 
   13310    277.28833    7.0880842    60.569593    -167.8214    4407.8264    11118.335 
   13320    295.53519    7.0521301    63.940838   -164.74674    1221.9277    11118.335 
   13330    293.64735    7.3590882    56.667503   -161.14254   -3448.2673    11118.335 
   13340    291.84868     8.621509    64.725254   -157.43783   -3915.4401    11118.335 
   13350    293.37172    8.9420307    66.781757   -153.81574   -2709.4842    11118.335 
   13360    306.29593    8.4726956    63.432024   -150.31127    433.58368    11118.335 
   13370     301.4117    7.5925172    61.841726    -147.3559    2048.9586    11118.335 
   13380    319.83799    7.0854807    60.784272   -144.68746    6222.2468    11118.335 
   13390    310.87992    5.8531884    68.558148   -142.62843    2358.9774    11118.335 
13400        0.98635064978432285265 10.133395817381583015 1 64 -275.3005729652785476
   13400    295.09752    6.4719279    75.525984   -141.59687   -2009.1949    11118.335 
   13410    281.03794    7.0378617    75.532696   -141.56629    -3668.831    11118.335 
   13420    285.74512    7.3120366    63.102178   -141.82483   -1824.3867    11118.335 
   13430    306.93434    6.4300145    60.958366   -142.02753     -725.598    11118.335 
   13440    323.24875    9.0004407    61.409654   -142.46123    1230.1048    11118.335 
   13450    343.21772    11.435645    48.980736   -143.42217   -123.79278    11118.335 
   13460    303.63758    11.246397    69.100842   -145.36306    375.70091    11118.335 
   13470    299.87671    9.2780752    59.467859   -147.91763   -2113.3615    11118.335 
   13480     289.7116     8.292499    58.985975   -151.03946     -4019.44    11118.335 
   13490    306.44251    8.9165359    57.413444   -155.15391    1393.3819    11118.335 
13500        0.98426404214491225453 10.149732863401029093 1 69 -295.67538782202160519
   13500     293.9335    10.975642    57.204093   -162.49908    2183.2531    11118.335 
   13510    279.99151    9.8239528    51.762086   -171.86862    5551.6717    11118.335 
   13520    247.70674    9.3021961    52.023588    -178.6674   -1456.1046    11118.335 
   13530    261.43634    7.6024619    49.314422   -181.31055   -479.88899    11118.335 
   13540     255.1877    8.0346106    60.355293   -182.01187   -1573.0807    11118.335 
   13550    274.15423    8.6986012    50.556235   -181.56679    300.81436    11118.335 
   13560    246.44073    8.0259177    64.874151   -180.21084   -499.21345    11118.335 
   13570    285.04947    8.5059522    49.234762   -177.84439   -1887.7298    11118.335 
   13580     285.1497     6.582882     61.44015   -174.45212   -376.26395    11118.335 
   13590    300.06088    5.6699368    54.415322   -170.94844    144.68575    11118.335 
13600        0.97957458189050350406 10.169030179702707173 1 72 -293.48618232596550115
   13600    278.22954    3.9529061    60.989773   -167.42507   -1792.7447    11118.335 
   13610    267.65912    3.3707229    59.917887   -163.99386   -464.10699    11118.335 
   13620    278.34731    5.3001624    57.575427   -160.22621    1135.4148    11118.335 
   13630    290.05288    5.4638409    62.975453   -156.21317    4033.9751    11118.335 
   13640     301.4385    6.1680099    55.854798   -152.26252    360.90716    11118.335 
   13650    296.11626     5.076379    68.318556   -148.86555   -1719.4718    11118.335 
   13660    289.00976       8.7608    63.860983   -146.26815   -2433.1698    11118.335 
   13670    299.30619    7.9367351    66.050304   -144.08574   -276.96864    11118.335 
   13680    312.80917    6.4834513    64.702119   -141.99619   -1576.5847    11118.335 
   13690    328.23837    9.5142564    60.773171   -140.10986   -740.08963    11118.335 
13700        0.98625609672925329541 10.119214215275366797 1 69 -281.06089547352951286
   13700    313.66793    13.348961    66.380355   -138.94325   -1277.8274    11118.335 
   13710     316.5666     14.09055    57.275028   -138.46632   -1255.0448    11118.335 
   13720    305.80664    11.532397    58.874552   -141.06786    2407.7727    11118.335 
   13730    307.15165    8.5042695    59.713812   -141.07478    4486.9076    11118.335 
   13740    281.29009    8.2692794    64.633346   -140.75347     1869.639    11118.335 
   13750    293.97928    9.9826357     61.90174   -139.72859   -582.02866    11118.335 
   13760    301.72984    10.787481    65.676356   -138.21706   -1841.8594    11118.335 
   13770    313.61982      10.4423    66.614563   -136.56461   -693.28985    11118.335 
   13780    320.38497    12.109003    60.650608   -132.09488   -1923.3517    11118.335 
   13790     322.0659    10.886069    56.533317   -130.41463   -1481.0586    11118.335 
13800        0.9902624191124166364 10.075701655753954711 1 70 -278.08903523168243055
   13800    329.79697    9.8081513    58.892122   -128.66359    3521.0674    11118.335 
   13810    332.48545    9.0610204    65.901012   -127.23238     6403.097    11118.335 
   13820    329.65676    8.2821832    58.761206   -126.07124    287.70582    11118.335 
   13830    323.03671    6.4644218    70.001362   -125.71559   -636.90582    11118.335 
   13840    336.85792    7.1174899    61.472994   -126.25378   -27.114971    11118.335 
   13850    336.45068    7.1525499    62.535503   -128.21392   -1578.2668    11118.335 
   13860    339.66909    8.2520802    59.430722   -131.93946    1057.9208    11118.335 
   13870    312.99842    8.9392089    62.644208   -136.84422   -1759.0734    11118.335 
   13880    342.87265    8.0445077    56.402349   -142.59881    3045.9727    11118.335 
   13890    286.20611    6.2827355    67.269714   -148.25316    438.72037    11118.335 
13900        0.98677419414316203117 10.111361304672477957 1 70 -285.22420512346218402
   13900    293.96489     7.293593    54.407675   -152.03368    1368.0404    11118.335 
   13910    249.05639    7.0237023    65.813221   -154.33567   -2327.1396    11118.335 
   13920    292.80964    5.2616722    55.782695   -155.09843    1853.6081    11118.335 
   13930    284.85708    4.0193294    64.840837   -155.29764    -2242.505    11118.335 
   13940    287.48669    5.0731281    60.990774   -155.20572    531.29919    11118.335 
   13950    283.05035    6.1543556    60.889721   -154.79533   -1903.0545    11118.335 
   13960    280.67412    5.9771794    68.212149   -154.26256    1056.6298    11118.335 
   13970    303.36028    5.8632435    55.900392   -153.46492   -1286.9405    11118.335 
   13980    282.55877    4.7628012    66.052976   -152.59188   -368.17998    11118.335 
   13990    297.13816    3.9448937    56.551973   -151.61748   -1624.3886    11118.335 
14000        0.98064081590414786671 10.135387513772197821 1 73 -285.1896860070423827
   14000    297.40475    4.8972487    59.235422   -150.44061    1597.0581    11118.335 
   14010    292.77854    7.4460267    61.405746   -151.33674    1021.6592    11118.335 
   14020    321.16207    8.6404755    56.158812   -149.10693    1008.5882    11118.335 
   14030     306.4771     10.28513    68.835648   -146.92704    372.95434    11118.335 
   14040    311.09963    10.226984    56.817602   -144.79536   -813.96443    11118.335 
   14050    320.03428    10.866767    64.840131   -142.02724    -1346.078    11118.335 
   14060      331.223    9.4657014    66.020157   -137.02608      2378.06    11118.335 
   14070    321.96301    7.9646934    61.296815   -135.57988   -3280.7454    11118.335 
   14080    319.47939    6.1015163    57.672525   -135.00487   -1055.1213    11118.335 
   14090    305.03379    4.7224944    68.327072   -134.86212   -794.08751    11118.335 
14100        0.97021491402080839439 10.164230315392860149 1 70 -267.28413677431416318
   14100    291.72456     5.938515    67.196285   -135.10866     3999.057    11118.335 
   14110    290.90864    6.1072941    71.960831   -135.66846    1227.0205    11118.335 
   14120    302.61655    8.5763932    57.513607   -136.37077    982.95946    11118.335 
   14130    298.36056    9.1000434    65.079168    -137.5206   -1041.6117    11118.335 
   14140    286.82944    8.0917077    67.181441   -138.89443   -739.63244    11118.335 
   14150    307.91349    6.3852047    64.967745   -140.52217   -2468.2998    11118.335 
   14160    292.59762     3.957487    62.087987   -142.72017    1296.0508    11118.335 
   14170    276.25539    2.0511487    68.094091   -145.03015   -1919.1907    11118.335 
   14180    290.33451    3.6409677    58.048306   -147.30975    5281.6848    11118.335 
   14190    290.36445    4.3364503    67.472431   -149.60939     15.62933    11118.335 
14200        0.96970571946099159977 10.187145363136961507 0.99735449735449732689 68 -290.52289520033514236
   14200    305.14694    5.7865131    57.428621   -152.26597    636.80185    11118.335 
   14210    266.21121    5.2422125    67.747825   -154.88011   -3409.5394    11118.335 
   14220    291.19815    3.4267011    51.231258   -157.04811   -475.32388    11118.335 
   14230    278.42443    2.8165171    65.017244   -158.78838   -1011.7298    11118.335 
   14240    286.95273    2.4545576    58.667417   -160.07214   -892.44256    11118.335 
   14250    274.60047    2.9680629    60.383815   -161.14752   -1027.7244    11118.335 
   14260    254.42833    3.8209573     68.02263   -161.72084    59.699731    11118.335 
   14270    280.83307    4.2827253    56.376886   -161.56969    1066.6878    11118.335 
   14280    266.61714    4.1982903    65.311773   -160.71547    2474.2354    11118.335 
   14290    285.22466    5.5666908    60.281183   -158.96104   -813.97615    11118.335 
14300        0.97057612696831940813 10.171697256338434912 1 67 -279.43591242802870056
   14300     272.2889    5.7406322    61.892749    -156.0664   -1398.5581    11118.335 
   14310    290.13341    6.8642094     65.54946   -151.10815   -2496.6228    11118.335 
   14320    284.90011    7.2649353    67.026576   -145.27851    -487.9815    11118.335 
   14330    319.92649      6.40783    64.803835   -139.57751    1331.3362    11118.335 
   14340    333.91094    6.4358079    64.851871   -135.52897    1643.3339    11118.335 
   14350    338.22002    5.8482219    58.844615   -133.10074   -2451.2384    11118.335 
   14360    300.11409    4.9188632    69.410644   -132.26039    2020.4216    11118.335 
   14370    309.23797    7.2599318    68.903815   -132.05647    291.00076    11118.335 
   14380    281.04904    8.4806419    63.828106   -131.96998    1812.7139    11118.335 
   14390    324.81859    7.2582974    58.040403   -131.61275   -2124.1973    11118.335 
14400        0.97126551554886986217 10.163506036167339275 1 69 -265.54644346705083535
   14400    296.01603    8.3026893    71.894616   -131.42657    2389.6667    11118.335 
   14410    307.01432    7.7729849    62.689585   -131.41213   -1719.5171    11118.335 
   14420    302.94628    8.0742335     62.26229   -131.39375   -406.02051    11118.335 
   14430    311.13454    4.7407202    64.468616   -131.51332   -4425.1541    11118.335 
   14440    313.09291    6.5590202    61.564392   -131.82263    201.92459    11118.335 
   14450    306.83022    7.5873474    63.509304   -132.43361    1958.2648    11118.335 
   14460    309.01516    12.620762    62.222936   -133.48411    4938.4876    11118.335 
   14470    314.39026    12.679909    64.272266   -135.43909    2723.1157    11118.335 
   14480    320.50146     8.205322    63.725453   -138.91869   -190.64241    11118.335 
   14490    331.26482    4.8902314    52.008533   -144.54247   -2988.2707    11118.335 
14500        0.97462296415370697211 10.171897872605951463 1 66 -282.90293558445097233
   14500    290.75086    6.5684641    61.886632   -151.16862   -1313.7234    11118.335 
   14510    265.71845    6.2188496    66.528772   -156.43316   -2265.0731    11118.335 
   14520    283.95106    8.2865102    61.542553   -160.00284    266.20624    11118.335 
   14530    301.84138    7.4097568    51.513386   -162.64031    56.981063    11118.335 
   14540    283.86262    6.2166016    59.072264   -164.48459    519.31537    11118.335 
   14550     295.8007    5.4906202    57.799724   -165.42654    2519.1873    11118.335 
   14560    297.79046    5.6776832    58.983747   -166.01232   -814.85287    11118.335 
   14570    293.23093    6.2883264    56.619642   -166.67855    1666.2161    11118.335 
   14580    285.17604    6.0334434    55.209759   -167.10903     1072.374    11118.335 
   14590    293.79769    7.7604709    51.506491   -167.01897   -488.23745    11118.335 
14600        0.97371761438386328358 10.167686264988729405 1 65 -299.46520073571900866
   14600    294.10418    9.7140303    53.105063   -166.21156   -2223.8287    11118.335 
   14610    295.85049    10.339439    60.109438   -164.83276   -1277.9475    11118.335 
   14620    284.79885    12.067431    61.460135   -163.32557     3845.244    11118.335 
   14630    275.24072      13.7972    55.354079   -161.22666    2296.0578    11118.335 
   14640      302.613    12.181422    53.820758   -158.05231     -160.813    11118.335 
   14650    289.61888    8.1502355    61.486543   -153.54089   -3860.3169    11118.335 
   14660    318.13768    7.1051788    58.920677   -147.97118   -298.89007    11118.335 
   14670    293.97484    9.1410661    68.628822   -142.76274    2034.7219    11118.335 
   14680    300.02601    7.8558003     60.61834   -138.57198    494.50919    11118.335 
   14690    317.11899    5.7242396    57.769072   -135.29519   -400.10991    11118.335 
14700        0.96937028527187418803 10.199954974623373971 1 64 -276.25204567713569759
   14700    315.84339    4.9029273    63.040571   -133.14874   -3868.0309    11118.335 
   14710    332.42964    6.4328184    58.511849   -132.05941   -582.00571    11118.335 
   14720    310.89246     6.287058     64.42389   -132.07123   -2057.8933    11118.335 
   14730    323.55298    5.1318383    64.153139   -132.62059    1929.7737    11118.335 
   14740    334.85903    5.9197319    61.429532   -133.68767    69.316938    11118.335 
   14750    334.91102     8.784156    57.930046   -135.45847    1979.4253    11118.335 
   14760    320.13545    6.2736418    60.380588   -137.94248    1666.6958    11118.335 
   14770    306.44368    4.8003445    60.599605    -140.7682   -1166.3457    11118.335 
   14780     303.1678    2.3850765    59.960498   -143.65514   -4095.9317    11118.335 
   14790    291.48746    4.5484721    58.455439   -146.41982   -2699.4106    11118.335 
14800        0.97355500194508681755 10.182553583471573688 1 67 -275.89769141451415635
   14800    281.45852    4.9990919    60.596906   -148.37358    1439.0238    11118.335 
   14810    307.26636    6.7800326    53.140662   -149.43603    1801.0703    11118.335 
   14820    302.88918    6.3768729    62.955418   -150.15594    383.48145    11118.335 
   14830    284.64655    5.6114315    69.135579   -150.70249    1497.8539    11118.335 
   14840    290.84566    7.2162056    62.875663   -151.32316   -2178.6851    11118.335 
   14850    275.96116    7.0247181    69.497603   -152.12297   -456.30185    11118.335 
   14860    301.88386    6.0064342    59.106297   -152.97993   -1267.4438    11118.335 
   14870    276.14486    6.5529139    67.907178   -153.96403   -404.56644    11118.335 
   14880    294.13356    6.5740352    58.701659   -154.92386    263.28137    11118.335 
   14890    266.56978    10.512947    66.991315   -155.88342    1513.4745    11118.335 
14900        0.97696406157722104346 10.163974994324764367 1 65 -282.45829174436221365
   14900    278.16236    13.050881    65.909721   -156.42762    4637.2587    11118.335 
   14910    284.67082    12.196549    67.990641   -156.70544     971.3772    11118.335 
   14920    273.72055    8.6859715    69.423559   -157.09898    -2622.987    11118.335 
   14930    287.02622    6.1699063     59.56338   -157.55955    -2532.248    11118.335 
   14940    293.14717    6.2860608    65.861661   -157.98599   -551.90531    11118.335 
   14950     314.0405    7.8811418    52.661465    -158.4154    1249.3335    11118.335 
   14960    287.70952    9.6169662    58.313548   -158.79519   -1364.7237    11118.335 
   14970    286.57299     7.136834    60.036038   -158.73716    1077.7176    11118.335 
   14980    279.92384    4.0698094     63.53069   -158.24557    2047.4717    11118.335 
   14990    292.23854    4.5538807    59.788573   -157.36242    2193.3978    11118.335 
15000        0.9748695228618587949 10.165092079623027743 1 67 -290.46470001446363085
   15000    296.46733    6.4766864     58.41204   -156.14036    714.25124    11118.335 
   15010    304.50865    5.0789372    56.797816   -154.37087   -2929.6113    11118.335 
   15020    305.95306    6.4965598     54.42541   -152.11315   -5623.7566    11118.335 
   15030    296.03522    6.7959201    64.529473   -149.80236   -4261.0348    11118.335 
   15040    314.87649    7.7415884    61.124211   -147.28797   -206.69208    11118.335 
   15050    316.68812    8.2526274    60.151748   -144.87919    630.08188    11118.335 
   15060    322.35926    8.8411046     58.29019   -142.60978    819.35948    11118.335 
   15070    303.94488    10.005071     61.86783   -140.77437    3816.4788    11118.335 
   15080    316.76439     8.732848    62.552914   -139.17719    4272.6201    11118.335 
   15090    294.77777    11.575476      68.6168   -138.08041    223.32398    11118.335 
15100        0.98140013680379034611 10.140023741502933063 1 67 -276.05692876452093287
   15100    306.57431    9.7163992    60.014717   -137.15328   -1092.5541    11118.335 
   15110    304.64778    8.1819685    67.264782   -136.22703   -623.60007    11118.335 
   15120    317.25372      9.56081     64.67644   -135.49082    27.129182    11118.335 
   15130    296.54086    12.086235    63.735341    -135.2677   -674.60964    11118.335 
   15140    319.64855    10.888976    63.311859   -135.54713   -859.37479    11118.335 
   15150    301.52095    8.8533574    58.749291   -136.55773    1163.3108    11118.335 
   15160       284.41    7.9609244    63.548258   -138.05097    1829.3532    11118.335 
   15170    303.02841    7.5550173    66.277071   -139.55318    1165.0939    11118.335 
   15180    331.22486    6.2493722    61.512059   -142.08561   -1644.4819    11118.335 
   15190    314.06639    6.3427956    70.118464   -146.66908   -3071.3536    11118.335 
15200        0.98637834857584827386 10.114597034896549488 1 65 -296.85825686190486294
   15200    317.69596    6.5900475    64.314644   -152.91558   -1376.1682    11118.335 
   15210    307.47496    8.4412395    57.434651   -159.63604    241.64945    11118.335 
   15220    298.78624    7.2121906    55.659614   -164.91543    1200.7737    11118.335 
   15230    279.40768    8.2649809    58.711572   -168.35459   -690.68676    11118.335 
   15240     289.9483    7.0392068    59.546643   -170.44582   -846.67089    11118.335 
   15250     274.3984    8.4292083    57.330913   -171.76289    2528.4659    11118.335 
   15260    268.94524    8.5594116    59.714618   -172.26148    375.02324    11118.335 
   15270    259.37578    8.9019457    58.308335   -171.84031    2381.5842    11118.335 
   15280    251.58191    8.5592972    59.902259   -170.39832   -785.80484    11118.335 
   15290     277.4371    6.1901472    60.418688   -167.93021    3210.0085    11118.335 
15300        0.98196981038444142165 10.123010580465491515 1 68 -298.66031509170511526
   15300    295.40376    5.8932662    57.851123   -164.81786   -2782.5928    11118.335 
   15310    289.80622    7.3508091    55.724917   -161.54143   -3127.1413    11118.335 
   15320    266.57294    8.7182875    65.457501   -158.04912   -1738.5456    11118.335 
   15330    291.83086    8.1134396    64.651878   -153.89715    1142.8125    11118.335 
   15340    295.59186    5.2961427    68.690862   -149.93126    1351.1824    11118.335 
   15350    290.92433    5.4172335    65.195959    -146.9875   -745.14825    11118.335 
   15360    277.98455    5.7902111    64.720857   -144.87151   -30.671019    11118.335 
   15370    305.59632    5.1303322    59.918123   -142.83354    3215.7813    11118.335 
   15380    297.01166    6.2116375    64.044333   -141.10567   -1630.9875    11118.335 
   15390    299.71217    7.0514831    65.621589   -139.66434    588.87377    11118.335 
15400        0.97767799564915081056 10.12924243969896132 1 77 -277.58064072771981046
   15400    306.49715    8.5181176    70.374228   -138.71195    316.04329    11118.335 
   15410     310.1229    10.739017    62.943698   -138.45524    2886.5534    11118.335 
   15420    320.32528    9.5337061    64.416581   -138.75896    1111.0777    11118.335 
   15430    355.07055    9.0670823    54.268208   -140.23306    290.12576    11118.335 
   15440    334.89337    8.5932719    57.946566   -143.13383   -487.11771    11118.335 
   15450    311.69031    8.9728789    57.985271   -146.56249   -3610.4083    11118.335 
   15460    300.46925    8.6383487    63.297543   -149.57575   -1495.8386    11118.335 
   15470    284.89058    8.7277786    68.917898    -152.3373   -1104.7194    11118.335 
   15480     292.2761    6.1574511     60.14525   -154.57969   -1529.4614    11118.335 
   15490    280.38515     5.798684    65.726111   -156.44833    2638.7221    11118.335 
15500        0.97780952919281560742 10.154767344405986051 1 74 -281.53154625135778133
   15500    273.70105    7.2772738     64.37382   -157.52222    3871.9474    11118.335 
   15510    301.33121    7.3721229    56.531995   -157.71299    1895.1143    11118.335 
   15520    303.49628    5.9523658    57.508941   -157.71846    -4636.251    11118.335 
   15530    296.70852    7.2217963    57.536423    -157.8155   -6473.9858    11118.335 
   15540    289.71797    5.6641587    69.981103   -157.96638    1969.1108    11118.335 
   15550    300.60468    4.6542185    59.750485   -158.08402    2481.4032    11118.335 
   15560    319.58171    5.7375017    49.591672    -158.2933    980.39773    11118.335 
   15570    308.07684    5.4174729    54.940333   -158.51439    292.85347    11118.335 
   15580    311.52864    5.2370113    47.203072   -158.56636    3112.2674    11118.335 
   15590    301.42845    4.9588605    63.516586   -158.42681    2736.5402    11118.335 
15600        0.97496966604342294449 10.16886168900581211 1 68 -302.80140098962607453
   15600    318.52967    4.3576115    50.962864   -158.48098   -1293.6594    11118.335 
   15610    285.85563    4.1192835    61.849386   -158.81351    -4491.309    11118.335 
   15620    294.12743    6.5958743    61.888064   -158.79501   -437.63681    11118.335 
   15630    284.40973    5.0837062    60.164648   -158.55453   -2151.6894    11118.335 
   15640     296.6865      4.20014    57.495615   -158.06956    901.90878    11118.335 
   15650    272.14421     3.394015    66.352141   -157.46847    650.03417    11118.335 
   15660    268.96581    5.8442497    55.660703   -156.50118    2785.3097    11118.335 
   15670    274.86414    8.4321445    62.121398   -154.79759    2394.8815    11118.335 
   15680    303.89776    7.1630807    61.667615   -152.48655    606.26436    11118.335 
   15690    318.49854    6.2675391    59.657353   -149.66802   -2593.3498    11118.335 
15700        0.9762344855740195948 10.181617098155889778 1 72 -291.91589163964749787
   15700    319.74269    6.3870003    57.812432   -147.04587   -3300.8147    11118.335 
   15710    317.77479    8.7560738    60.298132   -144.83507   -999.56996    11118.335 
   15720    316.24559    7.8413381    59.672656   -142.90613    3583.7847    11118.335 
   15730    323.12446    6.0975856    66.101003   -141.05797    4192.4404    11118.335 
   15740    298.89699    6.2897205    68.717277   -139.46873    1315.7607    11118.335 
   15750    320.65705    8.5584563    59.909051   -137.75978   -3502.4133    11118.335 
   15760    329.03405    8.1869843    63.348882   -136.10452   -1249.9296    11118.335 
   15770    316.37271    8.9166933    66.504516   -134.94089    -3491.049    11118.335 
   15780    320.35009    8.1855405    61.880835   -133.98786   -869.13124    11118.335 
   15790    289.56869    8.9880518    71.197542   -133.61203    1106.6149    11118.335 
15800        0.98266309348712199689 10.14731318345067379 1 69 -275.27384343434846414
   15800    312.52383    8.3110091    59.110664   -133.67457    2378.3163    11118.335 
   15810    308.50188    6.8335392    66.229678    -134.0367    414.74827    11118.335 
   15820    342.28732    6.3933679     52.03638   -134.86833   -1260.6735    11118.335 
   15830    300.11187    5.9091425    67.485681   -136.54776    -2258.488    11118.335 
   15840    343.69885    5.1320061    51.509389   -138.96961    1773.1772    11118.335 
   15850     302.5773    4.8179707     58.54684   -142.14032   -3471.5785    11118.335 
   15860    290.36767    6.4522965    61.316301   -145.15621    1630.8114    11118.335 
   15870    274.75991    8.0900544     66.27819   -147.60106   -489.14385    11118.335 
   15880    293.13205    8.3207611    61.933365   -149.80615    2446.3194    11118.335 
   15890    305.44783    7.2912612    57.836217   -152.08375    -3349.991    11118.335 
15900        0.98598584488093099498 10.124325324342606791 1 68 -288.98813645016537066
   15900    296.65436    6.7481094    62.493665   -154.57905    1596.1712    11118.335 
   15910    298.70134    6.4757854    64.033319   -157.15501      220.777    11118.335 
   15920    288.92992    5.1356628    60.434357   -159.42949   -1800.3555    11118.335 
   15930     290.8748    4.1135898    58.710668   -161.39758   -1289.3071    11118.335 
   15940    285.67235    4.7793747    58.479507   -163.16163    2868.6208    11118.335 
   15950    286.28274    6.8372988    58.744509   -164.70916    2617.5029    11118.335 
   15960    296.09493    8.7029198    54.952557   -166.05435    128.98732    11118.335 
   15970    291.86521    7.9722084    49.369821   -167.07852   -2754.9312    11118.335 
   15980    287.02306    8.5110058    55.315298   -167.72057   -465.28544    11118.335 
   15990    286.38815     11.01036    55.603493   -167.77593   -2076.5636    11118.335 
16000        0.9873900232986286829 10.098452077030717788 1 68 -298.95383506919165484
   16000    290.95253    9.2408803     50.59915   -167.12815   -274.16532    11118.335 
   16010    273.03543    9.3828427    61.168674   -165.56601    2882.7818    11118.335 
   16020    277.92327    9.3518519     61.32929   -162.32035    198.78702    11118.335 
   16030    280.12921    9.2003469    58.479347   -157.33705    1432.2171    11118.335 
   16040    300.69202    7.3930999    53.905661   -150.88654     2609.029    11118.335 
   16050    311.45259    7.0087652    57.876418   -144.84646   -821.89715    11118.335 
   16060     309.0899    6.1685396    59.765086   -140.04548    1070.2582    11118.335 
   16070    317.49348    6.0379349    57.603546   -136.92391   -3162.2209    11118.335 
   16080    312.99093      6.95916    63.573588   -134.76267    686.51318    11118.335 
   16090    314.52587    8.0509186     62.01446   -133.49591    2197.0237    11118.335 
16100        0.99002830721199219788 10.087961953819588601 1 67 -271.12752310446427373
   16100    305.02944    10.048449    68.935562   -132.92383    274.31631    11118.335 
   16110    318.66447    9.6571633    64.495433   -133.01585    857.77751    11118.335 
   16120    325.21343    10.427924    62.181157   -133.82274   -136.32774    11118.335 
   16130    320.04225    10.674199    66.007244    -135.4299   -2073.9251    11118.335 
   16140    316.01554    9.6221643    65.817197   -137.84746   -1881.2081    11118.335 
   16150    309.26307      8.93296    59.043527   -140.95641   -2214.6561    11118.335 
   16160    307.34283    8.0257946    63.042201   -144.39193    2758.2629    11118.335 
   16170    281.60835    9.3435815    59.434897   -147.69967     1203.993    11118.335 
   16180    293.83948     7.605972    60.967846   -150.22909    1121.2973    11118.335 
   16190    283.86977    6.5765841    53.653037   -152.32935    875.85202    11118.335 
16200        0.98951372711183838149 10.123725013785513482 1 65 -284.04278656499775479
   16200    287.45714    5.0152617    63.454652   -153.80081   -4425.8684    11118.335 
   16210    282.02034    7.2782236    57.612848   -155.13784    1083.8686    11118.335 
   16220    280.39758    6.5818076    61.268881   -156.10659   -1510.6178    11118.335 
   16230    297.26639    7.3838193    53.618956   -156.35778     3204.079    11118.335 
   16240    302.12973     7.246922    53.403781   -155.96489    557.33872    11118.335 
   16250    303.56095    7.9978877    61.570206   -155.30381    2670.0006    11118.335 
   16260    285.60449     8.754559    68.469017    -154.8688    1677.9656    11118.335 
   16270    306.14547    7.4850507    58.906931    -156.5844   -640.00093    11118.335 
   16280    312.20629    5.6149785     59.86938   -156.09133    -2004.394    11118.335 
   16290    298.14393    6.7203303    67.292909   -155.65823   -1571.6775    11118.335 
16300        0.97911338317233176376 10.168044979646225556 1 67 -293.88122946969269833
   16300    309.94629    9.1564204    56.952416   -153.44979   -2290.8932    11118.335 
   16310    296.33506    8.2950398    66.359382   -154.19824   -869.70902    11118.335 
   16320    307.92747    7.7984892    51.649069   -155.46268   -4110.6399    11118.335 
   16330    294.77913     7.361288    54.698602   -156.96564    473.41184    11118.335 
   16340    306.32646    7.7262032    52.831035   -158.58322    5079.1262    11118.335 
   16350    287.88332    7.6486237    57.898872   -160.19626    4817.6271    11118.335 
   16360    293.05732    7.1068956    56.343923   -161.75013    29.934299    11118.335 
   16370    288.60896    7.5781121    58.733432   -163.05362   -1999.6063    11118.335 
   16380    297.69786    6.6598568    52.485388     -164.152   -1480.9467    11118.335 
   16390    274.58007    8.1927716     53.06294   -164.98455    2109.9078    11118.335 
16400        0.96704280583289359274 10.202034535670088999 0.99735449735449732689 67 -287.86113199783102345
   16400    270.69096    6.0521785    56.786774   -165.21563   -735.36115    11118.335 
   16410     278.3197    4.7849724    54.011955   -164.75239   -2913.9601    11118.335 
   16420    282.52422    3.2025364    57.390013   -163.39214   -2739.7817    11118.335 
   16430    311.15597    4.2267338    50.715966   -161.04672    93.869731    11118.335 
   16440    280.10595    5.4929366    59.712561   -158.19374    1979.7245    11118.335 
   16450    280.48727    6.8938214     52.73703   -154.66303   -1240.2811    11118.335 
   16460    299.93772    6.3214657    58.525664   -150.40893   -575.85701    11118.335 
   16470    306.24212    5.8908447    59.813211   -146.17147    2323.8894    11118.335 
   16480    332.32937    6.1290426    55.379417   -142.27968   -122.81555    11118.335 
   16490    296.44372    8.0990108    65.654597   -139.31186   -610.59511    11118.335 
16500        0.9567883600362226959 10.231173838014040456 0.99470899470899465378 68 -273.98162466300084361
   16500    302.13038    6.6023616    60.355471   -137.09145    -3076.441    11118.335 
   16510    297.51991    6.7667024    64.886377   -135.43476   -1733.2267    11118.335 
   16520    324.85227    5.6198819    60.020711   -134.33836    686.31115    11118.335 
   16530    307.31929     5.565182    55.775632   -133.88432    1723.7293    11118.335 
   16540    285.60978    4.4339089    56.993413   -133.49296    3292.1294    11118.335 
   16550    305.27295    4.9047789    60.575586   -132.55055    210.65966    11118.335 
   16560    320.35508     7.420327    54.519235   -131.60078    505.61216    11118.335 
   16570    328.87225    6.3754569    58.444833   -131.34805   -34.525766    11118.335 
   16580    306.92237    4.9866871    55.952606   -131.72757    68.080965    11118.335 
   16590    289.78839    4.2738659    60.500073   -132.14217   -5689.7939    11118.335 
16600        0.95713853338412391292 10.220969092915861864 0.99470899470899465378 69 -264.22711193034342614
   16600     291.7232    5.1866577    58.061163   -132.05225   -1519.4047    11118.335 
   16610    311.06248    4.2515669    59.451979   -131.58642    239.31476    11118.335 
   16620    292.95392    3.4581343       64.338   -130.98122    6451.7608    11118.335 
   16630    286.04692    4.2600203    67.956842   -130.12304   -3713.0978    11118.335 
   16640    299.82842    4.5575456    57.778053   -128.40085    602.15558    11118.335 
   16650    306.65367    2.6220472    69.855242   -125.68513    537.78898    11118.335 
   16660    316.37397    3.2594658     62.30294   -122.11256    2139.5596    11118.335 
   16670    280.58981    4.3730292    74.198254   -120.18352   -3016.9279    11118.335 
   16680    323.40378    4.8411334    65.150766   -116.19052   -3802.1268    11118.335 
   16690    364.36706    4.7767717    72.142305   -111.47121    318.39258    11118.335 
16700        0.96706018008454897039 10.1849953538287199 0.99735449735449732689 71 -278.68968531121424803
   16700    368.65901    4.3114561    68.775962   -111.65651    2661.5166    11118.335 
   16710    334.19183     6.278314    72.217742   -114.57164    101.94254    11118.335 
   16720    320.27929    7.3370332    66.623578   -118.66448    1369.8338    11118.335 
   16730    310.02376    7.5240634    71.810634    -123.9594   -2317.2978    11118.335 
   16740    289.75174    7.9101241    70.970681   -129.08109    2140.9731    11118.335 
   16750    299.84203     10.99419    60.960687   -133.45683   -2062.8586    11118.335 
   16760    312.11495    8.1262077    56.310348   -136.77217   -1680.3358    11118.335 
   16770    304.74715    6.2703329    61.384985   -139.70133    -2123.025    11118.335 
   16780    283.08294    6.1732997     66.27052   -142.18832    2202.8466    11118.335 
   16790    303.27054    4.2839266    60.825243   -144.21706    2191.9846    11118.335 
16800        0.97107609024325436398 10.133058069671927015 1 67 -273.69388683431316167
   16800    281.86128    6.3396399    64.019074    -145.9873    328.16251    11118.335 
   16810    309.78254    7.1166644    58.283261   -147.13179   -266.78579    11118.335 
   16820    301.36241    7.4674224    66.646274   -148.35047     1894.329    11118.335 
   16830    319.20422    9.3300709    60.019214   -149.99069    904.25552    11118.335 
   16840    304.04376    10.333519    57.293429   -152.27895   -490.02177    11118.335 
   16850    293.46406    9.7905826    57.323143   -154.46761   -573.67967    11118.335 
   16860    294.05947    7.6251502    54.031779   -156.29257    1324.5177    11118.335 
   16870    267.57283    6.1530341    58.350707   -157.76974    446.77809    11118.335 
   16880    285.32066    7.2675623    58.159238   -158.37198    190.31308    11118.335 
   16890     283.6156    5.8643334    57.408591   -158.37886    1284.0262    11118.335 
16900        0.97104034874651257159 10.114827288117808735 1 71 -281.16470497786866645
   16900    272.15537    5.4908202    60.650624    -157.8557    1122.5042    11118.335 
   16910    259.02592    7.0645636    61.736141   -156.33158    712.87107    11118.335 
   16920    276.60372    8.4827813    56.910769   -153.29608    -319.2353    11118.335 
   16930    300.36303    6.3914164    61.053127   -147.73392   -2004.0557    11118.335 
   16940    316.47402    6.7960796    58.315949   -140.97258   -2387.6046    11118.335 
   16950    331.39584     6.379885    59.833697   -134.79428    2271.1829    11118.335 
   16960     323.3591    8.7481473    66.922833   -130.61898    3798.6784    11118.335 
   16970    349.51973    8.8828699    50.069447   -128.35862    156.21314    11118.335 
   16980    321.21961    9.6446911    66.693831   -128.12465   -3052.8956    11118.335 
   16990    331.67951      11.6885    55.663407   -128.79736     9.322092    11118.335 
17000        0.97226095490622521655 10.129443986644833586 1 69 -268.8669072204056647
   17000    306.83975    8.8020672    65.922611   -129.84299    882.86596    11118.335 
   17010     311.1705    7.2109031    61.626306   -131.03485   -1209.1487    11118.335 
   17020    287.73675    6.5916967    64.420778    -132.4897   -2643.0793    11118.335 
   17030    276.58499    6.1177962    70.535679   -133.83131    2332.5559    11118.335 
   17040    304.44257    5.3303476    66.061278   -135.00106    3047.9514    11118.335 
   17050    310.64723     3.498412    64.648759   -136.34413    67.490246    11118.335 
   17060    326.96974    3.2022688    58.815508    -138.4186   -3321.5034    11118.335 
   17070    295.16169    4.2400385    64.116283   -141.28534   -1346.3305    11118.335 
   17080    282.48303     5.824076    69.565142   -144.30335    715.65581    11118.335 
   17090     287.4643      6.25334     51.88482   -146.77958    1005.2705    11118.335 
17100        0.96893904998031143982 10.179326493059567937 1 70 -276.41327666947677244
   17100    281.29007    5.3720661    63.713666   -148.96549    1425.4486    11118.335 
   17110    281.37494    7.5222654    67.194494   -150.78089   -191.87794    11118.335 
   17120    270.81704    9.3441395    64.764826   -152.70149   -1734.7112    11118.335 
   17130    294.92834      11.2268     57.12794   -154.71334    2521.6829    11118.335 
   17140    297.69475    10.965682    59.469219   -157.18731   -507.58385    11118.335 
   17150    311.92449    11.102074    51.197138   -160.42352   -1704.9601    11118.335 
   17160    267.21107    10.718377    56.231387   -165.21804   -2040.6658    11118.335 
   17170    251.56688    8.8700188    60.955556   -170.67596   -381.49586    11118.335 
   17180    276.03991    8.3499894    56.025007   -175.99012    1118.0921    11118.335 
   17190    293.25641    8.6529505    48.014393   -180.79468   -2155.2774    11118.335 
17200        0.97544952198581180713 10.187103439217400691 1 71 -312.63086849771616471
   17200     282.7226    9.4336055    52.492841   -184.53403    1525.9903    11118.335 
   17210    262.72831    9.1044701    51.727323   -186.63623    888.30577    11118.335 
   17220    285.49419    9.3702419    42.643811   -187.25562   -1136.8538    11118.335 
   17230    259.76106     9.015601     58.83125   -186.84204   -1679.2116    11118.335 
   17240    285.40731    7.9414778    47.555407   -185.75365   -469.71792    11118.335 
   17250    264.47858    10.041359    56.018768   -184.21197     3009.354    11118.335 
   17260    285.02303    9.9754223    41.908895   -181.82178   -976.99215    11118.335 
   17270    284.28973     9.705741    48.934677   -178.53558    -2110.326    11118.335 
   17280    273.04048    5.9429071    63.770614   -174.77663    1598.8423    11118.335 
   17290    293.96786    4.6688316    49.596205   -171.30058    -1868.109    11118.335 
17300        0.9777800100221610835 10.178877464524751062 1 68 -299.53206764203025614
   17300    289.97169     5.478875    55.540562   -168.15079   -143.99294    11118.335 
   17310    284.47837    5.7730597    58.521609   -165.40294     1202.414    11118.335 
   17320    289.60075    5.2274929    57.001843   -163.10383    41.384621    11118.335 
   17330    302.23286    3.4512573    55.644854   -161.04868     1511.099    11118.335 
   17340    322.73523    2.9844132    51.901544   -159.36771   -1078.0762    11118.335 
   17350    298.68328    4.6841164    59.149683   -158.20736    694.42452    11118.335 
   17360    309.46895    5.4962178    51.784854   -157.18409    204.42673    11118.335 
   17370    273.59423    7.5369772    58.595273   -155.87172   -3701.1962    11118.335 
   17380    296.35333    9.0615887     57.76341    -154.0893    166.43926    11417.259 
   17390     288.0135    11.962422    62.927178   -151.97151    -1587.571    11417.259 
17400        0.98015701632020701961 10.164504388257068257 1 69 -294.17063117267275629
   17400    318.86421    9.6533962    55.263873   -149.69864     1537.296    11417.259 
   17410    315.60696    7.0870468    60.311277   -147.55641   -328.56557    11417.259 
   17420    317.52739    5.4734961    58.964363   -145.70842    605.94253    11417.259 
   17430    276.87879     6.962162    71.916768   -144.34835    1663.5276    11417.259 
   17440    285.06212    10.663166    64.581851   -142.99396   -946.91074    11417.259 
   17450    333.27882    7.6053167    64.916301   -141.69362    560.89401    11417.259 
   17460    325.51542    6.4070216    69.380989   -141.03656    2900.3003    11417.259 
   17470     337.1852    6.5191849    54.129616   -141.55007   -4679.2642    11417.259 
   17480    289.60125    7.1899188    71.799552    -142.9524   -593.71091    11417.259 
   17490    317.30121    7.5268055    61.543726   -145.71084   -3983.3326    11417.259 
17500        0.98779922364211070196 10.114825650877259378 1 64 -292.62382080702752774
   17500    313.02934     7.983295    62.461661   -150.79551    2772.2583    11417.259 
   17510    296.65158    7.5828135    63.862468   -157.89682   -473.46066    11417.259 
   17520    271.96665    9.6309033     58.63193   -163.83093    2788.0132    11417.259 
   17530    265.26062    8.1763746    67.055728   -167.74313    3895.6166    11417.259 
   17540    278.50898    12.264138    53.492904   -169.99392    2246.0562    11417.259 
   17550    275.35126    9.6708712    59.139999   -171.13628   -1199.8631    11417.259 
   17560    290.68312     7.013909    53.058251   -171.53373   -1187.2602    11417.259 
   17570    274.53994    6.7738678    62.479965   -171.44927   -3969.8927    11417.259 
   17580    275.53811    10.298279    60.051962   -170.79434    -911.0212    11417.259 
   17590     274.5805    12.486555    56.843218   -169.49575   -2578.8857    11417.259 
17600        0.98700470415742835861 10.115729329138684278 1 67 -301.20042557685269458
   17600    295.15886    10.085501    57.768851   -167.46893    2850.1897    11417.259 
   17610    309.55349    8.4074262    56.471131   -164.97141    2520.5649    11417.259 
   17620    298.91799    8.9117681    57.706303   -162.63954   -1855.8594    11417.259 
   17630     296.4032     10.30336    60.558633   -160.42914    1761.6346    11417.259 
   17640    274.76208    11.737142     65.27889   -157.95093    233.66951    11417.259 
   17650    321.60448    13.328817    53.801356   -154.76765    925.65447    11417.259 
   17660    302.60264    11.154026    65.695973   -151.72245   -1169.7443    11417.259 
   17670    329.87918    11.646456    54.291669   -149.12765   -675.46198    11417.259 
   17680    285.83364    13.408016    70.888373   -146.91062    1987.5479    11417.259 
   17690    312.44069    11.145977    63.402765   -144.45761   -2443.3934    11417.259 
17700        0.98801242120283383485 10.104293992870079677 1 65 -291.78075312324068591
   17700    329.50974    7.5776614    63.754694   -142.48545    293.57743    11417.259 
   17710    336.51027    6.8060603    67.151759    -141.9578    413.48721    11417.259 
   17720    329.63034    9.2546633    61.201778   -142.86948    2635.7871    11417.259 
   17730     312.4828    9.2586629    68.226211   -144.67488   -1199.9908    11417.259 
   17740    313.39792     5.526274    72.007865   -148.22585   -621.07402    11417.259 
   17750    295.48081    4.2584422    69.740373   -154.33474   -1915.0113    11417.259 
   17760    295.41765    4.0888389    52.171236    -161.7212   -304.35873    11417.259 
   17770    266.02831    4.8104007    57.141377   -168.22894    3637.2346    11417.259 
   17780    258.35417    7.1495927    62.438579   -172.27234    1390.3704    10744.937 
   17790    275.17468    6.9260498    59.121473   -174.04367   -1426.8526    10744.937 
17800        0.9864725276048318392 10.113524237825034291 1 67 -300.94549600184268456
   17800    279.09996    8.0633294    54.127557   -174.49001    -3582.628    10744.937 
   17810    276.38493     8.657601    57.383764   -174.27834    1182.0148    10744.937 
   17820    285.66915    7.3627989    54.593778   -173.50687     2841.278    10744.937 
   17830    294.67734     6.916343    51.229171   -172.06093    1043.7014    10744.937 
   17840    276.28608    5.8338816    56.330164   -169.87531   -3228.4715    10744.937 
   17850    282.39358    6.5605169    66.308811    -166.9434    2556.3724    10744.937 
   17860    296.92108     5.934119    55.934819   -163.87094   -1026.5537    10744.937 
   17870    326.60227     7.576363    45.384191   -160.77433   -446.95383    10744.937 
   17880    296.77777    9.8825479    56.346554   -157.63837   -1776.7915    10744.937 
   17890    305.63158    7.9003897    57.192704   -154.26881   -2204.5673    10744.937 
17900        0.9844112891149946476 10.120111283435397453 1 65 -289.10754068172343523
   17900    304.48675    7.9009046    60.660132   -151.14973    1934.5848    10744.937 
   17910    302.63028    9.9972629    59.724496   -148.45631    1034.8204    10744.937 
   17920    295.38862    11.964391    60.407108   -145.98698    499.90836    10744.937 
   17930    313.11532     8.414436    59.911409   -143.16307    532.16063    10744.937 
   17940    323.23435     9.427513    65.708337   -140.36416    576.38742    10744.937 
   17950    318.05209    12.319782    67.047534    -138.2082    2109.5081    10744.937 
   17960    310.99804    10.008182    66.220901   -137.27997   -2012.4874    10744.937 
   17970    329.70081    10.265667    61.098334    -137.0779   -1180.2346    10744.937 
   17980    324.33122    7.6343478    59.756161   -137.52086   -1851.2952    10744.937 
   17990    321.33575    6.8660961    65.664961   -140.45916     2148.905    10744.937 
18000        0.98040545250113375619 10.145431724910714877 0.99735449735449732689 66 -275.36230033421463759
   18000    293.19723     5.196753    71.624686   -142.51958    3545.5745    10744.937 
   18010    314.15854      5.08316    65.573684    -145.3538    1274.4637    10744.937 
   18020    342.44091     5.843116    56.506036    -149.4746    246.88864    10744.937 
   18030    301.02441    7.8986252    56.865315   -154.50881   -4788.7547    10744.937 
   18040    307.79748    6.3473944    52.925983   -159.52562   -1978.8667    10744.937 
   18050    276.88973    4.2933741    64.666002   -163.87809   -373.98541    10744.937 
   18060    292.08399    4.8214782    54.597064   -166.85518    357.87754    10744.937 
   18070    284.23655    5.2723559    60.388624   -166.95055    3247.5878    10744.937 
   18080    298.06031    4.8527655    47.571276   -167.89198    1556.6005    10744.937 
   18090    276.05189    5.4816006    62.046313   -167.98875    5261.4232    10744.937 
18100        0.97675697691263074773 10.168538808832844111 1 70 -291.95192908764448703
   18100    274.86748    8.2333558    57.481053   -167.41411    1984.6694    10744.937 
   18110    263.16625    8.4623871    62.625768   -166.36112   -5198.2743    10744.937 
   18120    276.42037    7.1987323    62.260739   -164.77558   -2994.0658    10744.937 
   18130    280.13702    5.1708552    60.352852    -162.7032   -4900.3137    10744.937 
   18140    284.85907    4.9359314    58.113061   -160.24477   -1654.9929    10744.937 
   18150    281.13719    6.2927922    62.660871   -157.74197    129.64674    10744.937 
   18160    301.37412    7.4091747    59.478665   -155.03523    1046.4178    10744.937 
   18170    300.14646    8.9052977    62.800695   -152.44124    3837.5747    10744.937 
   18180    294.60124    8.3461352    61.689037   -149.95331   -1234.1815    10744.937 
   18190    296.78684    8.1018213       70.481    -147.5097    3159.7471    10744.937 
18200        0.9758423788058304682 10.166315668758835855 1 65 -291.53909861625800204
   18200    322.68824    6.1751212    60.282108    -145.3345   -2675.1832    10744.937 
   18210    334.98609    5.3343715    66.774365   -144.18506    430.87541    10744.937 
   18220     323.7199    5.5250163    67.192749   -144.28912   -2424.5091    10744.937 
   18230    316.25695    6.3518322    62.393866   -145.35841   -686.82183    10744.937 
   18240     311.5095    6.4826983    65.039794   -146.95678    421.46459    10744.937 
   18250    307.40964    7.7552161    55.461907   -148.74863   -319.12245    10744.937 
   18260    281.30211     8.139069    71.461806   -150.57713    926.19673    10744.937 
   18270    298.28627    6.4759809    61.820259   -152.41844     2856.667    10744.937 
   18280     286.3534    3.4691165    63.258773   -154.25944   -1852.4027    10744.937 
   18290    303.94397    4.5456827    55.951686   -156.07558   -125.03839    10744.937 
18300        0.98235297887875694389 10.116549062306310347 0.99735449735449732689 68 -287.96836536612590862
   18300    286.79023    6.4223464    63.122505   -158.02855    -1378.973    10744.937 
   18310    281.61685    6.6482261    60.500583   -160.68233    3690.2814    10744.937 
   18320    264.15456    7.3834201    62.653513   -163.92972    1725.6811    10744.937 
   18330     272.6895    8.5889803    56.352256   -167.61974   -393.49925    10744.937 
   18340    256.25451     7.992465    63.066271   -171.08337    2005.1437    10744.937 
   18350     273.7802    4.3162757    56.133572    -174.1119   -961.48212    10744.937 
   18360    243.61397    3.4525921    63.743011   -176.62163   -1138.1142    10744.937 
   18370    251.45396    3.7083846    58.033817   -177.84389    559.79198    10744.937 
   18380    252.51358    4.7135012    55.029627   -177.65103   -1380.0275    10744.937 
   18390    263.51499    4.5871885    55.084414   -175.95529   -2105.9116    10744.937 
18400        0.98617594152458276646 10.110420209117114254 1 69 -292.0648214703510348
   18400    263.90492    5.8318474    59.636062   -172.49396   -708.68668    10744.937 
   18410    293.57852    8.5877534    54.826875   -167.42463    1950.6649    10744.937 
   18420    320.75086    11.501801    53.308935   -161.72053    2210.8464    10744.937 
   18430    300.54403    14.327024     59.45141   -157.02737   -2084.6257    10744.937 
   18440    295.38933    13.810613    63.989169   -153.64785   -1921.8303    10744.937 
   18450    288.38917    9.4881905    66.664152   -151.07847    2756.9793    10744.937 
   18460    304.29912    6.8879723    60.881321   -149.14224    1271.4702    10744.937 
   18470    305.54774    6.1388287     58.79631   -147.82911   -651.29559    10744.937 
   18480    331.27009    7.0155667    47.745356   -146.86207    -2388.267    10744.937 
   18490    322.30222    7.2344439    64.124306   -146.19472     2051.564    10744.937 
18500        0.98293335460358277622 10.129272878877834785 1 67 -295.96511922242677883
   18500    330.98841    6.7760779    63.173917   -145.99985     2583.753    10744.937 
   18510    282.03426       11.019     68.39818   -146.30581   -1370.7785    10744.937 
   18520    271.64779    14.990999    62.140897   -146.34748   -4248.4607    10744.937 
   18530    303.94882    9.1615947    66.090792     -145.689   -554.72936    10744.937 
   18540    337.62242     6.959934    55.535617   -144.90882    2406.7253    10744.937 
   18550    320.66731    5.5864967    60.841687   -144.82427   -83.806747    10744.937 
   18560     301.2042    6.8430432    64.627515    -145.4037    1275.3474    10744.937 
   18570    294.15526    6.2541254    63.235682   -146.34369   -982.00014    10744.937 
   18580    315.60831    7.4492675    60.704305   -147.91115   -277.40166    11457.978 
   18590    311.22901     11.38896    58.292742   -150.39844    1502.0123    11457.978 
18600        0.98383763916934929838 10.135491310248648134 1 71 -294.70917461918452318
   18600    310.83045    11.083671     55.78582   -153.87714   -483.32367    11457.978 
   18610    288.64947    8.4978517    63.198411   -158.27986   -1167.0911    11457.978 
   18620    280.15916     6.850076    64.525908    -163.1792   -1387.9535    11457.978 
   18630     279.4901    7.5421371    56.766607   -167.71177    936.89877    11457.978 
   18640    292.82146    7.2521273    57.701234    -171.0517    1188.8931    11457.978 
   18650    287.42641    6.7025304    56.928363   -173.54209   -3100.2841    11457.978 
   18660    291.85178    7.3476028     55.50438   -175.27096   -3297.8479    11457.978 
   18670    309.44247    7.2045097    51.817336   -176.71936   -1602.3715    11457.978 
   18680    297.64328    8.4124038    54.044479     -178.116    3911.0411    11457.978 
   18690    293.13186    7.7089256    52.612831   -179.23099    1408.8478    11457.978 
18700        0.98250162240618166276 10.134990128555354971 1 74 -304.50055207345053532
   18700    275.28685     8.865993    53.103694   -179.77273    4344.5994    11457.978 
   18710    266.76637    10.000615    56.388738   -179.33587    178.86944    11457.978 
   18720    279.29225    10.288903    53.677718   -177.89731   -1642.4369    11457.978 
   18730     279.8787    10.209192    58.430676   -175.53651   -228.84892    11457.978 
   18740    295.54271    10.569742     50.20218   -171.82612    1123.0711    11457.978 
   18750     283.6982    8.8340699    67.622511   -167.10385    193.16004    11457.978 
   18760    303.52447    6.7212287    58.978603   -161.86707    331.95312    11457.978 
   18770    295.74451    5.2170768    65.237681   -157.49466   -2064.2796    11457.978 
   18780    314.27871    6.1890279    52.315095   -154.51529    688.18095    11457.978 
   18790     299.8322    7.4322291    58.374939   -152.35147   -1265.6711    11457.978 
18800        0.97803408210690645497 10.165690838367121174 1 75 -285.16402852964665726
   18800    296.04823    9.5157006    58.936727   -151.02957    837.31854    11457.978 
   18810    290.22057    11.172796    60.159567   -150.14287    1317.4027    11457.978 
   18820    275.83699    10.106492    62.838061   -149.19303   -70.587575    11457.978 
   18830    272.67179    8.1100118    66.372309   -147.94906   -1065.4605    11457.978 
   18840    299.87789    7.7567278    62.046276   -146.54511   -782.35806    11457.978 
   18850    312.70305    7.0707099     63.65887   -145.43878   -445.29378    11457.978 
   18860    284.03546    6.2095358    66.423652    -144.7499     2799.656    11457.978 
   18870    282.79313    3.9833739    64.005188   -143.71869    2528.5485    11457.978 
   18880      301.292    3.3367445    64.469449   -142.32348    2170.6493    11457.978 
   18890    308.09802    4.2413837    62.503772   -140.90025   -4574.7727    11457.978 
18900        0.97152864298441321544 10.185086870772201095 1 71 -278.12854533331358198
   18900    304.80709    4.4217666    62.379671   -140.02559      -3492.7    11457.978 
   18910    296.63902    4.2654964    70.711899   -139.42236   -220.23511    11457.978 
   18920    290.56462    3.3540637    69.220114   -141.41335    2117.1063    11457.978 
   18930    308.30245    4.6457017    62.350497     -141.055    237.93622    11457.978 
   18940     303.3283    5.1116638    62.240492   -140.86165    -1751.465    11457.978 
   18950    303.35325    4.1646607    60.529772   -140.87809    1238.8796    11457.978 
   18960    296.17921    5.4020813    68.714047    -141.0284    1781.2481    11457.978 
   18970    310.03178    6.3530158    63.374799   -141.70933   -747.94004    11457.978 
   18980    280.03809    5.5744856    69.715422   -140.43425   -1276.5615    11457.978 
   18990    289.00722    4.4397566    62.617199   -141.74471   -2530.7253    11457.978 
19000        0.96063141477067448548 10.215087908377954662 1 69 -268.34842863428326609
   19000    276.89526    4.5329809     67.28495   -142.89186    1530.2419    11457.978 
   19010     314.4911    7.1077395    57.895562   -144.18473    2297.7175    11457.978 
   19020    298.59166    6.6077376     65.83837   -145.98828   -558.32425    11457.978 
   19030    295.07521    8.6815241    58.876865   -148.41356    1532.4857    11457.978 
   19040    283.12803    9.2075937    55.914479   -150.83817   -1844.6945    11457.978 
   19050    287.17949    10.708471     57.39962   -152.73525    1028.8961    11457.978 
   19060    283.21484    9.6412179    60.670531   -154.13585   -480.32006    11457.978 
   19070    303.69773    9.3324199    55.925878   -155.55309   -1594.6052    11457.978 
   19080    313.85341    9.3674837    51.037662   -157.36916    508.11803    11457.978 
   19090    313.26899    9.6952393    45.713552   -159.36679    1832.7457    11457.978 
19100        0.95604431483737428721 10.230053705287390997 0.99735449735449732689 70 -290.54607362383444524
   19100    285.29012    8.6587758    60.399464   -161.28593     4034.548    11457.978 
   19110    281.39285    7.2535936    59.394669   -163.11719   -89.511251    11457.978 
   19120    280.82183    4.7639911    55.693516   -164.89335   -4538.9342    11457.978 
   19130    289.72705    4.4498831    57.596312   -166.43798   -2938.9842    11457.978 
   19140     284.5181    6.8470003    56.147287   -167.44484    627.75573    11457.978 
   19150    288.04167    6.2776524     51.52399   -167.65327    869.02884    11457.978 
   19160    278.18632    6.8527382    49.321189   -167.05068     231.1989    11457.978 
   19170    254.23819    7.4762126    60.502008   -165.24332   -1309.3516    11457.978 
   19180    275.45225    8.3721373    56.185033   -161.38617    1033.9072    11457.978 
   19190    287.87812    8.6951816    56.897146   -155.95301   -423.84786    11457.978 
19200        0.95589552112165709907 10.246760501666063448 0.99735449735449732689 67 -288.64397657908227757
   19200     306.5517    5.7004116    57.021432   -149.75058   -181.53843    11457.978 
   19210    306.40047    3.7203576    64.018625    -144.4638   -1423.0314    11457.978 
   19220    312.51582    6.1847139    59.867211   -140.56158   -5328.8508    11457.978 
   19230    322.54949    4.8495424    59.917306    -138.3008    2381.2754    11457.978 
   19240    298.03671    5.0619484    65.320218   -136.82512    5010.7893    11457.978 
   19250    313.75606    6.8080577     55.79156   -135.58592    2822.7685    11457.978 
   19260    293.22145    9.5595292     67.44104   -134.58722   -2080.2727    11457.978 
   19270    324.50803    8.7698501    57.288445   -133.86996   -3537.1182    11457.978 
   19280    308.36563    7.3151929    72.733853   -133.54056    3252.6472    11457.978 
   19290    331.95028    9.2213522    58.314106   -133.55532   -2119.8414    11457.978 
19300        0.96295152322465971118 10.224689942996045389 0.99470899470899465378 72 -278.4562598248262475
   19300    318.64319    14.517252    55.883822   -134.08441   -6554.1924    11457.978 
   19310    317.22588    14.321351    64.659604   -135.21493   -256.75936    11457.978 
   19320    312.65613    12.355505    61.090056   -136.99875    3542.9657    11457.978 
   19330     303.4552    10.048413    65.784912   -139.53878    4370.8557    11457.978 
   19340    324.12768    9.0373992    57.957135   -143.08458    2171.8168    11457.978 
   19350    313.44594    5.5601512    61.610831   -147.72803   -1595.4074    11457.978 
   19360    288.08651    6.5764102    61.350919   -152.43577    236.27312    11457.978 
   19370    288.10799    6.6194038    55.459131   -156.51859   -176.60032    11457.978 
   19380    268.72397    8.0020872    64.512334   -159.65479   -144.53374    11457.978 
   19390    289.06108    7.6475502    57.828301   -161.69271   -2809.3184    11457.978 
19400        0.97166953092679597681 10.17995013647273872 0.99735449735449732689 71 -287.09168144162470071
   19400    274.20819    6.5262731    62.501849   -162.85258   -3472.8522    11457.978 
   19410    292.09608    5.0641166    59.706834   -163.40612   -1201.3864    11457.978 
   19420    287.03819    4.1213599    57.683968   -163.63879    4225.5471    11457.978 
   19430    308.66426    5.7450862    52.227254   -163.52102    1628.4612    11457.978 
   19440    262.56646    6.7847865    61.121926   -163.04365   -1171.0061    11457.978 
   19450    269.22607    7.6776402    62.999479    -161.8607    2495.7795    11457.978 
   19460     283.2151    8.2897541    61.834764   -159.99227    3307.7578    11457.978 
   19470    301.88475    11.373883    57.132332   -158.00218    401.15891    11457.978 
   19480    298.11517    10.118244    51.770877   -156.22908   -3502.0245    11457.978 
   19490    303.63635     8.640923    59.616271   -154.53438   -3617.1436    11457.978 
19500        0.97334489045443672861 10.160461384455080847 1 69 -296.49980082394074543
   19500    316.10945    7.6409047    58.483346   -153.27594   -1966.3651    11457.978 
   19510    294.90425    9.7034702    67.859249   -152.62066   -974.47107    11457.978 
   19520    315.49583    8.3115147    56.233944   -152.08934    3397.4828    11457.978 
   19530      285.283    10.038775    62.920602   -151.80708    225.62702    11457.978 
   19540    295.91541    12.222798    56.803135   -151.27479    1864.9272    11457.978 
   19550    281.35307    11.502836    58.713763   -150.36078    1229.1677    11457.978 
   19560    305.14578    11.189667    55.612375   -148.97188    3472.4315    11457.978 
   19570    325.19354    9.5665549    53.644312   -147.46495    1289.3222    11457.978 
   19580     322.1273    10.259484    53.214527   -145.92097   -3314.1438    11457.978 
   19590    297.08961    7.9931949    61.789959   -144.36058   -700.61928    11457.978 
19600        0.97689743686932262179 10.147195450079577128 1 67 -280.2611260855894102
   19600    302.59705     6.719466     72.60487   -143.15951    524.09771    11457.978 
   19610    329.76609    7.1582666    57.722231   -142.66726   -118.17325    11457.978 
   19620    334.73149     6.663064    57.271821   -142.95611   -1004.9102    11457.978 
   19630    333.56106    7.7175555    58.492449   -144.00831   -627.56666    11457.978 
   19640    294.59958    8.6656082    71.438319   -145.96099    1568.2917    11457.978 
   19650    299.97176     8.137164    59.169098   -147.85432    1596.0122    11457.978 
   19660    292.43821    8.3890363    59.797317   -149.27171   -3051.3338    11457.978 
   19670    271.62998    7.8444844    64.331059   -150.01946   -1131.1171    11457.978 
   19680     290.7385    7.4924506     63.42652   -150.44376    -2312.653    11457.978 
   19690    265.27431    6.0977893    66.188797   -150.57829     5082.815    11457.978 
19700        0.9839000824123677047 10.127572733414966777 1 73 -293.92349694603211674
   19700    317.62077    5.6736183    52.844157   -150.01488    353.86352    11457.978 
   19710    286.08097    6.3322926    68.316169   -149.34695   -2385.6138    11457.978 
   19720    326.75993    6.0633019    54.992874   -148.93539   -2155.9503    11457.978 
   19730    300.52797    7.0682582     63.92554   -148.94429   -538.50263    11457.978 
   19740    318.06167    8.2514627    59.629821    -149.2283    2892.6733    11457.978 
   19750     276.2988    8.2102367    66.849096   -149.67608   -1881.6758    11457.978 
   19760    317.70081    6.0275786    54.653408   -149.76715   -153.56935    11457.978 
   19770    316.04034    4.9385251    58.876717   -150.02325    1644.4388    11457.978 
   19780    283.99614    7.5078094    67.105755   -150.68037   -1022.4814    11457.978 
   19790    298.27192    8.3740432    60.320098   -151.31051   -339.11833    11457.978 
19800        0.98176290065774651783 10.138821486575629649 1 68 -276.86872872738376827
   19800    276.09389    9.3738944    69.121806   -151.77525    675.10317    11457.978 
   19810    297.73446    11.186779    60.431815   -151.82189    2557.5229    11457.978 
   19820    283.62882    12.239438    71.313183   -151.62235   -1756.8327    11457.978 
   19830    316.72372    10.441678     55.35054   -151.38513   -1434.4282    11457.978 
   19840    322.91601    8.9800966    50.551061   -151.12294   -1625.6566    11457.978 
   19850    318.01784    7.9404899    56.438749   -150.96236   -1766.6919    11457.978 
   19860     300.3843    6.6166878    65.693538   -151.27734   -279.55601    11457.978 
   19870    301.95838    8.0636653    57.252166   -152.06964    2038.8433    11457.978 
   19880    323.04722    9.7116233     56.19765   -153.60722    3896.4792    11457.978 
   19890    298.61341    8.1137172    63.996735   -156.14609    2134.8411    11457.978 
19900        0.98388996601445888324 10.118220887383257534 1 65 -294.06738454199478383
   19900    297.92961     6.927199    54.205196    -159.0805   -206.63096    11457.978 
   19910    288.63072    6.1373837    57.445548   -161.82399    -1097.177    11457.978 
   19920     257.9714    8.3277687    57.489276   -163.95317   -1380.0144    11457.978 
   19930    251.54382    7.5869628    62.321029   -165.04643   -677.88367    11457.978 
   19940     266.1923    8.1594779    57.126332   -165.05587    2793.8193    11457.978 
   19950    283.93822    7.3026179    56.483186    -164.0905    747.99557    11457.978 
   19960    280.81508    9.9315192    54.122595   -162.08681    873.80276    11457.978 
   19970    278.65168    7.2311322     63.31675   -158.95144   -26.641223    11457.978 
   19980    300.17255    7.0272531    61.272252   -155.00334    2028.1508    11457.978 
   19990    297.65509    6.9737243    64.758383   -150.97872   -3110.7834    11457.978 
20000        0.97911538348167326262 10.150069026323528476 1 63 -280.91124404378319923
   20000    294.80635    7.7270051    63.404277   -147.33946   -3250.1633    11457.978 
   20010    324.24104    8.2143535    60.060106     -144.023    -1462.931    11457.978 
   20020    312.47564    8.3390088    63.667046   -141.78247    4648.9045    11457.978 
   20030    314.28513    7.3859465    67.998236   -140.62217    2813.8008    11457.978 
   20040    302.45694    8.5118452     64.75218   -139.86817   -1397.3138    11457.978 
   20050    311.57417    9.3584986    65.260686   -139.37071   -2443.2574    11457.978 
   20060    311.47814    9.5764657    64.643295   -139.28429   -1394.3167    11457.978 
   20070    315.84719    10.244414    62.884623    -142.0627    898.99292    11457.978 
   20080     311.2785    9.9256078    61.978841   -142.72361   -3251.7536    11457.978 
   20090     314.7044    11.592718    58.478825   -144.19549   -883.61178    11457.978 
20100        0.98220347281324593691 10.136585471486476706 1 67 -277.18467998163140464
   20100    287.91621    9.4136998    66.743362    -146.7347    2092.0787    11457.978 
   20110    300.64139    8.5339241    53.333766   -150.02652    1942.6742    11457.978 
   20120    284.58893    8.4855374    57.897724   -154.03645   -425.73804    11457.978 
   20130    298.19597    8.1388782    50.383964   -158.73366    223.47549    11457.978 
   20140    280.24926    6.9345038     58.05813   -163.91198    2093.0799    11457.978 
   20150    276.65653    6.2957122    55.252393   -169.00717    2632.1748    11457.978 
   20160     243.9179    6.1282223    65.574691   -173.11945   -1034.5504    11457.978 
   20170    269.82706    4.9945277    54.507954   -175.41691   -2716.3454    11457.978 
   20180    310.91577    4.9868715    40.065655   -176.39447   -2648.5529    11457.978 
   20190    267.08799    5.7718684    54.873796   -176.53998   -2588.1218    11457.978 
20200        0.98056391472477333338 10.164564614741477655 1 65 -302.5040207587360328
   20200    280.35727    7.2413986    48.591157   -175.47887    485.35324    11457.978 
   20210    273.21211    7.5066808    57.142208   -173.63335    541.62321    11457.978 
   20220    294.55105    6.7810017    53.681958   -171.81906    3266.5337    11457.978 
   20230    272.28644    5.9958225    54.947062   -169.90752    797.32997    11457.978 
   20240    282.73845    4.7259786    53.330556   -167.91584    1038.5937    11457.978 
   20250    269.21174    4.9763397    56.097511   -165.47739   -1510.7953    11457.978 
   20260    297.28011    5.7489225    58.095371   -163.07617   -2161.3048    11457.978 
   20270    303.16481    8.5242356    53.913015   -161.00005    96.729139    11457.978 
   20280    292.26092    10.743226    55.516837   -159.77512    677.60769    11457.978 
   20290    284.02617    11.028206    60.900534   -158.66846    1670.6486    11457.978 
20300        0.97805416030239766823 10.183284251075820137 1 68 -286.7955120377290541
   20300    285.69564    8.9576009    63.038439   -157.35164    24.957834    11457.978 
   20310    275.78679     7.972712    62.112228   -155.77354   -428.71321    11457.978 
   20320    286.14244    7.1329305    55.305078    -153.8032   -3347.7828    11457.978 
   20330     275.4944    6.8888296    68.186609   -151.53359   -710.08445    11457.978 
   20340    317.22147    9.5180029    52.112318   -148.86319    844.24716    11457.978 
   20350    288.18158    11.735585    66.919221   -146.45322    2359.6305    11457.978 
   20360    316.86259    10.526248    61.576406   -144.36692     1455.719    11457.978 
   20370    311.43669    8.6079517    61.163615   -142.82212     494.4051    11457.978 
   20380    321.91609    6.6556154    59.527668   -139.46549   -1443.5135    11457.978 
   20390     302.2966    7.2184464    61.239911   -139.15887   -5881.6185    11457.978 
20400        0.97824637897114308238 10.17609767647862995 1 66 -279.24277778124917404
   20400    309.68897    7.5799685    56.401833   -138.92793   -934.82801    11457.978 
   20410    315.74123    8.1706712    62.504984   -138.80402    2370.2219    11457.978 
   20420    314.29036    7.9887681    59.193397   -139.30974    3254.6127    11457.978 
   20430    312.62439    7.9583482    60.334929   -140.74873    1509.4584    11457.978 
   20440    305.59468    5.8910684    63.201113   -143.83367    2432.2291    11457.978 
   20450    311.43527    6.3897068    54.884907   -148.57702    -1234.721    11457.978 
   20460    309.30048     6.589792    54.469048   -155.14993   -3521.9769    11457.978 
   20470    279.37412    6.3510477    64.538811   -161.83884   -2295.7914    11457.978 
   20480    252.88258    7.1161285    59.632841   -166.73223     1965.631    11457.978 
   20490    253.87717      8.34532     57.51319   -169.25878    -771.0414    11457.978 
20500        0.97420292548429898716 10.170968319546044967 1 68 -294.37924910374999854
   20500    274.06932    8.0269593     51.15036   -170.20307    -885.2641    11457.978 
   20510    304.01409    5.7168896    48.402221   -170.25383    490.86517    11457.978 
   20520    290.53794    5.1396233    52.546917   -169.81751    -42.41739    11457.978 
   20530    276.81813    4.4337579    53.130602   -168.99229   -2219.1666    11103.092 
   20540     256.2413    3.6977883     60.97459   -167.48271   -1618.5694    11103.092 
   20550    288.85545    3.5137622    58.884469   -165.00586    1741.5502    11103.092 
   20560    297.32067    3.8654377    53.564117   -162.25216    1857.6234    11103.092 
   20570    280.48766     7.315077    57.531958   -159.55659   -239.02593    11103.092 
   20580    264.59598    9.6171025    59.940418   -156.78951    5342.6264    11103.092 
   20590    275.65127    8.4824176    63.645463   -153.47508    865.60958    11103.092 
20600        0.97319399142080620368 10.150599903428895843 1 65 -294.32976261501119097
   20600    318.90055    7.9246714    54.710645   -149.84131     555.0466    11103.092 
   20610    312.38342    7.5042674    72.671998   -146.54241   -2078.0018    11103.092 
   20620    335.49068    7.9044238    59.252346    -144.5736   -3335.3371    11103.092 
   20630    279.87376    10.552512    68.973699   -144.00323    -1987.774    11103.092 
   20640    293.40179    12.492097    64.352296    -143.9039    791.26274    11103.092 
   20650    300.16006    11.486245    62.655221   -143.69989     6991.262    11103.092 
   20660    309.35831    8.2749269    56.349044   -143.46453    5409.7427    11103.092 
   20670    308.46382    6.6463845    66.114788   -143.51664   -1892.1396    11103.092 
   20680    306.59786    6.5088409    62.698421    -144.1377   -2266.7426    11103.092 
   20690     303.9794    6.0055105     59.14675   -145.23981   -6132.8999    11103.092 
20700        0.97307380194497028469 10.195380302886723811 1 66 -289.75266552211661519
   20700    316.32355      6.30168    51.360935    -146.4318   -2274.6046    11103.092 
   20710    308.23442     5.976883    55.331503   -147.43545   -2945.1631    11103.092 
   20720    304.96523    8.1689363    54.971627   -148.27288    2149.6728    11103.092 
   20730    282.11841    9.0825543    60.360684   -148.81689    5053.7726    11103.092 
   20740    291.22041    9.5372976    58.875893   -148.74636    3292.8685    11103.092 
   20750    304.02038    7.1243827    52.768679   -147.88059    1991.9246    11103.092 
   20760     296.3245    6.9593343    63.804635   -146.06208   -2434.8648    11103.092 
   20770    301.20815    7.3850004    61.256389   -143.02407   -4587.9242    11103.092 
   20780    297.91469     6.803331    68.041757   -138.60542   -1613.2995    11103.092 
   20790    309.19809    5.5974793    71.196835   -133.33475    571.17835    11103.092 
20800        0.97541202375742042108 10.186361860920117195 1 69 -281.26503944383739508
   20800    339.07817    4.9855846    65.830604   -127.63444   -3740.4083    11103.092 
   20810    328.80985    8.4501648    68.693754   -123.23985   -1706.2761    11103.092 
   20820    340.17387    8.1146934    72.656478   -120.80228    793.89005    11103.092 
   20830     323.2743     7.979838    74.983901   -120.59157    6090.1958    11103.092 
   20840    331.57361    9.5061148    65.892174   -122.28742   -1557.0426    11103.092 
   20850    290.42096    12.547967    66.925355   -125.07213   -1616.0474    11103.092 
   20860    312.50393    9.0756353    63.824822   -128.27391    1797.1615    11103.092 
   20870     308.6146    7.3985776    69.086344   -131.82636    4396.3353    11103.092 
   20880    317.84568    7.3272917    54.833652   -135.49094   -1095.9969    11103.092 
   20890    315.57861    5.8138977    63.618989   -139.35491   -1872.3779    11103.092 
20900        0.97344367598047099044 10.168328289582436952 1 66 -277.09859678865711885
   20900       296.21    5.7275604     62.19211   -142.89084   -2303.8717    11103.092 
   20910    305.73844    4.7899466    54.074252   -145.72792    65.942518    11103.092 
   20920    283.31844    4.9392709    65.546951   -147.86045    1118.1207    11103.092 
   20930    288.67647    3.6418239    62.988588    -149.2999    2481.1396    11103.092 
   20940    266.94472    2.6085115    67.485303   -150.00615   -903.20569    11103.092 
   20950    282.10104    3.8309369    63.189141   -150.00899   -711.40452    11103.092 
   20960    287.04518    4.3540089    60.387307   -149.65308    944.42988    11103.092 
   20970    299.03016    6.4013075    61.053262   -151.53266     2358.782    11103.092 
   20980    296.42349    6.3407385    59.091351   -151.17559   -1305.3513    11103.092 
   20990    298.30383    6.8800344    63.723435     -150.763   -2169.5119    11103.092 
21000        0.98226723178751751409 10.121791481185358208 1 67 -288.00861589531245954
   21000    303.64497    7.5474571    61.049439    -150.4322     838.8269    11103.092 
   21010    301.40751    8.0390556    64.067391    -150.4928   -227.62199    11103.092 
   21020    301.96624    8.6885382    56.861881   -150.63435    -2108.077    11103.092 
   21030    315.90431    8.0485084    56.221998   -150.72376   -3766.9306    11103.092 
   21040    310.13702    9.3737348    63.681102   -151.29119     2152.361    11103.092 
   21050    299.30806    10.556304    64.788097   -152.69706    2077.9833    11103.092 
   21060    287.28481    11.707283    62.553354   -154.76484    3507.1271    11103.092 
   21070    285.49439    11.860493    58.850734   -157.23593    1066.8056    11103.092 
   21080     293.8925    8.4793686    57.419436   -160.24802   -671.54423    11103.092 
   21090    288.35208    7.2087461    66.783703   -164.67729    -1300.295    11103.092 
21100        0.9825481935662864208 10.146400906000650366 1 68 -296.09122478318118965
   21100    276.86431    5.9259989    58.363282   -170.64868   -1300.1193    11103.092 
   21110    277.78756    6.1929544    54.809944   -176.78301   -1732.4958    11103.092 
   21120    266.64119    6.6375603    58.090246   -182.06083   -3931.0887    11103.092 
   21130    256.28941       8.8633    53.424093    -185.1236   -3269.5775    11103.092 
   21140     253.1636    12.773003    50.443644   -186.31574    3777.5743    11103.092 
   21150    243.74787     13.28572    55.796851   -185.91788    3587.2057    11103.092 
   21160    291.90853    12.343671    40.590479   -184.16911    2448.5774    11103.092 
   21170    282.01312    7.5690467    50.306023   -181.74987   -1603.6797    11103.092 
   21180    277.94075    8.4637622     49.65218   -179.00404   -2158.6581    11103.092 
   21190    283.40737    8.1748756     53.84075   -175.93345   -57.204663    11103.092 
21200        0.98417173954500691835 10.129461379731136361 1 69 -310.39801779123860115
   21200    303.34034    8.0613432    49.495149   -172.95963   -1011.4332    11103.092 
   21210    304.09666     8.101283    55.994733   -170.41813   -1001.8476    11103.092 
   21220     292.0907    8.9598019    58.594254   -168.15645    3223.8326    11103.092 
   21230    296.17865    8.5909903    53.018903   -163.79678    3382.4715    11103.092 
   21240    272.47503    9.0681187    62.275187   -161.51699     4761.464    11103.092 
   21250    290.47795    8.2854722    55.107424   -159.16056     1093.822    11103.092 
   21260    282.95297    8.8255869    59.585901   -156.45022   -1076.5622    11103.092 
   21270    287.59119    5.7741641    62.335469   -153.73802   -4697.9477    11103.092 
   21280    277.94172    6.5131321    61.198959   -150.93571   -1686.6948    11103.092 
   21290     308.2567    8.3079786     60.75648   -148.37686    -4370.709    11103.092 
21300        0.98251170921387687152 10.123505115822881706 1 67 -287.74429855636032016
   21300    312.22981    10.700703    57.845139   -146.27824    1552.8798    11103.092 
   21310    295.82935    8.5779592    63.477767   -144.68688    3351.5617    11103.092 
   21320    292.49681    7.8957472    68.850831   -143.43933    6345.5932    10782.207 
   21330    304.70987    7.5800087    64.994377   -142.55548    3702.9592    10782.207 
   21340    298.14455     8.720529    64.665229   -142.28528    -2622.765    10782.207 
   21350    304.36712    6.3331273     60.84836   -142.31453   -5408.8828    10782.207 
   21360    312.42125       7.0591    57.573978   -142.59391   -6508.8284    10782.207 
   21370     349.2578    7.2971432    51.913544   -143.36317    -1386.067    10782.207 
   21380    311.48005    9.3440171    57.922381   -145.37803    1693.1847    10782.207 
   21390    306.01393    5.7222162    53.496671   -148.04592    5406.7945    10782.207 
21400        0.97627074715936601468 10.191587166663438779 1 68 -280.22196244891080141
   21400    284.91723    4.3064665    56.746629   -151.13077    2074.9138    10782.207 
   21410    289.26084    3.4814923    52.725236   -154.30005   -2815.6608    10782.207 
   21420    273.89886    3.6457129    62.988851   -157.71098   -722.19633    10782.207 
   21430    295.58245     4.606226     55.88989   -161.87396   -2017.3207    10782.207 
   21440    274.19731     5.178705    60.071922   -166.68913    20.110445    10782.207 
   21450    261.36266    4.7569813    57.304261   -171.44245   -1377.4447    10782.207 
   21460    260.53306    5.2916679    56.445011   -175.26079    -569.4053    10782.207 
   21470    252.34154    4.5723472    59.541287    -178.5417    1250.9147    10782.207 
   21480    236.48885     5.567616    57.022561   -180.56641    1333.0177    10782.207 
   21490    258.25996    4.4012678     47.63449   -181.20762    -608.1259    10782.207 
21500        0.97765053077802510639 10.162781430316661258 1 66 -297.70351265185672673
   21500    258.85412    5.6907365    50.002574   -180.42108    1407.9671    10782.207 
   21510    279.45828    6.0422798    51.136991   -177.98981    2207.6045    10782.207 
   21520    250.00724    4.8213899    61.644086   -176.02461    2083.0975    10782.207 
   21530    253.60459    4.7340784    58.568564   -171.04405   -3802.3461    10782.207 
   21540    265.00035    3.5744615    57.893921   -165.40021   -3823.5953    10782.207 
   21550    276.26323    3.7475568    63.056557   -160.78704   -4378.1833    10782.207 
   21560    294.67237      4.80163    56.796017   -157.91554    -367.2082    10782.207 
   21570    287.35681      5.41309    61.842316   -156.18678    1942.7647    10782.207 
   21580    283.74831    6.5439585    60.560429   -155.01641    2286.2021    10782.207 
   21590    282.81385    5.5287973    62.063527   -154.02812    -682.5394    10782.207 
21600        0.97843988568889994628 10.163115396143357572 1 67 -279.92643239322427462
   21600    279.73534    7.2589032    59.353815   -153.18307   -650.91445    10782.207 
   21610    298.22199    7.6278282    58.393825   -152.06499   -1411.4891    10782.207 
   21620    292.36233    8.0702036    63.100987   -150.77883    127.65917    10782.207 
   21630    297.73934    9.2729821    56.576368     -149.487   -2312.3094    10782.207 
   21640    282.23753    9.9524988    64.893097   -148.17795    436.29768    10782.207 
   21650    306.00484    10.920898     59.58657   -146.80848     2721.305    10782.207 
   21660    304.10894    12.315897    60.799527   -145.30397    1491.0572    10782.207 
   21670    326.13858    13.152372    51.598894   -144.10746    1305.3428    10782.207 
   21680    294.78586    11.621421    65.909716   -141.63481   -581.36623    10782.207 
   21690    339.96484    11.382235    58.689753   -141.42254    979.29091    10782.207 
21700        0.98240424503415357815 10.129801166841897242 1 74 -288.66699633230058453
   21700    322.76734     11.12599    58.606396   -142.42656   -2529.3332    10782.207 
   21710    333.10946    10.240266    50.488937   -144.82903      103.151    10782.207 
   21720     289.3948    9.8262428    67.042354    -148.0036    3641.3697    10782.207 
   21730    283.85361    9.3481379    57.998082   -153.62992    981.33582    10782.207 
   21740    283.33771    11.161128    53.236519   -156.32644    -280.1651    10782.207 
   21750    270.35391    11.932247    54.157242   -158.24389   -3213.9428    10782.207 
   21760    288.68341    10.729396    54.066722   -159.38885   -2755.9135    10782.207 
   21770    301.05834    8.9124683    51.978072   -159.93346    1575.0288    10782.207 
   21780    283.48883    6.7946998    52.520529   -160.06975    2489.9564    10782.207 
   21790    279.97485    4.8336245    56.491991   -159.62055    2937.4105    10782.207 
21800        0.98282422057812535154 10.113002079341487871 1 72 -283.77030804280605025
   21800    277.17656    3.7476186    57.658925   -158.18629    3527.3736    10782.207 
   21810    319.83601     3.174916     48.48803   -155.51613    11.781321    10782.207 
   21820    329.26455    3.5184331    50.463822   -152.00445   -1364.2792    10782.207 
   21830     312.9942    3.8243905    58.343366   -148.15492   -4413.2044    10782.207 
   21840    320.49354    6.8955804    57.838108      -141.55    1199.1372    10782.207 
   21850    330.46179    8.4774015    54.294939   -137.31179   -109.40011    10782.207 
   21860     350.8738    9.9876778    50.658692   -133.31939   -1660.6761    10782.207 
   21870     328.4404    9.9659086    60.882032   -130.40536    1058.5014    10782.207 
   21880    354.10613    9.4268292    53.359878   -128.43402    2206.6927    10782.207 
   21890    330.78548     10.27411    53.494212   -127.80951    2936.7527    10782.207 
21900        0.97655496222581805732 10.149266463280493866 1 71 -271.57504891697794847
   21900    316.67748    11.285256    56.424227   -128.09382   -40.802873    10782.207 
   21910    301.65131     9.642283    63.404064   -129.04923   -310.16138    10782.207 
   21920    309.14312     10.77338    58.955707   -130.47143   -1110.2288    10782.207 
   21930    312.12317    8.4357194    59.875907   -132.69058    -1162.893    10782.207 
   21940    306.52991    10.164565    59.602858   -136.10798    194.09143    10782.207 
   21950    321.85058    9.3307901    52.251764   -141.40256   -1344.9905    10782.207 
   21960    292.10885    9.1437505    61.549165   -148.28218   -3359.4096    10782.207 
   21970    297.77933    8.8612923    52.603994   -155.09388   -507.35172    10782.207 
   21980    291.78821    8.9606511    53.953028   -160.09722    3692.4428    10782.207 
   21990    305.52956    6.2489516    44.724027   -163.26596     1662.113    10782.207 
22000        0.9695673028082988365 10.178609361740766914 0.99735449735449732689 67 -291.74607358071813223
   22000    279.37389    4.4409935    49.906393   -165.16648   -14.411375    10782.207 
   22010    279.40129    3.1573853    50.011502   -165.86748   -2854.5469    10782.207 
   22020    279.79163    4.9219411    54.257584   -165.65642    64.143246    10782.207 
   22030     266.2096     5.983364     60.87483   -164.78464   -372.68703    10782.207 
   22040    278.96299    7.1927957    53.430823   -163.20428    -101.8253    10782.207 
   22050    289.85941    6.1475238    54.875863   -160.95229   -438.07387    10782.207 
   22060    290.00082    6.8448732    59.011489   -158.32676   -134.97866    10782.207 
   22070    274.09155    7.4296364     59.12543   -157.76455    415.73579    10782.207 
   22080     278.0261     6.711905    55.153709   -154.68232    2901.5095    10782.207 
   22090    276.35919    5.4060589    66.198384   -148.70247    2593.1373    10782.207 
22100        0.9747123203993721674 10.174594611274784484 1 72 -274.29578622492073237
   22100    285.33911    5.8165347    69.576941   -145.01345    2131.0363    10782.207 
   22110     315.3037    7.0336003    63.664827   -141.77906   -2018.5124    10782.207 
   22120    312.09005    5.8074835    73.040872   -139.85999   -1938.6584    10782.207 
   22130    341.97806    7.7904287    52.914789   -139.35766   -3081.4022    10782.207 
   22140    301.10978    8.8805276    66.906039    -139.7542   -3639.7874    10782.207 
   22150    343.79593    8.0658687    50.661444   -140.47018     754.0528    10782.207 
   22160    292.63568    7.9066884    69.267029   -142.00528   -746.48521    10782.207 
   22170    308.44149    7.8093117    60.227535   -143.82762    2350.2774    10782.207 
   22180    276.03203    7.6354559     62.50804   -145.62266   -2315.6252    10782.207 
   22190    291.23314    6.7205711    59.810693   -146.95047   -2265.6667    10782.207 
22200        0.97669004162573125338 10.167270487838372617 1 72 -282.4581059911767511
   22200    297.10809    6.1679487    56.249438   -147.84344   -489.87946    10782.207 
   22210    286.45708    6.2085549    64.914274   -148.47093   -69.862433    10782.207 
   22220    306.46872    4.6875557    58.563483   -148.69977    1614.4377    10782.207 
   22230    301.49716    4.1893138    61.717102   -149.09361   -66.782403    10782.207 
   22240    286.99811    5.6871772    53.005137   -149.81004   -670.04176    10782.207 
   22250    271.33447    5.8438549    59.459836    -150.0867     410.2744    10782.207 
   22260    293.86726    5.6299851    60.310309   -149.68131    2408.2446    10782.207 
   22270    294.29192    5.1038303    59.150624    -148.8792    2454.1117    10782.207 
   22280     293.8171    4.5145543    62.057137    -147.6841     817.1253    10782.207 
   22290    323.20491    4.9557957    58.536444   -145.89274   -584.83741    10782.207 
22300        0.98162260714877469514 10.143894104121420341 1 66 -288.29869633652839411
   22300    319.79297    8.1572608     62.74119    -143.4059   -2039.3262    10782.207 
   22310     319.4731    8.7913833    66.866729    -139.5954   -2161.6534    10782.207 
   22320    336.80841    9.3689861    64.279009   -133.78986    1086.0142    10782.207 
   22330    307.42116    12.072407    72.448951    -126.7517     1151.018    10782.207 
   22340    327.98193    14.686777    63.325131   -120.32196    1790.9473    10782.207 
   22350    336.01033    13.312654    69.721809   -114.90449    2113.5415    10782.207 
   22360    352.88786    8.5607436    67.988601   -111.42664   -2481.5796    10782.207 
   22370    353.06487     7.686296    71.076806   -110.57072   -5621.2813    10782.207 
   22380    314.07466    8.1843295    73.379178   -112.12273      1294.56    10782.207 
   22390    334.65436    9.5549918    68.348785   -115.33328    2940.2174    10782.207 
22400        0.98256352912874855843 10.115126970934030126 1 68 -270.90611646456926564
   22400    333.52232    7.8509053     67.40406   -119.79278    5597.6067    10782.207 
   22410    326.35639    7.4403668    61.050883   -124.91594   -1984.2433    10782.207 
   22420    296.91893    6.6216299    65.025978   -129.26815   -2496.5697    10782.207 
   22430    328.58463    6.4343083    52.729296   -133.04182   -687.79112    10782.207 
   22440    299.07235    6.2701629     64.57101   -136.31707    1148.5046    10782.207 
   22450    321.28727    4.9667285    54.221157   -139.01329   -261.30356    10782.207 
   22460    308.90794    7.4667635     56.60351   -141.42631   -3876.5191    10782.207 
   22470    278.99873    8.6203413    64.524294   -143.28698   -2277.9909    10782.207 
   22480    303.49933    9.6470012    54.188258   -144.39174   -98.071006    10782.207 
   22490    312.43985    8.3595504    59.340962   -145.37095     3038.904    10782.207 
22500        0.98410787546676770088 10.115343839464731701 1 70 -293.20544882440754009
   22500    323.38185    10.064384    59.238714   -146.68659    1945.7218    10782.207 
   22510    303.06307    11.016603    60.772183   -148.62362   -336.80108    10782.207 
   22520    292.71519    8.3881205    60.945316   -150.68574    879.15798    10782.207 
   22530    303.36933    7.7392488    55.461911   -152.65528    1417.5247    10782.207 
   22540    300.09788    6.8131993    60.125496   -154.65284    1090.8882    10782.207 
   22550    312.30864    6.2330943    51.678381   -156.96654   -1264.3046    10782.207 
   22560    276.15635    6.1537209    63.716154   -159.44584   -1010.6243    10782.207 
   22570    300.10349    4.7698385    50.927926   -161.62918    614.10038    10782.207 
   22580    253.44268    5.9938813     69.01669   -163.40489    801.95186    10782.207 
   22590    280.13655    6.0074198     54.86039   -164.39485   -618.57977    10782.207 
22600        0.98333184405076956569 10.133808280735104645 1 71 -286.32598759907938302
   22600    268.35462    7.1348026    55.345654   -164.73904    -2355.561    10782.207 
   22610     268.4395    5.2395832    62.745077   -164.07553    452.64167    10782.207 
   22620    280.14651    5.5893153    59.286968   -161.64969   -2148.0712    10782.207 
   22630    267.42398     6.352044     66.58978   -157.26102    1808.9006    10782.207 
   22640    295.23755    4.8103941    58.358178   -151.09367    -532.2455    10782.207 
   22650    305.24119    4.3515868    61.148745   -144.31148   -1217.1892    10782.207 
   22660    315.77897    5.9051068    64.228192   -138.78699    1686.3229    10782.207 
   22670    303.98825    9.1770095    64.030815   -134.99998     2249.952    10782.207 
   22680    291.53953     10.13463    76.818341   -132.66008    5144.2689    10782.207 
   22690    297.55303    12.267926    68.489184   -130.89965    1215.3373    10782.207 
22700        0.98278713948293117131 10.123590196032637323 1 68 -273.27585727179678088
   22700    317.14484    12.265235    68.884069   -129.58288   -2094.7328    10782.207 
   22710    324.58951    10.353206    64.848346   -129.04041   -43.689216    10782.207 
   22720    321.23377    8.2792282    66.143912      -129.28    -1979.477    10782.207 
   22730    294.09824    7.4573819    78.664895   -130.15182    289.83165    10782.207 
   22740    297.36192    6.4468596    60.450268   -131.52294   -1754.5143    10782.207 
   22750    257.68092    6.8653866    75.011779   -132.82378   -1427.5608    10782.207 
   22760    293.81137    5.9281028    63.358705   -133.71775    4676.0908    10782.207 
   22770    278.45306    4.9715486    75.089027   -134.46073    2475.0781    10782.207 
   22780    321.11048    5.2962814    62.333326   -135.29172   -1525.1562    10782.207 
   22790    298.13063    7.1220407    61.518494   -136.85656   -6452.1665    10782.207 
22800        0.97912955008057622752 10.134626465304830134 1 67 -272.33319535765610908
   22800     294.5453    4.4366448    68.669443   -138.87969   -4466.2147    10782.207 
   22810    297.41699     4.665184     62.60804   -141.62603     762.1755    10782.207 
   22820    302.62001    7.1547567    64.442804   -145.32619    1240.3869    10782.207 
   22830    310.37589    8.5970293    55.872736   -149.89992    5448.6852    10782.207 
   22840    307.65132    6.8180086    52.347775   -154.62366    3346.1963    10782.207 
   22850    284.57378    8.2098672    52.808516   -158.85255    5012.5705    10782.207 
   22860    260.98513     8.531424    62.688387   -161.69428   -2321.4341    10782.207 
   22870    271.36625    8.0127313    57.285179   -163.34647   -3498.5837    10782.207 
   22880    291.28327    7.6080833    53.581365   -164.17341   -4830.9162    10782.207 
   22890    289.11458    7.4829774    59.280218   -164.53789    533.58697    10782.207 
22900        0.98093067489430685324 10.149950687009544836 1 67 -302.43395930113149461
   22900      304.226    7.8972491    51.661446   -164.59429    620.71528    10782.207 
   22910    292.16615    6.6883283    59.804648   -164.54301    1184.8707    10782.207 
   22920    290.45085    7.2299388    53.514383     -164.274   -1648.4367    10782.207 
   22930    278.61745    9.8283399    54.870618   -163.49686   -202.51664    10782.207 
   22940    294.43824    11.610256    51.705716   -161.98829    3904.8323    10782.207 
   22950    267.61123    9.8614199    65.808681   -159.49696    1389.7064    10782.207 
   22960    293.14331    8.8117606     59.29959    -155.3847   -1323.8927    10782.207 
   22970    295.00867    8.1825364    59.847717   -149.32662   -3335.9252    10782.207 
   22980    324.00112     9.097671    57.625441   -142.70452    -2807.751    10782.207 
   22990    328.68842    10.383265    65.182678   -136.66867   -1233.8805    10782.207 
23000        0.98060341114985571931 10.139976636223096307 1 65 -292.0256372287823865
   23000    351.25544    9.7299432    51.935294   -132.87772    1174.2101    10782.207 
   23010    330.27871    9.9767116    65.140313   -131.29547    4822.8041    10782.207 
   23020     317.8903    11.347996    57.785172   -131.10604    2418.9994    10782.207 
   23030    313.05018     11.06172    59.317011    -131.5773   -431.39906    10782.207 
   23040     329.2363    9.2004074    53.200627   -132.24963    897.33712    10782.207 
   23050    312.87164    5.8587902    63.256213   -133.15197     536.0542    10782.207 
   23060    312.49736    7.2698107    55.576328   -134.07344    569.31137    10782.207 
   23070      306.939    8.5636957    64.247503   -135.22363   -2756.8817    10782.207 
   23080    319.10768    7.0806331    58.613775   -136.78137   -1393.1112    10782.207 
   23090    331.04463    7.4592291    54.615534   -139.13103   -972.96136    10782.207 
23100        0.97101187232379715386 10.181968693177152474 1 69 -267.67042550672010748
   23100    277.52489    8.0343486    64.970613   -141.92858    553.15568    10782.207 
   23110    296.57064     8.627785    55.869553   -144.08654   -371.82769    10782.207 
   23120    294.93948    7.4984972    59.839888   -146.05484    2318.3064    10782.207 
   23130    334.65658    5.9301014    57.109842     -148.458    1985.9864    10782.207 
   23140    298.74056    5.1220836    60.590194   -151.88292    560.58051    10782.207 
   23150    285.13928    5.1038472    59.639836   -155.36156   -2422.7174    10782.207 
   23160    283.54508    6.6511165    56.416206   -158.29943   -2016.2609    10782.207 
   23170    286.25989    5.4311684    56.927785   -160.64766   -2764.7125    10782.207 
   23180    295.84921    4.5847366    52.718475   -162.60006   -163.97773    10782.207 
   23190    287.12473    6.1057728    57.927228   -164.13046    1137.6239    10782.207 
23200        0.9734887590821713621 10.203689313434781027 1 68 -297.11163204807201055
   23200    291.34225    7.5224732    51.265261   -165.10937   -951.26713    10782.207 
   23210    299.02392    7.5514397    52.516905   -165.58657    1178.5566    10782.207 
   23220    303.23644    4.8271027    55.602635   -166.02472    458.27056    10782.207 
   23230    290.80035    5.7746263    54.320446   -166.41898    -2468.592    10782.207 
   23240    282.62555    8.6118891     58.95549    -166.4665   -373.27906    10782.207 
   23250    295.38762    11.161468    51.653453   -165.90157   -365.52516    10782.207 
   23260    281.91354    11.758794    54.406257   -164.24413     5067.533    10782.207 
   23270    307.43717    11.840997    52.031974   -160.52447    1291.1984    10782.207 
   23280    309.42186    9.7403448    54.080358   -153.80456   -4174.6952    10782.207 
   23290    312.86375    5.8425622    56.606028   -146.36406   -2345.3842    10782.207 
23300        0.98006544422673580463 10.169761290269144993 0.99735449735449732689 68 -282.7842526743883127
   23300    315.37895    5.5027203    60.495048   -139.89137    1197.7931    10782.207 
   23310    318.14837    5.0059596    66.682239    -135.0246    698.04308    10782.207 
   23320    322.81754    6.5421545    60.923593   -131.82357   -1873.5799    10782.207 
   23330     294.7557    9.4522669    68.174212   -129.80743   -3408.1324    10782.207 
   23340    304.77437    10.793375    62.757563   -128.31971    2398.4089    10782.207 
   23350    312.98719    11.491104    64.332376   -127.15645    1651.5061    10782.207 
   23360    326.06116     9.634843    67.023658   -126.57389    257.43841    10782.207 
   23370    343.24029    8.4287386    64.316214   -127.15792   -2014.3172    10782.207 
   23380    321.29533    8.0009883    69.168352   -129.53254   -96.245091    10782.207 
   23390    314.44901    7.3689153    57.934547   -133.34055    1603.9557    10782.207 
23400        0.98415303746915849814 10.109321522003183347 0.99470899470899465378 71 -266.57974549482946713
   23400    285.32427    5.6059229    63.870112   -137.30413    3631.2368    10782.207 
   23410    294.55229    6.2066761    57.774743     -140.855    182.29574    10782.207 
   23420    297.54913    5.4377062    64.256172   -143.79397   -546.38981    10782.207 
   23430    309.52388    5.1473484    55.096924   -146.65107    570.48319    10782.207 
   23440    296.60594    5.7301881    56.895611   -149.32328    22.321189    10782.207 
   23450    290.02534    6.9123269    59.553859   -151.36576    229.77197    10782.207 
   23460    316.15218    5.5080985    57.554886   -153.03108     -2352.75    10782.207 
   23470    315.05211    6.8000534    53.690708   -154.92481   -1774.2031    10782.207 
   23480    302.29717    7.8863298    54.945587   -157.04183   -320.99164    10782.207 
   23490    268.87981    8.7288439    63.432608   -158.62025    1359.3775    10782.207 
23500        0.98171620389742331181 10.113163986035363706 0.99470899470899465378 67 -293.23656446387275309
   23500    294.92268    8.9095671    52.700463   -159.61208    709.78215    10782.207 
   23510    295.62952    9.9700407     49.54136   -160.50933   -1954.0446    10782.207 
   23520    274.46678    12.151215    58.008561   -160.98828    3880.0694    10782.207 
   23530      274.353    11.843043    51.969708   -160.44322    4363.4257    10782.207 
   23540    286.50146    6.8024333     59.81688   -158.84837    2208.2479    10782.207 
   23550    304.80196    6.9292782     48.97409   -156.60521    -3933.105    10782.207 
   23560    309.02609    7.3129453     47.54777   -154.01416   -3971.4234    10782.207 
   23570    318.45553    6.1752327    53.353082   -150.91979    3246.4697    10782.207 
   23580     327.3173    7.8887514    54.642682   -147.07502    1596.2909    10782.207 
   23590    327.46021    10.710401    55.649726   -142.60853    -179.8161    10782.207 
23600        0.98291132176813356125 10.121647817664326752 0.99470899470899465378 68 -274.54979289544377252
   23600    303.94663    11.057497    61.651744    -136.8367    -4311.037    10782.207 
   23610    309.70491    8.3391564    68.146607   -129.59887   -1364.3088    10782.207 
   23620    343.35154     8.031465    62.565774   -121.31144    1956.0611    10782.207 
   23630     329.4595    8.5563491    71.125471    -116.0363    527.74257    10782.207 
   23640    307.92737    8.9587078    73.700009   -113.62736    -922.6668    10782.207 
   23650    292.33959    6.6418042    70.761687   -112.77156   -1825.4586    10782.207 
   23660    303.66951    5.2483837    75.797745   -112.45427    -331.9182    10782.207 
   23670    335.96141    5.9894328     71.14991   -113.05552    4429.5599    10782.207 
   23680    334.13525    7.4316855    67.504071   -114.84667   -496.61336    10782.207 
   23690    347.28237    8.5931535    59.695191   -117.93021   -126.19515    10782.207 
23700        0.98111250407342576185 10.152625940359378376 1 70 -269.81059628955603102
   23700    325.85567    7.8826645    69.078436   -122.17089   -350.03948    10782.207 
   23710    323.63389    8.5986056    59.055428   -126.55238    4695.2828    10782.207 
   23720    313.24793    8.2339916    63.986439   -130.63384   -2473.2542    10782.207 
   23730    325.76531    7.6350781    63.572346   -134.59388    -3535.123    10782.207 
   23740    311.36678    5.3850749     60.87283    -138.9192    -641.0049    10782.207 
   23750    292.75515    4.3156156    68.789624   -142.75477     2920.975    10782.207 
   23760     305.1217    4.1897006     66.00856   -145.83821    1842.3835    10782.207 
   23770    320.54821    5.3708477    61.506032   -148.74519   -2723.3044    10782.207 
   23780    297.80915    7.7630182    63.007778   -151.63142   -995.50943    10782.207 
   23790    300.69384    12.258701    60.861541     -154.212    676.40915    10782.207 
23800        0.97590884795990362477 10.19281823038713064 1 73 -295.63938771423897833
   23800    307.36248    17.503646    52.097916   -156.37864   -1657.6865    10782.207 
   23810    315.18248    18.579195    50.284886    -158.4433    958.43762    10782.207 
   23820    312.05474    14.893682    57.073772   -160.34884    733.42297    10782.207 
   23830    306.64813    8.4965549      56.5474   -162.54779    1299.5329    10782.207 
   23840    302.29238    4.5106855    56.905231   -165.17879    412.67791    10782.207 
   23850    271.60647    4.1971154    59.043654    -167.6705   -1140.6644    10782.207 
   23860    270.08227    4.1510314    55.554354   -169.23128   -770.25706    10782.207 
   23870    269.72041    5.0410029    49.101389   -169.66415    122.27611    10782.207 
   23880    254.17034     4.681565    62.860553   -168.97017    2476.9349    10782.207 
   23890    257.44057     7.233712    58.429452   -166.93986     1823.063    10782.207 
23900        0.96628538203304537024 10.211251433103168296 1 70 -293.60167352824083764
   23900    287.53148    9.9574718    50.079359   -163.32601   -1683.1633    10782.207 
   23910    316.37451    8.3021412    50.624654   -158.56645    966.04378    10782.207 
   23920    287.60522    6.5050181    64.647122   -154.07126   -1874.8529    10782.207 
   23930    310.08226    6.5292586     56.16663   -150.32773   -1493.0564    10782.207 
   23940    299.39822    5.4221302     68.06157   -147.51774    -2308.752    10782.207 
   23950    338.20912    5.0969065    51.183075   -146.05812   -204.43807    10782.207 
   23960    290.49029    6.1369573    65.312192   -145.67205    2627.0418    10782.207 
   23970    281.16098    7.7962934    65.114811   -145.42687   -4346.2251    10782.207 
   23980    295.03039    6.9060077    60.278945   -145.08702    19.060146    10782.207 
   23990    293.01796    6.3086437    65.263272   -144.72954    302.80587    10782.207 
24000        0.96744578518557200475 10.203238279767505858 1 74 -284.74616134929704003
   24000    309.64581    6.4113497    53.052944   -144.45087    2367.5531    10782.207 
   24010    274.43067    6.3543621    61.098985    -144.2018   -1416.6718    10782.207 
   24020    271.05171     5.430298    59.966665   -143.43428   -1688.4999    10782.207 
   24030    302.52543     6.564837    68.979571   -142.24381    146.92054    10782.207 
   24040    289.79595    7.1276787    69.559552   -141.21012    57.403599    10782.207 
   24050    313.59684     8.412311    54.502578   -140.31297   -2027.8838    10782.207 
   24060    299.69342    8.3155026    62.757867   -139.37791    2514.5111    10782.207 
   24070    303.75583    4.7393347    64.805392   -138.38905   -59.455527    10782.207 
   24080    296.60673    3.1466453    64.969448   -137.44592    4935.4971    10782.207 
   24090    302.50407    3.6327952    59.996151   -136.56854    -2138.423    10782.207 
24100        0.97220089681456911546 10.160524252366746722 1 72 -277.81846246971940673
   24100    313.50109    5.4279355    63.362091   -135.77641   -873.34152    10782.207 
   24110    312.81376    7.5809656    63.834075   -135.18869   -2863.9706    10782.207 
   24120    280.49687    8.8696358    62.527848    -134.6294   -4097.5913    10782.207 
   24130    298.48392    8.2384708    57.678922   -133.48025    274.33091    10782.207 
   24140    296.68637    9.2249836     64.08743   -131.38284    2048.8311    10782.207 
   24150    339.95079    8.5488305    58.699912   -128.62094    2481.1211    10782.207 
   24160    332.28685    8.4813436    60.983749   -126.43623    1715.7973    10782.207 
   24170    350.78518     10.96456    55.725034    -125.3928   -590.28569    10782.207 
   24180    340.05766    12.444283    64.099046   -125.68522    1731.2696    10782.207 
   24190    333.93694     12.52156     61.20093   -127.42255   -462.58743    10782.207 
24200        0.98157405701557243205 10.135516007653787796 1 72 -271.2400857762470423
   24200    310.92846    9.2317681    58.919213   -130.36365    1851.4695    10782.207 
   24210    303.15143    7.9386817    68.933037   -133.99294   -418.78709    10782.207 
   24220    298.82909    8.9166069    54.641291    -137.6491    228.07776    10782.207 
   24230    284.39377    9.2926451    66.433382   -140.95783   -2350.0493    10782.207 
   24240    288.45522    9.1990006    57.630912   -144.00042   -2390.3357    10782.207 
   24250    266.63398    8.6255749    60.064735    -146.2435   -2051.9411    10782.207 
   24260    287.35452    8.6901675     56.81708   -147.70566    582.69017    10782.207 
   24270    291.38707    9.4024164    57.524218    -148.6269    3640.3006    10782.207 
   24280    312.79906    9.6413704    56.035062   -149.38782    3364.6717    10782.207 
   24290    301.77403    9.0638719    62.697316   -150.39551    862.22169    10782.207 
24300        0.98451939194586968185 10.134544057208874079 1 74 -298.50690433247041256
   24300    323.27095    7.0062823     52.97072   -152.03829   -1830.8434    10782.207 
   24310    289.90754    6.8983974    60.859158   -153.96961   -1973.8214    10782.207 
   24320    301.52507    6.9790992    61.198343   -156.20783   -982.51149    10782.207 
   24330    293.53112    5.5863695    61.207613   -159.19656   -20.957658    10782.207 
   24340    292.74658    6.0550119    57.523401   -163.67753   -609.69802    10782.207 
   24350    246.82001    5.9832149    61.628209   -168.32255    2930.1232    10782.207 
   24360    260.13934    6.9937681     57.18078   -171.93003    1567.0781    10782.207 
   24370    273.49405    8.7111168     53.13581   -174.69487    2529.1353    10782.207 
   24380    278.64432    8.0069767    53.536206   -176.94131   -1846.4456    10782.207 
   24390    248.40958    8.4049383    61.067802    -178.5719   -2288.1814    10782.207 
24400        0.98056549283222438351 10.150437348696360829 1 70 -292.04573255198585002
   24400    249.56007    9.9043377    52.040017   -178.97428   -926.56345    10782.207 
   24410     246.4877    8.5179467    57.682891   -177.80394     75.39143    10782.207 
   24420    273.48521    6.7233017    57.572995    -174.6007    880.92619    10782.207 
   24430    282.76245    6.8837081    57.613697   -168.79565   -148.72695    10782.207 
   24440     290.2901    8.2427868    59.422542   -161.43818    1085.0341    10782.207 
   24450    294.75158    8.9753961    58.742235   -154.16302    2009.2765    10782.207 
   24460    305.52228    9.5739962     59.85994   -149.62178   -949.51267    10782.207 
   24470     310.8058    8.9200504    56.369687   -147.05303   -157.76832    10782.207 
   24480    301.76339    6.4627665    63.489087   -145.82479   -2276.5548    10782.207 
   24490    312.29614    5.8254517    57.564607   -145.19284    935.73356    10782.207 
24500        0.97801841805282963005 10.172959153805214427 1 72 -278.13208108760989035
   24500    293.80192    7.4970837    60.656735   -145.01539   -1942.5698    10782.207 
   24510    286.84149     7.604316     62.43154   -144.79664   -942.70435    10782.207 
   24520    313.65478    6.9447456    56.485047   -144.26413    717.94176    10782.207 
   24530    308.28159    5.4278567    57.484074   -143.87054   -56.220943    10782.207 
   24540    310.86642    6.0962586    54.966004   -143.82965    2251.8866    10782.207 
   24550    292.32397     5.951146    61.284169   -143.93944    3280.0971    10782.207 
   24560    292.92792    6.7141121    60.528115    -144.0293    45.735587    10782.207 
   24570    304.17427    6.2630992    54.790829   -143.94647   -2338.6248    10782.207 
   24580    322.69707    4.8792725    57.426173   -143.82515   -3311.7597    10782.207 
   24590    339.91403    5.6760157    59.443891   -144.39508    255.05601    10782.207 
24600        0.97607626543253467322 10.186433544033569376 1 70 -289.23287435262238887
   24600    315.11759    6.4043705    70.254781   -146.45841    -946.5762    10782.207 
   24610    296.69807    6.9819708    61.678419   -149.97414    1199.6806    10782.207 
   24620    280.31501    5.4805515    59.349078   -153.69224   -925.80138    10782.207 
   24630    313.85004    4.5424042    51.756302   -157.44474    1186.2079    10782.207 
   24640    282.48439    7.0567149    61.222745   -161.16998    1161.4531    10782.207 
   24650    263.77906    9.1237796    52.809544   -164.17887    2775.6131    10782.207 
   24660    237.31313    9.0476773     61.01245   -165.57589   -993.86571    10782.207 
   24670    300.25564    6.6358104    46.889193   -165.58023   -3579.3511    10782.207 
   24680    290.40022    5.4591547    58.522954   -164.91936   -78.249002    10782.207 
   24690    278.98618    5.7434499    53.473344   -163.73711    2290.1241    10782.207 
24700        0.97005492762802791873 10.193567338962520097 1 70 -284.64319885618300532
   24700     271.3041    7.3575548    58.565541   -161.71989     2338.358    10782.207 
   24710     277.2196    6.1766291    59.874789   -158.40012   -1209.1825    10782.207 
   24720    301.65271    5.4386439    61.701642   -154.06999   -1439.7241    10782.207 
   24730    301.65681     6.218175    61.266681    -149.6249    1544.6452    10782.207 
   24740    274.19899     7.029256    65.521658   -145.59206   -1240.4871    10782.207 
   24750    319.92101    5.9200226    51.522006   -141.89979   -473.31312    10782.207 
   24760    310.12539    7.6939816    59.885893   -138.92338    -3826.984    10782.207 
   24770    333.03392    7.6816406    55.421149   -137.44922     1974.998    10782.207 
   24780    297.40962    6.8570587    67.259432   -137.20734    75.484899    10782.207 
   24790     298.6831    4.7998409    61.418675   -137.45237   -371.92977    10782.207 
24800        0.97273965592300215555 10.201515667021514133 1 69 -270.82541458751370556
   24800    294.03731    5.0114287    63.204363   -137.60207   -3002.7395    10782.207 
   24810    334.70835    7.7939623    47.034307    -137.7351     -1681.74    10782.207 
   24820    307.37663    6.7658088    63.226367   -138.28152   -1562.2917    10782.207 
   24830    325.84084    8.4455102    56.658103   -139.02192      2300.06    10782.207 
   24840    292.86929    7.8916858    67.392891   -140.40006    852.30442    10782.207 
   24850    305.10573    8.3405591    60.339837   -142.01377   -359.30055    10782.207 
   24860    292.31385    8.5444447    68.304495   -144.02026   -249.67121    10782.207 
   24870    307.06474     8.579531    57.181922   -146.05325     1697.232    10782.207 
   24880    326.66604    6.8201246    55.231696   -148.75051   -60.927494    10782.207 
   24890    311.84426    5.5461536    56.361264   -152.21431   -282.81401    10782.207 
24900        0.98086019029785798118 10.139817942310232368 1 66 -297.17384793331655146
   24900    311.53367    4.6797218    51.418925    -156.0232   -2011.9461    10782.207 
   24910    278.73111    6.4454806    54.483491   -159.50401    77.335845    10782.207 
   24920    282.24413    5.6720154    53.856128   -161.84668   -140.10741    10782.207 
   24930    282.80791    7.1178506    57.805547   -163.32024    2772.7073    10782.207 
   24940    303.79716    7.1596104    51.416778    -164.3488   -71.514066    10782.207 
   24950    266.75228    9.7436456    56.656072    -165.1446    926.46117    10782.207 
   24960    282.32172    9.4655215    53.531914    -165.3366    1081.9261    10782.207 
   24970    252.78286    8.8176299    64.485148   -164.69834    212.35632    10782.207 
   24980    286.70022    8.2015944    57.675723   -163.18378    309.86202    10782.207 
   24990    264.97259    7.3973478    62.920132   -161.23679   -392.94897    10782.207 
25000        0.98747913426371314305 10.124211359594571746 1 67 -274.61203215041211934
   25000    255.38276    5.1559355    63.531686   -158.90241    2913.9686    10782.207 
   25010    259.36504    8.2055141    60.572372   -155.87586    -1752.764    10782.207 
   25020    292.00791    8.5175615    51.244284   -151.99168    -2431.762    10782.207 
   25030    329.92005    7.1212298    55.214083    -148.6662    625.59047    10782.207 
   25040    317.18779    6.6361298    59.227824   -146.73847   -1310.5384    10782.207 
   25050    305.42206      5.44836    62.295177   -146.00892   -53.410645    10782.207 
   25060    305.41519    6.4999825    55.605683   -145.92264   -509.16547    10782.207 
   25070    308.54535    9.1240877      59.1371   -146.28407    2876.6878    10782.207 
   25080    304.17197     10.66729     50.85547    -146.5869    1708.5826    10782.207 
   25090    312.95199    13.263567     53.69881   -146.62038    539.92085    10782.207 
25100        0.98595123355756153494 10.133595731251526573 1 69 -285.53895805751119497
   25100    306.27113    9.3329396    66.383078   -146.77268   -931.95653    10782.207 
   25110    339.03839    6.9317523    54.818427   -147.79139   -1351.5263    10782.207 
   25120    308.02399    4.8391062    59.813053   -150.12368      1149.02    10782.207 
   25130    307.84198    4.1023904    52.381118   -152.58857   -21.886021    10782.207 
   25140    275.43242    3.6787614    61.421583   -154.83643    -928.4555    10782.207 
   25150    288.96011    4.0965416    55.837902   -156.43554   -1399.0924    10782.207 
   25160    273.69563    6.9149189    61.076154   -157.96348   -29.361401    10782.207 
   25170    267.54463    9.9396049    59.097696   -158.83951    1558.8171    10782.207 
   25180      308.876    8.7716603    49.512977   -158.96745   -1843.3166    10782.207 
   25190    309.12662    7.4587817     57.07978   -158.82651   -2727.3168    10782.207 
25200        0.98034311483886604766 10.143215744627552155 1 70 -301.18874010668662322
   25200    310.40152    7.1160315    55.268558   -160.55105    1781.2664    10782.207 
   25210    274.18479    5.6320722    70.606535   -160.88076    4607.6969    10782.207 
   25220    285.87603    5.6130418    52.730906   -160.95736   -680.26831    10782.207 
   25230    289.33608    7.6700202    54.048275   -158.73222   -3429.8694    10782.207 
   25240    331.91005    7.5571986    53.197997   -157.66608   -252.99655    10782.207 
   25250    296.92816    9.4262679    63.550479   -156.96904    3719.2966    10782.207 
   25260    287.88788    11.178992    57.029757   -156.34545   -273.67057    10782.207 
   25270    287.52216     9.585775     61.23131   -155.31969   -2324.1208    10782.207 
   25280    303.04238    7.5163146    59.899618   -154.01185    695.40409    10782.207 
   25290    295.36476    4.6445158    59.677342   -152.70241    564.74861    10782.207 
25300        0.97699729977660665359 10.170819319853295681 1 68 -278.42850466042170865
   25300    281.23426    5.1482934    58.767682   -151.00601   -55.867087    10782.207 
   25310    293.75179    5.8739946    50.700744   -148.28445    851.99482    10782.207 
   25320    312.68981     5.879751    53.916924   -144.62836    2914.1051    10782.207 
   25330    325.11608    6.8365813    53.013184   -140.57612    1279.3329    10782.207 
   25340    325.92484    5.2427493    54.412013    -137.0863   -4569.9163    10782.207 
   25350    310.96941    3.8136489    59.397393   -134.26451   -662.10135    10782.207 
   25360    307.49107     3.415427    61.456136    -131.7955   -1321.2694    10782.207 
   25370    303.78082     4.531456     67.45872   -129.57104   -564.48653    10782.207 
   25380    320.89379    4.8699743    65.336026   -127.86512   -2283.8135    10782.207 
   25390    330.90374     4.821547    64.476016   -127.18343    1197.5809    10782.207 
25400        0.9724591152779489267 10.17563596894256861 1 67 -274.86159174149804585
   25400     324.5539     5.530496     63.38004    -127.8117     1068.257    10782.207 
   25410    297.50528    5.5849045    59.792266   -129.24086    518.63059    10782.207 
   25420    295.39839    5.7491403    58.065843   -130.41963   -1654.3627    10782.207 
   25430    312.55131    5.7167941    62.840027   -131.42436    717.23844    10782.207 
   25440    316.45761    3.8472892    56.967139   -132.97523   -311.95158    10782.207 
   25450    308.09156    5.3213328    51.441724   -135.25208   -382.89325    10782.207 
   25460    304.04735    6.6202581    62.305709   -138.51803    1463.5903    10782.207 
   25470    294.24221    8.7799331    57.432071   -142.79948    1638.1414    10782.207 
   25480    274.77537    9.3004551    57.854435   -147.71903    1795.3928    10782.207 
   25490    287.97911    6.5869836    57.123078   -152.26049   -846.01752    10782.207 
25500        0.97025804934467252405 10.191862169459600551 0.99470899470899465378 69 -290.64476143725624979
   25500    296.54588    8.1116485    54.895436   -156.28483   -2140.1102    10782.207 
   25510      285.742    11.066294    53.485886   -159.72613    -4346.446    10782.207 
   25520    271.50499    10.043588    57.076739   -162.12102   -2981.5433    10782.207 
   25530    283.65104    7.4082005    56.137384   -163.26397    3201.4868    10782.207 
   25540    304.81633    7.4019665    51.687564   -163.55788    2674.1951    10782.207 
   25550    306.77663     10.99225    53.087303   -163.60309    -2745.318    10782.207 
   25560    303.72906    11.574774    56.412232   -163.73048   -506.48379    10782.207 
   25570    292.71518    12.188706    56.388373   -163.80403    1552.1887    10782.207 
   25580    273.23376    10.799961    51.500029   -163.22033    2523.5346    10782.207 
   25590     275.6173    10.258129    54.770221   -161.45422     660.6429    10782.207 
25600        0.97879479130964175404 10.129587157314020374 0.99470899470899465378 68 -282.47632098399560618
   25600    273.95183     7.811579    60.484511   -158.35337   -175.30755    10782.207 
   25610    283.43987    5.4064701     59.75954   -154.21063   -917.33477    10782.207 
   25620    295.75614     3.405012    64.279805   -149.78392   -2048.2554    10782.207 
   25630    318.27704    5.7850476    56.840451   -145.60827   -598.27005    10782.207 
   25640    290.75144    8.5822869    61.841413   -142.44828    144.89421    10782.207 
   25650    299.92861    8.8166163    65.448656   -139.92009   -126.56928    10782.207 
   25660    325.08203    7.5460297    57.826157   -138.16095    2524.4773    10782.207 
   25670    339.54331    8.4823362    60.913447   -137.79571   -423.95472    10782.207 
   25680    316.87548    9.7163525     61.10771   -138.73793    316.03066    10782.207 
   25690    303.76334     6.353191    62.463888   -139.82819   -557.26406    10782.207 
25700        0.98246431324872229851 10.091369149943872685 1 70 -281.06559619987348242
   25700    309.52535    5.5596565    62.974739   -140.82488    1992.2718    10782.207 
   25710    313.59961    4.6318979    68.422814   -141.88572   -660.23525    10782.207 
   25720    334.34629    6.3323183    56.105764    -143.5979   -2815.3487    10782.207 
   25730    305.47294    6.6658402    62.331374   -146.00269     -4193.69    10782.207 
   25740    321.89773    8.3376042    53.696781    -148.9793    2102.5547    10782.207 
   25750    297.18607    9.4409105    58.579197   -152.21479   -33.635862    10782.207 
   25760     300.3118     10.41182    53.923999   -155.41367    5235.8701    10782.207 
   25770    278.30865    9.4242052    60.680677   -158.01449    2899.4748    10782.207 
   25780    271.91615    10.664894    62.419742   -159.82338    5190.1808    10782.207 
   25790    258.17979    9.9948016    56.221384   -160.82406   -2480.2116    10782.207 
25800        0.98363804360200157717 10.100297912069510886 1 65 -282.95983770325563
   25800    269.66653    11.122105    55.045779   -160.77848   -3808.0083    10782.207 
   25810    296.72565    9.2268706    53.635464   -159.76804   -1316.8896    10782.207 
   25820    309.73214    8.1643858    54.380736   -158.04205    1788.1463    10782.207 
   25830    312.11729    8.2379251    57.928666   -155.90367     854.4622    10782.207 
   25840    304.44953    7.8697888    58.112239   -153.87825   -1131.6066    10782.207 
   25850    281.72697    7.5107518    64.577146   -152.01495     -1045.25    10782.207 
   25860    290.37596     6.043486    60.814351   -149.82564    1610.4881    10782.207 
   25870    299.42033    7.1659965    60.753831   -146.42978    1428.2472    10782.207 
   25880    322.96224     6.519861    62.687993   -141.93952    256.53295    10782.207 
   25890    340.38426    5.4939639    61.285239   -136.48731   -2796.1606    10782.207 
25900        0.9863958782171639017 10.119566690879558735 1 65 -275.06596992937375035
   25900    315.37719    5.9602063    65.292635   -132.17389   -2760.3023    10782.207 
   25910    314.62698    5.8128578    68.356595   -128.71805   -741.83729    10782.207 
   25920    288.92797    9.0710789    71.463828    -126.1014     3499.804    10782.207 
   25930    316.14491      9.84886    67.083479   -123.32198    45.468825    10782.207 
   25940    303.87612    9.4001034    68.271314   -120.86296    838.79297    10782.207 
   25950    320.60685    6.7761926    70.794176   -118.71137   -1154.6012    10782.207 
   25960    325.42628    7.3607395    73.511191   -117.42885    404.82204    10782.207 
   25970    328.45599    9.2344951     64.52868   -117.17546    1880.7627    10782.207 
   25980    322.98358     6.051095    65.371914   -118.52473   -225.43276    10782.207 
   25990    317.42572     5.938243    65.825185   -121.83473    103.62851    10782.207 
26000        0.98474857499742662892 10.152691473044828996 1 71 -271.58794312359083278
   26000    318.28361    6.3191796    57.866783   -127.37901   -1460.9686    10782.207 
   26010    323.12822    5.9993535    51.466941   -134.56523   -860.56949    10782.207 
   26020    297.60953    5.9078672    55.765202    -141.1124    -1769.001    10782.207 
   26030      293.641    7.2139727    59.042845   -145.79194   -258.46109    10782.207 
   26040    289.65537    8.0792673    57.412081   -149.02033    2459.9846    10782.207 
   26050    282.08854    7.4800906    60.397295   -151.03932    432.91332    10782.207 
   26060    302.42923    4.7982921     55.73441   -152.56573   -938.70354    10782.207 
   26070    298.52993    4.4135822    62.053338   -154.03759   -2669.0002    10782.207 
   26080    284.42611    6.9363931    56.095554   -155.22082   -5189.3666    10782.207 
   26090    274.63266    10.827839     60.35432   -155.79685    1218.7496    10782.207 
26100        0.98355081181563419612 10.143627917293814633 1 69 -279.10128219158906404
   26100    272.73576    13.154926    64.009404   -155.52931     2304.455    10782.207 
   26110    287.55211    12.431604    66.682322   -154.66879     4007.364    10782.207 
   26120    301.39806    10.759865    55.040218   -153.61424   -1058.5289    10782.207 
   26130    299.53865    6.5402068    49.785929   -152.48497    3384.5971    10782.207 
   26140     296.2841    3.8254089    57.481984   -150.97596      4084.85    10782.207 
   26150    306.02236    6.3020236    48.738908   -148.43835    301.88611    10782.207 
   26160    289.20582     9.124783    63.532181   -145.20152   -3947.8966    10782.207 
   26170    307.44633    9.8607757    59.988216   -141.28168   -4588.7255    10782.207 
   26180    310.09976    8.5667498    69.993913   -137.43229   -1500.9081    10782.207 
   26190    337.94919    11.089695    56.232217   -134.32593    -794.2273    10782.207 
26200        0.98281443413229752082 10.13436555402943462 1 68 -274.31171797093207942
   26200    312.96694    10.393407     62.99014   -132.51168   -98.206087    10782.207 
   26210    310.22666    6.8537092    61.199601   -131.44783    2082.4609    10782.207 
   26220    309.60726    5.2424695     54.97426   -130.60643    1094.2885    10782.207 
   26230    308.27581    5.5521399    68.138425   -129.73916    1731.0154    10782.207 
   26240    328.79013    5.3063805    58.342679   -128.89233   -3700.1497    10782.207 
   26250    322.00695    5.2948299    64.891801   -128.61413   -414.80677    10782.207 
   26260    318.79687    7.2311498    57.983223   -129.36042    -1279.442    10782.207 
   26270     294.5134    8.1879307    56.067788   -131.01837    456.61995    10782.207 
   26280    274.91807    6.9773152    65.745007   -133.07624    2523.3595    10782.207 
   26290    292.63379    8.5499513    59.598949   -135.18344    1280.0141    10782.207 
26300        0.9842197704419887172 10.112366234121511255 1 70 -267.10869985949386773
   26300    285.48791       10.272    65.457866   -137.75894    171.24221    10782.207 
   26310    304.19774    6.6584745    59.156531   -141.26495   -47.321785    10782.207 
   26320    287.65329    5.4292563    61.697236   -145.41164    208.81384    10782.207 
   26330    293.68698    6.0446025    51.632612    -149.4485    5326.2807    10782.207 
   26340    274.02736    4.9400183    56.311603   -152.34097   -767.41921    10782.207 
   26350    305.81192    5.1104515    48.296892   -154.42777   -933.75814    10782.207 
   26360    307.26721    7.7496015     60.48106   -156.42163   -4684.1375    10782.207 
   26370    315.38878    11.320106    51.195375   -158.86662   -639.04771    10782.207 
   26380    279.88141    9.1493482    58.938914   -161.40252    404.13215    10782.207 
   26390    284.09703    8.4292014    52.701296   -163.33318   -1154.8618    10782.207 
26400        0.98308313316543816107 10.136678719113932701 1 70 -286.8505531014124017
   26400    269.79521    10.369659    54.236811    -164.6109   -438.87362    10782.207 
   26410    292.50539    10.502335     46.40635   -165.12545   -2164.4983    10782.207 
   26420    282.83735    9.2595727    56.192129   -165.25889    1691.3538    10782.207 
   26430    281.54897    11.264695    53.917185   -164.92005    2290.1968    10782.207 
   26440    266.84132    13.807398    59.150088   -163.79073    240.76065    10782.207 
   26450    276.06487    11.969045     55.50664   -161.72856    2883.8336    10782.207 
   26460    287.11772    8.8281845    59.166528   -158.22822    1690.0219    10782.207 
   26470    305.69793     6.162519    53.856075    -153.5184     2712.999    10782.207 
   26480    307.89571    5.0920686    53.532304   -148.14832   -2025.3687    10782.207 
   26490    314.88876    5.5796493    48.911985   -142.67705   -3638.2189    10782.207 
26500        0.98204421021134735703 10.161944940973350882 1 71 -278.89256221833653626
   26500    310.71798    5.7276314    59.507536   -138.11149   -3992.0873    10782.207 
   26510    298.10216     8.074503    63.491766   -134.57767   -512.05946    10782.207 
   26520    299.33272    7.8191851    63.455757   -132.26248   -1273.6391    10782.207 
   26530    310.44252    8.3323091    58.606502   -130.53804    3023.4872    10782.207 
   26540    328.54863      8.91513    54.565243   -129.43431     -1056.89    10782.207 
   26550     330.8942    10.112633    58.343609   -129.16343    1479.1312    10782.207 
   26560     326.5474    7.3135773    60.784609   -129.96993   -1079.2367    10782.207 
   26570    355.34262     5.814198    53.462221   -131.95927    2283.9674    10782.207 
   26580    315.15686    8.8447111    58.143748   -135.46296      529.968    10782.207 
   26590    303.61463    9.0497638    55.083743   -138.47403   -721.63727    10782.207 
26600        0.97864575993681668376 10.153413746816422503 1 69 -277.05144144820872043
   26600    300.36721    9.1415908    53.934515   -140.96013   -3004.1225    10782.207 
   26610    298.10802    10.380476    60.375061    -142.7244    -1588.103    10782.207 
   26620    324.06267    10.108657    55.083327   -144.44644    983.98184    10782.207 
   26630     298.4683    10.306981    64.974829   -146.54036    3206.4404    10782.207 
   26640    309.08864    8.9912627    57.404171   -148.98554    544.98032    10782.207 
   26650    264.40746    9.3880341    58.352127   -151.24058    539.26526    10782.207 
   26660    279.48548     8.345769     59.54522   -152.43703    208.05052    10782.207 
   26670    284.82842    7.9102402    59.017537   -152.89496   -431.33244    10782.207 
   26680    261.04871    7.5106851    57.920434   -152.77787   -1202.0057    10782.207 
   26690    270.05877    6.8619748    58.527751   -151.92797    277.47871    10782.207 
26700        0.98060125071203563252 10.141388475098313648 1 69 -282.14276941915585439
   26700     290.4778    7.2449901     58.78845   -150.53218    -1699.618    10782.207 
   26710    325.81882    6.1566996    54.661061   -149.12549      534.231    10782.207 
   26720    313.82505    6.3734032    52.231502   -148.36523    1195.2129    10782.207 
   26730     321.4311    7.3870417    49.607284   -147.95671    460.58498    10782.207 
   26740    311.61294    4.8232001       51.583   -147.86669    473.74739    10782.207 
   26750    295.61444    5.0143854    53.095461    -147.9637    -482.0564    10782.207 
   26760    284.41187    8.0938003    60.261412   -147.90782    577.03212    10782.207 
   26770    288.87084    9.1085184    61.820374    -147.4241   -2199.8038    10782.207 
   26780    306.15588    9.1875417    53.508601     -146.362   -297.14123    10782.207 
   26790    294.59992    8.8491091    58.398032   -144.44931    2558.2424    10782.207 
26800        0.9762291011299145671 10.164165436215938598 1 71 -280.68098804337267893
   26800    308.06714    7.8605807    57.056938   -141.10096    493.15696    10782.207 
   26810    314.77518     5.900673    60.868241   -136.51548   -1785.9884    10782.207 
   26820    318.22896    5.9475877    58.531693   -131.72833   -1897.5912    10782.207 
   26830     328.2083    7.7966042    63.138976   -127.34993    191.69605    10782.207 
   26840    310.92514    7.9037528    64.813861   -123.94409    206.58228    10782.207 
   26850    300.52611    7.2686465    69.823716   -121.84584   -1405.0351    10782.207 
   26860    316.97435    8.8475735    65.318326   -120.50919   -726.95882    10782.207 
   26870    325.69376    7.6769764    57.006834   -120.03015    1933.1515    10782.207 
   26880    309.81487    5.3421715    59.199246   -120.48456    1955.5216    10782.207 
   26890    301.90822    3.7260804    64.919367   -121.50963    2372.6588    10782.207 
26900        0.97410818062461157485 10.153656017949714396 1 69 -261.91871036226507385
   26900    306.24928    6.9025785     61.18435   -123.16233    76.471957    10782.207 
   26910    324.83293    8.7260676     56.66994   -125.46703   -121.23308    10782.207 
   26920    327.39702    8.7506891    56.668144   -128.76149     196.6691    10782.207 
   26930    323.87243    6.5357689    55.819461   -133.11261   -2343.1576    10782.207 
   26940    323.04201    8.7481647    55.461884   -138.21921    459.60948    10782.207 
   26950    317.79118    7.5834086    48.899086   -143.53096   -165.69751    10782.207 
   26960    283.91657    7.2886713    57.610147   -147.20113    785.79461    10782.207 
   26970    298.16143    6.9899133    53.807545   -149.53323   -1816.2155    10782.207 
   26980    286.56911    5.1637624    58.295704   -151.19064   -1237.0717    10782.207 
   26990    301.04927    5.6125066    55.049013   -152.44381   -766.07852    10782.207 
27000        0.97456576312864828804 10.173405005544077895 1 69 -282.67747103167573641
   27000    285.43472    7.3535794    55.314253   -153.35182    837.73154    10782.207 
   27010    297.43989    7.8800278    48.875452   -153.66172    1146.3226    10782.207 
   27020    284.05817    10.375363    59.308349   -153.87075    140.38353    10782.207 
   27030    276.00033    9.0940825    58.201194   -153.93543   -1123.4739    10782.207 
   27040    280.64478    8.5734025    51.690651   -153.42949    1305.1021    10782.207 
   27050    293.09462    6.0708263    53.512704   -152.19362   -676.88958    10782.207 
   27060    302.55849    5.5060824    56.253065   -150.11989   -1091.3784    10782.207 
   27070    267.49951    4.2594708    68.635065   -147.64637    1190.7918    10782.207 
   27080    297.30167    4.1484314    59.784445   -144.55496    2434.8587    10782.207 
   27090     321.0669    4.5563087    53.977331    -140.7769   -150.03436    10782.207 
27100        0.97485129476680942862 10.18188360210314336 1 69 -294.2554483350946839
   27100    346.41974    5.4861628    60.132075   -137.29851   -1013.1474    10782.207 
   27110    350.63586    8.4847377    59.578725   -134.97932   -2790.9125    10782.207 
   27120    313.95415    9.4941532    62.253314   -134.28696    2055.6948    10782.207 
   27130    289.23265    8.0499018    64.566204   -134.24455   -447.30679    10782.207 
   27140    321.45653    6.9868572    59.212141    -134.2078    1921.1262    10782.207 
   27150    303.98285    7.0376456    62.328166   -135.05627   -329.34867    10782.207 
   27160    326.03677    6.9982201    51.655139   -137.40905    103.24384    10782.207 
   27170    291.68295    7.7674961    58.688302   -141.45475   -582.30144    10782.207 
   27180    309.55065    7.4206872    50.662356   -146.66297    419.52818    10782.207 
   27190    278.78925    7.2871322    63.000133   -152.54104   -929.55802    10782.207 
27200        0.9693210083033850788 10.199624447630156965 1 70 -276.34213290869212187
   27200    263.42349    7.7411878    60.725237    -156.9894   -1445.8748    10782.207 
   27210    274.14376     9.033748    52.844642   -160.00788   -3559.5898    10782.207 
   27220    298.87522    8.4830816      50.5713   -161.77257    2790.7872    10782.207 
   27230    307.85003     8.981126    46.777241   -164.63627     165.3963    10782.207 
   27240    269.17861    6.7915255     55.82786   -165.36807    822.36955    10782.207 
   27250    266.41938    6.6062923     50.86956   -165.05066   -1870.4386    10782.207 
   27260    256.00088    5.7866287    61.960049   -163.67508    1957.2223    10782.207 
   27270    293.13226    4.8285648    47.734824   -161.13422    387.02406    10782.207 
   27280     275.4153    5.4985757    53.698847   -156.30023     227.1989    10782.207 
   27290    319.10267    4.8784753    45.432976    -151.7764   -2200.5009    10782.207 
27300        0.97247060774781401982 10.194808502549681961 1 71 -280.20726299297240303
   27300    293.47736    3.4511933     58.82244   -147.23762    -458.4722    10782.207 
   27310    329.71427    2.8721975    55.618143   -143.61497   -105.64417    10782.207 
   27320    306.74894    5.6918545     62.47298   -141.32073   -2320.6137    10782.207 
   27330    330.05192    8.5067401    53.250264   -139.75394   -2686.8111    10782.207 
   27340    308.83639    10.813286    64.456817   -138.62438   -3231.3781    10782.207 
   27350    314.50715    9.0771993    61.453582   -138.10807    3700.0112    10782.207 
   27360    320.16351    7.9530253    57.672003   -138.11821     6045.945    10782.207 
   27370    313.27722    9.7084533    58.332497   -138.78874   -490.21226    10782.207 
   27380    333.77677    7.5191683    54.172607   -139.91349   -1355.7689    10782.207 
   27390    319.54258    6.4163813    62.703354   -142.18507    1026.0484    10782.207 
27400        0.98267714514049853136 10.147479212501211876 1 70 -282.63372864870245849
   27400    303.88605    7.3617567    61.980914   -144.94809    1437.9807    10782.207 
   27410    295.38993    7.3043894    54.514326   -147.51088   -1674.5825    10782.207 
   27420    300.21566    7.2374086    50.173201   -149.56118   -3585.0048    10782.207 
   27430    304.09653    6.2428176    44.539187   -151.25262    1594.5183    10782.207 
   27440    267.63294    8.0243236    58.781197   -152.16404    2205.5967    10782.207 
   27450    283.61651    9.0462694    55.128397   -152.09248    659.76656    10782.207 
   27460    254.76513    11.766107     57.23256   -151.24117   -791.83756    10782.207 
   27470    272.74404    9.1757563    56.554638   -149.17758    668.61989    10782.207 
   27480    302.41081    9.4343944    56.672645   -145.10372    3424.9761    10782.207 
   27490    337.85307    7.9059085    55.549173   -138.17157     1810.568    10782.207 
27500        0.98573162064800445847 10.143932802227681123 1 70 -285.19969969751457484
   27500    341.49963    8.6427263    59.372925   -130.47198   -5277.5664    10782.207 
   27510    361.82633     6.257523    61.311206   -123.87063   -1774.4484    10782.207 
   27520    346.04451    6.6144438     64.82216   -120.56504    52.923828    10782.207 
   27530    316.90718     12.50874    61.083136   -119.59849    2581.6678    10782.207 
   27540    315.16659    15.405169    63.050799   -119.43804    510.36226    10782.207 
   27550    324.86543    16.000812    61.515237   -119.63986    628.37591    10782.207 
   27560    328.69207    12.185366    62.112723   -120.61196    3523.5074    10782.207 
   27570    298.57922    8.7131578    69.141343   -121.92404    3787.9968    10782.207 
   27580    340.21912    6.5549133     53.52891   -123.43405   -1279.0185    10782.207 
   27590    310.32307    5.5296267    68.619619   -125.70826   -287.14886    10782.207 
27600        0.98013700505237877358 10.171475986144811188 1 72 -275.26040340724841826
   27600    324.33408    3.8442246    59.301879    -128.3101   -3565.2704    10782.207 
   27610    322.20878    3.8710298     60.02295   -131.10827    847.91441    10782.207 
   27620    337.72303    5.8772138    55.031705   -133.85805   -2105.8464    10782.207 
   27630    311.97874    6.4532775    57.631509   -136.98882   -1932.6766    10782.207 
   27640    285.57686     7.935646    60.377867   -139.67317   -989.33605    10782.207 
   27650    291.97078    7.8264703    53.699085   -141.75336   -1036.4026    10782.207 
   27660    306.74411    7.7041432    54.677035   -143.17425    690.79662    10782.207 
   27670    313.85052    7.1305497    50.595814   -144.23626    396.74174    10782.207 
   27680    302.69329    6.8061619     51.23241   -145.12157   -2938.0962    10782.207 
   27690    294.74245    6.8561616    61.739945   -145.68182    633.58346    10782.207 
27700        0.98240177314498899896 10.148194412327084635 1 72 -285.34665144607174625
   27700    307.62304    6.2702396    58.007031   -145.96784    -511.7697    10782.207 
   27710    310.84403     5.530342    56.958025   -146.32838    2709.8873    10782.207 
   27720    313.49793      3.94674    60.649681   -147.22705    694.69735    10782.207 
   27730    287.59511    3.2330817    62.479245   -148.77449    2163.9799    10782.207 
   27740    292.85644    4.3181506    64.529578   -150.65748   -500.39265    10782.207 
   27750    297.00723    5.9521214    54.556596    -152.6983   -2265.9684    10782.207 
   27760    298.60485    8.4153883    55.555726   -155.04263   -1597.5767    10782.207 
   27770    274.40999    8.4217092    64.189925   -157.62312    2075.8533    10782.207 
   27780    261.67581    9.3000258    64.188439   -160.29261   -872.67295    10782.207 
   27790    259.26293    9.2543368    57.677195   -162.78975    1373.8645    10782.207 
27800        0.98070754234903190216 10.139747358085680062 1 71 -285.34112790212662958
   27800    265.20551    8.6194248    55.409575   -165.18099    1595.4503    10782.207 
   27810    265.53669    7.9816579    56.929549   -167.34039    4739.3694    10782.207 
   27820    259.78732    8.6968569    51.549495    -169.1178   -270.70661    10782.207 
   27830    248.36106    7.4788223    56.280805   -170.30935   -4622.7634    10782.207 
   27840    267.73348    6.4672043    50.604715     -170.577   -2952.5631    10782.207 
   27850    261.32198    4.5403856     55.56578   -169.67631    595.30984    10782.207 
   27860    276.12985    4.2509944    52.103097   -167.48314    -456.3754    10782.207 
   27870    249.71412    4.0041157    60.194948   -164.09765   -350.37887    10782.207 
   27880    248.31364    3.7010335    58.484832    -159.4475   -2429.8928    10782.207 
   27890    297.89909    5.2034604    52.712912   -153.72218    3597.7396    10782.207 
27900        0.98192327752474606317 10.123304589539539933 1 70 -289.61304810835906665
   27900    311.27338    10.617854    61.870893   -148.58033     2430.592    10782.207 
   27910    312.43489    9.5411082    52.283055   -144.97851    1450.3938    10782.207 
   27920    272.27708    7.0365958    72.359208   -142.51384   -1651.1623    10782.207 
   27930    289.94449     5.489151    56.084937   -140.33319   -3892.4864    10782.207 
   27940    291.27016    6.1190014    62.506219   -138.21885   -481.20561    10782.207 
   27950    302.90528    6.6735348    66.608006    -136.1148    2786.7484    10782.207 
   27960    333.61948    8.0062138    55.178546     -134.263   -926.04973    10782.207 
   27970    326.88104    7.7012514    63.391824    -133.5095    553.57922    10782.207 
   27980    313.71632    9.0114006    56.682367   -134.18088    -1639.209    10782.207 
   27990    296.07358    13.552965    51.849809   -135.36401    3994.9721    10782.207 
28000        0.98178157338761695705 10.123758624079263413 1 66 -269.83400009044419221
   28000    295.10139    14.411858    53.876006   -136.12854    1269.1491    10782.207 
   28010    309.73716    10.938098    52.828637   -136.35405     173.2757    10782.207 
   28020    308.82105    8.2856857    59.460653   -136.42079     1963.099    10782.207 
   28030    321.73044     6.823973    60.664612   -136.73502   -590.77211    10782.207 
   28040    308.24691    7.8781348     56.73804   -137.84378   -1746.6103    10782.207 
   28050    281.63787    6.7090833    62.683724    -139.4901    -2718.456    10782.207 
   28060    284.17826    4.4006392    58.061287    -141.3226   -5938.7435    10782.207 
   28070    280.87454    4.2636093    55.837291   -143.20087   -422.64079    10782.207 
   28080    278.00314    4.5106777    57.406032   -144.93189    3102.9095    10782.207 
   28090    286.66204    6.0923562    51.964564   -146.23397    3897.0583    10782.207 
28100        0.98001595222322190892 10.147281828583107455 1 69 -275.16427687601748175
   28100    283.07408    8.7261652    48.592499   -146.90819    1811.7699    10782.207 
   28110    298.41574    8.6239713     51.74017   -146.95827   -2201.7804    10782.207 
   28120    318.64074      7.43789    52.374003   -146.82626    623.73231    10782.207 
   28130    292.43963    5.0328018    53.105542   -146.89695    863.30111    10782.207 
   28140    316.89486    4.5589361    49.721588    -146.9548    -336.9611    10782.207 
   28150     301.9339    6.1795763    55.713013   -147.33475    201.56692    10782.207 
   28160    304.42258    5.1293441    55.185913   -147.88485   -3548.4698    10782.207 
   28170    302.31941    5.3009093    54.386663   -148.68008    875.88979    10782.207 
   28180       282.67    4.9941119    62.146184   -149.54899    424.38217    10782.207 
   28190     314.9335    8.0325167    49.342758   -150.18526    377.90789    10782.207 
28200        0.98074673230771203247 10.144499300589034263 0.99735449735449732689 65 -289.06776251538713041
   28200    304.44756    10.578883    59.292914   -151.12771    1213.0105    10782.207 
   28210    298.49311    12.841981    47.633598   -152.23129     -1101.54    10782.207 
   28220    303.48854    11.786704    47.320886   -153.35618    1758.2305    10782.207 
   28230    287.49194    9.4330511    55.458333   -154.43828    1449.1591    10782.207 
   28240    303.79314     8.180288    54.015764   -155.42161   -2940.9761    10782.207 
   28250    295.55626    6.6808036    52.716851   -156.68772   -846.54191    10782.207 
   28260    277.35595    6.4222288    47.890361   -158.09835   -3609.3566    10782.207 
   28270     270.6768    7.3671091    57.801133    -159.0109    3249.2799    10782.207 
   28280    287.47517    9.6975449    53.193829    -159.3235    62.046124    10782.207 
   28290    272.54423    11.567356    52.680122   -158.96154   -564.69127    10782.207 
28300        0.97972861714212700068 10.127327725341618958 1 69 -280.86867538696111524
   28300    272.00674    11.754129    58.840645   -157.62701     2765.004    10782.207 
   28310    260.74679      15.0988    58.659286   -155.05394    3123.4066    10782.207 
   28320    293.09228    13.708802    54.297022   -150.74174    881.30471    10782.207 
   28330    277.28489    10.413764    65.964236   -145.74036   -1397.5922    10782.207 
   28340    303.39008    5.8400711    60.080167   -140.90527   -3617.9099    10782.207 
   28350     305.9731    6.0338589    65.909574   -136.99901    -1421.199    10782.207 
   28360    304.33638    6.6971042    63.924327   -134.42247   -1936.9615    10782.207 
   28370    319.45171    7.4644322    56.570623   -132.40817    4266.3547    10782.207 
   28380    300.15761    7.5913737    62.325706   -131.04761    2277.4492    10782.207 
   28390    300.59307    8.0254979      59.2766   -129.76326    715.38538    10782.207 
28400        0.97653217586190210753 10.158010233434279002 0.99735449735449732689 68 -269.46753487880806688
   28400    310.95911    7.0314381    56.315101   -128.57721   -253.53057    10782.207 
   28410     303.7103    5.7932885    57.410542   -127.75138   -2102.0454    10782.207 
   28420    308.86022    6.0835312    61.928253   -127.06889   -223.44562    10782.207 
   28430    309.02458     5.006863    63.938523   -126.73523   -1183.3261    10782.207 
   28440     307.2179    4.4111285    65.897257   -126.57301     2776.602    10782.207 
   28450    342.81429    4.4747584    62.336476   -127.02315     663.4489    10782.207 
   28460    313.91319    6.7331914    62.192646   -129.08088   -711.52932    10782.207 
   28470    332.33541    6.9722467    59.817789   -132.99549   -4892.7607    10782.207 
   28480    283.21365    6.9565491    65.114539   -138.69798    386.35325    10782.207 
   28490    306.08762    5.5076655    59.163783   -144.90445   -2737.8191    10782.207 
28500        0.98091719114514586142 10.14969619281735902 1 68 -284.55565677071911068
   28500    294.90586    7.3618738     66.04452   -150.93879   -9.1854772    10782.207 
   28510    310.52212    8.7899447    53.354197   -155.41013   -3107.0883    10782.207 
   28520    294.58904    9.8117215     61.01722   -158.42645    918.76313    10782.207 
   28530    287.44373    9.1869482    58.347257    -160.0205    2341.5357    10782.207 
   28540    274.74097    9.0799817    56.354628   -160.59949    4289.0681    10782.207 
   28550    287.37024    9.4487008    54.907597   -160.37688    2585.3251    10782.207 
   28560    292.73905    8.4371034    54.174494   -159.51539    706.42571    10782.207 
   28570    311.14169    8.7463635     47.29752   -158.29872   -2465.5203    10782.207 
   28580    298.80633    6.4446682    51.375485   -157.23408   -3766.8399    10782.207 
   28590    268.29329    5.9535305    59.124345   -156.05293   -1390.9446    10782.207 
28600        0.97963194199614023194 10.143806770933185391 1 66 -281.96288352344510031
   28600    282.36616     5.396803    53.130343   -154.02754   -152.23357    10782.207 
   28610    286.53869    5.5172232     54.84608   -151.25149    470.62814    10782.207 
   28620    298.77627    3.9264088    51.790933   -149.97363    336.68711    10782.207 
   28630    301.69202    3.7268739    55.803344   -146.28155   -110.06111    10782.207 
   28640    307.85529    4.6328515    61.364033   -142.62676    1378.1031    10782.207 
   28650    312.73748    7.0212743    58.768159   -139.56069    2187.7202    10782.207 
   28660    291.08515    7.6575016    66.389295    -137.3515    752.19264    10782.207 
   28670    318.43079    8.0996054    55.175217   -135.29546   -1549.2104    10782.207 
   28680    322.84057    11.366159    61.183978    -133.8268     511.6907    10782.207 
   28690    322.57064    10.607004    62.593995   -133.12327    2195.1532    10782.207 
28700        0.98466097410594288775 10.124551979609401897 1 67 -280.37333189305354608
   28700    324.73594    8.3209241    56.769741   -133.24096   -3473.8655    10782.207 
   28710    311.02209    6.8515501    63.374697   -134.19168   -1964.2544    10782.207 
   28720    312.47771    8.1544606    66.876173   -135.61528   -2214.6991    10782.207 
   28730    311.13721    10.374799    66.467482   -137.56334    2579.7576    10782.207 
   28740     295.1343    9.3215219     63.80122   -140.04452    361.58179    10782.207 
   28750    318.70304    8.8207044    51.904222   -143.12159     600.1129    10782.207 
   28760    281.36362    9.8847071    67.947087   -146.98689    271.20512    10782.207 
   28770    317.52508    9.6636985    51.360406    -150.8704     3949.016    10782.207 
   28780    290.69969    4.6051695    62.573566   -155.34788    2653.6649    10782.207 
   28790    293.39567    3.1317316    58.276239    -159.3042    2403.3197    10782.207 
28800        0.98637024260223005179 10.093693662908640007 1 66 -291.81999829427661552
   28800    290.10722    3.4111296    58.138119   -160.37731   -5324.7748    10782.207 
   28810    282.76325    5.9785502    53.756845   -162.68053   -2017.7187    10782.207 
   28820    280.59252    9.3868868    55.215266    -163.7328   -2258.3257    10782.207 
   28830    287.64996    10.306453     55.54932   -163.72203    785.45485    10782.207 
   28840    295.82803    10.088678    49.966417   -163.14863    -396.3029    10782.207 
   28850    288.00326    9.2378995    55.923359   -162.42366   -2189.1873    10782.207 
   28860    286.31918    6.7841605    56.758225   -161.45362    5004.3688    10782.207 
   28870    310.67241    5.8016301     57.83876    -160.1892    3503.6116    10782.207 
   28880    315.08311    9.4609764     53.54508   -159.35158    1967.2023    10782.207 
   28890    293.48607    11.228139    57.783313   -159.10225   -4341.2181    10782.207 
28900        0.98305186798124111203 10.130167794900119205 1 68 -295.30213778723498308
   28900    301.49531    10.947525    54.215662    -158.6997   -112.87562    10782.207 
   28910    287.94306    9.3078721    62.661731   -157.93744     375.7245    10782.207 
   28920    278.12928    9.6336889    59.445437   -156.67168   -577.64031    10782.207 
   28930     286.1769    8.3483568     57.48033   -154.83083   -1418.3176    10782.207 
   28940    305.14902    6.7891256    55.717451   -152.54227   -93.024604    10782.207 
   28950    304.49636    4.2991508    57.108209   -150.19188     3740.793    10782.207 
   28960    285.62367    4.8914915    60.797487   -147.95123    2910.1519    10782.207 
   28970    299.57655    6.7283686    57.604816   -145.38884   -3617.5943    10782.207 
   28980    300.77452    7.0884122    68.424137   -142.56618   -1859.4669    10782.207 
   28990    312.37336    7.8339009    57.895446   -139.87736   -3690.2272    10782.207 
29000        0.97565241567766758379 10.162234058881312038 1 68 -269.1786698451141433
   29000    290.70452     8.043575    65.829366   -137.46535    1558.1757    10782.207 
   29010    312.80076    7.4786077    55.974432   -134.98295    -362.2875    10782.207 
   29020    325.95617    6.1583261    56.957338   -132.50068   -4394.4835    10782.207 
   29030    329.06001    3.8914889    61.958476   -130.38441   -901.43893    10782.207 
   29040    316.49471    4.6255249    59.997628    -129.0135    3855.8651    10782.207 
   29050    298.40391    7.1831863     75.06815    -127.9836    5507.2422    10782.207 
   29060    319.37944    10.308079    61.466847   -127.09314    1778.7981    10782.207 
   29070    319.71963    8.1914587    64.490844   -126.77263   -2964.2021    10782.207 
   29080    326.93926    6.7045365    57.712334   -127.41777    1062.0499    10782.207 
   29090    326.43423     5.727459    63.638635   -129.84211     216.9222    10782.207 
29100        0.9693597146331428549 10.18854131749761649 1 68 -268.24437340107749606
   29100    296.38998    6.4894478    63.452386   -133.95507   -948.12887    10782.207 
   29110    292.62917    5.9182829    58.632808    -138.6963   -1025.8982    10782.207 
   29120    266.12006    5.0697509    66.371671   -142.68499   -552.67861    10782.207 
   29130    305.93008    5.2635596    52.993331   -146.28475    1356.3324    10782.207 
   29140    282.36379    5.1922668    59.038726   -149.54562    1374.9567    10782.207 
   29150    287.78163    3.4330852    53.536637   -151.98885   -2965.7475    10782.207 
   29160    273.61997    3.2911884    53.692551   -153.57822   -1240.4803    10782.207 
   29170    282.67067    3.5574442     54.64278   -154.26329    1199.3885    10782.207 
   29180    295.90496    4.5540258    50.771535   -154.38739    5062.2303    10782.207 
   29190    285.36681    5.0040567     50.12977   -154.04451   -969.31865    10782.207 
29200        0.96284893189721454387 10.216218348458580678 0.99735449735449732689 68 -281.91260868077955593
   29200    284.64205    5.3530661    55.981775    -152.9461   -2690.8014    10782.207 
   29210    301.15525    10.244436    55.038142   -151.12327   -1511.1854    10782.207 
   29220    301.40031    11.613608    66.798677   -149.02532    2335.5909    10782.207 
   29230    322.91065    13.278042    56.090252   -147.16981   -1091.5106    10782.207 
   29240    303.26311    10.844764    62.283899   -145.80414   -1758.0593    10782.207 
   29250    330.44076    9.2566454    46.013717   -144.51257   -3126.8904    10782.207 
   29260     308.6594    8.8717317    58.292101   -143.21008   -1963.9729    10782.207 
   29270     337.3565    9.4093356    53.325661    -141.8045   -330.91599    10782.207 
   29280    293.91367    11.267394     59.32036    -140.4458    2987.1676    10782.207 
   29290    304.08727     10.68503    54.924482   -138.88687    4269.3556    10782.207 
29300        0.96640957361514323587 10.197282625082731755 1 67 -274.30248813759158111
   29300    304.44166    9.7250436    57.778334   -136.36511    1591.3678    10782.207 
   29310    318.40697    5.9519534    59.086827    -132.7951    718.48643    10782.207 
   29320    306.47779    6.0899397    61.612532   -128.82003   -3519.4383    10782.207 
   29330     308.1566      5.63709    67.109466   -124.71358   -431.22579    10782.207 
   29340    316.25472    4.2748896     61.26766   -120.67984   -1826.3962    10782.207 
   29350    322.93155    5.6044999    64.316995   -117.20797    279.43644    10782.207 
   29360    327.02157    5.3127561    64.629143    -114.5854   -1294.3158    10782.207 
   29370    312.84164    3.6735813    67.135186   -113.01332   -1540.5143    10782.207 
   29380    343.83936    5.1313761    61.746542   -112.52486   -427.20008    10782.207 
   29390    319.79464    3.9797637    68.603892   -113.88063    2084.6325    10782.207 
29400        0.96745299223167657843 10.207197732026703108 1 68 -261.99113968084157023
   29400    320.86408     3.811264    66.722171   -116.61304    2029.6966    10782.207 
   29410    312.62119    3.7696179    67.011074   -120.64471    2968.4156    10782.207 
   29420    295.65961    5.5962799    66.703946   -124.96192   -2312.7002    10782.207 
   29430    296.15896    6.6217775    61.579926    -129.5379   -3455.6508    10782.207 
   29440    288.06197    6.4792282    67.543407    -133.3163   -1182.0409    10782.207 
   29450    310.25744    6.6786036    55.995739   -135.94414    194.51652    10782.207 
   29460    293.65398    7.7063257    57.994671    -137.9144   -164.41343    10782.207 
   29470    291.34688    5.4458544    55.233707   -139.32411    1820.5579    10782.207 
   29480    289.60976    5.9082552    58.162099   -139.93671    2066.6932    10782.207 
   29490    298.56519    6.1923807    54.665853   -140.06829    277.87131    10782.207 
29500        0.97668926130879585301 10.168156310809861154 1 67 -272.35637662372084833
   29500    291.88835    5.6064491    59.801109   -140.10669   -3088.6139    10782.207 
   29510    322.31576    7.3089897    50.466391   -140.04655    -2329.969    10782.207 
   29520    314.63422    8.5844924    56.413053   -140.40743   -1485.0496    10782.207 
   29530    328.79932    8.2535737     57.54085    -141.3619    1725.3138    10782.207 
   29540     310.3491    9.3049855    56.424355   -143.24373    1948.0182    10782.207 
   29550    279.76205    7.6250576     58.08524   -145.29891   -361.86305    10782.207 
   29560    274.82385    8.1322666    60.724181   -146.75575   -286.26072    10782.207 
   29570    277.77007     9.447509    63.790987    -147.5654    947.77593    10782.207 
   29580    324.38217    10.327042    49.694481   -148.01471    527.32739    10782.207 
   29590    289.45887    10.872414    57.466918   -148.76672   -53.192436    10782.207 
29600        0.98268960692363704901 10.112793012192733855 1 66 -288.39076892699279142
   29600    306.25071    10.027767    48.380229   -149.63374    1889.5074    10782.207 
   29610    288.80055    10.008837    61.240668   -150.50236    1290.1803    10782.207 
   29620    313.96354    9.3088481    46.110086   -151.70883    299.10773    10782.207 
   29630    295.86211    9.8728189    56.190557    -153.3385   -2477.9493    10782.207 
   29640    335.24986    9.1488255    46.788439   -155.96239   -741.82122    10782.207 
   29650    305.51872    8.7187656    52.969299   -160.05017    2001.3033    10782.207 
   29660    282.30029    9.5678335    53.345073   -164.76604     1224.644    10782.207 
   29670    262.89639    9.0200494    54.342917   -168.76458   -1275.0704    10782.207 
   29680     257.9152      8.76791    50.150674   -171.43106   -1653.3361    10782.207 
   29690    275.70711    6.6945111    49.946906   -173.01246   -216.16132    10782.207 
29700        0.9862787723334349721 10.125478373785028907 1 65 -299.52119097848617457
   29700     277.9436    3.6775686    51.235084   -173.58964    321.61449    10782.207 
   29710    290.81374    3.8172524    47.523938      -173.31    375.74945    10782.207 
   29720    278.42273    6.1783482    49.957094   -172.21757    1119.1349    10782.207 
   29730     259.8868    8.9062365    55.508476   -170.14964    1185.4825    10782.207 
   29740    304.92952    7.5148569    46.411766   -167.04029    2603.3734    10782.207 
   29750    301.95104    7.5774017    59.479944   -162.95462   -729.96291    10782.207 
   29760     313.8969     10.72102    51.722004   -159.16412   -1932.7544    10782.207 
   29770    279.19125    11.693998     57.55492   -155.72776    -2223.756    10782.207 
   29780    291.46702    10.958616    58.849925    -152.7625    2684.0779    10782.207 
   29790    286.98272    9.2187662    59.902522   -149.94998    2004.2794    10782.207 
29800        0.98205667389838735559 10.139712760770962063 1 64 -283.39215229460677392
   29800    299.92756    8.7346866    55.764671   -147.50003   -115.68932    10782.207 
   29810    304.08512    10.983243    62.656961   -145.39652    554.26685    10782.207 
   29820    304.84929    8.9239066    64.926121   -144.06932   -416.65343    10782.207 
   29830     301.8475    5.6260814    64.553123   -143.54299   -2689.1688    10782.207 
   29840    290.51098    4.5475994    63.719824    -143.4896   -1804.9756    10782.207 
   29850    313.68193    7.5531649     59.35153    -143.5129   -1118.3169    10782.207 
   29860     281.9597     8.389522    63.361053   -143.75948     226.0463    10782.207 
   29870    285.72045    8.5254049    54.719052   -143.71759     3205.553    10782.207 
   29880    293.32853    9.9485578    60.163511   -143.38484     1910.516    10782.207 
   29890     305.1836    9.1495575    57.488773   -143.23017    1552.3309    10782.207 
29900        0.97474681724365697111 10.161047646587823223 1 68 -274.2959064060929677
   29900    288.95901    7.8643331    59.676837   -143.37346   -873.46389    10782.207 
   29910    293.28211    5.2831935    59.259632     -143.577    2452.7632    10782.207 
   29920    276.03245    6.0194201    61.215313   -143.55749   -206.13643    10782.207 
   29930    284.40445     5.401414    58.095789   -143.04757     -1828.58    10782.207 
   29940    299.72642    5.4384407       55.826   -142.09325   -3358.3134    10782.207 
   29950    312.59907    6.4332196     57.27962   -141.12189    105.75656    10782.207 
   29960    309.78497    6.6889264    60.569288   -140.70445   -307.43915    10782.207 
   29970    300.60616    7.5714659    64.395609   -140.85431   -541.58586    10782.207 
   29980    304.68615    9.7758408    49.593426    -141.2024   -3532.2332    10782.207 
   29990    286.61841    8.2793872    58.970569   -141.24465    136.89794    10782.207 
30000        0.9672443732947937356 10.196476282189429696 1 70 -283.37617865899346725
   30000    314.55403    5.0856239    53.692928   -140.85705    2008.0161    10782.207 
   30010    283.96749    2.3202488    60.232371   -140.41005    1376.8983    10782.207 
   30020    295.61359     2.503763    52.787334   -139.67025   -914.31628    10782.207 
   30030    310.84755    3.9594347    63.039218   -138.53381    847.45914    10782.207 
   30040    328.68075    7.9133663    52.408983   -137.58453    2201.5088    10782.207 
   30050    308.61851    8.8913911    59.219633   -137.29806   -2501.0716    10782.207 
   30060    300.90131    9.6705978    57.638457   -137.21265   -3331.2014    10782.207 
   30070    305.81109    10.431955    56.896099     -137.085    -1428.356    10782.207 
   30080    299.42075    9.0749438    62.798248   -136.93962    2302.4306    10782.207 
   30090    318.53534    7.2032253     58.92961   -136.65197    316.81324    10782.207 
30100        0.96762307193661289961 10.182368840763723838 1 70 -276.88096363684263679
   30100    309.58989    7.7614831     55.21017   -136.61101    1930.0834    10782.207 
   30110    290.68655     5.497804    62.157325     -136.935    978.51315    10782.207 
   30120    320.96047    4.2709534    58.953183   -137.17554    -2073.503    10782.207 
   30130    320.82145    5.6990966    58.884549   -137.89741   -614.26851    10782.207 
   30140    310.12398     6.825252    61.960658   -139.30935    557.25639    10782.207 
   30150    297.74938    5.7143827    63.011822   -141.14283    2455.4072    10782.207 
   30160    288.55042    5.3585367    63.687754   -143.14663    365.80633    10782.207 
   30170    292.59188    6.8155242    60.962629   -145.48406   -520.96618    10782.207 
   30180    303.28761    6.4936614    62.735282   -148.06231   -1870.7621    10782.207 
   30190     317.7443    5.6235665    50.695414   -150.98823    -2004.707    10782.207 
30200        0.96882532075215976874 10.189561112062891723 1 68 -282.3099811303510478
   30200    283.35935    4.4995968    61.557378   -153.92464   -1868.1356    10782.207 
   30210    276.26766    5.4532035    56.504639   -156.34513    -1204.892    10782.207 
   30220    260.10802    5.8045795    61.280481    -157.8241   -1382.9686    10782.207 
   30230    267.89544    5.2951379    55.887434   -158.21137    719.91043    10782.207 
   30240    275.10675    7.4499381    56.142962   -157.62148    4410.4512    10782.207 
   30250    282.08646    7.6630669    53.312464   -156.10551    6342.2199    10782.207 
   30260    300.55268    7.9794941    58.738076   -156.41006    1008.7813    10782.207 
   30270    316.28546    5.9999469    52.883404   -153.62411   -2330.6971    10782.207 
   30280    300.84654    4.6456349    54.725581    -148.3701    -5930.342    10782.207 
   30290    305.70194    5.9637016    60.054131    -145.7085   -1750.5377    10782.207 
30300        0.97660074787668860186 10.170372464950077074 1 68 -290.6561858543479957
   30300    325.59487    9.7690589     53.32889   -143.13464    -2069.382    10782.207 
   30310    323.13805    11.152227    56.019788   -140.95338   -707.92291    10782.207 
   30320    330.16489    9.1954046    63.343141    -139.5079    4221.9394    10782.207 
   30330    314.99083    6.3593238    61.797833   -139.20414    2424.1407    10782.207 
   30340    325.32485    5.8797861    52.982949   -139.54998    1627.1753    10782.207 
   30350    321.52817    6.1387556     59.01797   -140.37217    1422.7387    10782.207 
   30360     319.8417    6.7336082    58.933065   -141.92781   -605.26631    10782.207 
   30370    294.20576    6.2987057    64.711971   -144.75616    544.04884    10782.207 
   30380    310.29592    7.8072739    52.183253   -148.69768   -2630.5588    10782.207 
   30390    297.45615    7.1652595    53.770595   -153.73318   -358.36056    10782.207 
30400        0.98237230725479662841 10.1504783265087557 1 68 -305.81175306347682863
   30400    323.32919    7.0235488    46.065119   -159.31675   -1463.1607    10782.207 
   30410    300.68901    7.5872703     54.50454   -164.72404   -383.64161    10782.207 
   30420    292.51198    8.8136493    53.326826   -169.02239     93.79662    10782.207 
   30430    256.84482    9.5380567    58.146403   -171.73475    984.88615    10782.207 
   30440    264.82741    7.9811568    57.235485   -172.98473     830.7056    10782.207 
   30450    278.30799    8.9257536    53.299011    -173.3056    2395.3421    10782.207 
   30460    260.56174    8.4283576    55.300152    -172.8428   -36.780372    10782.207 
   30470    276.96945    8.7334238    51.899596   -171.29706    129.09211    10782.207 
   30480    272.29722    7.4506716     55.26317   -168.73777     331.5655    10782.207 
   30490    307.02303    6.7950405    49.989514   -165.68077    336.54915    10782.207 
30500        0.98203360641510373252 10.131958623202356407 1 66 -295.24176976861679123
   30500    292.66519    7.1912338    54.316875   -162.64011   -834.92483    10782.207 
   30510    286.15474    7.9378628     57.08191   -159.92857    2178.6112    10782.207 
   30520    275.86136    8.5534464    56.370957   -157.18018   -291.83714    10782.207 
   30530     283.1596    6.6314124    51.666431   -154.53567   -3065.9592    10782.207 
   30540    321.21013    8.1122365    49.220801   -151.70614   -1195.5027    10782.207 
   30550    291.80036    9.6974727    57.690792   -149.32634   -5164.1845    10782.207 
   30560    315.91054    8.5929569    52.451413   -147.52382    2139.6252    10782.207 
   30570    296.32237      9.37782    59.380942   -146.37483    423.81277    10782.207 
   30580    296.49686    8.1089221    56.863925   -145.47171    2050.3053    10782.207 
   30590     308.9104    6.6928512     55.54351   -144.49609    2068.4654    10782.207 
30600        0.97927041388068158945 10.147635748131376587 1 66 -279.46111349142807967
   30600    299.61333    6.4144136     55.77765   -143.71137    323.31398    10782.207 
   30610    308.95623    4.1647601    52.354299    -142.8669    1712.9923    10782.207 
   30620    290.02726    5.4761776    60.014613   -141.73316    -525.2586    10782.207 
   30630    322.77133    6.9466637    52.183131   -140.61768   -4452.8059    10782.207 
   30640    317.21339    9.8886215    62.074935   -139.98152   -532.54187    10782.207 
   30650      328.252    11.999306    52.698287   -140.07649    2081.4854    10782.207 
   30660    301.05963    8.8756258    63.713403   -140.83732    848.89745    10782.207 
   30670    312.37805    6.6980568    55.810549    -141.8844    1839.7128    10782.207 
   30680    323.84851    5.2678138     57.71639   -143.32216    2266.5002    10782.207 
   30690    316.81276    4.0331768    58.651167   -145.56087    1565.0955    10782.207 
30700        0.97808598236004817839 10.157222749301160647 1 66 -281.83442157929312089
   30700    292.86079    4.6987668    59.304131   -149.14414   -1956.0476    10782.207 
   30710    258.39359    4.4351683     63.54952   -153.79864   -5950.6883    10782.207 
   30720    286.72695    6.1808461    54.066774   -158.67001   -4358.8374    10782.207 
   30730    274.42558    5.9358087    58.940214   -163.77116   -1758.1585    10782.207 
   30740    295.74999    5.6188536    49.946293   -168.34406    1114.8456    10782.207 
   30750    269.90677     5.683478    60.192519   -172.14523     2436.719    10782.207 
   30760    275.97801    4.7882678     53.54303   -174.54548    3677.0868    10782.207 
   30770    261.22654     5.401927    57.815204    -175.8906    2224.9612    10782.207 
   30780    291.03694     7.163489    50.853371   -176.33496   -1663.5949    10782.207 
   30790    278.53279    9.9708011    57.432367   -176.20967    569.96213    10782.207 
30800        0.97717274251982488842 10.140382552308651043 1 66 -304.08555978567198963
   30800     283.4565    10.979585      56.8034    -175.6562    1506.4862    10782.207 
   30810    297.06578     9.363748    49.491101   -174.72926    1207.5248    10782.207 
   30820    273.57027    7.8243346    58.306144   -173.50103    1332.0152    10782.207 
   30830    265.22268    6.9632602    58.921888   -171.88062   -4295.8631    10782.207 
   30840    260.61149    5.3894183    63.202936   -169.95249   -492.58365    10782.207 
   30850    273.12872    6.1296862    53.642357   -167.66037    270.57518    10782.207 
   30860    284.58369     6.941759    53.937136   -165.25756   -1172.4077    10782.207 
   30870    287.64233     7.221103    54.278653   -163.05348     1071.279    10782.207 
   30880    300.88953    6.9291632    48.711793   -160.86662    1915.8528    10782.207 
   30890    282.69473    8.5558707    58.847127   -158.77784     2628.641    10782.207 
30900        0.97006555617268619418 10.182919790572718455 1 67 -293.82380252292597334
   30900    302.29752    9.4127716    55.157449    -156.8579    240.14149    10782.207 
   30910    303.41342     9.878671    61.066432   -155.34956   -2573.7679    10782.207 
   30920    291.51138    7.8398185    58.876418    -154.3053   -2811.1984    10782.207 
   30930    297.98331    6.7342762     56.23502   -153.06233   -3011.2148    10782.207 
   30940    292.62734    6.6474905    63.636632   -151.62757    1082.1666    10782.207 
   30950    291.56394    7.0068998     63.39677   -150.10878   -668.20845    10782.207 
   30960    300.35609    7.5339703    57.009929   -148.46508    1945.7202    10782.207 
   30970    312.69595    6.6999604     62.99273    -146.3412    9.0866862    10782.207 
   30980    329.93929    6.4137014    53.067855   -144.40004    589.02515    10782.207 
   30990    300.31871    8.2280468    65.027693   -143.08024    465.21897    10782.207 
31000        0.97524410900881441933 10.176917253381871475 1 70 -281.74872091309305233
   31000    308.78155    8.5662593    61.399678   -141.84501   -3224.8464    10782.207 
   31010    289.94635    8.0149037    61.969777   -140.49139   -891.64326    10782.207 
   31020    307.51288    9.1561441    61.568108   -138.92575    2488.7687    10782.207 
   31030    325.98957    11.121533    59.936219   -137.07198   -410.91084    10782.207 
   31040    278.69339    9.8192931    70.450822   -135.21167   -717.27781    10782.207 
   31050      298.954    6.9477953    66.675015   -132.58781    936.34529    10782.207 
   31060    293.80314    6.3626061    71.328602   -128.25489     2072.384    10782.207 
   31070    331.95803    4.8628218    66.904593    -122.8504    2620.9955    10782.207 
   31080    329.64578    7.1403549    69.817821   -117.05517   -1765.6031    10782.207 
   31090    351.82566    6.5341021    65.307713   -112.81255    -1106.975    10782.207 
31100        0.97755669856839377818 10.179938383270698665 1 66 -270.15047010669724159
   31100    353.71205    5.2489335    67.159388   -109.88951   -1846.4007    10782.207 
   31110    315.66544     7.741907    78.558447   -109.30399   -1817.6583    10782.207 
   31120    315.35481    8.2497005    80.357951   -110.06984    1022.3059    10782.207 
   31130    336.19304    7.7938638    69.946669   -111.92628   -37.440225    10782.207 
   31140    349.87063    6.4527437    71.012859     -115.393   -2813.7443    10782.207 
   31150    342.67705    5.6752338    63.846828    -121.0013   -733.27753    10782.207 
   31160    327.98368    4.6704358    58.760671   -127.30118    10.356496    10782.207 
   31170    281.79463    4.4056435    82.440597   -132.74727    1957.6476    10782.207 
   31180    321.68848    3.5724542    58.296157    -136.6714   -120.99601    10782.207 
   31190    295.56459    6.5036817    61.518337   -139.52379    2132.1203    10782.207 
31200        0.98016697056380441833 10.140644619463621723 1 69 -276.92080106648938909
   31200    299.48487    6.2190119    57.800949   -141.22926     467.4263    10782.207 
   31210    295.68368    4.9683379    62.055172   -142.42155     2964.926    10782.207 
   31220    289.72966    5.5544641    63.265318   -143.19353   -135.83824    10782.207 
   31230    285.52085    8.6257092    64.039154   -143.93138   -2621.6667    10782.207 
   31240    303.69594    9.4046051    65.174112   -144.64969   -2358.8204    10782.207 
   31250    322.75894    7.5599265     56.81198   -145.72137    332.78455    10782.207 
   31260    294.90508    7.2148283    65.449884   -147.39668   -23.732055    10782.207 
   31270    294.90683    9.1871537    61.754769   -148.95884   -1373.5573    10782.207 
   31280    288.05201    10.827847    57.990115   -150.39815   -1393.9962    10782.207 
   31290    313.72508     8.913602    55.406905     -151.884    2601.3467    10782.207 
31300        0.9810632901251453708 10.123793348150847748 1 68 -290.59948190014722513
   31300    302.53328    8.5405856    62.448093   -153.52676    3956.6309    10782.207 
   31310    320.78841    8.4158414    48.172652   -155.37797    2380.9523    10782.207 
   31320    286.95688    7.9902648    59.234958   -157.41952   -3673.3755    10782.207 
   31330      282.404    4.8672748    59.303959   -159.52403   -1672.0453    10782.207 
   31340    277.83912    5.8595407    59.159644    -161.6895   -2618.6192    10782.207 
   31350    288.55916    7.2323009    57.783919   -163.79747    2210.7308    10782.207 
   31360    281.84906    7.6861362    49.310959   -165.48135   -287.83773    10782.207 
   31370    284.33647    8.1553259    54.596963   -166.18467    193.80014    10782.207 
   31380    294.09114     7.815744     56.22643   -166.23396    1037.1793    10782.207 
   31390    267.14105    7.7595346    61.942064   -166.08958     -466.413    10782.207 
31400        0.98492993096698833178 10.09451853562323187 1 69 -301.21287229967055055
   31400    299.57487    6.9393112    51.728754   -165.48055    433.26691    10782.207 
   31410    296.66786    5.6921777    56.088201   -164.42717    624.74378    10782.207 
   31420    308.75081    5.9011865    46.610494    -162.5378   -256.53273    10782.207 
   31430     278.5366    7.0943553    63.769593   -159.56589    1916.4091    10782.207 
   31440    297.29127    7.8531231    54.553045   -155.53372   -978.01374    10782.207 
   31450    311.51675    6.6142417    54.079964   -150.38148   -433.64006    10782.207 
   31460    300.06407    8.7628144    59.322765   -145.60106   -2367.7503    10782.207 
   31470    296.33631     9.984778    60.663952   -141.31225    643.94646    10782.207 
   31480    282.61183    10.039178    69.975004   -137.73364    2661.9979    10782.207 
   31490    310.96355    9.4916634    63.166705   -134.52881    233.42054    10782.207 
31500        0.98580391262657973694 10.112723320715986119 1 67 -278.18467360107115383
   31500    322.27605     10.62575    56.681245   -132.16683   -4459.2049    10782.207 
   31510    312.81283     10.67322     66.58519   -130.52691   -1.5650185    10782.207 
   31520    326.34754    7.9337682    66.937945   -129.45818    -1354.799    10782.207 
   31530    303.51146    7.2839487    67.846189   -129.11733     3662.764    10782.207 
   31540    317.76292    8.5199181    68.074232   -129.57611   -134.90539    10782.207 
   31550    325.57576    8.6280849    65.520938   -130.98461    4074.2971    10782.207 
   31560    328.89216    5.8872191    58.511379    -133.3263   -259.11208    10782.207 
   31570    328.10106    7.7567704    57.694987    -136.6153    784.98725    10782.207 
   31580    320.48455    8.3139356    67.483936   -140.93357   -466.73458    10782.207 
   31590    333.56293    6.8152436    58.892876   -146.29119    1460.2292    10782.207 
31600        0.98320812575332716676 10.12898228545657453 1 69 -294.01924888375828004
   31600    313.30655    4.6396069    55.643393   -152.06534   -3173.3013    10782.207 
   31610    293.59664    2.9526868    57.016614   -156.48349    1239.7096    10782.207 
   31620    294.89778    3.2604138    55.125585   -158.93712   -944.73172    10782.207 
   31630    286.42808    4.8988418    55.420802    -160.1641    4550.5001    10782.207 
   31640    269.23879    6.2929834    61.271758   -160.45766    1260.8989    10782.207 
   31650    283.40857    7.0459006    54.245103   -160.01376    2410.0042    10782.207 
   31660    300.01212     7.168992    59.548853   -159.16377   -177.33114    10782.207 
   31670    309.03415     7.894707    54.649788    -158.2151   -3602.5725    10782.207 
   31680     290.8194    11.197348    54.826117   -157.34509   -4453.5808    10782.207 
   31690    283.73068    11.743559    56.450923   -156.11167   -3039.7122    10782.207 
31700        0.98213451351827318891 10.147597564858132912 1 67 -286.80514324007788218
   31700    292.72743    9.3106146    60.691886   -154.17528    20.437732    10782.207 
   31710    294.35159    8.2319571    63.009201   -151.68812   -516.91228    10782.207 
   31720    319.39489    8.1412918    53.263909   -149.04284    317.55489    10782.207 
   31730    324.02826    8.8872055    61.212054   -146.75598    5.1401848    10782.207 
   31740    312.42933    8.7539404    57.125782   -145.21286   -865.58696    10782.207 
   31750    299.18445    6.6774773     63.67881   -143.76681   -94.457618    10782.207 
   31760     309.8825    6.0158666    60.570843   -142.15399    5974.7207    10782.207 
   31770    327.29269     5.515869    59.812965   -140.43518    4165.8909    10782.207 
   31780    324.54228    7.8075884    63.747474   -139.22146    1151.3447    10782.207 
   31790    329.57014    7.6599586    58.613612   -138.66878   -2128.2766    10782.207 
31800        0.97985784342740500641 10.166027809487999889 1 71 -281.20137258601619124
   31800    313.47392    9.2959272    67.370466   -139.17163   -417.90432    10782.207 
   31810    321.06683    8.2456667    61.513241   -140.83317   -1578.7636    10782.207 
   31820    309.62468    8.1734769    55.080871   -143.80007   -5030.2327    10782.207 
   31830     308.1966    5.9735013    55.398261   -147.95905   -539.97347    10782.207 
   31840     295.2978    6.0904969    58.100644   -152.86584    2895.4078    10782.207 
   31850     290.8464    6.6779359    58.868993   -157.74195    2316.1217    10782.207 
   31860    302.15033    7.8320852    52.571514   -161.91967   -207.75226    10782.207 
   31870    292.31331    9.0987925    59.209384   -165.84662    -2288.418    10782.207 
   31880    299.62129    10.112758    57.689457   -169.15846   -113.40851    10782.207 
   31890    291.73385    9.5641565    58.550148   -172.09479    504.48999    10782.207 
31900        0.97480202570736929069 10.179340613307823915 1 71 -309.10288156742819865
   31900    297.33598    12.969903     49.69918   -174.38497     1163.104    10782.207 
   31910    292.12616    13.463296    56.025036   -176.04162   -87.746319    10782.207 
   31920     273.5527    13.127819    56.204902   -177.22601    1242.7616    10782.207 
   31930    246.60905    8.8135772    58.856009   -177.56411   -1749.4147    10782.207 
   31940    246.34812      6.02896    56.643435   -176.61793   -1734.3839    10782.207 
   31950    265.46102    5.6369243    54.330804   -174.22868   -2541.5501    10782.207 
   31960    266.93813    6.6209322    60.550416   -170.60506    1846.6773    10782.207 
   31970    280.65929     4.916514    59.728258   -166.48501   -467.39288    10782.207 
   31980    280.62056    4.4529227    59.452411   -162.41589    2088.0729    10782.207 
   31990     301.4352    5.2539771    52.203646   -159.03558   -2554.2457    10782.207 
32000        0.96868038980761494994 10.201195459647962593 1 66 -282.81871768515730992
   32000    279.20184      5.92355    61.862786   -156.31707   -1696.3577    10782.207 
   32010    295.39677    6.2888049    58.781094    -154.0667    310.46587    10782.207 
   32020    284.55958    4.7633345    54.259292   -152.16746    1569.2516    10782.207 
   32030    308.18818    5.6031357    58.165889   -150.18408   -365.12745    10782.207 
   32040    291.81001    6.7461487    59.092844   -148.35615    365.63486    10782.207 
   32050    315.13857     5.033008    55.347925    -146.6744     1762.793    10782.207 
   32060    306.58691    4.3139871    62.701924    -145.4342    3089.6727    10782.207 
   32070    295.72412    5.9985025    58.234403   -144.22355   -3465.5888    10782.207 
   32080    314.05244    7.9338152    55.235387   -142.71646   -221.31882    10782.207 
   32090    298.34737     7.013334    65.104776   -141.24045   -500.80353    10782.207 
32100        0.97148992452363847061 10.167562920145625682 1 64 -286.10763661081040254
   32100    322.83886    5.8609486    58.086868    -139.8348    3851.4717    10782.207 
   32110    320.86481    6.1786431    60.497997   -138.99506   -114.23798    10782.207 
   32120    333.87714    5.8523551    57.517532   -138.78232    368.80016    10782.207 
   32130    336.67471    4.5010734    56.361498   -139.52207   -728.81727    10782.207 
   32140      312.952    5.1191251     63.47643   -141.71744    1827.3769    10782.207 
   32150    320.20658    5.5867492    61.642218   -145.49119   -1865.7554    10782.207 
   32160    298.05408    10.714766    60.709817   -150.74272    856.44801    10782.207 
   32170    302.09982    13.143165    56.393605   -156.78923   -1421.5967    10782.207 
   32180    253.14338    9.9537442    68.683108   -161.61287    4104.9689    10782.207 
   32190    294.83906     7.607116    53.083441   -164.94911   -830.56639    10782.207 
32200        0.97105908231442217282 10.183263577693068669 1 68 -282.91798108467492057
   32200    255.91814     6.760349    63.585213   -166.96579   -1549.2772    10782.207 
   32210    267.43543    5.5503146    50.535944   -167.65733   -6152.9522    10782.207 
   32220    260.73076    5.7157588    54.224294    -167.2666   -7.4596308    10782.207 
   32230    285.17851    3.8233481    55.184242   -165.95178   -411.57069    10782.207 
   32240    282.70814    6.1454999    56.081471   -164.01917   -539.80116    10782.207 
   32250    296.40721    7.8547842    57.619266   -161.89173   -2305.3046    10782.207 
   32260    277.93559    10.753616    57.676128   -160.06588    416.63909    10782.207 
   32270      285.521    14.995264    57.423131   -158.08463    643.52717    10782.207 
   32280    289.01952    15.367323    60.495141   -155.86068    509.66106    10782.207 
   32290    313.87184    10.121799    59.723316   -153.58181    647.34066    10782.207 
32300        0.97008840446996658091 10.178387723661449726 1 70 -298.07641341626572284
   32300    322.06501     6.497859    58.706189   -152.15419     1826.858    10782.207 
   32310    302.75904    3.6544195    61.495088   -151.37775    2131.1704    10782.207 
   32320     302.3958     3.787783    57.030763    -150.9316    -369.9462    10782.207 
   32330    283.86746    6.7444593    64.962392   -150.47478   -736.19267    10782.207 
   32340    310.78948    7.2794692    56.323129   -149.66003   -882.77734    10782.207 
   32350    311.99724    5.2316584    60.924299   -148.62876   -1031.5303    10782.207 
   32360    311.31283    6.9406945    58.399045    -148.0478    1178.5355    10782.207 
   32370    298.21931    7.0587114    61.716356   -147.76488   -341.45085    10782.207 
   32380    299.32527    5.7918152    59.687933   -147.29851    476.54714    10782.207 
   32390    292.63727    7.4203882    60.522039   -146.46763    537.09583    10782.207 
32400        0.97706500186852840439 10.154500337099459983 1 70 -280.36621549833802192
   32400    298.78612     8.032825    67.119409   -144.99126    4327.5717    10782.207 
   32410    309.37643    10.994018    63.127094   -143.07879    2310.2333    10782.207 
   32420    315.22427     9.692382    61.121072   -140.62025     -514.466    10782.207 
   32430     305.7744    8.5500232    68.035881   -138.06356   -2497.5658    10782.207 
   32440    303.46393    7.0007984    67.395834   -135.47198   -2715.7452    10782.207 
   32450    317.72998    5.4345308     63.06477   -133.08961   -3793.7631    10782.207 
   32460    322.34982    7.4562475    63.139536   -131.33923   -1317.9317    10782.207 
   32470     309.7463     6.664544    64.395763   -130.37408     1743.203    10782.207 
   32480    288.86113    5.5664022    68.986002     -130.008     3576.754    10782.207 
   32490    290.05904     6.635754    67.351866   -129.69613     1108.574    10782.207 
32500        0.97980617381611234684 10.151058279470349888 1 69 -268.23472248362241999
   32500    305.92518    8.6619418    65.207287   -129.62518    2283.4356    10782.207 
   32510    315.95976    9.4523636    66.986383    -130.2523    2114.8195    10782.207 
   32520    305.30271    10.647482    64.943063   -131.70419   -2601.9087    10782.207 
   32530     332.7282    6.2372922    59.307446   -135.54196    -4244.839    10782.207 
   32540    322.99691     5.678345     63.18243   -138.92189   -4284.9861    10782.207 
   32550    338.32743    5.3711429    53.173515   -143.75556    997.72377    10782.207 
   32560    295.69221    7.6792024    65.303497   -149.18643    1713.4261    10782.207 
   32570    315.58248    8.4942775    51.592368   -154.05636    2622.8062    10782.207 
   32580     286.2028    8.8090925     54.86967   -157.43516    2804.4498    10782.207 
   32590    294.63661     9.304774    54.461121   -159.60074   -288.78534    10782.207 
32600        0.97393092100510969544 10.187093848008718311 1 68 -287.11065550853277273
   32600    283.21028    7.6569015    57.069022   -158.79285   -1305.2172    10782.207 
   32610    304.23698    6.9439168    52.716916   -159.20953   -1453.0246    10782.207 
   32620    310.06277    5.9348719    54.260717   -159.52702    797.01046    10782.207 
   32630    304.34933    6.1384188    58.310364   -159.78821    4632.2904    10782.207 
   32640    296.53347    8.1385252    52.360527   -160.03474   -1291.1581    10782.207 
   32650    298.09102    7.4561164     56.32129    -159.8978    227.32128    10782.207 
   32660    313.08667    5.2568028      56.5935   -159.67255   -2069.3905    10782.207 
   32670    301.93879    7.0498102     56.97701   -159.59889   -923.09504    10782.207 
   32680    302.90054    8.0031345    50.396739   -159.31749   -755.40189    10782.207 
   32690    298.64266    6.4224099    52.970464   -158.71291     190.4839    10782.207 
32700        0.96882958382778905371 10.198712649017689813 1 72 -284.63594773779163916
   32700    281.01918    6.8953924    66.264645    -157.3109    2263.4488    10782.207 
   32710    296.65355    8.1125169    61.210388   -154.77728    3560.6106    10782.207 
   32720    271.85247    9.3029347    67.616162   -151.35424   -2030.9891    10782.207 
   32730    302.50643    6.7775095    61.869801     -146.553   -2265.5923    10782.207 
   32740    308.98286     3.601701    66.889827   -140.93123   -5101.3898    10782.207 
   32750    329.26925    3.6316759    63.899439   -135.56871    1310.8256    10782.207 
   32760    321.12749    2.5993232    66.378701   -131.49614   -83.568942    10782.207 
   32770    329.05677    1.7757698     70.13823   -128.88127    1252.8623    10782.207 
   32780    333.11947    2.8024954     66.68392   -127.85146   -2285.8821    10782.207 
   32790     324.3802    4.8563248    62.831183   -128.10574    665.28849    10782.207 
32800        0.96447276660016267869 10.200681422614605864 1 68 -274.03891625352883921
   32800    320.18814    8.4714321    56.839334   -128.96707    1771.3124    10782.207 
   32810    312.89722    9.9797826    64.820069     -130.037    2446.8303    10782.207 
   32820    308.43754    10.881772    62.692975   -131.80744    813.30487    10782.207 
   32830    306.30276    9.2593315    54.452878   -134.07228   -1388.3308    10782.207 
   32840    316.81976    5.0578699    55.626412   -136.48732    1748.2252    10782.207 
   32850    303.31379    3.6312747    59.509651   -138.75342    495.41179    10782.207 
   32860    316.17556    4.0623375    55.480319   -141.20244    -1666.959    10782.207 
   32870     288.4247    5.7918775    59.456086   -144.08903   -1996.0546    10782.207 
   32880    290.53372    6.3553065    61.774451   -146.90703   -83.979458    10782.207 
   32890    299.49621    3.7165261    51.914405   -150.15019    2042.6839    10782.207 
32900        0.97175489102204837266 10.182383754621298522 1 69 -282.09016733187826276
   32900    282.98233    4.7350615    56.443879   -153.87565    820.12244    10782.207 
   32910    276.24563    5.4377373    56.316781   -157.71064   -2907.8988    10782.207 
   32920    271.51096    5.5691447    67.283179   -161.72955   -619.03822    10782.207 
   32930    274.37639    4.7030637    57.079009   -166.24277   -1582.8441    10782.207 
   32940    288.75722    5.9997465    54.874613   -171.27245    406.10586    10782.207 
   32950    280.29927    6.6100201    57.100334   -176.30061    85.658182    10782.207 
   32960    280.89127    7.6468827    52.321885   -180.29828   -2573.3954    10782.207 
   32970    267.39346    7.3171187    58.515638   -183.12896    739.88979    10782.207 
   32980    262.96162    8.2522335     59.22353    -184.7495    182.25306    10782.207 
   32990    278.02047    8.5593617    53.038857   -185.20096    3261.8032    10782.207 
33000        0.97963098177563867619 10.161908700879392242 1 66 -308.23821072051259762
   33000    272.09683    8.0252661     51.00192   -184.95573   -2534.4303    10782.207 
   33010    255.82453    10.557282    54.239423   -184.01298   -1562.6616    10782.207 
   33020    264.38915    12.404562    52.313497   -182.32817    1690.1731    10782.207 
   33030    256.93362    11.651419    58.934938   -180.32369    1732.1072    10782.207 
   33040    251.56331    10.411578    57.777893   -178.00213   -1396.0358    10782.207 
   33050    274.46992    8.6428846    56.408444   -175.46545   -3158.9095    10782.207 
   33060    286.62232    5.5985662    49.686848   -172.74431   -226.04297    10782.207 
   33070    289.59487    4.1290174    56.983628   -170.34799    3759.2796    10782.207 
   33080    261.38104    3.9322972    60.723119   -168.08557    1289.3876    10782.207 
   33090    295.75847     4.873773    55.766152   -165.71686    326.43618    10782.207 
33100        0.98401907438825830798 10.091936555398355324 0.99735449735449732689 67 -289.61398758276874332
   33100     278.7202     7.034405    63.780624   -163.33057   -2273.5041    10782.207 
   33110    297.89016    7.0909386    50.606606   -160.86082   -61.603468    10782.207 
   33120    273.93426    7.4033837    59.147581   -158.06238    2944.5486    10782.207 
   33130    279.41849    8.2295848    56.114696   -154.94959    591.44078    10782.207 
   33140    284.06015    8.3046892    58.423682   -151.21378   -3155.3021    10782.207 
   33150    308.89069    6.8943381    53.683915   -147.52846   -627.76039    10782.207 
   33160    307.51402    7.3236022    61.597793   -144.35177    1339.1252    10782.207 
   33170    329.69066    8.5459804    54.138022   -141.82302    5580.5291    10782.207 
   33180    327.36506    6.3966563    56.443818   -140.03602   -218.41203    10782.207 
   33190    337.97367    3.5534171    54.034721   -139.20462    1446.6207    10782.207 
33200        0.982187013006174503 10.100427834666326987 1 69 -264.9050586290967999
   33200    277.37857    2.3675629    69.357625   -139.22951    -2201.796    10782.207 
   33210    315.87282    2.1976578    57.380141   -139.16617    212.99123    10782.207 
   33220    303.13267    3.7754734    60.510075   -139.23295   -466.70529    10782.207 
   33230    303.62215    5.3839462    56.113495   -139.31773    734.65066    10782.207 
   33240    302.78636    6.4060858    68.087153   -139.29626   -386.47909    10782.207 
   33250    317.61039    6.2295521    56.508102   -139.29455   -3129.8212    10782.207 
   33260    307.76281    6.8783017    58.961263   -139.86021    -3764.178    10782.207 
   33270     284.3992    8.4353823    68.400446   -140.71463    2950.4252    10782.207 
   33280    325.27448     8.118026    52.707617   -142.00626    1177.7951    10782.207 
   33290    312.83323    8.1813445    59.243849   -144.70306    3618.3874    10782.207 
33300        0.98295280378928751031 10.123536582901536462 1 65 -291.50469905834927431
   33300    315.23915    7.5790275    54.760343   -148.67516    1397.8432    10782.207 
   33310    274.18805     7.825367    58.035192   -153.76993    812.03761    10782.207 
   33320    279.16368    5.2944618    58.186961   -158.68589    -3001.676    10782.207 
   33330    272.30156    5.0568972    51.184286   -163.03635   -585.56311    10782.207 
   33340    284.59814    5.2135841    48.326563   -166.12748    338.51484    10782.207 
   33350    285.79038    5.7706418    56.144316    -168.0435    4167.6656    10782.207 
   33360    297.84176    6.0831139    44.757135   -169.28896   -152.53408    10782.207 
   33370     274.8859     8.257582    51.776287    -169.9083   -1717.8164    10782.207 
   33380      286.127    7.1885689    47.932816    -169.7413   -4504.4606    10782.207 
   33390    272.80243    6.4500541    53.422531   -168.71604    35.295604    10782.207 
33400        0.97821169350576564483 10.173964806815753548 1 68 -297.29405675530057351
   33400    288.29936    6.1391745     52.31498   -166.67048    358.48058    10782.207 
   33410    283.25055    5.5385635    56.920796   -163.78301     404.7286    10782.207 
   33420    286.65074    4.5791442    54.215366   -160.18548   -2299.9582    10782.207 
   33430    308.62234    4.4345832    50.091094   -156.26916   -1118.6196    10782.207 
   33440    312.58572    6.3648149    56.435674   -152.76323    1556.0043    10782.207 
   33450    305.13383     6.482863    54.716141   -150.10225    1884.2247    10782.207 
   33460    295.56741    7.4747944    56.467693   -147.79161   -133.50781    10782.207 
   33470     300.6648    9.0130046    58.069232   -145.78228    548.38465    10782.207 
   33480    290.36537    9.2476963    63.621713   -144.33687    1695.6225    10782.207 
   33490    304.64826    8.1018696    61.620207   -143.35653    3853.0187    10782.207 
33500        0.97714644326576571842 10.179154690778261738 1 68 -277.62321967827273284
   33500    297.77259    7.3291601    61.667607   -142.70748    248.86965    10782.207 
   33510    308.17937    8.7557189    64.458455   -142.30466   -4470.5372    10782.207 
   33520    291.50357    9.6939148     69.81329   -142.23964   -2987.2188    10782.207 
   33530    315.22921    9.1270238    57.934569   -142.48311   -456.46709    10782.207 
   33540    304.32845    7.5065394    66.897087   -142.97658    3997.9495    10782.207 
   33550    322.27917    8.0577431    54.759174   -143.67995   -1475.4127    10782.207 
   33560    294.13837    8.4004065    61.948526   -144.78573   -1902.2637    10782.207 
   33570    307.96222    8.8025063    59.822343   -146.19706   -2215.0548    10782.207 
   33580    303.97975      10.5269    56.814459   -147.88998    397.10556    10782.207 
   33590    299.02398    10.112473    57.832637   -149.68707   -2779.0212    10782.207 
33600        0.98441698641410224635 10.155799524874167261 1 71 -290.29539682906738562
   33600    306.53185    6.8496336    52.208757   -151.41099   -3658.2743    10782.207 
   33610    286.70304    4.8673583    58.691315   -153.28078   -2187.2787    10782.207 
   33620    282.97275    5.3393181    61.771242   -155.04877    3799.7944    10782.207 
   33630    274.71566     5.970933    64.444633   -156.67118    5667.8719    10782.207 
   33640     309.1648    5.2907278    53.923162   -158.27362    3687.0283    10782.207 
   33650    283.08222    6.3156168    56.926079   -160.61902   -1913.1666    10782.207 
   33660    268.05548    6.1556718    56.238796   -163.16406   -5109.0166    10782.207 
   33670    283.33749    7.8188819    54.916154   -165.74308   -1385.0849    10782.207 
   33680    275.57428     6.566646    55.101583   -168.39836    3105.9194    10782.207 
   33690    286.53433    6.9147078    51.995706   -171.15006     840.2817    10782.207 
33700        0.99083805928714319133 10.089957092214200784 1 71 -291.95483927756930598
   33700     260.9314    6.0359425     57.69817   -173.73123   -1752.5271    10782.207 
   33710    290.06338    6.8448029    49.843292   -175.66041    -294.2977    10782.207 
   33720    279.03221    7.2342811    54.824988   -177.27325    1261.9385    10782.207 
   33730    267.42849    8.5631283    49.078541    -178.1062    799.64942    10782.207 
   33740    272.43622     9.144442    50.067627   -177.88468   -2627.3681    10782.207 
   33750    265.17765    10.100028    56.068506   -176.45399    389.47233    10782.207 
   33760     290.9966    12.575624    57.317472   -173.58585     3477.396    10782.207 
   33770      293.607    11.982312    56.402691   -169.97111     3898.203    10782.207 
   33780    310.88843    9.8022478    48.182187   -165.71251    1458.0569    10782.207 
   33790    289.43054    9.5014548    55.226368   -161.60415   -4652.6087    10782.207 
33800        0.98932714905221863511 10.070141240485556366 1 65 -293.54404541065616741
   33800    300.57315    7.3391668    57.093692   -157.35942   -2385.4395    10782.207 
   33810     296.7596    6.3597843    66.158538   -153.28669   -182.75512    10782.207 
   33820    328.88482    6.2237672    54.969959   -150.07981    2165.3917    10782.207 
   33830    310.46889    8.8300645    63.173676   -148.39503   -1112.7981    10782.207 
   33840    304.87022    10.281693    58.486924   -147.72997    2227.3302    10782.207 
   33850    282.04979    11.135111    60.407197    -147.3661    1093.0648    10782.207 
   33860    302.80833    9.3433905    49.674222   -146.73829    1915.5248    10782.207 
   33870    318.79203    6.3252481    57.033781   -145.96352   -950.83694    10782.207 
   33880    306.28797    3.9041995    57.014166   -145.51864   -2728.6719    10782.207 
   33890    293.48917    3.6463073    61.855823   -145.41114   -2088.5184    10782.207 
33900        0.98458319111711689597 10.088629795077100226 0.99735449735449732689 68 -276.48589418392919015
   33900    288.95104    4.9774081    61.521504   -145.56705    1333.9836    10782.207 
   33910     283.6897     6.780283    59.749452   -145.52934    4468.2494    10782.207 
   33920    295.87852    9.7922649    50.316241   -144.88842    1601.1989    10782.207 
   33930    279.33458    9.1944259    60.537795   -143.47826   -2981.2406    10782.207 
   33940    313.87676    7.6095451    53.635143   -140.91977    544.94832    10782.207 
   33950    291.85582     4.461569    67.035253   -137.66764    25.830705    10782.207 
   33960    311.27869     4.965118    54.772834   -133.02293    -888.2796    10782.207 
   33970    312.58286    4.1622945    65.673178   -126.42143   -3547.3477    10782.207 
   33980    328.08703    4.3696691     61.04227   -119.10426    103.72103    10782.207 
   33990    311.26798    5.2144255    70.685593   -113.18932    3411.6217    10782.207 
34000        0.98331507515678773235 10.113631927798206078 1 68 -256.54607235050286818
   34000    324.97316    8.3411753    59.084353   -109.30622    3590.5627    10782.207 
   34010    332.70724    10.149743    66.080461    -107.1816   -1325.9886    10782.207 
   34020     366.7622    10.492925      60.2952   -106.66821   -1732.9768    10782.207 
   34030    336.85049     10.41312    71.490235   -107.73786   -3033.5046    10782.207 
   34040    345.69921    9.8165788    64.665613   -110.30577    744.83059    10782.207 
   34050    321.10177    9.9497678    67.108544   -114.05832   -233.79191    10782.207 
   34060    360.16739     6.706531    57.665696   -118.56281    649.86828    10782.207 
   34070    347.90977    5.0737764    51.225875   -123.55766   -3911.6858    10782.207 
   34080    328.12244    5.5204933     59.84174   -128.17055    -239.8684    10782.207 
   34090    318.90974    6.6817343    61.722225   -131.91425    1533.7786    10782.207 
34100        0.98270652228804866724 10.129964159258706857 1 65 -283.71423064557092175
   34100      327.589    5.0808923    58.861834   -135.28918   -624.56672    10782.207 
   34110    307.00141    6.7885122    61.180097   -138.79617   -679.41601    10782.207 
   34120    292.23172    9.4274266    57.404255   -141.74969   -3009.3276    10782.207 
   34130    319.26652    12.387651    49.494107   -144.25272    5045.3827    10782.207 
   34140    315.79761    9.5070902    57.855418   -146.71781    5511.9105    10782.207 
   34150    320.37547    7.8782852    53.196271   -149.25639    1137.4207    10782.207 
   34160    281.25831    6.7260824     66.36061   -151.75912    660.36387    10782.207 
   34170     307.6869    6.7920248    54.051741    -153.9984   -985.65401    10782.207 
   34180    293.90605    7.8871909    59.043815   -156.32252    252.41129    10782.207 
   34190    290.33455    7.8448142    50.918811   -158.33904    623.30865    10782.207 
34200        0.97840595442879541022 10.144554444905615753 1 68 -288.42504542030962966
   34200    283.97399    6.7600231    51.955554   -159.76122   -2342.3626    10782.207 
   34210    305.28118    5.5928693    49.468252   -160.69318    289.90398    10782.207 
   34220    300.75923    7.7743452    52.805908   -161.48496    -1468.098    10782.207 
   34230    285.21473    6.9360312    55.190682   -162.25852     1001.892    10782.207 
   34240    291.14586    6.7608188      48.8066   -162.60701   -2366.8962    10782.207 
   34250    284.74312    4.5292773    52.761218   -162.43795   -2137.0734    10782.207 
   34260     286.5623    6.0013262      56.9278   -161.74141    845.28515    10782.207 
   34270    286.83444     7.241561    57.257245   -160.40242    4087.2431    10782.207 
   34280    292.34982    7.1621708    55.883811   -158.32289    544.56184    10782.207 
   34290    292.17776    5.5281617    52.680677   -156.90059   -1250.6045    10782.207 
34300        0.97360215140718420201 10.194457336860217822 1 66 -288.2760278620451686
   34300    299.52626    4.0486589     50.66158   -152.56573   -4922.4668    10782.207 
   34310    309.86347    5.8487686    48.303975    -147.2318   -2241.3942    10782.207 
   34320     287.9107    5.9447085    59.139474   -141.93028    815.80449    10782.207 
   34330    313.90385    5.5726921     54.04036   -137.03867    3226.4882    10782.207 
   34340    307.30622    4.3774285    56.876551   -133.05992    623.43378    10782.207 
   34350    321.16669    3.9570821     51.41234   -130.07766   -2941.0246    10782.207 
   34360    313.63831    5.1000115    59.622109   -128.08918   -104.48074    10782.207 
   34370     306.8713    4.5080085    62.714084   -126.99388    3008.8787    10782.207 
   34380    295.51948    6.1930981    61.146956   -126.32341   -1388.1041    10782.207 
   34390    316.57314     7.464445    59.926947   -126.05866   -2693.6278    10782.207 
34400        0.96727539452086419569 10.211357204150967704 1 69 -269.19358193062771534
   34400    315.26859    6.6046194    62.311913    -126.3507    -2554.918    10782.207 
   34410    323.31368    3.7580742     56.56797   -127.40547   -750.39659    10782.207 
   34420    300.81821    3.8455134    65.913446   -129.36602   -214.81628    10782.207 
   34430    317.72861    6.0612894    56.753147    -132.1237   -1170.0591    10782.207 
   34440    275.36994    7.1694516    63.126027   -135.24507    2114.9396    10782.207 
   34450    294.85803    7.1213104    49.064138   -137.79847    339.21672    10782.207 
   34460    290.58255    5.0959709    55.625728   -140.09333    3349.9742    10782.207 
   34470     291.8756    4.8548517    56.278486   -142.15346    3476.5213    10782.207 
   34480    301.97401    4.9523242    52.697711   -144.00982    523.99685    10782.207 
   34490    309.07315    4.9857304    58.437892   -146.33652   -2705.3712    10782.207 
34500        0.96804920225730595185 10.201472890222106571 1 69 -284.23047235596305882
   34500    297.17423    5.9674149    52.167641   -149.58584   -1579.7506    10782.207 
   34510    268.97328    6.7901572    53.520873   -153.21286    103.05871    10782.207 
   34520    269.46328    8.0099551    51.560481   -156.62927   -1160.4033    10782.207 
   34530    285.54005    5.8756562    53.831504   -160.20102   -3632.3364    10782.207 
   34540    287.56647     5.786134     58.56004   -164.78116    3235.2667    10782.207 
   34550     273.9114    6.1994903    49.767091   -170.02883    3848.8082    10782.207 
   34560    261.78099    5.4316167    53.757177   -175.10656    4263.9979    10782.207 
   34570    267.02622    4.4476649    45.863207    -179.0019   -2336.8064    10782.207 
   34580     264.7554    5.2007279    50.082114   -181.59639   -2441.9894    10782.207 
   34590    276.19837    7.2900512    49.036603   -182.92424   -3017.4729    10782.207 
34600        0.97298638187482722195 10.170203732142875097 1 67 -305.94469082867914267
   34600    270.70184    8.1516391    49.338791   -183.29426   -2284.0311    10782.207 
   34610    278.02794     7.759716    54.236035   -182.87183    2586.4072    10782.207 
   34620    281.07163    10.388112    50.347919   -180.08545      2975.66    10782.207 
   34630    280.30406    11.917734    49.966911   -178.59501    114.36051    10782.207 
   34640    300.19491     10.62637    45.083299   -176.85894    874.55368    10782.207 
   34650    267.28973    9.6326853    57.358016    -175.4353   -1585.6443    10782.207 
   34660    258.60124      9.01089    56.022804   -174.11348    197.69421    10782.207 
   34670    251.76117    8.0088966    54.667191   -174.99244   -2510.5347    10782.207 
   34680    276.30383    6.4062941    56.775537   -172.80704    4990.9163    10782.207 
   34690    293.90546    8.5770224    54.727197   -170.52656    1274.9913    10782.207 
34700        0.97381903826614313324 10.167750215760868571 1 69 -303.5308530642309961
   34700    298.04543     7.780745    47.592556    -168.4915   -778.85586    10782.207 
   34710    270.95509    7.8793263    60.165737     -166.801   -2927.2264    10782.207 
   34720    279.53335     6.291019    47.314961   -164.78158    844.57246    10782.207 
   34730     272.3406    6.5756122    58.421353   -162.31879    274.09188    10782.207 
   34740    306.47473    8.3227469    46.824604   -159.06542    2281.6728    10782.207 
   34750    288.01857    9.5651561    59.339368   -153.20178   -3248.7557    10782.207 
   34760    299.78298    7.6350792    57.519046   -150.22063    4176.9108    10782.207 
   34770    308.77167    8.0150506    58.770391   -147.59903   -946.93379    10782.207 
   34780    323.47242    8.1848575    50.828146   -145.56104    2599.4386    10782.207 
   34790     311.2923     7.626221    54.538046   -144.30511   -3112.4326    10782.207 
34800        0.96723989103653196242 10.209616127398524199 0.99735449735449732689 66 -285.8318108212728248
   34800     313.8285    7.8901693    51.132465   -143.64141    -863.8512    10782.207 
   34810    313.61115    7.2854496    49.945567   -143.53447   -1286.4685    10782.207 
   34820    274.23467     7.691153     60.02979   -143.48651   -359.41022    10782.207 
   34830    294.99925     7.872531    51.623714   -142.80167    1052.4077    10782.207 
   34840    296.77247     6.017619    56.089431   -141.63063   -510.38955    10782.207 
   34850    309.90568    5.8375686     51.11757   -140.22508   -1280.5196    10782.207 
   34860    289.67775    5.3038194    59.612213   -138.22182   -921.43527    10782.207 
   34870    312.80618    4.7556455     56.04438   -135.19269   -1272.4813    10782.207 
   34880    327.42855     4.626612     60.61317   -131.21433   -101.40718    10782.207 
   34890    310.09088    4.1277252    61.493396   -127.23479   -2163.8182    10782.207 
34900        0.9634173080232998343 10.203456441197555904 1 68 -275.76236483731736371
   34900    337.17588    4.9637178    54.356922   -122.99366    2025.0802    10782.207 
   34910    322.81501     6.103168     57.47287   -118.51301    1769.4807    10782.207 
   34920    338.70525    6.1398926    61.035604    -115.0743     432.7672    10782.207 
   34930    322.09437    8.3858456    60.334825   -112.80064    1504.8829    10782.207 
   34940    323.18659    9.4025339    58.445267   -111.32546   -118.79648    10782.207 
   34950    332.56084    7.9645945    56.347786   -110.22347    225.39104    10782.207 
   34960    326.00161    7.1464998    62.666811   -109.95596   -2731.5311    10782.207 
   34970    342.06955    8.1322351     57.14387   -110.67101   -2368.9227    10782.207 
   34980    337.37322     5.216734    62.758965   -113.78224   -360.98966    10782.207 
   34990    318.18946    3.0711686    61.643903   -119.77132   -598.61299    10782.207 
35000        0.96775814553569960985 10.186792762594924611 1 68 -268.4793327151056701
   35000    313.00169    4.6033677    51.901812   -126.66355    3217.9291    10782.207 
   35010    314.21552     10.72589    51.015654    -133.0069      3778.54    10782.207 
   35020    303.84453    12.168564    58.647069   -137.70526   -206.66147    10782.207 
   35030    300.50857     8.910975    66.011992   -141.16395    1770.1077    10782.207 
   35040    309.32121    6.9502404    53.849113   -143.92065   -4301.5527    10782.207 
   35050    292.53183    9.6233928    56.324811   -146.22776    -2478.179    10782.207 
   35060    306.11198    7.0274173    46.071766   -147.77673   -3334.8824    10782.207 
   35070    293.22175    7.6935308    52.736677   -148.65569   -2333.8389    10782.207 
   35080    321.54568    10.967704    48.128526    -149.0949    117.52985    10782.207 
   35090    294.54773     12.10687    56.635969   -149.80898   -544.96367    10782.207 
35100        0.97759014947899625092 10.160713333362272337 1 70 -293.70485693921909842
   35100    315.48828     9.708476    52.511606   -150.76244    2176.9554    10782.207 
   35110    311.47112    9.9454175    61.183299   -152.28658    1362.7587    10782.207 
   35120    308.11097     10.27305    55.155608    -154.3626    4690.6985    10782.207 
   35130    288.93619    10.582588    52.161648   -156.46838    2887.0733    10782.207 
   35140     291.6024    10.992541    51.214182    -158.4865   -1204.8535    10782.207 
   35150     296.9555    11.039006    49.565273   -160.21337    377.55616    10782.207 
   35160    300.97517    8.4089116    46.254436   -162.00838   -1322.7983    10782.207 
   35170    286.10108    7.6911944    60.657114   -163.80693    268.65139    10782.207 
   35180    284.03782    8.5151924    52.874169   -165.49629   -709.92901    10782.207 
   35190    288.33824    8.7127137    49.146158    -166.9944    302.91661    10782.207 
35200        0.98475600300249543917 10.144429944035096014 1 70 -295.65844803836466781
   35200    281.30044    11.088696    47.964756   -168.20596    387.37346    10782.207 
   35210    277.63416    13.195021    49.162946   -168.97221    2480.6187    10782.207 
   35220    282.93879    9.6623679    54.453122   -169.22508   -334.83861    10782.207 
   35230    285.35136    9.4342157    54.588016   -169.14965   -405.48785    10782.207 
   35240    282.16374    12.326237    50.757866   -168.70451   -5459.2747    10782.207 
   35250    267.22606    13.477809    56.387179   -167.59397   -2377.0834    10782.207 
   35260    276.89269    13.746398    56.643478   -165.36446    1700.9976    10782.207 
   35270    285.33163    11.197705     56.32787   -161.90794    3272.4759    10782.207 
   35280    274.37734    8.8274907    60.776191   -157.68397    958.42317    10782.207 
   35290    286.36415    7.2279609    57.119642   -152.88187     3222.081    10782.207 
35300        0.98719147440715382391 10.126704249928286217 1 73 -281.08216228822072935
   35300    292.62975    6.8391861    63.211234   -148.49656    3468.3273    10782.207 
   35310    313.19417    8.1958147    53.669734   -144.75575   -798.67464    10782.207 
   35320    296.48173    6.9541636    58.666014   -141.77906   -4837.5096    10782.207 
   35330    310.90182    4.5614883    53.265644   -139.24862   -6159.8736    10782.207 
   35340    311.96372    3.7222913    55.366837   -137.20146   -2097.4637    10782.207 
   35350    313.50432     4.916377    57.343431   -135.82491    3387.1962    10782.207 
   35360     269.4647    6.0258147    65.974523   -135.06202     501.6155    10782.207 
   35370    290.47098    5.8967212    58.588037   -134.19157    988.83833    10782.207 
   35380    309.00489    4.6827213     62.59174   -133.10006   -545.57576    10782.207 
   35390    310.50979    5.9610182    62.547898   -132.03475    3210.1536    10782.207 
35400        0.98349336290284261608 10.148249955775048292 1 66 -264.75249816468124209
   35400    295.09549    10.806374    55.898164   -131.04971     215.1998    10782.207 
   35410    300.56336    11.000753     59.33157   -129.98873   -4694.8631    10782.207 
   35420    322.48512    11.014966    53.851504   -128.78519   -2506.0229    10782.207 
   35430    297.83407    10.567845    51.356976   -127.75535   -402.50229    10782.207 
   35440      300.001    10.903037    59.278601   -126.42855    1886.8617    10782.207 
   35450    338.14018    11.271543    58.036018   -124.70802    1734.3242    10782.207 
   35460    354.57183    9.8279887     54.31851   -123.45347   -1619.7386    10782.207 
   35470    345.57517    8.3576671    55.492257   -123.93575    2852.1593    10782.207 
   35480    329.35468    10.005996    52.993766    -126.4012    725.93735    10782.207 
   35490    312.07955    10.872812    57.149524   -130.17741    2816.9088    10782.207 
35500        0.98610401061651387078 10.101809980643283282 1 65 -286.98676835082693515
   35500    335.56687    9.3282086    52.725041   -134.94708    2208.2572    10782.207 
   35510    291.22772    7.8634918    64.392262   -140.64391   -625.82105    10782.207 
   35520    296.72226    6.9686309    55.236957   -145.65286   -1247.1475    10782.207 
   35530    284.99821    6.6477883    49.661716   -149.82714   -2147.4146    10782.207 
   35540    288.29558    6.7814686    53.662115   -152.43552    811.76511    10782.207 
   35550    295.46007    5.8124165    57.594242   -154.32704   -91.110569    10782.207 
   35560    276.20784    6.7095595    59.083205   -155.83964   -223.25109    10782.207 
   35570    285.22036    7.6614597    58.526654   -157.05798    2446.1613    10782.207 
   35580    275.11672    6.6609315    58.307876   -157.72424    1913.4963    10782.207 
   35590    304.72033    7.9450756     50.60825   -157.77814    77.423312    10782.207 
35600        0.9879693503742122962 10.098422114299715702 1 67 -289.04343274286918586
   35600    289.36584    10.048854    56.141639   -157.93665   -4539.8806    10782.207 
   35610    277.84659    9.2936184    53.221125   -157.95862   -4800.6045    10782.207 
   35620    265.90753    11.431158    58.928089    -157.3595    278.16487    10782.207 
   35630    295.26097    11.946864    53.361942   -155.94167    412.89054    10782.207 
   35640    304.30587    9.9485236    54.098102   -153.88899   -2068.0629    10782.207 
   35650    291.50708     7.612639    55.311682   -151.57171    -2860.655    10782.207 
   35660    283.95917    7.9530956    55.092923   -148.33798   -644.35911    10782.207 
   35670    292.01676     8.418533    66.936541      -143.97     6888.254    10782.207 
   35680    325.06235    5.4291577    57.651537   -138.97742    5931.5924    10782.207 
   35690    346.60315    4.6522771    53.435334   -134.34122   -228.46006    10782.207 
35700        0.9878261078370674797 10.105142614537248491 1 63 -279.82558103212119249
   35700    328.12549    7.5541649    56.409436   -131.15746   -3868.5538    10782.207 
   35710    316.22313    8.4215776    61.916878   -129.27649      -1020.5    10782.207 
   35720    312.37058    6.4650285    57.163275   -128.65903    2409.2159    10782.207 
   35730    318.99965    5.6832734    59.664732   -128.94404   -880.64776    10782.207 
   35740    327.56652    7.0727954    53.038738   -130.09801   -1664.0632    10782.207 
   35750    298.68415    5.9089128    58.149009   -132.03166   -750.64217    10782.207 
   35760    295.52865    4.8459754    58.736624   -134.39025    3245.7804    10782.207 
   35770    284.20206    5.0793382    61.333523   -139.55397     1348.958    10782.207 
   35780     303.3707    5.0554008    57.114861   -143.09469   -241.56562    10782.207 
   35790    294.69754     5.468339    54.005407   -145.59388   -1749.4456    10782.207 
35800        0.98186560700923264378 10.10283757285823647 0.99735449735449732689 63 -288.00061237148827331
   35800    300.54462    8.0808371    53.263296   -151.82892    2321.3359    10782.207 
   35810    296.10298    8.8975426    52.596014   -158.93232    4267.7336    10782.207 
   35820    275.93979    8.4167137    56.059607   -164.62353    1458.8013    10782.207 
   35830    261.47819     8.219154    52.649269   -168.03012   -2600.5285    10782.207 
   35840    255.27273    6.8106625     53.51523   -169.19174   -5300.0408    10782.207 
   35850    273.47148    6.1186664    56.023814   -169.22236   -2507.4131    10782.207 
   35860     283.4874      8.21955    52.701207   -168.68755   -1002.9191    10782.207 
   35870     297.0962    8.0347356    45.947309   -167.71001   -34.971531    10782.207 
   35880    287.36069    7.8165244    55.660258   -166.51191    2335.8363    10782.207 
   35890    304.27302    9.5191812    47.022727   -164.92154    4133.8953    10782.207 
35900        0.98209643468962559698 10.108649788059720365 1 66 -293.41248028137192705
   35900    287.42177    9.9668242     53.83937   -163.18653     2384.266    10782.207 
   35910    283.56737    6.8418152    52.139894   -161.14513    2568.7704    10782.207 
   35920    283.10718      5.81827    55.980561   -158.41237    -1156.528    10782.207 
   35930    301.70846    4.8122501    51.620093    -155.3771   -4123.3491    10782.207 
   35940    319.49353    4.0911609    50.447029   -152.30247   -3156.7195    10782.207 
   35950    308.63607    6.2970635    49.418585   -150.01355    1323.0975    10782.207 
   35960     285.8832    7.6403935     55.75918   -147.88606     4498.096    10782.207 
   35970    302.10871    6.4136767    48.809835   -145.41448    502.95056    10782.207 
   35980    289.45934    6.8649336    53.341528   -142.56041   -4735.6884    10782.207 
   35990    295.03416    8.0391394    58.063019   -139.45995   -1206.8311    10782.207 
36000        0.97742251938562230151 10.175767112845578666 1 67 -270.86153121893471507
   36000    296.82125    8.0714825    61.061454   -136.37683   -1138.7427    10782.207 
   36010    347.44995     8.758851    53.112721   -133.71633    1189.2767    10782.207 
   36020    327.36867    10.636196    56.045645    -132.4734   -972.51036    10782.207 
   36030    321.52006    10.396589    59.193523    -132.3709    1205.3148    10782.207 
   36040    318.03307    8.4973615    56.112742   -133.20305     3303.534    10782.207 
   36050    294.80454    7.7241341    57.148431   -134.30175    1396.0774    10782.207 
   36060    292.64001    8.0570599    53.171068   -135.01318    -1571.092    10782.207 
   36070    288.26891    6.3882049    60.254053   -135.16005   -2333.3523    10782.207 
   36080    304.17569    4.6409496    59.089865   -135.15652   -3379.4723    10782.207 
   36090     293.3673    4.1987742     62.47307   -135.32604    1663.9905    10782.207 
36100        0.9796477510451488957 10.16063282106527943 1 67 -267.01798839128809959
   36100    290.65413    3.9920001    59.939048   -135.32751   -1356.8022    10782.207 
   36110    323.79785    5.0784758     47.41938   -135.06056    -2073.755    10782.207 
   36120    318.52735    5.5997477    52.948297   -135.18979   -1061.1835    10782.207 
   36130    324.66585    8.5070791    51.368212   -136.03957    4498.2542    10782.207 
   36140    295.75307    10.888772    61.454653    -137.2645    4518.9583    10782.207 
   36150    318.48789    9.2171828    48.140594   -138.52505    -364.0982    10782.207 
   36160    310.85715    5.6993747    51.494683   -140.05381   -4589.6899    10782.207 
   36170    312.59811    4.1763717     50.26753   -141.70816   -1395.1974    10782.207 
   36180     305.1437    3.3040555    54.163567    -143.3255    -35.68181    10782.207 
   36190      300.734    5.3639618    51.519955   -144.77083   -1613.7851    10782.207 
36200        0.98020050217989462826 10.152196626966780713 1 69 -285.93630371297683723
   36200    308.63792    7.3679945    54.009251   -146.09767   -1273.0623    10782.207 
   36210    294.17138    11.395215    54.212439   -147.42788   -1368.0378    10782.207 
   36220     286.1224     11.99667    51.493581   -148.36225    3619.1347    10782.207 
   36230    290.00353    9.4761119    52.436979   -148.64588    4386.3305    10782.207 
   36240     294.2294    6.1010664    52.092778   -148.71894    4101.8406    10782.207 
   36250     283.6808    4.5841556    57.149602   -148.62984   -3103.7767    10782.207 
   36260    311.07849    3.0179222    44.757579   -148.02662     -3227.67    10782.207 
   36270    288.00074    3.8451474     59.20296   -147.16842    204.93408    10782.207 
   36280    297.66202    6.6287238    58.266181   -145.87872    2861.6958    10782.207 
   36290    306.75287    8.0197897    52.491463   -143.70169   -3028.1539    10782.207 
36300        0.97899872461852011085 10.139614206935066321 1 69 -283.54854574578894244
   36300    316.61178    7.8672175    53.074292   -140.09709   -2510.4104    10782.207 
   36310      331.485    9.7275728    53.444816   -134.35979    1857.8357    10782.207 
   36320    326.22829    10.664785    54.391474   -127.64126    3877.1436    10782.207 
   36330      310.525    10.882539    62.300255   -121.23098   -7.8388448    10782.207 
   36340     315.7367    11.959518    64.212565   -116.00887    1808.4133    10782.207 
   36350    348.64166    9.8412653     61.26174   -112.54288    1430.7944    10782.207 
   36360    362.99711    6.6415109    62.361797   -111.40608    2426.6754    10782.207 
   36370    335.27775    4.3736138    64.715419   -112.08924    368.38166    10782.207 
   36380      321.792    3.8062119    66.665912   -113.87414   -1925.8497    10782.207 
   36390    324.15774    6.0503693    59.171307   -116.78868   -4248.2571    10782.207 
36400        0.96789519134598100969 10.179106545687195862 1 67 -250.60746830603886792
   36400    287.17599    6.6724591    70.890354   -120.49287   -1861.9061    10782.207 
   36410    299.07938    6.6381962    52.549241   -123.84001    624.24773    10782.207 
   36420    293.63125    7.1155056    60.793121   -126.57413    918.33137    10782.207 
   36430    311.25806    8.6888156    59.760456   -129.00341   -688.12623    10782.207 
   36440    318.37838    9.3405203    54.792356   -131.67162   -2289.4945    10782.207 
   36450    298.16468    8.6611232    64.688468   -134.68784    262.17791    10782.207 
   36460    300.28999    7.9169791    56.560328   -137.36312     704.8356    10782.207 
   36470    278.65734    7.1481852    57.283015   -139.59648   -71.234838    10782.207 
   36480    279.81537    4.7776067    60.164239   -141.15254    3647.5355    10782.207 
   36490    289.72334    4.3823068     55.61651   -142.18722    711.07284    10782.207 
36500        0.96764220509635956446 10.19868636451423427 1 69 -278.13182605432399441
   36500    298.87411    4.9869296    47.563885   -142.71701    524.23745    10782.207 
   36510    294.09082    4.2092265     56.38051    -142.8285   -2016.0456    10782.207 
   36520    312.52874    6.3120992    48.245984   -142.65859   -1491.3313    10782.207 
   36530    319.60693    5.4379314    59.325979   -142.64931   -3873.1626    10782.207 
   36540    308.92019    4.9611068    55.408456   -143.39221   -2802.3785    10782.207 
   36550    313.31234    4.8048712      51.5827   -144.78729    -702.4401    10782.207 
   36560    304.01197    5.9231454    53.101063    -146.4273    4404.6031    10782.207 
   36570    313.20435    5.7945231    49.832232   -148.33478    869.27173    10782.207 
   36580    283.48242    7.1396499    58.939245   -150.73144    1700.1623    10782.207 
   36590     297.9099    8.0194107    47.007715   -153.35321   -242.22575    10782.207 
36600        0.96426922623756283759 10.212018159907596981 1 66 -287.58932902316979607
   36600    289.48092    7.0366798    53.807745   -156.43041   -564.38882    10782.207 
   36610    299.48062    7.0055751    53.083873   -160.78712   -1484.1443    10782.207 
   36620    311.47931     5.987083     39.41929   -167.61398   -1094.4092    10782.207 
   36630     271.0019    5.4671535    53.951234   -175.59488     1431.063    10782.207 
   36640    269.21544    4.2023369    48.650195   -181.65134    2871.3498    10782.207 
   36650    256.41372    6.0425522    46.979031   -184.71327    3452.3677    10782.207 
   36660    270.94238      7.38145    44.359005   -185.84293    549.58428    10782.207 
   36670    256.27122    8.2137315    42.713856   -185.68347    -2138.297    10782.207 
   36680    258.26287    7.1567947    45.763654   -184.32294   -6146.1968    10782.207 
   36690     255.7898    6.1475183    49.792987   -181.82074   -3771.0857    10782.207 
36700        0.95846682523928383723 10.217885812819847757 1 68 -307.79759460771265367
   36700    285.90332    5.1577593    51.724221   -178.25962   -395.91874    10782.207 
   36710    291.71812    4.9500423    48.816777   -174.36201    3861.7359    10782.207 
   36720    276.81947      5.51998    49.248976    -170.6554   -217.45638    10782.207 
   36730    276.35485    5.1011208    50.589504   -166.94304    4514.9067    10782.207 
   36740    300.34627    3.3300719    53.049013   -163.15581    4797.1422    10782.207 
   36750    296.72011    3.3133713     51.70045   -159.67466   -2603.2468    10782.207 
   36760    283.77266    4.4354213    48.248022    -156.8728    -4669.278    10782.207 
   36770    253.60329    4.4833171     59.88727   -154.16231   -6317.7912    10782.207 
   36780    283.73213    4.0855116    56.017828    -150.8338   -949.78084    10782.207 
   36790    289.14994    5.2125328      58.6052   -147.24747   -2447.2489    10782.207 
36800        0.96517237595671945272 10.190641680809642722 1 70 -280.59552015261613178
   36800    301.09006    5.7672432    47.828081   -144.17669   -66.095407    10782.207 
   36810    301.27784    5.7341421    57.270956   -141.50021    2466.4251    10782.207 
   36820    326.98332    5.3449879    47.553006   -139.14059    4001.3253    10782.207 
   36830    311.42421    5.7780413    54.492837   -137.40189    2043.7195    10782.207 
   36840    293.50972    8.0052963     51.30299   -135.93293    992.64862    10782.207 
   36850    289.94762    9.1128355    58.985051   -134.18622    192.54905    10782.207 
   36860    284.26413    6.4342604    59.224894   -132.19645   -734.57696    10782.207 
   36870    298.29951     6.890322    54.235922   -130.06329   -889.76941    10782.207 
   36880    311.96795    7.9076628    52.729642   -127.64754   -1672.5017    10782.207 
   36890    326.78016    8.3577676    53.953371   -125.26862   -3368.8937    10782.207 
36900        0.97450888890187592484 10.131963109625671038 1 70 -268.24777590720344733
   36900    319.39992    7.7158909    56.166705   -123.53306    1465.9522    10782.207 
   36910    306.81843    6.0686122    55.970182   -122.37192    6807.9286    10782.207 
   36920    302.74464    5.9922025    60.554407   -121.25114    4839.7464    10782.207 
   36930    323.16123    6.7181276    64.586402   -120.26309    1059.8606    10782.207 
   36940    310.69963    6.1966999    60.244104   -120.50344   -2983.2268    10782.207 
   36950    312.10673    6.0068106    55.187821   -122.07453     -3266.98    10782.207 
   36960    299.18984    6.7083613    60.577905    -124.6674   -1100.3616    10782.207 
   36970     328.3257    8.7026439    49.514661   -128.66216   -2444.2209    10782.207 
   36980    305.25018    9.5271203    58.112546   -134.50407    1139.9916    10782.207 
   36990    315.27822    8.0444835    49.738083   -141.23663    3568.5168    10782.207 
37000        0.98184678434985805939 10.138453944919548988 1 67 -273.417790163555253
   37000    277.93656    5.5333666    61.770313   -147.48942    2264.7759    10782.207 
   37010    284.12902    4.5096512    53.809628   -151.89084    3228.9739    10782.207 
   37020    281.76397    2.2036351    49.769907    -154.5622   -581.91611    10782.207 
   37030    275.65808    2.4340682    56.013483   -155.96155   -2133.7143    10782.207 
   37040    266.36099     4.530737    58.318532   -156.32032   -1168.1302    10782.207 
   37050    290.02431    5.6556593    53.235461   -155.86194   -2879.7802    10782.207 
   37060    272.41971    5.7522279    60.028794   -154.91415   -1843.4862    10782.207 
   37070    274.31196    5.2411819    57.493175   -153.44975   -560.25828    10782.207 
   37080    270.52014    7.4456366    56.565783    -151.4925   -844.90664    10782.207 
   37090      288.106    6.4386902    58.015001   -149.01788    734.69168    10782.207 
37100        0.9781103213590369716 10.114406649464266152 1 66 -282.66188799668259435
   37100    301.25906    6.1892118    53.999759   -146.16649    1646.4677    10782.207 
   37110    300.29718    7.2789623    50.246589   -143.35519    3887.7988    10782.207 
   37120    285.93053    6.7169941    50.483274   -140.45153    1875.5051    10782.207 
   37130    304.29438    6.7978594    45.760051   -136.95676    1015.2046    10782.207 
   37140    301.68617    7.0692642    54.584028    -133.1607   -3029.2092    10782.207 
   37150    300.40366    9.1039049    53.475121   -129.78739    86.791487    10782.207 
   37160    295.08063    7.2399139    64.819679   -127.10075   -253.81122    10782.207 
   37170    300.16716    6.4900346    62.511053    -125.1865    1545.9695    10782.207 
   37180    334.29661    5.9643622    56.885086   -124.15934   -1362.1765    10782.207 
   37190    320.44414    4.2229502    57.991882    -124.1982    1171.3385    10782.207 
37200        0.97583047832546276901 10.164062170833123133 1 67 -273.59331736209372821
   37200    327.77824    4.0299725    58.964176   -125.08253   -1408.2822    10782.207 
   37210    338.30953     2.663651    57.100119   -126.84196    285.14624    10782.207 
   37220    364.44922    2.5073604    49.349458   -129.92128   -1031.1158    10782.207 
   37230    331.63115    4.1638911    56.445259   -133.92646    63.069627    10782.207 
   37240    313.03019    5.9057694    50.022988   -137.75586   -1236.3881    10782.207 
   37250    300.33883    6.2513791    60.182165   -140.30724    1059.8282    10782.207 
   37260    304.78295    6.7741402    51.684412   -142.12328   -995.06748    10782.207 
   37270    316.31982    6.1716642    51.508286   -143.37046    639.48382    10782.207 
   37280    294.23893     8.183836    57.656472   -144.43332    2102.5622    10782.207 
   37290    264.92955    6.7157139    54.470482    -144.9905    -643.9673    10782.207 
37300        0.96718777817051315715 10.196928086713620942 1 64 -273.42021993664889123
   37300    284.27979    6.1230092    57.996092   -144.61784   -301.19213    10782.207 
   37310    298.23959     5.323091    64.913965   -143.73718   -2798.6097    10782.207 
   37320    314.01189    4.5974784    60.885276   -143.08447   -187.48968    10782.207 
   37330    298.77783    4.3172825    54.574573   -143.03489   -1914.0719    10782.207 
   37340    302.97822    4.7596827    54.138448   -143.00279    500.02973    10782.207 
   37350    299.82201    6.1454167    65.548148   -142.96712   -294.75517    10782.207 
   37360    316.05702    6.0039344    48.641023    -143.3661     1472.643    10782.207 
   37370    282.00827    4.7801725    59.136692   -144.18862    2212.4884    10782.207 
   37380    278.70533    7.0569486    56.759416   -144.74662    3525.7298    10782.207 
   37390    289.19623    6.9535059    49.390606   -144.77228   -229.18575    10782.207 
37400        0.97063523468219525814 10.170943897808154333 1 64 -271.4485671664911024
   37400    280.96032    5.4479483    63.513789   -144.15019   -2048.5875    10782.207 
   37410    294.53212    5.4053018    51.681839   -142.68115   -1734.9859    10782.207 
   37420    289.65788    6.3041537    57.172459    -140.3825   -2110.5589    10782.207 
   37430    290.34825    5.1805536    54.688771   -136.92659    241.86754    10782.207 
   37440    303.67394    3.9144647    58.151114   -132.32951    6.2904155    10782.207 
   37450    322.33438    3.9026535    53.342786   -127.30636   -1721.9169    10782.207 
   37460    338.30403    2.9806333    55.526704   -123.02928    2135.2067    10782.207 
   37470    325.19751    2.8845243    59.710284   -120.02404    1367.8142    10782.207 
   37480    333.23891    7.0988746    52.938879   -118.09392    183.70355    10782.207 
   37490    327.63044    11.481368    53.051265   -117.11849   -3065.7086    10782.207 
37500        0.97024223618740412789 10.207501145211020699 1 68 -268.79033555725720817
   37500    335.26063    12.421565    56.560332    -116.8894   -2284.4575    10782.207 
   37510    327.50258    11.433446    63.030618   -117.39748     852.5729    10782.207 
   37520    324.34005    8.5205267      66.0276   -118.73914   -992.73098    10782.207 
   37530    333.01975     6.091723    61.137905    -121.4093   -1187.4968    10782.207 
   37540     325.0915    7.2496285    62.233985   -125.60777    166.42195    10782.207 
   37550    310.15866    11.021456    59.518452   -130.43879     1220.164    10782.207 
   37560    311.30631    10.075109    55.966683   -135.17161    4206.4459    10782.207 
   37570    294.63787    10.207525    58.804338   -139.04705   -831.58735    10782.207 
   37580     294.1096    7.4256786    57.062785   -142.04887     2762.601    10782.207 
   37590    302.86562     9.987585    51.145334   -144.01362    281.30916    10782.207 
37600        0.97945291727114713876 10.145051877423906461 1 68 -284.80892003517669764
   37600    307.89661    12.185022    50.069162   -145.30616   -1123.6431    10782.207 
   37610    285.53672     12.50354    55.634883   -146.07474   -1413.2359    10782.207 
   37620    276.80119    10.747617    62.626916    -146.3876   -1145.6877    10782.207 
   37630    280.61292    10.389434    56.653577   -146.30615    1551.0448    10782.207 
   37640    319.93853    7.6987087    45.570355   -145.87656    922.64116    10782.207 
   37650    306.70694    8.7552333    53.552586   -145.54822   -3019.2795    10782.207 
   37660    300.48144    7.7830424    57.444898   -145.36143   -923.80785    10782.207 
   37670    294.06801    7.8890534    65.289488   -145.47606   -3281.3843    10782.207 
   37680    311.86363     7.739144    56.886678   -146.16912    1584.5653    10782.207 
   37690    279.81078    13.034508     62.26136   -147.20012   -1227.6856    10782.207 
37700        0.98520670560457923592 10.136087243100714517 1 70 -280.5931771714171532
   37700    292.52914    11.915843    51.685979   -148.05316   -1182.3772    10782.207 
   37710    290.00518    9.1718564    66.649475   -148.89654      1558.01    10782.207 
   37720    320.59721    8.2470805    47.861549   -150.44181    5415.6157    10782.207 
   37730    279.73772    12.208807    57.028635   -152.65083    3843.0291    10782.207 
   37740    297.22323    10.881752    49.444435   -155.28288      224.279    10782.207 
   37750    286.68432    7.8144777    55.446281    -158.2747   -1301.0154    10782.207 
   37760    301.08832    6.6007372    53.356548   -162.32847    1555.1811    10782.207 
   37770    265.65891    5.2112919    57.726477   -166.75558   -1746.3258    10782.207 
   37780    260.67991    2.9887505     53.03411   -170.77369   -4135.5459    10782.207 
   37790    239.86933    3.9222743    53.480908   -173.87009   -3426.9171    10782.207 
37800        0.98523793368386247682 10.094045643789250732 1 68 -285.35964585122235349
   37800    242.82256    5.0655031    51.427466   -175.34084   -416.87513    10782.207 
   37810    241.28262    5.5364075    52.967518   -175.19147     2811.645    10782.207 
   37820    244.38367    6.6050067    57.110832   -173.47678    4012.4331    10782.207 
   37830     266.3882    6.4925806    54.663583   -170.26911    4062.3425    10782.207 
   37840    265.95927    7.0059589    58.129192    -166.0975    3813.7099    10782.207 
   37850    284.73097    4.3525938    50.246873   -161.46258   -3380.3495    10782.207 
   37860    289.52704    4.1464379    54.226015   -156.94664    -388.8925    10782.207 
   37870    304.35635    6.1158388    53.187265   -153.29799   -4040.2852    10782.207 
   37880    294.82662    7.0879414    51.645433   -150.77125   -981.74337    10782.207 
   37890     280.1235    8.0157468    63.069781   -148.98718   -2187.8658    10782.207 
37900        0.9855300599514993376 10.107609270620073971 1 65 -274.62724659211329481
   37900    280.48798    11.197716    57.980862   -147.54288    473.07918    10782.207 
   37910    308.96181    13.477408    47.537868   -146.01363    4110.0109    10782.207 
   37920    299.55421    13.812376    56.700329   -144.31651     6392.034    10782.207 
   37930    298.46282    11.945325     53.14503   -142.43586    951.62089    10782.207 
   37940    288.52708      9.27125    60.594051   -140.63331    1115.1521    10782.207 
   37950    291.97408    7.9730805    53.194891   -138.90861   -3157.7035    10782.207 
   37960    294.43788     6.232679    53.770933   -136.81176   -2401.6914    10782.207 
   37970    310.42124    4.6449977    59.676867    -134.2017   -1071.1252    10782.207 
   37980    301.38947    6.7969145    62.186293   -131.73672   -1681.4374    10782.207 
   37990    310.97218    8.1670598    59.559958   -129.69099   -805.54279    10782.207 
38000        0.97599095296626470208 10.179730581410153079 0.99470899470899465378 66 -273.54186945352313387
   38000    321.50458    6.8185396    51.525666   -127.87357   -1869.8777    10782.207 
   38010    323.16468    5.2688324    55.241457   -126.37032   -1376.9586    10782.207 
   38020    315.60647    3.7595463    61.718761    -125.2733   -1163.1748    10782.207 
   38030    315.92802    3.4703826    53.639616   -124.72502   -1233.0914    10782.207 
   38040    298.85633    4.0043294    65.865053   -124.45654    4037.7867    10782.207 
   38050    302.22818    4.2772164    62.847889   -124.17192    547.63978    10782.207 
   38060    299.09068    6.5417907    54.619666   -123.89401    28.506326    10782.207 
   38070    286.01052    8.6053761    65.839513   -123.67505    1252.2017    10782.207 
   38080    277.07683    8.3719841    67.611978   -123.19773    951.48795    10782.207 
   38090    298.87443    7.3951215    62.370992   -122.35192    2017.0971    10782.207 
38100        0.97178533720719884048 10.185669035818232686 0.99470899470899465378 65 -253.54627047637492865
   38100    291.85458    5.7916013    69.762687   -121.31189   -3372.6089    10782.207 
   38110    306.86468    7.8320625    58.935523   -120.11248   -1499.2187    10782.207 
   38120    303.25477    5.3660042    61.061815    -118.8907   -282.31148    10782.207 
   38130    299.56005    6.1017627     62.34612   -117.73248   -187.05604    10782.207 
   38140    308.45595    7.8446287    62.108359   -116.75219   -238.82451    10782.207 
   38150    287.33972    11.636006    61.862433   -115.79025    605.03609    10782.207 
   38160    316.97978    11.527394    58.620611   -114.37182    324.85762    10782.207 
   38170    294.31983    13.975144    69.772671   -113.12474    1047.8002    10782.207 
   38180    313.02572     14.84233    60.014026   -112.08548    -3502.065    10782.207 
   38190    313.99858    15.696449    59.723933   -111.32023   -1905.5623    10782.207 
38200        0.97449443967258519983 10.167529865109454335 0.99206349206349198067 64 -267.69159630011125728
   38200     346.1288    8.3348213     54.39591   -110.86648   -1577.3605    10782.207 
   38210       325.58    5.1703365    66.294421   -111.31772    2800.1554    10782.207 
   38220    331.37547    5.2105927    62.639782   -113.03819     3594.851    10782.207 
   38230    333.16778    6.9881064     62.04211   -116.35729    595.33441    10782.207 
   38240    342.18306    6.8774169    57.556757   -121.25211   -3895.5451    10782.207 
   38250    331.33988    6.7862348    57.522632   -126.99798   -3654.7835    10782.207 
   38260    324.04748    7.1073536     54.47594   -132.46378   -2713.1492    10782.207 
   38270    305.80192    7.4856011     59.47913   -137.02817    1843.0342    10782.207 
   38280    297.38688    7.5503514    57.855851     -140.493    1467.3155    10782.207 
   38290    284.46496    5.3460505    55.717502   -142.97404    3100.4686    10782.207 
38300        0.98038679189630006938 10.13547524165682745 0.99470899470899465378 62 -273.57118710262017203
   38300    285.16351    5.3585982     52.33276   -144.36841    1344.9001    10782.207 
   38310    277.53377    3.3791348    56.927589   -144.82226    -191.8422    10782.207 
   38320    292.43366    3.1472847    58.909621      -144.65    1056.6541    10782.207 
   38330    292.06635    3.8792577    61.316547   -144.40449    -1541.428    10782.207 
   38340    291.10772    2.7726814    66.823258   -144.50692    -911.3789    10782.207 
   38350    288.77569    5.9467742    60.734213   -144.73607   -3051.5191    10782.207 
   38360    313.42103    8.6750275    57.242721   -146.70711    696.49614    10782.207 
   38370    268.72861    10.626343    70.212473   -147.70574    3000.9141    10782.207 
   38380    292.62503    12.777122    50.994903    -148.3124   -1622.0613    10782.207 
   38390    258.95589    9.4118117    63.083082   -148.40317    1152.3214    10782.207 
38400        0.98120023602394412787 10.125096050486508403 0.98941798941798930755 63 -274.72446819971241894
   38400    275.42099    4.4578964    62.888455   -149.93587    482.35192    10782.207 
   38410    305.48337    4.8166997    57.938264   -148.10465    3736.0346    10782.207 
   38420    326.04796    8.5481087    53.284978   -143.66332    417.54471    10782.207 
   38430    305.27172    13.219779    57.428217   -141.88799   -1472.7271    10782.207 
   38440    299.47601    11.693484    60.141043   -139.82313   -2409.1944    10782.207 
   38450    310.57901    9.8734574    55.067109   -136.90993   -2228.4403    10782.207 
   38460    325.78887    9.1285493    54.033859   -133.09426   -318.47666    10782.207 
   38470     319.9677      6.68736    66.321668   -129.03052   -913.42911    10782.207 
   38480    308.37432    4.3882537    67.187475   -125.49432   -2193.0371    10782.207 
   38490    331.23541    5.3947673     59.86553   -122.74682   -1626.8108    10782.207 
38500        0.98140330167844580522 10.10373389942917477 0.99735449735449732689 63 -280.8667227889529272
   38500    352.87464    8.3895139    53.440194   -120.98518    1835.0021    10782.207 
   38510    337.87151    12.069152    53.772767   -120.18045    3323.1045    10782.207 
   38520    314.97415    12.617102     62.29459   -119.88158    2914.2868    10782.207 
   38530    290.79683    11.512399    65.997109    -119.9878    3807.3577    10782.207 
   38540    311.28493    10.233048    59.009856   -120.38902    4258.3757    10782.207 
   38550    306.09157    9.1582176    62.264305   -121.01979   -727.62087    10782.207 
   38560    304.23514    6.3833731    59.882119   -121.91519   -3171.5229    10782.207 
   38570    283.93474    5.5490491    71.325867   -123.33297   -107.13216    10782.207 
   38580    304.18621    6.5326328      62.6179    -125.4971   -624.62466    10782.207 
   38590     308.7917     8.110922    60.373887   -128.94002    3991.3101    10782.207 
38600        0.97562968118015980235 10.135448093714643392 1 65 -272.68635551707257036
   38600    306.51419    7.5906525    59.662395   -133.80995   -794.80882    10782.207 
   38610    302.02101    10.185859    57.164247   -139.64636   -2572.0329    10782.207 
   38620    297.24474    9.3284479    56.498515   -144.98596   -108.95076    10782.207 
   38630    307.95745    10.735706    55.086268   -149.32506   -1027.7333    10782.207 
   38640    304.98604    10.041147    54.234338    -153.0466    1194.2179    10782.207 
   38650    276.32814    7.9781504    54.589198    -154.4748   -1193.2741    10782.207 
   38660    280.94905    7.5922653    50.999586   -155.95905   -2395.8305    10782.207 
   38670    281.96683     6.865116    50.239355   -156.39585    1926.9593    10782.207 
   38680    284.41528    6.0883471    54.993903   -156.02707   -475.54099    10782.207 
   38690    296.23282    4.8639627    54.371609   -155.28912   -615.82816    10782.207 
38700        0.96720865290648205814 10.182643322320876322 1 64 -278.82760476687292339
   38700    274.67346    5.8052859    56.287956   -154.37769   -4841.2231    10782.207 
   38710    274.56085    8.4786493    57.187378   -152.84687   -616.81119    10782.207 
   38720    288.73218    9.5065367    59.807982   -150.45655    4027.9982    10782.207 
   38730    298.84464    9.6281435    53.672854   -147.51995     1243.895    10782.207 
   38740     313.7741     7.825749    49.298382   -144.42757   -1152.8308    10782.207 
   38750    298.70116    7.7512995    57.822613   -141.28767   -1885.4881    10782.207 
   38760    299.56338    5.9962119    63.816414   -138.08532    4289.7988    10782.207 
   38770    308.55285    5.2747588     57.89492   -135.02551    3504.1018    10782.207 
   38780    320.63856    6.9033232    58.911692   -132.54575   -1164.7165    10782.207 
   38790    331.03055    7.7940523    54.772854   -130.73844   -1396.0495    10782.207 
38800        0.96861146054426516816 10.187902788253849096 1 66 -277.4923165917238066
   38800    326.37607    7.8926998    53.422499   -129.61682   -1595.0334    10782.207 
   38810    322.34364    7.7601178    63.345528   -131.80958    2322.6307    10782.207 
   38820    289.66295    8.5341611    64.756737   -132.34911   -972.58405    10782.207 
   38830    299.29554    8.8237477     61.38452   -133.11207   -3101.2324    10782.207 
   38840    318.22225    8.9202546    54.214224   -134.07896   -795.58998    10782.207 
   38850    346.48923    7.7396249    56.119514   -135.59318    623.90469    10782.207 
   38860    346.30737    8.1395662    55.003412   -138.39642    5483.9571    10782.207 
   38870    294.33043    11.623402    59.873459   -141.71055   -3018.1108    10782.207 
   38880      283.052    13.601195    60.513568   -144.07992   -119.51148    10782.207 
   38890    277.69897    11.257543    63.099366   -145.18689    87.050045    10782.207 
38900        0.96261448508390679013 10.214070686930645238 1 62 -295.99183707406677968
   38900    331.51909    9.4937962    54.310924   -145.78613    933.68231    10782.207 
   38910     341.5212    7.3714102    52.359352   -144.37291    -2961.258    10782.207 
   38920    334.88338    7.7230845    51.459765   -146.24643   -1089.1591    10782.207 
   38930    285.51912    4.4965589     64.70503   -148.29739   -1398.1873    10782.207 
   38940    268.90336     4.441523    58.476269   -149.78669    1968.7928    10782.207 
   38950    246.34965    6.3415172    62.612464   -150.47722    428.87386    10782.207 
   38960    259.59286    5.4948733    53.828921   -150.02518     1520.923    10782.207 
   38970    275.67789    4.2126198    55.236586   -148.38679    1853.0645    10782.207 
   38980    286.12643    4.5245263    59.747984   -145.75568   -192.78791    10782.207 
   38990    307.22137    6.5584951    56.140446   -142.29273   -2822.6839    10782.207 
39000        0.95500279334447280011 10.239867335840795448 1 63 -276.94491427912043946
   39000    304.57408    4.8375405    61.521158   -138.94754   -694.89809    10782.207 
   39010    309.21114    4.4900307    53.920104   -135.82412   -1993.3952    10782.207 
   39020    309.36174    5.6249755    53.173786    -133.0558    377.81656    10782.207 
   39030    315.22777    3.7439731    55.129371    -130.4669    312.07652    10782.207 
   39040    331.41512    3.8634216    54.310311   -128.22608    1600.8751    10782.207 
   39050    315.74067    3.3852808    59.630878   -126.67465    1249.6049    10782.207 
   39060    341.69606    5.2771201    48.708572   -125.85459    683.82048    10782.207 
   39070    315.81407    7.5925386    64.783663   -128.51268   -30.037795    10782.207 
   39080    313.83882    8.3217095    56.374267   -129.14081   -233.22494    10782.207 
   39090    312.29846    6.0212084    63.352059   -130.10984   -510.94524    10782.207 
39100        0.950062958158876536 10.272333185245772214 1 63 -277.19080945857740517
   39100    326.84497    3.9277196     54.90035   -129.10287   -532.92872    10782.207 
   39110    315.39321    5.1178457    56.278675   -131.43438   -1858.4367    10782.207 
   39120    310.63215    7.8074445    58.372147   -134.86213    628.33601    10782.207 
   39130     292.5911    11.727455    59.729079   -139.74384    786.62892    10782.207 
   39140    295.47365    13.047831     60.68745   -145.77684    2903.3654    10782.207 
   39150    297.47178    14.593798    53.073294   -152.07579    1241.4858    10782.207 
   39160    285.25882    11.836307    58.025261   -156.96685   -1056.7307    10782.207 
   39170    286.36651     7.684117    51.681573   -159.98222   -4129.3631    10782.207 
   39180     298.6793    6.1971467    52.525593   -161.61595   -3121.7967    10782.207 
   39190    281.72825    6.1630961    56.257851   -162.54453    283.43355    10782.207 
39200        0.9567738086198965819 10.253222940321521151 0.99735449735449732689 68 -292.14956169314416456
   39200    285.41976    4.7655998    53.563703   -162.83068    461.21848    10782.207 
   39210    266.45767    4.4789266    56.711721   -162.54428   -705.00464    10782.207 
   39220    266.57829    5.9114342    53.905644   -161.53375    2144.3331    10782.207 
   39230    269.03272    6.3956339    54.178765   -159.55788    1394.7716    10782.207 
   39240    282.91043    5.9500527    50.418063   -156.72733    905.16876    10782.207 
   39250    294.51483    5.3941381    52.856906    -153.4899   -1186.6805    10782.207 
   39260    298.17632    5.1046302    57.829818   -150.28784    1369.7016    10782.207 
   39270    300.88486    4.7684882    54.819068   -147.40238   -2075.8507    10782.207 
   39280    291.56291    4.4080808    50.443426   -144.99423   -4558.9567    10782.207 
   39290    310.58403    4.9766108    57.916156   -142.68927   -4062.0385    10782.207 
39300        0.9673932444502453265 10.197336858021978756 1 68 -278.98748028991906267
   39300    305.25021    6.2050831    55.398344   -140.68376    2558.0006    10782.207 
   39310    279.72852    6.5137825     63.47499   -139.05055    1496.1646    10782.207 
   39320    287.78542    9.0019115     60.81423   -137.59441    3640.5183    10782.207 
   39330    303.63793    10.516142    62.678326   -136.50536    -634.9191    10782.207 
   39340    319.92381    9.4388227    55.581572   -135.79442   -2004.5204    10782.207 
   39350     307.2623    6.5364601    56.072619   -135.39057   -3019.8929    10782.207 
   39360    302.62675    5.7601448    58.167637   -135.00492   -2579.1676    10782.207 
   39370    303.37804    7.3736011    59.049727    -134.6353   -341.03231    10782.207 
   39380    305.82287    8.3693003    58.442696   -134.57762   -1133.9988    10782.207 
   39390     329.5998    5.7048894    55.751663   -134.87724    2025.8044    10782.207 
39400        0.97915762177795495624 10.114785755835290715 1 72 -274.65224918073863591
   39400    306.50237    6.8390099    61.040222    -135.7812    6095.5549    10782.207 
   39410      313.062    9.6248921    53.839223   -137.49735    4927.8433    10782.207 
   39420    308.53872      7.76635    60.273972   -140.53257    2526.2711    10782.207 
   39430    287.76327     5.690955    59.003717    -145.7459    -949.5256    10782.207 
   39440    278.96157    5.2847778    54.180308   -152.72975   -805.45978    10782.207 
   39450    269.25163    6.6374846    54.103825   -159.33814   -5105.4954    10782.207 
   39460    284.16987    6.5817009    45.555966   -163.77303   -1823.3679    10782.207 
   39470    288.00656    4.3803564    52.215291   -166.60334    -4517.669    10782.207 
   39480    289.32251     5.199998    45.802699   -168.24144    1752.7757    10782.207 
   39490    281.22171    6.3990354    47.956833   -168.96663    3618.3368    10782.207 
39500        0.98677816087164615944 10.090472405768334596 1 70 -287.62593724382793425
   39500    262.36981    9.7506189    45.551622    -168.7506    6045.8229    10782.207 
   39510    286.15199    9.0142658     49.21389   -167.57463    4297.6337    10782.207 
   39520    254.78989    9.6731489    53.843792   -165.56753   -1910.6869    10782.207 
   39530    269.99443    8.8599392    51.504813    -162.5073   -3621.3275    10782.207 
   39540    272.65338    5.9312635    60.771605   -158.69438   -247.31636    10782.207 
   39550    309.01347    4.1794827    48.292064   -154.71466   -535.30923    10782.207 
   39560    279.13647     4.337073     54.72169   -151.27112   -1054.7457    10782.207 
   39570    303.28231     5.904361    46.743121   -148.13732   -4292.1942    10782.207 
   39580    301.94185    8.2428839     52.79391   -145.21756    1698.3798    10782.207 
   39590    302.43395    10.058152    62.768971   -142.97033    4479.1805    10782.207 
39600        0.98723484594325816577 10.071404804921691323 1 70 -275.49438839483309494
   39600    296.00309    9.8558733    55.581343   -141.38038     4179.745    10782.207 
   39610    292.51453    12.062429    56.569807   -140.02275    677.67566    10782.207 
   39620    317.69774    9.7216174    53.702286   -138.65946   -523.92059    10782.207 
   39630    307.33712    8.4083451    58.806866   -137.71964    297.21955    10782.207 
   39640    294.09435    6.6869766    59.438558   -137.13525    610.46633    10782.207 
   39650    280.83617     6.547987    56.262349   -136.64947   -4073.3071    10782.207 
   39660    306.25925    5.8985039    55.730661   -135.78311   -387.81549    10782.207 
   39670    341.54865    4.5882826    51.980195    -135.0121   -1884.7642    10782.207 
   39680     325.6914    4.7165892    49.702228   -135.07022    730.24489    10782.207 
   39690    313.91813    5.6757703    53.732546    -135.6828    806.49549    10782.207 
39700        0.97666736905367934618 10.141579973902677736 1 68 -268.07764146597133958
   39700    289.75945    6.9656944    58.333123   -136.79252   -41.834154    10782.207 
   39710    286.35161    7.0090738    61.022979   -138.13408    3589.3604    10782.207 
   39720    290.27473     7.629941    59.786738   -139.90654   -451.16294    10782.207 
   39730    303.77706    5.3209075    56.357848   -142.27704    -1703.485    10782.207 
   39740    323.94029    4.0746505    47.597477   -145.76629   -2825.2333    10782.207 
   39750    311.42464    4.0821777    49.246753   -150.57299    1714.8391    10782.207 
   39760     287.0006    4.7822785    54.840901   -155.98045    4226.9527    10782.207 
   39770    245.34632     6.978712    60.273409   -160.56157    2344.9745    10782.207 
   39780     243.6044    6.9972274    58.090842    -165.6234   -661.91668    10782.207 
   39790    258.11902    8.6418928    49.860121   -166.71727   -2348.4397    10782.207 
39800        0.96918049145222917584 10.178002186512204119 1 69 -285.68161783702254297
   39800    268.30306    6.9552827    47.531452   -164.11803   -2525.2306    10782.207 
   39810    292.58199    6.3256444    49.594847   -162.72101    194.79587    10782.207 
   39820    293.43279    7.3914925    56.498392   -160.74397   -225.24724    10782.207 
   39830    272.91091    8.5813258    52.078821   -158.73386   -1297.6188    10782.207 
   39840    273.87625    7.4579297    55.814528   -156.27569   -896.73251    10782.207 
   39850    294.18111    7.0902187    52.263237   -152.96705   -699.25027    10782.207 
   39860    316.57223    6.4683889    51.578989   -149.68319    1698.0083    10782.207 
   39870    321.23388    5.5611073    54.047323    -146.7755   -1638.9662    10782.207 
   39880    310.10432    5.7694166    52.163645   -144.90274   -365.89811    10782.207 
   39890    322.61104     4.444819    52.218217   -143.53133    2730.1281    10782.207 
39900        0.9701309789606487044 10.184053547738681544 0.99735449735449732689 71 -281.52737311679584309
   39900    306.17106    5.0242791    59.758571   -142.80643    3115.0402    10782.207 
   39910    298.34086    5.6075718    52.499938   -142.50173   -376.48378    10782.207 
   39920    287.96913    5.0802941    54.329981   -142.45423   -3810.7244    10782.207 
   39930    277.47141    4.4144412    56.523051   -141.99173   -1487.2551    10782.207 
   39940    302.15056    4.0338404    52.336643   -140.96986    3274.0833    10782.207 
   39950    302.88358    4.1660708    54.570012   -139.73403    1755.4106    10782.207 
   39960    306.68921     4.837816    53.668405   -138.51648   -1481.5546    10782.207 
   39970     310.7774     5.950526    48.279568   -137.77133    2527.7461    10782.207 
   39980    301.20592    5.7340036    63.776306   -137.38055   -944.32851    10782.207 
   39990    315.19975    7.1144938     56.34142   -137.44713   -2187.2124    10782.207 
40000        0.97062332481968394138 10.182300858662932441 0.99470899470899465378 69 -273.14525262078143442
   40000    298.42311    5.9095099    58.261622   -137.93478    -7130.469    10782.207 
   40010    294.51269    7.1279528    53.478353   -138.41353   -782.21734    10782.207 
   40020    282.87474    6.7829389    58.021066   -138.65177    214.48747    10782.207 
   40030     306.2618    8.5586445    48.580758   -138.45314   -2490.2126    10782.207 
   40040    308.98691    10.203733    55.228231   -138.18104    959.86978    10782.207 
   40050    324.92951      9.73606    52.269724   -138.09243    2002.8488    10782.207 
   40060    328.08515    11.159333    55.663084   -138.65034    4023.6045    10782.207 
   40070    310.12415    11.885912    50.808692   -140.15762    716.66052    10782.207 
   40080     296.7714    8.9382239    57.123936   -141.83498    773.57543    10782.207 
   40090    291.38346    7.4617056    52.535848   -143.19606   -1474.9266    10782.207 
40100        0.97802760101019547978 10.139548079772739086 1 68 -273.00293152068900326
   40100    284.24723    5.2284595    50.094308   -144.21531    9.5047314    10782.207 
   40110    265.72932    4.5435007    68.745704   -144.92394   -1873.0118    10782.207 
   40120    284.72389    7.2837931    53.932762   -145.31848   -1179.8621    10782.207 
   40130    296.29593    7.9353194    60.197642   -145.83661   -2775.6619    10782.207 
   40140    308.31503    7.6114488    55.880099   -146.71915    2962.5948    10782.207 
   40150    287.61197    7.1656816    60.645558   -150.07413    3385.9668    10782.207 
   40160    293.10466    7.6518507    57.463947   -151.86475    2338.4446    10782.207 
   40170    291.23105    6.9408471     58.30494   -154.24163   -1333.8531    10782.207 
   40180    309.83044    5.2156954    55.400811   -157.31437    239.38563    10782.207 
   40190    296.14346    5.6544739     53.16215   -161.20991    950.90049    10782.207 
40200        0.98688968868097748377 10.109889799167477875 1 66 -298.34782793521492295
   40200    294.12309    6.9183348    48.316185   -165.08562   -523.83419    10782.207 
   40210     258.9323    9.7904671    60.995445   -168.10052   -1433.2804    10782.207 
   40220      276.258    10.491805    54.116185   -168.38067   -1782.1718    10782.207 
   40230     277.2638    11.440952    56.192993   -169.85736    43.572829    10782.207 
   40240    263.73615    14.013509    57.003986   -170.76446   -489.89735    10782.207 
   40250    248.26297    14.841642    45.348925    -170.6295    196.47036    10782.207 
   40260    261.98567    12.824774    51.140117   -168.91718   -78.259178    10782.207 
   40270    261.39191    10.405895    60.493388   -165.46192    2631.6391    10782.207 
   40280    298.57855     9.387378    45.411707    -160.9446   -354.57453    10782.207 
   40290    295.35603    6.0726979    54.750012   -156.06008   -1217.4483    10782.207 
40300        0.99130644462890127322 10.073318917045366305 1 66 -289.66560254626358528
   40300    303.94456    5.0786495    59.121162   -151.95345    1051.3302    10782.207 
   40310    314.58491    7.3288163    52.230376   -148.70466   -46.048702    10782.207 
   40320    280.22739    10.329492    61.187387   -146.45068   -626.94513    10782.207 
   40330    299.91845    10.266435    62.633686   -144.55855   -2530.0679    10782.207 
   40340    313.29336    13.847471    58.459307   -143.17505    1513.5356    10782.207 
   40350    324.86076    11.055091    55.107322   -142.49401    2838.0538    10782.207 
   40360    335.90807    7.6320523    43.341299   -142.51667     2718.574    10782.207 
   40370    299.92719    5.6427437    63.048537   -143.11073    409.05092    10782.207 
   40380    320.03086    6.1048412    53.891631   -143.89194   -2277.9481    10782.207 
   40390    291.47265    7.5060076    64.263673   -145.16894      -624.77    10782.207 
40400        0.98859555184446223919 10.111313564632526507 1 68 -284.59622951933209833
   40400     305.3748    7.9059284     47.96108   -146.23606    25.091814    10782.207 
   40410    288.49144    13.303076    56.572312   -146.92538   -1148.7705    10782.207 
   40420    316.88853    14.832562    54.329867   -147.23682   -1787.6334    10782.207 
   40430    306.65921    14.159152    60.325584   -147.83761    2742.4422    10782.207 
   40440    297.28253    10.303363    57.677831   -149.18417    1265.6445    10782.207 
   40450    285.01473    11.917923    55.761392   -151.05507    3815.9271    10782.207 
   40460    304.44235     8.921665    49.468093   -156.12734   -4212.5094    10782.207 
   40470    313.06526    7.4777577    50.494851   -159.69925   -712.73198    10782.207 
   40480    285.56211    7.3858387    60.505351   -164.32755   -3154.2484    10782.207 
   40490    287.10253     6.938948    49.571492   -169.10245   -1906.6713    10782.207 
40500        0.98954824592178203257 10.102712081651516129 1 67 -292.5038725169179088
   40500    263.00874    7.1115101    61.146564   -173.33905    223.39639    10782.207 
   40510    277.48062    9.6013376    52.310164   -176.63381    1136.1019    10782.207 
   40520    257.49046    10.850396    54.685863   -178.57344    3072.8696    10782.207 
   40530     287.6937     10.64025    50.537017   -179.40463    2551.7584    10782.207 
   40540    284.00133    9.4417818     47.79463    -179.4901    21.841986    10782.207 
   40550    278.32567    7.8017919    53.431639   -176.32192    233.22616    10782.207 
   40560    266.41687    5.7553885     49.52733   -175.05385   -3413.0505    10782.207 
   40570    272.90481    3.9687933    55.940098   -172.58147    1446.8958    10782.207 
   40580    278.15524    5.9152063     56.23115   -169.14885     1049.978    10782.207 
   40590    278.71647    7.7120431    49.416895   -164.83516   -2044.3042    10782.207 
40600        0.98648214887738872036 10.096067118223578163 1 67 -291.83212447460584826
   40600    290.44964    8.1011084    56.352562    -160.2343    1303.5177    10782.207 
   40610    269.21711    10.127298    56.372514   -156.19833   -476.07428    10782.207 
   40620     272.9872    8.7379852    59.296156   -152.55304    1153.9018    10782.207 
   40630    275.02395    6.4861004    58.266299   -149.49192    135.05567    10782.207 
   40640    297.07037    7.2954068    58.170087   -146.89686   -467.82836    10782.207 
   40650    285.10691    8.7086043    70.486061   -144.97306    2020.7601    10782.207 
   40660    306.29748    10.072578    57.364752   -143.50945   -172.76515    10782.207 
   40670    305.37751    10.333667    55.515083    -142.3924   -128.32306    10782.207 
   40680    329.13749    8.6844214    52.431667   -141.43328   -2953.3196    10782.207 
   40690    299.47879    8.8516118    60.543089   -140.79835   -2112.4257    10782.207 
40700        0.975300851716494277 10.139232796321103081 1 66 -267.73390532274288489
   40700    281.25714    6.9147413     65.92458   -140.30104    1713.6791    10782.207 
   40710    289.31619    7.1521188    58.884859   -139.60529   -418.50525    10782.207 
   40720    308.54407    5.3697903    53.286636   -138.50869    25.220394    10782.207 
   40730    316.40614    4.7231844    57.721426   -136.90199    844.34142    10782.207 
   40740    303.15651    4.8669005    63.326067   -134.80124    1372.3811    10782.207 
   40750    299.75057    4.5195813    64.315849   -132.61479    899.64648    10782.207 
   40760    284.35806    5.8273964    73.586325   -130.47412   -972.94997    10782.207 
   40770    337.87198    6.7377895    55.065052   -128.23855   -279.23306    10782.207 
   40780    315.43532    7.4909446    64.635951   -126.21148    867.79592    10782.207 
   40790    335.70353     6.116498    57.046757   -124.76218    2154.3609    10782.207 
40800        0.96792424519429876018 10.16093163104696373 1 67 -263.84908451553752684
   40800    308.99877    6.6892998    71.414763   -123.84695    1993.1399    10782.207 
   40810    321.65148    6.3975857    61.429719   -123.61879    282.13046    10782.207 
   40820    299.97037    6.5742215    68.446631   -123.69725   -1272.4177    10782.207 
   40830    327.52986    5.7967936    59.790624   -124.14062   -1580.8669    10782.207 
   40840    296.48647    4.5192998    69.956391   -125.34057   -2960.8901    10782.207 
   40850    320.81867     5.088582    59.047952   -127.57942    -2664.618    10782.207 
   40860    300.49414    3.1126052    68.761691   -130.94826   -2594.2579    10782.207 
   40870     327.6349    4.5464812    60.116167   -135.79012    3054.4902    10782.207 
   40880    303.35931    5.2960093    66.479209   -141.96506    1123.1099    10782.207 
   40890     305.4481    7.9337847    61.663669   -148.17451    869.31713    10782.207 
40900        0.96825822728522481508 10.193334712443297363 1 67 -289.3278832271439569
   40900    300.62624    7.7493373    54.828149   -153.11921   -2084.1542    10782.207 
   40910    315.96035    5.9578102    57.252488    -156.7702    979.16393    10782.207 
   40920    287.31397    3.8418955    65.973878   -159.52273    2467.5916    10782.207 
   40930    289.61703    3.0369483    57.575273   -161.34503    903.59205    10782.207 
   40940    268.17593    4.0621077    65.503881   -162.48956    725.86182    10782.207 
   40950     291.6842     5.269432    57.950458   -162.94778   -635.77474    10782.207 
   40960    278.38089    5.4564127     56.90639    -162.9452   -2030.8869    10782.207 
   40970    293.88316    6.5928737    55.631357   -162.37537   -4489.3728    10782.207 
   40980     290.1486    7.3971352    57.355068   -161.29294   -2040.4478    10782.207 
   40990    292.49966    8.4727746    56.185354   -159.98557    2677.8443    10782.207 
41000        0.96646039629411761851 10.202263180603896586 1 68 -292.84826265162189429
   41000    296.47151     6.900302     58.95536   -158.52202    6126.6898    10782.207 
   41010    292.23387    6.4738612    61.368346   -156.81667    1598.3209    10782.207 
   41020    311.59179    4.7866031    52.896792    -154.6853     -1366.51    10782.207 
   41030    301.75454    4.1341741    53.833946    -152.3792   -1600.7604    10782.207 
   41040    311.90089    7.9417351    54.281037   -149.64791   -163.21907    10782.207 
   41050    295.38644    10.766655     63.07742   -146.47596   -695.01039    10782.207 
   41060    324.41601    8.2849231     54.15023   -142.30826   -4910.4191    10782.207 
   41070    323.45777    9.4036137    66.185793   -138.31655   -2336.7892    10782.207 
   41080    329.48898     10.61775    59.353571   -134.98386   -427.93455    10782.207 
   41090    320.72663    12.645294    56.392636   -132.36112    5828.9425    10782.207 
41100        0.96240949302452138969 10.212863412510746031 0.99735449735449732689 65 -268.13895458003315753
   41100    304.65189     10.89344    65.148315   -130.10632    3833.5084    10782.207 
   41110    304.91529    8.1153097    63.917543   -127.69413    792.93433    10782.207 
   41120    312.66984    8.0485273    66.570559   -125.33349   -1059.0668    10782.207 
   41130    305.72204      7.85138    67.342364   -123.19499   -86.331729    10782.207 
   41140    314.43499    7.3482802    74.845317   -120.96274   -1948.7919    10782.207 
   41150    343.54144    7.7266444    60.254537   -118.80713   -4080.4259    10782.207 
   41160    292.03015    8.1504143    72.999593   -117.32211   -1861.2786    10782.207 
   41170    297.49324    8.3328441    67.956496   -115.62629    5203.3565    10782.207 
   41180     288.1756    13.230518    74.457441   -112.90817    2700.6995    10782.207 
   41190    322.06754    10.703676    69.417582    -109.6341    385.58539    10782.207 
41200        0.96088256213052969379 10.237262629902129873 0.99735449735449732689 69 -262.65339212985202266
   41200    344.38663    7.9516084    69.936635   -106.61762   -4849.3164    10782.207 
   41210    352.58583    4.7875665    69.422912   -105.01409   -978.24356    10782.207 
   41220    340.77337     4.865072    74.449901   -105.49581    733.17352    10782.207 
   41230    313.28008     5.875082     76.76406   -107.86386    1799.8965    10782.207 
   41240    338.97793    9.2073307    69.648425   -111.78973   -3328.5629    10782.207 
   41250    337.42997    13.739335    65.606715   -117.51319   -672.01471    10782.207 
   41260    339.51787    14.077755    61.881975   -124.38738    1597.1481    10782.207 
   41270    316.36469    10.013355    67.326851   -130.93536    3487.4278    10782.207 
   41280    321.90312    9.7746353    65.887603   -136.04536   -757.46476    10782.207 
   41290    304.27176    8.9807041    62.958109   -140.13304   -305.59888    10782.207 
41300        0.96378306239851241344 10.20296165133849442 1 69 -272.19492757995408283
   41300    284.64899    7.5142889    69.179672   -143.22527   -2483.2226    10782.207 
   41310    279.40518    5.6208278    63.098711   -145.30655    2343.8451    10782.207 
   41320    288.29911    3.1873294    62.157878   -146.46411   -2498.9762    10782.207 
   41330     289.0095    4.8057696    61.891283   -146.94112    2718.7825    10782.207 
   41340    281.56628    7.9347565     65.18877   -146.90124   -2487.7814    10782.207 
   41350    296.67872    7.4833239    57.465064   -146.42776    3271.2586    10782.207 
   41360    301.25358    5.8835019    62.151491   -145.59219   -1909.3491    10782.207 
   41370    324.32543    4.0132606     56.75456    -144.4783   -650.35902    10782.207 
   41380    316.81683    4.1558708    61.480801   -143.70825    792.42127    10782.207 
   41390    322.31896    3.0506167    54.460813   -143.62884    825.92038    10782.207 
41400        0.96015309343341315174 10.197508319946965827 1 70 -279.19327485988327453
   41400     298.7141    3.1800257    56.064539   -143.85095   -680.96602    10782.207 
   41410    293.64218    3.3879535    61.248733   -143.55669     2657.764    10782.207 
   41420    319.41096    3.3328873    56.546851    -142.7137   -3099.8001    10782.207 
   41430    300.05877    6.2147146    62.704733   -141.99801   -1119.8476    10782.207 
   41440    299.23689    8.1753574    58.271517   -141.27305    536.39448    10782.207 
   41450    300.06223    8.9415818    59.541665   -140.26548    4449.0835    10782.207 
   41460    308.01993    8.7133542    55.488784   -140.13532    2106.6795    10782.207 
   41470    317.18078    7.7290078    52.600472   -136.42413   -440.46636    10782.207 
   41480    321.52222    6.5286752     57.58244    -133.6453   -4506.9795    10782.207 
   41490    304.99198    4.8391519    74.071309   -130.93988   -15.133107    10782.207 
41500        0.95150950747670648422 10.238199833949620299 0.99735449735449732689 67 -277.53111068961624142
   41500    328.80051    3.6362164    61.377032   -128.55715   -1261.1834    10782.207 
   41510    293.90535    4.8495028    66.409455   -126.96027    -671.0902    10782.207 
   41520    309.57523    5.7768461     60.21569   -125.37451   -1999.5869    10782.207 
   41530    287.49873    5.6827443    65.270429   -123.56971    590.99673    10782.207 
   41540    297.33269    5.5319345    69.730427   -121.49896    4371.2786    10782.207 
   41550    309.55906    10.396748    66.057658   -119.07012     3853.518    10782.207 
   41560    320.45602    8.0541551    62.281126   -116.76344    402.09574    10782.207 
   41570    316.50641     6.744359    68.200788   -114.67023   -2057.8689    10782.207 
   41580    311.61246    4.0106271    65.464467    -113.0084   -2171.5251    10782.207 
   41590    301.77486    2.2280565    70.333554   -111.37682   -260.37843    10782.207 
41600        0.93961540042809932327 10.263526375086527764 0.99206349206349198067 68 -258.33036518604171761
   41600    327.39487    3.0604712    70.160276   -109.99327    -2838.351    10782.207 
   41610    338.75702    5.5607706    61.388809    -109.7205   -3463.8823    10782.207 
   41620    319.48381    7.1725102    61.408424    -111.0013    1566.5381    10782.207 
   41630    319.58711    7.0870923    65.062071   -113.53734    2930.6174    10782.207 
   41640    293.16803    7.4091945    63.496846   -117.12121    4482.3396    10782.207 
   41650    327.23485     5.580274    58.893506   -121.49679   -3185.8048    10782.207 
   41660    322.59192    5.1187197    57.216047    -127.3419   -2057.1292    10782.207 
   41670    303.97293    6.7028284    58.746521   -135.55073     554.2893    10782.207 
   41680     282.2771    8.3155126    56.159357   -139.95511    1705.6663    10782.207 
   41690    270.06705     9.395263    62.298521   -139.83206    3592.8441    10782.207 
41700        0.94678865312062054915 10.258846327119169217 0.99470899470899465378 68 -275.72444975394580524
   41700    296.96227    8.5105122    52.692643   -141.17586    -2101.031    10782.207 
   41710    289.41868    9.0792357    55.016763    -142.0272    -2513.392    10782.207 
   41720    321.49802    8.5530749     52.16905   -142.30262    1675.0959    10782.207 
   41730    313.92989     7.014008    57.062362    -142.7841     392.7165    10782.207 
   41740    284.43177    6.9960716    65.575362   -143.40686    1129.3122    10782.207 
   41750     302.0312    6.6525786    59.037657   -143.95952   -2371.2434    10782.207 
   41760    292.30456    7.3974643    67.026327   -144.78578   -900.13624    10782.207 
   41770    333.14904    5.0321735     51.26545   -146.27886   -2185.3419    10782.207 
   41780     292.1836    3.8705868    55.066007   -148.60041   -3618.7402    10782.207 
   41790    305.74554    6.7399272    49.012368   -150.79681    224.94628    10782.207 
41800        0.96628480214725254172 10.218274464191544837 1 72 -277.77432185305053736
   41800    275.18768    11.854656    59.957763   -153.09143     2024.727    10782.207 
   41810    283.41635    12.116655    59.956662   -155.28365    3338.5031    10782.207 
   41820    286.00416    11.857833    60.113077   -157.93728   -912.86477    10782.207 
   41830    282.21388    10.940446    58.160011   -161.15258   -3876.2821    10782.207 
   41840    276.55365    7.9848384    55.418694   -164.87135    -1267.407    10782.207 
   41850     262.7434    5.9960904    54.874548   -168.63098   -891.37468    10782.207 
   41860    253.65046    4.5473974    49.444592   -171.95276    1084.6354    10782.207 
   41870    235.62527    3.7088594    53.085223   -174.14145    1766.1634    10782.207 
   41880     267.8224    3.8009018    48.850933   -176.84944    3417.3295    10782.207 
   41890    259.73205      5.68243    58.024708   -176.56176    182.25382    10782.207 
41900        0.97685602764421120003 10.158067349180415206 1 68 -304.96204230816408653
   41900    286.80655    6.2284404    48.658942   -175.01483   -205.82645    10782.207 
   41910    253.52483    6.3020243    63.347846   -172.11981    -1295.689    10782.207 
   41920     274.1964    7.0622141    55.964925     -165.512    1406.3959    10782.207 
   41930    272.87962    9.2620271    62.783031   -158.74417    90.761515    10782.207 
   41940     284.5414    9.3948861    64.196572   -152.17632    1654.1347    10782.207 
   41950    279.32963    8.8681942     57.86528   -147.17524   -1864.9406    10782.207 
   41960    275.85522    6.2723828    67.784884   -143.63224   -1652.9568    10782.207 
   41970      293.025    3.8158612    59.456483   -140.90369   -4.3308909    10782.207 
   41980    279.12289    3.5882401    72.009602   -138.95801    1643.9042    10782.207 
   41990    304.34655    7.3434897    59.242466    -137.3402   -1447.1541    10782.207 
42000        0.98268593138010174037 10.145724360343340464 1 68 -271.99802520479289569
   42000    299.64583    9.0053696    66.425141   -136.23355   -1129.2543    10782.207 
   42010    299.13811    10.190498     66.39688    -135.5656   -1040.6925    10782.207 
   42020    322.74055     7.792539     60.20968   -135.35771    4909.1283    10782.207 
   42030    307.92466    6.9794631    61.627279   -135.81866   -2056.3797    10782.207 
   42040    314.72135    6.3551244    58.928356   -136.74676   -864.31124    10782.207 
   42050    299.79365    6.0985307    66.296092   -137.82165   -1929.0016    10782.207 
   42060    320.76393    5.6076207     57.05766   -139.24635   -531.76771    10782.207 
   42070    299.17077    8.3049785     66.27314   -141.56247    268.40331    10782.207 
   42080    291.71945    12.135224    51.619236    -144.2857    913.16599    10782.207 
   42090    276.46035    8.7380468    62.257563   -147.14596    1658.8719    10782.207 
42100        0.98526871571914254044 10.121461634503674532 1 70 -278.1748072735409778
   42100    283.85825     7.333155    61.633685   -149.56342    4876.7597    10782.207 
   42110    300.26309    5.0436527    49.487717   -151.81076   -67.088711    10782.207 
   42120    289.14179    5.3295676    54.972103   -153.77312   -1407.3379    10782.207 
   42130     316.6164    4.9059557    50.877481   -155.83402   -1981.1177    10782.207 
   42140     265.6262    5.0197479    64.692048   -158.10419    -102.3359    10782.207 
   42150    283.00779    4.5901991    54.332669   -160.16505    810.43248    10782.207 
   42160    276.40257    4.0872848     55.90263   -161.94403     103.9527    10782.207 
   42170    294.56576    5.2593535    49.452437   -163.48651    501.14673    10782.207 
   42180    268.95554    4.5282576    55.691251   -164.84302    1825.7075    10782.207 
   42190    257.55488    4.7803001    55.092201    -165.6438    106.02698    10782.207 
42200        0.98557861500906551733 10.115925948914071597 1 65 -277.96190479604479151
   42200    248.19767    7.3602512    58.299999   -165.50773    166.82691    10782.207 
   42210     265.4529    9.1477636    52.337516   -163.87752   -3845.0542    10782.207 
   42220    270.62475    6.6458872    58.394345   -160.24964   -1169.0013    10782.207 
   42230    310.72293     5.236582    43.614478   -154.70399   -2167.6225    10782.207 
   42240     285.1254    3.8878994    58.775757   -148.79189   -852.88733    10782.207 
   42250    312.61745    3.6256983     51.40795   -143.45406   -1053.5598    10782.207 
   42260     290.8697    5.0096962    63.620959   -139.38389   -154.63916    10782.207 
   42270    316.85723    6.9582417    60.591933   -136.26798     2932.592    10782.207 
   42280     310.4565    7.0971878    60.316342   -134.09356    2605.5607    10782.207 
   42290    295.86125    7.4042031    65.148087   -132.76616    965.84967    10782.207 
42300        0.98575053262233425233 10.080454847837625465 0.99470899470899465378 67 -277.59918692649512195
   42300    321.97394     8.720042     50.41863   -131.71823    1638.0067    10782.207 
   42310    310.75849     10.61004    58.418869   -131.12408    283.95448    10782.207 
   42320    317.40472     11.27309    57.410972   -130.93349    880.37742    10782.207 
   42330    284.93419    11.101965    66.653386   -131.30476    138.60428    10782.207 
   42340    311.46996    10.427509    61.318254   -131.90463    947.76475    10782.207 
   42350     314.3046    8.3577982    59.558157   -132.89237   -1490.3388    10782.207 
   42360    333.52653    7.1430916    53.228843   -134.53574   -4290.0419    10782.207 
   42370    307.01023    5.8054497    57.605979   -136.99673   -2030.2555    10782.207 
   42380    279.38042    4.4577136    63.393715   -139.69545   -1742.5147    10782.207 
   42390    289.55157    6.7544683    56.626229   -142.53488    1718.5458    10782.207 
42400        0.98175522977001039582 10.110078364831304398 0.98941798941798930755 66 -272.18762255704541531
   42400    279.26777    7.5756131    63.241406   -145.65611   -392.58121    10782.207 
   42410    295.03543    9.8692439    52.587458   -149.07071    2024.6252    10782.207 
   42420    288.53835    9.9929313    55.700303   -152.40743    1404.9217    10782.207 
   42430    308.97389    9.0293728     49.22566   -155.89719    2180.4278    10782.207 
   42440    274.40146    6.9023734    57.402942   -159.40475   -2712.3487    10782.207 
   42450    271.75486    8.8191924    47.556868   -162.09665   -1924.2313    10782.207 
   42460    262.56693    8.8384553    55.000005   -163.77343    2059.0188    10782.207 
   42470    270.75293    7.5234507    52.240886   -164.23562    2449.9054    10782.207 
   42480    289.59545    8.0439925    46.999097   -163.65052    3170.9936    10782.207 
   42490    265.11712    6.7591724    52.834977   -161.98847   -2633.1922    10782.207 
42500        0.98314694837522531579 10.109987572586701887 0.99470899470899465378 66 -285.75082063170373203
   42500     281.1678    6.0102644    50.506211   -158.35843   -5181.3443    10782.207 
   42510    271.59123    5.5536381     64.44381   -152.47301    616.35474    10782.207 
   42520    294.24046     7.392735    52.370079   -145.09054    595.35991    10782.207 
   42530    287.87412    8.8991539    57.995725   -138.19128    522.19167    10782.207 
   42540    315.72897    6.2206543    59.477802   -133.40961   -466.66983    10782.207 
   42550    311.06476    4.1233893    61.680654   -130.98158    2057.5032    10782.207 
   42560     294.1215    4.4077126     66.12091   -130.19227    3964.3597    10782.207 
   42570    315.07642    6.4993767    55.659665   -129.86014   -3097.5511    10782.207 
   42580    294.66899    8.5867081     61.18238   -129.86004    -2064.983    10782.207 
   42590    300.93682    6.7926699    64.970823   -129.96714   -19.491018    10782.207 
42600        0.98289501118002087221 10.081479112773633844 0.99735449735449732689 65 -259.2192621484822439
   42600    284.63378    5.3758151    66.024042    -130.2565     3733.444    10782.207 
   42610    306.29619    3.9659739    60.677999   -130.67482    889.03138    10782.207 
   42620    303.10371    4.2555003    59.425287   -131.24251   -4183.7186    10782.207 
   42630    330.57065    7.2073136    57.090108   -132.34403   -2607.8315    10782.207 
   42640    306.74702    7.4606007    59.998545   -134.34088   -1609.5841    10782.207 
   42650    307.14391     7.522834    59.458073   -137.00113    846.69566    10782.207 
   42660    297.88611    8.6246941    57.092342    -139.8636    1893.4098    10782.207 
   42670     280.5382    8.3613084    55.041305   -142.56483    1053.3514    10782.207 
   42680    255.82751    5.2055795    59.194366   -144.46804    5375.4941    10782.207 
   42690    287.42441    4.0761344    55.315995   -145.35247    4448.6127    10782.207 
42700        0.98347392739754335711 10.103112918331799364 1 65 -281.87136770158605259
   42700    300.99617    4.2892359    52.712135   -145.49508   -178.66799    10782.207 
   42710    306.85648    4.8630996    53.217829     -145.268   -3276.8404    10782.207 
   42720    298.46531    4.7583597    58.620544   -144.91765   -7328.6426    10782.207 
   42730    310.78794    5.8061158    55.008398   -144.50915   -319.39216    10782.207 
   42740    317.11956     7.802105    58.967238   -144.30376    295.94065    10782.207 
   42750    305.20427    7.1832056    57.455534   -144.45346    1280.7907    10782.207 
   42760    282.76612    7.5238913    60.858194   -144.72765    2569.8441    10782.207 
   42770    283.46302    6.8657297    58.664392   -144.76031    1982.5806    10782.207 
   42780    281.73156    5.6744824    67.071143   -144.32295    1933.5817    10782.207 
   42790    316.32192    6.8358738    47.502717   -143.41529   -1373.1387    10782.207 
42800        0.98329875721253190424 10.156979636653236554 1 66 -281.58253852217916346
   42800    307.28184    7.5299823    57.298077   -142.35832   -4615.4366    10782.207 
   42810    290.01326    7.4653862    65.237937    -140.9064   -674.40501    10782.207 
   42820    326.28174    6.9491322     54.92791   -138.95714    -2947.314    10782.207 
   42830     331.5595    9.3039504    57.959888   -137.24301    3141.6238    10782.207 
   42840    316.25941    12.361941    58.471175   -136.42411    111.92142    10782.207 
   42850    297.81477    17.163707    54.935037   -135.74683    605.35966    10782.207 
   42860    302.84273    15.462292     58.99051   -134.99961    614.08421    10782.207 
   42870    301.25435    15.521777    57.442198   -134.28765   -1632.7088    10782.207 
   42880    325.66895    12.849576    58.547995   -133.60005    3514.4446    10782.207 
   42890     323.7754     9.209367    54.284503   -133.33264    1329.0174    10782.207 
42900        0.97654833751017844357 10.162490619752565735 1 69 -263.33413604797908647
   42900    286.14783    9.2754198    63.808212   -133.68538    1458.1685    10782.207 
   42910    295.13328    10.137935    57.522131   -134.20381    743.64257    10782.207 
   42920    290.15171    10.928183    59.961641   -136.66543    1591.6512    10782.207 
   42930    329.50805    11.276822    54.066862   -136.60876    -258.4612    10782.207 
   42940    316.84883    11.146356    57.774307   -136.78644   -1500.5818    10782.207 
   42950    308.33404    7.6127006     59.06833   -137.62452   -5807.9948    10782.207 
   42960    280.31741     5.991114     67.16664   -138.65373   -1393.1595    10782.207 
   42970    304.02686    3.6362855    57.737602    -139.6737    1416.2378    10782.207 
   42980    309.03442    4.5163117     56.42784   -140.88847    2756.9389    10782.207 
   42990    300.55808    5.5803593    55.651142   -142.65371   -675.31148    10782.207 
43000        0.96794477061382333538 10.192387197685297551 1 67 -264.6835032003006063
   43000    265.53616    6.5702209    58.058828   -144.37355   -2501.0763    10782.207 
   43010    270.29519    8.2050957    65.115069   -145.27139   -2163.0052    10782.207 
   43020    295.19878    7.4310294    59.452602   -145.69832    2439.6639    10782.207 
   43030    306.98948    5.6311119     62.02345   -146.16117    3055.5247    10782.207 
   43040    305.28027    5.0655115    58.768514   -144.92348    1039.2863    10782.207 
   43050    316.53278    4.8140638     53.02168   -145.87282   -3001.7578    10782.207 
   43060    316.61527    5.8502458    54.477164     -147.336    49.372123    10782.207 
   43070     278.0412    5.8029485    68.346106   -149.09297   -67.145125    10782.207 
   43080    306.01561    6.9409174    56.930726   -151.25212   -1098.0687    10782.207 
   43090    298.47853    7.8191113    58.273836   -154.03082   -4825.8394    10782.207 
43100        0.96325577018738794965 10.211220968660787989 0.99735449735449732689 67 -294.03455454428973326
   43100     301.5556    7.7118657    55.964054    -157.4048    2970.5663    10782.207 
   43110    285.67587    6.2066292    56.103552   -161.15488    2791.4092    10782.207 
   43120    282.73821    7.6633958    56.693815   -164.39482    2355.0602    10782.207 
   43130    265.91112    5.6695537    56.991018   -167.07919   -4677.1262    10782.207 
   43140    284.10604    7.3927968    53.090882   -168.56261   -3317.8964    10782.207 
   43150    271.07155    8.2581321    60.630998   -169.18017   -1398.5564    10782.207 
   43160    266.03343    10.825526    57.757339   -168.92233    2940.1211    10782.207 
   43170    275.34815    11.529371    58.548977    -167.4317     2461.927    10782.207 
   43180    276.32256    11.980006    55.209395   -164.83801   -508.32103    10782.207 
   43190     292.4323     9.702061     57.78372   -161.14187   -69.294582    10782.207 
43200        0.96960625140204881323 10.195736762415641863 1 70 -284.63008439415330031
   43200     283.4581    8.6746626    58.432329       -156.2     1112.411    10782.207 
   43210    311.81468    7.6061092    58.762757   -150.90878    1172.6476    10782.207 
   43220    334.40101     6.219022     64.44609   -145.87193   -1906.7955    10782.207 
   43230    339.90941    5.3207667    55.076029   -143.07963   -2813.5743    10782.207 
   43240    315.37366    7.2537865    65.992792   -142.25144   -1422.6712    10782.207 
   43250    272.27049    8.4141267    68.416535   -142.11104    3567.5052    10782.207 
   43260    293.11383     8.880115    64.846941   -141.59483    2521.1882    10782.207 
   43270     263.0265    8.9432305    68.314743   -140.94525    2794.8338    10782.207 
   43280    286.69503    6.8489334     64.60054   -139.89632    196.65821    10782.207 
   43290    290.32717    6.2719099    62.101769   -138.61338   -379.79922    10782.207 
43300        0.96489116863080137687 10.210755036145910069 1 66 -277.036368756898014
   43300    308.49547    8.9528517    54.671129   -137.26228   -2002.6317    10782.207 
   43310    287.02893    9.9636213    70.109905    -136.0457   -2887.6395    10782.207 
   43320    289.10599    8.1435925     67.10158   -135.06292   -300.45752    10782.207 
   43330    273.50609    6.9275965    69.290436   -134.20647   -1726.7371    10782.207 
   43340    312.26939    6.9539084    62.726406   -133.09512     368.0316    10782.207 
   43350    322.77936    4.7962422    67.615824   -132.32821    4006.7239    10782.207 
   43360    327.60069    5.7065582    59.651376   -132.39893    120.22331    10782.207 
   43370    291.23965     6.417519    64.296029    -133.4405   -2573.2506    10782.207 
   43380    310.68559     8.917949    56.622778   -134.99663    -2525.682    10782.207 
   43390    295.54035    11.107033    68.023993   -137.11682    3344.6265    10782.207 
43400        0.96390262817536687123 10.202440697696696148 1 66 -288.25050938027197844
   43400    326.98557    11.117761    60.380925   -140.09886    5731.3286    10782.207 
   43410    287.62995    10.319833    62.920799   -144.33912    29.371166    10782.207 
   43420     293.9765    8.2489525    64.231355   -150.01549   -1580.3124    10782.207 
   43430    276.10289    5.8484472    63.898772   -155.97207   -2975.0679    10782.207 
   43440    313.34773     4.866125    53.288663   -161.39722   -795.74661    10782.207 
   43450    301.49991    3.9662091    56.114335   -166.10754    2863.0071    10782.207 
   43460    278.41835    4.3539499    53.375544   -169.13485   -3047.1324    10782.207 
   43470    252.75528    6.1621137    62.821933   -170.44263    1408.1964    10782.207 
   43480    287.82651    6.9682585    53.145128   -170.50975   -621.16794    10782.207 
   43490    276.17893    7.2839872    60.226005   -170.01457    2128.2611    10782.207 
43500        0.96664985801635783247 10.204777430272891081 1 66 -293.88340822348448
   43500    275.49506    7.5693362    61.367988   -169.06124   -149.55928    10782.207 
   43510    264.20316    6.1464433     63.34756    -167.7177    -4177.668    10782.207 
   43520    285.96573    6.3281945    58.856235   -165.93787    200.34623    10782.207 
   43530    281.56648    6.6758232    56.079909   -163.50818   -673.58436    10782.207 
   43540    284.59554    6.2388147    57.240629   -160.69305    898.33677    10782.207 
   43550    302.70748    5.9949836    53.448453   -157.14429   -601.02682    10782.207 
   43560    263.16989    5.4114667    67.218692   -153.57706   -2111.6871    10782.207 
   43570    297.66309    6.2519412    64.195013   -150.02941    2697.7829    10782.207 
   43580    309.81426    9.0966442    61.836929    -146.9261    5439.5468    10782.207 
   43590    314.89834    10.059038    56.513581   -144.85557   -3270.2856    10782.207 
43600        0.97157078910518956949 10.186277413381022328 1 68 -280.22691583376638391
   43600    301.46403    9.6982885    59.266403   -143.63865   -3602.2334    10782.207 
   43610     304.3364    8.7718941    59.188057   -142.47237   -4223.6181    10782.207 
   43620    320.02016    10.116381    66.174943   -141.32726    5055.6453    10782.207 
   43630    307.33344    8.1832445    72.012853   -140.84247    1096.9115    10782.207 
   43640    317.51286    6.1853369    58.356275   -141.02207    -693.8859    10782.207 
   43650    299.13597    4.7693226    65.434642   -141.51129   -3058.4628    10782.207 
   43660    306.13003    5.8101324    60.288527    -141.8451    1223.7894    10782.207 
   43670    306.03483    5.9162551    69.463053    -142.0504    3402.8604    10782.207 
   43680    290.34405    6.3033036    59.981587   -142.40914    466.52295    10782.207 
   43690    311.10639    6.4050352    63.201739   -142.70804   -2723.4835    10782.207 
43700        0.97174557075319289989 10.201653226991831858 1 66 -281.74517014443370044
   43700    305.80099    6.9266395    63.017639    -143.1919   -2114.9868    10782.207 
   43710    326.51297    6.3430557    54.139854   -144.41244    797.68876    10782.207 
   43720    286.29517    6.1888785    64.242334   -146.31008    633.40061    10782.207 
   43730    298.46056    5.1930344    58.654307   -148.55659   -2189.9115    10782.207 
   43740    257.79334    5.9965513    71.132801   -151.35733   -2546.9274    10782.207 
   43750    256.26125    5.9137213    70.183061   -154.41333    2611.9123    10782.207 
   43760    275.07513    7.2170652    66.335817   -157.30515    3016.3625    10782.207 
   43770    268.86852    5.1589222    62.759948   -160.26541    362.30382    10782.207 
   43780    252.29098    6.0738927    70.645876    -162.7964   -3495.8402    10782.207 
   43790    269.69968     6.266728    61.502054     -164.814    811.37133    10782.207 
43800        0.97808756456012857505 10.167259321935272709 1 68 -295.98260006371293684
   43800    285.82067    7.6546404    61.470292   -166.48208    794.95616    10782.207 
   43810    292.29544    8.3733243     60.88845   -167.96943    3706.2788    10782.207 
   43820    292.25713    8.2376711    59.848276   -169.74752    -98.85842    10782.207 
   43830    291.10079     8.121756    54.310183   -171.50652   -55.050694    10782.207 
   43840    286.62059    4.8455998    58.293169   -173.14098   -554.10156    10782.207 
   43850    271.23065    3.6936165    51.879785   -174.25483   -1470.2299    10782.207 
   43860    270.98819    3.9509274    57.570206    -174.5393   -115.02553    10782.207 
   43870     259.0591    5.7739239    58.324955   -173.70375   -3049.5355    10782.207 
   43880    267.64513    5.2749307    49.790856    -171.1697   -219.84896    10782.207 
   43890     266.4307    5.3556942    68.274575   -166.70257    2163.9531    10782.207 
43900        0.98326153470722421623 10.136107100023142635 1 67 -292.2246127999758869
   43900    290.56335    7.6689021    59.009013   -160.57526    741.47708    10782.207 
   43910    277.41589     8.209344     70.67666   -154.71259     -1390.63    10782.207 
   43920    301.55678    9.9766486    61.740519   -150.28043   -186.55561    10782.207 
   43930    285.27511    10.234589    62.989559   -146.78503   -1151.9174    10782.207 
   43940    307.77019    9.7634711    64.758706     -144.099    941.18322    10782.207 
   43950    312.98707    9.5481591    58.199038   -142.12348   -2229.7012    10782.207 
   43960    315.99106     8.599887     58.92856   -141.05777    3174.6232    10782.207 
   43970    297.61424     7.556945    62.864991   -140.41718    2855.9596    10782.207 
   43980    335.32957    6.4406064    57.528767   -140.06286    2192.0638    10782.207 
   43990    300.06899    5.8939536    73.104238   -140.49279    3926.8943    10782.207 
44000        0.98822523208132040384 10.111881359072109277 1 65 -285.47781995249113152
   44000    317.68523    7.5776637    65.813644      -141.54   -2677.7046    10782.207 
   44010    315.94532     9.894304    62.193086   -143.24457   -1670.1914    10782.207 
   44020    310.02575    13.433606    59.645345   -145.30351   -5077.2661    10782.207 
   44030    308.49898    13.022283    58.107679   -147.95948   -856.30937    10782.207 
   44040    289.94023    10.231596     61.98868   -150.77162    3323.3965    10782.207 
   44050    289.67265    7.8527459    53.762509   -153.32077    1704.7397    10782.207 
   44060    301.96879    5.3635766    59.044714   -155.65884    1342.0878    10782.207 
   44070    321.66722    4.9304295    52.820187   -159.68903   -2210.7702    10782.207 
   44080    291.86419    4.7918965    60.144175   -162.77954   -3387.9043    10782.207 
   44090    286.20888    4.4318817    68.007853   -165.73083    332.79628    10782.207 
44100        0.98535758475564727554 10.112789089494116368 1 68 -302.62141150438117165
   44100     295.8685     7.416053    53.753921   -168.56839    1659.8044    10782.207 
   44110    266.29523    7.3244764    61.521054   -171.08224    1945.8579    10782.207 
   44120     283.2412    10.201849    49.106056   -171.24687   -767.40627    10782.207 
   44130    278.25565    11.426084    52.252123   -171.95608    799.25399    10782.207 
   44140    279.82153    9.1585576    62.101047   -171.83918    1830.5134    10782.207 
   44150    301.40232     9.225564    52.427981   -171.16885   -851.13957    10782.207 
   44160    267.14087    9.5840275     58.50691   -169.74568    -2410.209    10782.207 
   44170    291.17216    10.199335     56.31856   -166.27608   -3089.9199    10782.207 
   44180    290.63732    8.0968376    59.612638   -159.93284    1342.4497    10782.207 
   44190    294.32806    9.1441042    66.249205    -152.6314    814.54091    10782.207 
44200        0.9874478881658677043 10.10958038461964037 1 69 -288.87027332698107784
   44200    315.12803     10.13783    61.021939   -146.09108    38.631689    10782.207 
   44210    305.28293    7.9468572    65.284974   -141.89278    2077.9136    10782.207 
   44220    302.33541    4.7061505    67.010055   -139.35829    277.52048    10782.207 
   44230    306.61442    3.5531781    72.509521   -137.69593    593.41047    10782.207 
   44240    323.22028    2.3717104    63.566974   -136.94353    127.01481    10782.207 
   44250    311.50698    2.8881916    69.428346   -136.86411    -2786.826    10782.207 
   44260    307.65159    2.8401376    61.844818   -137.29291    1966.3347    10782.207 
   44270    297.12137    4.4946054     66.87324    -138.1503   -1536.6944    10782.207 
   44280    293.28853    7.1376643    67.474811   -139.61653    32.720593    10782.207 
   44290    317.66686    7.3865241    58.998989   -141.20324   -2275.7207    10782.207 
44300        0.98089768918747077819 10.127848527382914412 1 67 -279.56959519698091299
   44300    301.76398    6.7415728     57.36176   -142.84543   -130.52818    10782.207 
   44310    294.15198    8.0803874    64.209165   -144.37682    3884.7565    10782.207 
   44320    289.31567    6.4446417    64.994855     -145.762    2471.3742    10782.207 
   44330    303.02917    4.8712611    59.877312   -147.28657    587.98222    10782.207 
   44340    292.83852    3.1379702    59.551446   -148.76469   -2932.0939    10782.207 
   44350     308.0818    5.1082398    53.554712   -150.19299     -5199.17    10782.207 
   44360    289.67655    6.4193693    64.174726   -151.62626     -1872.28    10782.207 
   44370    287.32775    6.7473173    59.471056   -152.93208   -1471.5152    10782.207 
   44380     290.8308    6.0261212    62.349685   -154.11982    1447.6658    10782.207 
   44390    286.69151    7.9787137    59.496397   -155.40539    3770.1185    10782.207 
44400        0.98341405413867089003 10.106066974401645808 1 66 -281.50962260602562992
   44400    275.72857    10.486813    59.301471   -156.58166    3721.4187    10782.207 
   44410    285.96989    10.948171    54.530215   -157.37244    3898.9572    10782.207 
   44420    301.42657    7.1475318    57.078207    -157.8038    933.76174    10782.207 
   44430    305.07326    6.5198889     55.10697   -158.25447    -3442.402    10782.207 
   44440    293.28672    5.4176175    60.554193   -158.84441   -6241.8799    10782.207 
   44450    296.68172    4.6228499    55.338236   -159.13694   -2443.2478    10782.207 
   44460    282.68716    6.4815965    61.820779   -159.01643    749.05275    10782.207 
   44470    282.97098    6.8006205    63.266951   -158.40184    926.43798    10782.207 
   44480     277.1487    7.6879527    64.730019   -157.07445   -395.16183    10782.207 
   44490    307.32034    8.9241269    58.469062   -155.00332    2848.0698    10782.207 
44500        0.98664052893949250045 10.093060856365513089 1 68 -285.6275075981302507
   44500     293.7465    9.7557181    57.345721   -152.53592    2947.1021    10782.207 
   44510    313.89142      7.43509    56.680911   -149.35544   0.52339231    10782.207 
   44520    312.32421    7.2739385    66.408805   -145.69268    -1179.233    11456.257 
   44530    332.07907    7.0629748    59.425724    -142.2968   -1825.8604    11456.257 
   44540    306.44313    6.0678661    70.074411   -140.14874    864.59729    11456.257 
   44550    312.31042    6.1153752    68.797668   -139.95868    626.00733    11456.257 
   44560     312.2264    8.2853603    65.534703   -138.48905    2424.8626    11456.257 
   44570    299.86394    10.500755    72.062107   -137.44166    1271.4637    11456.257 
   44580    302.37864    13.162361    56.845305   -136.60485      2096.33    11456.257 
   44590     311.5876    13.299236    62.832673   -135.70096   -398.45963    11456.257 
44600        0.9887565228883563595 10.107537644742331295 1 73 -285.70384521463097371
   44600    332.80687    11.231565    62.073066   -134.91467   -35.853082    11456.257 
   44610    312.88566    10.534827    69.688918   -135.11958   -1889.3169    11456.257 
   44620    339.86195      9.07597    70.810982   -135.73129    1469.9433    11456.257 
   44630    327.22936    7.6694401    59.221733   -140.28215   -24.382333    11456.257 
   44640     306.1985    7.9092119    55.186885     -146.222   -2522.4169    11456.257 
   44650    282.81568    6.6136795    58.022919   -151.66547   -4476.9245    11456.257 
   44660    270.60489    5.7270997    57.379318   -155.63148   -1954.8669    11456.257 
   44670    269.61569    4.6974763     62.41144   -158.29752      1333.51    11456.257 
   44680    311.47825    5.5483924    54.510449   -160.07219    2734.7589    11456.257 
   44690    306.61623    7.0005838    53.256991   -161.70763   -79.455699    11456.257 
44700        0.98974140667467047638 10.104751697648136854 1 68 -289.21197295335292665
   44700    278.35227    8.0253065    56.733719   -163.09526   -1802.2155    11456.257 
   44710    274.90964    7.8084616    56.622109   -163.68206    898.75681    11456.257 
   44720    286.12713    9.0376245    56.504716   -163.52069     206.0302    11456.257 
   44730    296.35902    11.437658    49.374284   -162.72262   -17.193558    11456.257 
   44740    279.63597    10.525337    60.235806   -161.30213    -528.7284    11456.257 
   44750    286.76939    10.230091    57.199634   -159.26499    1268.9909    11456.257 
   44760     284.4026    6.6220815    64.228492   -156.69927    4661.0105    11456.257 
   44770    293.14572    5.4121186    67.120835    -153.9299    2587.1359    11456.257 
   44780    320.53471    6.4295511    58.248864   -150.82708   -148.39218    11456.257 
   44790    302.15071    6.1895328    64.997619   -148.13725   -2103.5333    11456.257 
44800        0.99065946734517451588 10.111140712524610663 1 67 -292.72672122702823572
   44800    324.93413    8.5446577    58.286993   -145.50455   -841.30524    11456.257 
   44810    295.59926    9.8433347    67.000018    -143.5316   -1912.2012    11456.257 
   44820    303.78519    9.3509013    62.741516   -141.88397   -3200.4913    11456.257 
   44830     284.2805    9.1399907    70.566362   -140.27537   -38.061503    11456.257 
   44840    318.22252    9.0309679    55.088624   -138.14257     322.4145    11456.257 
   44850    319.05975    7.8260174    59.273492    -135.1427    409.94956    11456.257 
   44860    317.46492    5.9502024    63.794188   -130.82917    4796.1866    11456.257 
   44870    311.73126    7.7245147    69.310884   -124.01351   -228.10494    11456.257 
   44880    322.19021    9.3647358    65.564017   -115.30877    188.96805    11456.257 
   44890    320.56447    10.258954    75.509211   -108.08169   -2366.2486    11456.257 
44900        0.98648380312482453203 10.104119586856318946 1 67 -263.1949768620688701
   44900    352.13737     6.409386    67.740545   -103.64747    1858.7062    11456.257 
   44910    364.79696    7.1869588    62.286479   -102.27158    1702.4191    11456.257 
   44920    378.22363    6.0423386    61.672912   -103.36362   -5700.4613    11456.257 
   44930    342.72568    7.5184681    66.015868   -106.76196   -2994.3924    11456.257 
   44940    336.56883    9.1734144    70.886865   -111.37852    -891.0203    11456.257 
   44950    336.82011    8.6271986     69.66517   -116.52228    4201.7556    11456.257 
   44960    334.62522    6.6910474    63.995131   -121.82644    3162.1035    11456.257 
   44970    322.90261    7.5968458    68.229698   -126.74291    2673.9843    11456.257 
   44980    309.05315    8.3808077    63.171379   -131.15317    4810.0144    11456.257 
   44990    295.57528    5.1948326    61.911077   -134.68643   -837.29242    11456.257 
45000        0.97589759381714058506 10.174374552473958389 1 66 -277.86466775084829806
   45000     309.9123    3.4466983    60.665224   -137.44863    -579.8679    11456.257 
   45010    293.15108    4.4150017    61.345865   -139.74681   -5345.9292    11456.257 
   45020    278.72832    4.3843835    64.242144   -141.38336   -748.73977    11456.257 
   45030    298.89644    3.7069029    69.128703   -142.58921    330.22254    11456.257 
   45040    327.03834    2.6729886    57.057842   -144.15243    785.86568    11456.257 
   45050    307.92904    6.1532073    59.083575   -146.63637    3358.2715    11456.257 
   45060    289.82239    8.5388891    57.742211   -149.08896   -523.58132    11456.257 
   45070    267.17273    7.8023287     67.50461   -151.09689    471.96042    11456.257 
   45080     287.3984    5.8025168    60.604246   -152.52409   -1319.8887    11456.257 
   45090    287.21947    6.0623881    62.975666    -153.5853   -2143.7241    11456.257 
45100        0.96694025083818946342 10.207845115274356118 1 66 -284.43070002636392246
   45100     287.3678     6.629752    64.503899    -154.2292   -1777.8567    11456.257 
   45110    274.36053    6.2593546    60.677166   -154.39522   -595.74771    11456.257 
   45120    262.47753    4.3736417    69.338256    -153.7498    2401.6207    11456.257 
   45130    302.40426    4.9512033     61.16778   -151.80833    890.89908    11456.257 
   45140    321.03919    7.3321137    61.399295   -149.08555   -1667.7081    11456.257 
   45150    323.92698    7.5638306    65.216823   -146.31032   -1632.7407    11456.257 
   45160    328.46299    8.6581955     64.30573    -143.7201   -667.94549    11456.257 
   45170    319.85894    9.1148341    65.044931   -141.89586    1048.4924    11456.257 
   45180    293.64906    6.2592204     72.11431   -140.65567   -731.08162    11456.257 
   45190    282.35478    4.2127499    70.148467   -139.26538    2614.3115    11456.257 
45200        0.95823809597428544205 10.224795171720449716 1 68 -278.56336473021889333
   45200    312.32348    4.3629116    58.530775   -137.05486    219.02519    11456.257 
   45210    287.14942    6.8531506    70.448687   -134.17162   -67.714151    11456.257 
   45220    315.59055    6.7317077    66.134408   -130.39902   -3348.3523    11456.257 
   45230    320.64712    7.1755775    65.670118   -126.51544   -510.76989    11456.257 
   45240    336.82695    5.7679315    67.571176   -123.55923   -431.95785    11456.257 
   45250    338.64669    8.7248982     64.91278   -121.70019    1448.3625    11456.257 
   45260    328.83722    8.7717619    72.826159    -121.2386    913.26159    11456.257 
   45270    335.25957    8.7706397    60.721049   -122.26023    1807.1432    11456.257 
   45280    314.18522    7.9560646    69.140844   -124.57573     194.0805    11456.257 
   45290    312.46413    7.3597327    54.584245   -127.91551    386.96927    11456.257 
45300        0.9572221914415948163 10.248538596662411848 1 68 -257.76232305798328071
   45300    278.55766    6.9106021     78.07442   -131.55255   -4041.4528    11456.257 
   45310    343.58335    5.4641427    56.014807   -136.01097    1338.9992    11456.257 
   45320    293.54698    5.1918974    67.102399   -141.03998   -3232.9168    11456.257 
   45330    318.90155    7.3527444     50.62405   -145.88731   -201.46345    11456.257 
   45340    271.90866    6.7438803    65.772642    -149.4928    -54.95914    11456.257 
   45350    299.42092    6.0548682    58.632559   -152.01956    871.49709    11755.009 
   45360    281.91084    4.3456451    66.960157   -153.63266    1577.3578    11755.009 
   45370    306.76451    5.1675695    60.476959   -154.83759   -279.40129    11755.009 
   45380    285.96854    5.9523443    59.268986   -155.90503   -907.38942    11755.009 
   45390    279.92455    5.4890103    57.670425   -156.35552    330.15496    11755.009 
45400        0.96041049862396687953 10.243902733156609486 0.99735449735449732689 66 -284.01652291954104612
   45400    282.64491     5.225679    59.912146   -155.95488    162.47408    11755.009 
   45410    290.17299    4.2645829    59.072897    -154.7201    608.07863    11755.009 
   45420    283.75449    5.0192877    64.886653   -153.27687   -3544.3641    11755.009 
   45430    302.72866    6.0698449     62.74787   -151.85261   -3337.3103    11755.009 
   45440    332.34523    6.3787143    54.318464   -150.80273   -130.19058    11755.009 
   45450    292.45966    10.517554    63.968813    -150.5529    1389.4478    11755.009 
   45460    275.90518    11.369026    65.941588   -150.05016    1743.2094    11755.009 
   45470    286.29224    9.1787067    59.469942   -149.05757   -237.57839    11755.009 
   45480    304.09237    5.7880446    57.085836   -147.55529    30.272732    11755.009 
   45490    295.59514    6.3875782    59.881268   -145.65963    4463.0718    11755.009 
45500        0.96745960582794365834 10.198224078632449618 0.99735449735449732689 68 -289.74007607194681668
   45500    323.63661    7.1940038    59.914763   -143.10579    3184.1372    11755.009 
   45510    313.96735    9.1723274    63.104761   -139.88899    1114.5679    11755.009 
   45520    306.13965    11.411946    58.870927   -136.59197   -1891.4006    11755.009 
   45530    335.01849    11.278702    65.449504   -131.68515   -1677.3972    11755.009 
   45540    331.13492    10.754531     70.56257   -126.36775    1563.9291    11755.009 
   45550    325.05048    7.3210889    64.169042   -121.29753    542.72849    11755.009 
   45560    321.51247     4.474953    70.695146    -116.8731    763.66356    11755.009 
   45570      347.369     5.617838    63.745163   -113.70587   -3698.4525    11755.009 
   45580    318.46835    8.4069172     64.62081   -112.25056   -1525.2885    11755.009 
   45590    313.22448    8.4565656    70.977416   -111.69343    307.55381    11755.009 
45600        0.97064607365350619173 10.186533157857125431 1 68 -257.47079426912466715
   45600    321.24698    7.6356674    73.227689   -111.91921   -570.44194    11755.009 
   45610    320.21544    7.7257944    63.212937    -113.4165   -1162.8954    11755.009 
   45620    290.72181    11.763785    65.024066   -115.83404    63.474142    11755.009 
   45630    316.23408    12.673287    62.957602   -118.81051    3222.0892    11755.009 
   45640    306.75233    11.099648    63.658802   -123.27555    3143.3618    11755.009 
   45650    306.99541    10.654554    67.007789   -129.19588    335.97212    11755.009 
   45660    308.68342    10.573713    65.271605   -135.94061   -2262.2119    11755.009 
   45670    315.83369    8.7464197     59.51436    -142.3123   -4403.9004    11755.009 
   45680    296.24424    8.6180042    61.431999   -147.32075   -3125.9267    11755.009 
   45690    323.65001    6.6651839    51.856064   -150.53754   -634.64923    11755.009 
45700        0.97674767053523636751 10.155456036964283228 1 68 -290.45914188026978309
   45700    303.72906    5.7483229    58.975949   -152.84463   -236.15101    11755.009 
   45710    285.18194    6.7777698    60.895234   -154.43219    377.46962    11755.009 
   45720    275.44593    9.0739227    60.333808   -155.33003    5652.9698    11755.009 
   45730    281.51746    10.322794    56.725645   -155.45719    2858.2287    11755.009 
   45740    304.01816    7.7348939    57.529163   -155.00682   -114.73982    11755.009 
   45750     297.6381    5.3793117    63.380959   -154.23338    -2967.629    11755.009 
   45760    326.27214    5.1137095    46.823262   -153.28964   -3654.5585    11755.009 
   45770    290.30348    5.6148623    64.532408   -152.65914    687.61439    11755.009 
   45780     309.9367    6.9307408    52.064153   -151.99818    2475.0716    11755.009 
   45790    291.44161    9.8219045     67.98671    -151.1287    2320.8646    11755.009 
45800        0.98009856386546811979 10.138033007355728543 1 65 -297.86506595609398573
   45800    326.19805    9.2223193    58.294611   -150.07023    1799.4451    11755.009 
   45810    322.30819    6.5296809    54.996865   -149.40669   -5889.5773    11755.009 
   45820    306.56381    4.7437258    61.017436   -149.13864   -969.08006    11755.009 
   45830    288.26979    6.3442322    66.493772   -148.93336    1556.9484    11755.009 
   45840    300.27357    7.9116623    64.307777   -148.54362    4187.5394    11755.009 
   45850    318.66085     7.599038    57.940017   -148.12196   -673.27957    11755.009 
   45860    298.68832    9.0269515    63.969961   -147.96076   -1416.6849    11755.009 
   45870    296.37095    14.376154    51.753621   -147.52498    1083.1581    11755.009 
   45880    286.93787    14.288447    55.946855   -146.69299   -193.71363    11755.009 
   45890    300.83779    11.725671    57.953505   -145.16171     64.12886    11755.009 
45900        0.9803819247864947739 10.135802600456703004 1 66 -283.70082526596695516
   45900    310.56029    8.3401391    53.817583    -142.9912    313.22304    11755.009 
   45910    315.43587    6.3555124    58.764449   -140.59318    1990.6588    11755.009 
   45920     315.4699     6.190106    61.470024   -138.06415    -458.6574    11755.009 
   45930    307.52864    5.8648965    65.761588    -135.7545   -1013.2618    11755.009 
   45940    316.47714     6.213716    67.044723   -133.82189    469.84975    11755.009 
   45950    292.31732    7.0356296    61.820836   -132.22837   -1549.8015    11755.009 
   45960    323.34113    7.5342626     60.10833    -130.6827    1042.7327    11755.009 
   45970    322.00064     9.150661    68.864131   -129.36097    56.576506    11755.009 
   45980    325.45006     9.409073    56.945502   -129.03617   -721.75157    11755.009 
   45990    305.92565    7.4685194    67.305983   -129.52613   -808.99678    11755.009 
46000        0.97611783018876552287 10.17739349295226603 1 63 -283.97939580560364448
   46000    337.59578    5.5642991    57.218127   -131.02045     825.7222    11755.009 
   46010    307.19791    4.2820619    63.051929    -133.8005    61.324229    11755.009 
   46020    330.37477    3.1991775    50.716396   -137.28418    271.95541    11755.009 
   46030    308.82935    5.2192559    53.632801   -141.98533   -3655.4625    11755.009 
   46040    278.47165    8.5325298     68.41476   -146.64466    816.93231    11755.009 
   46050    273.65283    9.9741478    60.411374   -150.45239    122.68143    11755.009 
   46060      271.682    9.7432076    60.490429   -153.21835    192.92726    11755.009 
   46070    293.30722    8.3388628     58.73136   -155.20427     2466.489    11755.009 
   46080    291.07208    8.4838396    51.839943   -156.47469    340.44092    11755.009 
   46090    281.74794     9.024705    55.552432   -157.01248   -2172.1119    11755.009 
46100        0.97745981610251797544 10.174384070789436407 1 65 -281.31728732735621179
   46100    274.79552    7.7053343     59.03917   -156.81207   -1925.3134    11755.009 
   46110    283.38027     8.116845    56.359983   -155.95577    633.91795    11755.009 
   46120    265.18546    5.3106492    66.251945   -154.37419    4278.3769    11755.009 
   46130    268.83484     5.882976    64.254128   -151.90806    216.40503    11755.009 
   46140    295.35523      6.04229    52.835356   -148.93189   -1566.5862    11755.009 
   46150     298.2447    3.4950549    67.205425   -145.64753   -4966.8193    11755.009 
   46160    295.03032    4.1069326    59.584632   -142.57616   -3274.1186    11755.009 
   46170    274.51758    4.9693935    66.726984   -139.67332   -4907.6508    11755.009 
   46180    300.09653    5.3981283    63.644213   -137.10992    878.86107    11755.009 
   46190    302.60078    4.1955921    69.087352   -135.33284    2310.4138    11755.009 
46200        0.98498964015822654261 10.115866581685057923 1 65 -273.89830119096313865
   46200    307.46268    4.3608653    64.563572   -134.59215    363.42525    11755.009 
   46210    320.87568    5.0372882      54.3251   -134.31631    288.14344    11755.009 
   46220    312.81024    6.3479877    55.436936   -134.17516    3915.6808    11755.009 
   46230    313.33469    5.6352836    60.706425   -134.20218    2209.2876    11755.009 
   46240    299.62778    5.8245852    69.439806   -134.67063    3762.5617    11755.009 
   46250    305.97758    7.1792738    54.056188   -135.36865   -709.62965    11755.009 
   46260    321.61386    6.7881341    54.340027   -136.15128   -1203.0122    11755.009 
   46270    298.31936    6.6456839    65.306542   -136.70858   -2668.1248    11755.009 
   46280    318.45182    8.8119593    58.704359   -137.31142   -3181.2985    11755.009 
   46290    295.83625     9.676762     77.08999   -138.75395    -2213.141    11755.009 
46300        0.99014827035776376007 10.083638274153807757 1 66 -279.41716298099015603
   46300    306.14888    8.5252758    57.891779   -140.70627    1156.3955    11755.009 
   46310    308.18843    8.2355905    59.795612   -143.00975    1639.0862    11755.009 
   46320    297.70972     9.253591    59.391939   -145.61635    3179.9955    11755.009 
   46330    278.90646    9.2725971      62.5745   -148.15525    2028.1432    11755.009 
   46340    298.70635    9.2910971    54.020304   -150.63593    1022.4247    11755.009 
   46350    292.91105    9.2705229    65.542777   -153.24948   -361.44831    11755.009 
   46360    294.34557    11.756591    53.275821   -156.00953   -103.93303    11755.009 
   46370    291.14647     12.33871    57.643331   -158.68613   -492.67731    11755.009 
   46380    312.81253    8.9822374    59.861714   -161.84393    1408.1191    11755.009 
   46390    298.98109    9.4875917    56.963969   -166.14558   -3184.9438    11755.009 
46400        0.99264622315423844956 10.074628793866395426 1 64 -305.20023485162903398
   46400    297.16549    6.9467499    53.741401   -170.55957   -819.36789    11755.009 
   46410    281.64666    6.7985299    57.500218    -174.7861    2839.4749    11755.009 
   46420     269.9024    9.8896193    55.290443   -177.91348    994.05967    11755.009 
   46430    270.62618    9.3768359    56.135471   -179.98572   -130.45957    11755.009 
   46440    249.95344    8.0968287    56.902084   -180.92685   -3861.7346    11755.009 
   46450    266.99842    8.9167239    51.202327   -180.49496   -68.057327    11755.009 
   46460    278.51764    8.5702335     52.83094   -178.83258    2313.3001    11755.009 
   46470    289.15152    9.3768088    50.980522   -176.47826    2873.9684    11755.009 
   46480    282.36343    8.1947417    54.600233   -174.07876   -1044.7234    11755.009 
   46490    264.26327    10.597851    49.172557   -171.87235   -6373.5733    11755.009 
46500        0.9923361394996613738 10.068703112733757621 1 67 -292.43512852430319526
   46500    271.17849    9.3281248    56.789879   -169.56873   -1321.4828    11755.009 
   46510    290.62903    6.6071995    51.734265   -167.29511    545.69922    11755.009 
   46520    284.96684    7.5612011     55.76202    -165.2462    352.55097    11755.009 
   46530    280.58021    9.4772604    56.944213   -163.29679    3064.7955    11755.009 
   46540    279.27941    9.5023164    59.314027   -161.25647    3306.1741    11755.009 
   46550    268.94851    9.2635261    58.189228   -159.04153    3200.5089    11755.009 
   46560    313.96095    8.5161366    51.697224    -156.1319   -510.63852    11755.009 
   46570    304.28055    9.3186729    57.126989   -152.82725   -2895.3962    11755.009 
   46580    295.83648    10.468205    66.863779   -149.74294    23.607775    11755.009 
   46590    308.80451    10.201428    67.742667   -146.95974    1859.2817    11755.009 
46600        0.99127381383553814231 10.080236228721954461 1 67 -286.1735253155785017
   46600    311.28524     9.480478    62.980382   -145.13544   -329.75232    11755.009 
   46610    293.72623    9.6698681    57.844809   -143.78021   -119.36596    11755.009 
   46620     286.9644    7.5450317    64.052735   -141.99704   -4507.2718    11755.009 
   46630    294.37094    6.4851783    64.901708   -139.68096    2804.4507    11755.009 
   46640    295.60814    5.6450072     70.34369   -137.22386    3491.0738    11755.009 
   46650    309.61256    5.4604314    70.628891   -135.16842    2715.2021    11755.009 
   46660    324.98338    8.4998185    58.282017    -133.5019   -2692.8659    11755.009 
   46670    329.68929    8.6292262    62.071458   -132.25614   -3212.2811    11755.009 
   46680    296.84514    6.5510775    77.618553   -131.62328    592.00584    11755.009 
   46690    305.66313    6.7090093    72.487552   -131.50733    2543.8645    11755.009 
46700        0.98851220267337469583 10.101953893114705707 1 65 -279.35303991615478481
   46700    324.53853    6.0252665    64.765021   -132.31011   -919.84826    11755.009 
   46710    334.42587    6.3767208    59.369291   -134.62492   -1913.1572    11755.009 
   46720    309.14036    8.5220109    60.830473   -138.25527   -1513.8907    11755.009 
   46730      303.719    8.2922773    63.763069   -143.37778    1452.2549    11755.009 
   46740     276.0937     8.383526     58.67319   -149.11358    566.03605    11755.009 
   46750    285.98495    8.1736442    58.985421   -153.80388    3131.4543    11755.009 
   46760     307.0131    8.7174739    52.107285    -157.0784    2275.9703    11755.009 
   46770    293.14503    7.0690686    58.884439   -159.46744   -1482.0616    11755.009 
   46780    297.77842    7.5306698    63.416931    -161.4305   -860.07031    11755.009 
   46790    288.53944    9.9873519    62.608903   -163.19556   -675.57248    11755.009 
46800        0.98461502886402252344 10.119249701752849546 1 71 -292.42328571067361054
   46800    282.60999    9.6364965    63.829127   -164.37747    1551.3746    11755.009 
   46810     301.8081    8.4015807    55.921758   -164.86629   -344.59059    11755.009 
   46820    280.09227    7.6676145    68.245408   -165.17849   -1586.3095    11755.009 
   46830    273.26409    6.7738564    58.831994   -165.15767   -208.34792    11755.009 
   46840    280.11188    6.2432188    61.341421   -164.54476   -946.45899    11755.009 
   46850    283.83684    5.8065056    60.687774   -163.61664    1012.4102    11755.009 
   46860    296.30516    7.9772256    56.596914   -162.39524   -1696.3858    11755.009 
   46870    293.03592    9.5421181    63.829535   -160.93881    1184.6091    11755.009 
   46880     294.7365    7.9381456    57.801042   -159.52832    693.34761    11755.009 
   46890    274.19932    7.1130945    67.216221   -157.89977    1378.8276    11755.009 
46900        0.97215812924344302548 10.184498415578209674 1 68 -287.67185651328497897
   46900    291.06199    6.5474451    55.594268   -155.79658    -1825.105    11755.009 
   46910    269.87512    6.4119379    62.472076   -153.08559     -1990.29    11755.009 
   46920    284.66558    6.0184465    71.025385   -148.99096   -1289.2453    11755.009 
   46930    284.04384    9.2220709    70.032969   -143.66518   -244.82809    11755.009 
   46940    316.00799    8.5791776    66.335082   -138.08798   -591.32479    11755.009 
   46950    323.06322    7.6021234    65.562803   -133.47325     297.5319    11755.009 
   46960    317.03292    8.3320554    61.759082   -130.67753     2581.645    11755.009 
   46970    313.36541    5.8946848    67.521744   -129.36592    3047.6916    11755.009 
   46980    316.26034    7.6130551    66.818236   -129.16302    2333.4604    11755.009 
   46990    316.41445    8.3981506    64.943209   -129.68257   -1125.7408    11755.009 
47000        0.96276832859784189367 10.222275414478108502 0.99470899470899465378 73 -265.17471540972576349
   47000    297.80881    7.4933532    71.382984   -130.24257   -2710.4579    11755.009 
   47010    337.83832    4.4517049    56.960265   -130.83942   -473.05943    11755.009 
   47020    294.48821     3.552638     68.02174   -131.68178   -2408.8504    11755.009 
   47030    306.07304    4.9058176    63.007462    -132.3251   -2428.9141    11755.009 
   47040    306.56535    6.7212491    62.600499   -133.08945   -702.49819    11755.009 
   47050    307.39989    6.5785897    68.280962   -134.14631    1794.6068    11755.009 
   47060    323.95179    7.7126789     65.34086    -135.2277    2872.9466    11755.009 
   47070    326.96222    11.603399     63.56231   -137.15422   -1702.6958    11755.009 
   47080     307.0177    11.387117    71.838019   -140.00269   -1150.2892    11755.009 
   47090    321.42765    10.384331    64.296679   -143.99961    1346.9913    11755.009 
47100        0.96630820974558817582 10.195573476680644731 1 69 -281.82657903185111081
   47100    294.36051    9.0483941     72.23624    -148.4568   -1685.9053    11755.009 
   47110     304.6921      9.68965    62.032322    -153.0582    320.59812    11755.009 
   47120    283.13654    9.7985033    61.377817   -156.84871   -1375.8951    11755.009 
   47130    290.42746    6.1661272    58.464384   -159.62093    1926.7398    11755.009 
   47140    270.60532    5.6506104    68.823359   -161.28075    693.29463    11755.009 
   47150    287.62997    6.4279042    54.075212   -162.07741   -1978.3636    11755.009 
   47160    286.21822    7.1713879    64.188917   -162.41085     916.9271    11755.009 
   47170    297.37125    7.2463526    61.387906   -162.39404    1023.5773    11755.009 
   47180    299.57689    5.2534078    57.847818   -162.18959    942.36156    11755.009 
   47190    271.02315    5.6288541    72.404282   -161.66318    1523.0527    11755.009 
47200        0.97212923752187407889 10.190274768587750387 1 64 -301.68483370409865074
   47200     311.0692    8.1300422    60.726564   -160.74463     338.2438    11755.009 
   47210    286.20875     5.443724    72.037079   -160.14718    -2062.364    11755.009 
   47220    297.38897    5.9086906     58.81066   -159.50097   -4997.8115    11755.009 
   47230    300.62515    8.7428359    58.904211   -158.32903   -4438.3311    11755.009 
   47240    307.46231    9.8105509    71.178822   -156.94658     2547.867    11755.009 
   47250    301.83857    7.6707666    59.561043   -155.77546    1028.8967    11755.009 
   47260    278.84608    5.8159567     74.39014   -154.54242    3340.4648    11755.009 
   47270    306.11739    6.5496703    57.425871   -152.18691    1451.2078    11755.009 
   47280    279.81412    5.8572222    69.361255   -148.58631   -795.93422    11755.009 
   47290    313.65827    6.2825488    66.584754   -143.33898     1845.411    11755.009 
47300        0.9743507763198910876 10.177011727320756762 1 68 -272.6933119615873693
   47300    298.61137    5.6764356    73.935877   -137.39754    872.68166    11755.009 
   47310    313.30443     7.048221    68.313552     -132.119   -537.16203    11755.009 
   47320    311.60644    7.8594477    71.307784   -128.06494   -1529.7788    11755.009 
   47330    329.92828    7.1877146    64.492967   -125.27797   -2792.5877    11755.009 
   47340    340.69384    6.4219829    64.841688    -123.5401    2103.2552    11755.009 
   47350    317.24086    6.3396579    71.315032   -123.20463    213.68391    11755.009 
   47360    320.61806      6.35824    72.506163   -123.71587    2150.8664    11755.009 
   47370     333.4911    6.6364732    56.147556   -124.96789   -3245.7993    11755.009 
   47380    297.91637    9.2869661    76.284861   -126.74888   -779.32614    11755.009 
   47390    316.56469    14.670472    63.437527   -128.83507    1803.9364    11755.009 
47400        0.97778518272798287114 10.17002137377637716 1 69 -264.07320463013155631
   47400    293.66306     16.66188      69.3293   -131.01943    1253.7629    11755.009 
   47410    315.14619    15.825543    69.205008   -133.37848    2097.4963    11755.009 
   47420    304.26343    13.062589     71.77568   -136.12885    -61.30518    11755.009 
   47430    312.16337    8.2880592    69.384093   -139.83881   -799.19796    11755.009 
   47440    316.71525     5.332823    61.852579   -144.31602   -1829.8472    11755.009 
   47450    304.65073    4.2067902    53.457658   -148.58218   -5055.0129    11755.009 
   47460    299.12266     3.292842    59.908842    -152.1234    1776.2157    11755.009 
   47470    296.08722    3.6128063    59.483251   -154.70721    1726.3326    11755.009 
   47480    315.09605    4.7638015    55.766055   -156.74981    537.00934    11755.009 
   47490    304.65958    8.2231938    61.590495   -158.42128   -32.058637    11755.009 
47500        0.97728498564797627868 10.157755513055471752 1 66 -300.80500493233358839
   47500    310.74123    7.7858772    59.346814    -160.0134    1713.9812    11755.009 
   47510    299.51716     7.798003    61.851489   -161.17701    2980.1304    11755.009 
   47520    312.22877    6.5314453    51.341449   -161.92459   -1436.5581    11755.009 
   47530    295.88602    5.8902959    62.996033   -162.53608   -259.05974    11755.009 
   47540     281.6332    6.8458921    63.715967   -162.86439    1877.3953    11755.009 
   47550    272.64443    9.6960193    60.357014   -162.86316    356.95371    11755.009 
   47560    263.37362    9.1400782    64.763082    -162.0636   -2482.8686    11755.009 
   47570    271.02768    10.814536    68.199488   -160.23992    477.55657    11755.009 
   47580    301.27209    11.024025    64.742935   -157.86018   -694.22898    11755.009 
   47590    278.39447    10.116548    66.943196   -155.52049    1042.7649    11755.009 
47600        0.96600421177662187944 10.206492648924859523 1 66 -285.93719349111825068
   47600    292.74638    7.6666109    64.926376   -153.29875   -1729.0622    11755.009 
   47610    298.59381    7.5196628    69.238536   -150.72849   -224.75926    11755.009 
   47620    323.78345    5.2124784    62.648685   -148.50608   -1341.4457    11755.009 
   47630    301.62076    7.3228173     67.65738   -146.98038    196.11943    11755.009 
   47640    293.62381    5.4999838    70.003051   -146.06997   -926.59333    11755.009 
   47650    294.15398    5.1633017    68.359512   -145.19211   -410.29866    11755.009 
   47660    313.33183    5.0511426    62.847687   -144.17346    508.85747    11755.009 
   47670    331.29589    4.3701984    55.974323   -143.61402     2916.054    11755.009 
   47680    299.94036    4.0437876    62.362336   -143.54339   -1106.0803    11755.009 
   47690    293.99927    5.6793469    67.094694   -143.48838    391.76318    11755.009 
47700        0.96107746541158545206 10.206159675385285013 0.99735449735449732689 65 -273.88204027057992107
   47700    288.46024    4.4183488    65.540541   -143.18557   -1362.1017    11755.009 
   47710    296.45706    6.3609746    69.070458   -142.68833   -369.11967    11755.009 
   47720    297.61211    5.3011697    73.771954   -142.13023   -428.44273    11755.009 
   47730     314.9514    5.4218557    65.098163   -141.77255   -2258.8622    11755.009 
   47740    295.94516    6.0034159    67.956514   -141.78623     3218.686    11755.009 
   47750    313.54799    7.2391576    58.400695   -141.57493     1419.807    11755.009 
   47760    280.81419    6.5507075    73.068225   -141.41933   -2306.6834    11755.009 
   47770     306.0808     6.624964     63.49002   -141.10483   -2393.8221    11755.009 
   47780    300.39815    8.7996513    67.767914   -140.68781    2271.8424    11755.009 
   47790     326.0206    7.0960681    61.885361   -140.32283    950.34932    11755.009 
47800        0.96218586723053234344 10.211491259363095097 1 70 -276.81924950359859849
   47800    301.15081    6.9039949    59.233284    -140.3729   -5173.5981    11755.009 
   47810    319.93043    7.6262968    65.205356   -140.95137   -791.51191    11755.009 
   47820     295.3579    8.4105583    62.607869   -142.05637    2802.7162    11755.009 
   47830    310.38698    9.4156602    58.974689   -143.21603    3873.1745    11755.009 
   47840    316.20341    7.0587496    65.005027   -144.45472    2975.9045    11755.009 
   47850    305.28364    5.6816638    70.135698   -146.33739   -649.07953    11755.009 
   47860    317.38021    4.6019991    62.387224   -149.29472   -1974.7977    11755.009 
   47870    279.71915    3.5084964    64.509054   -152.83383   -2738.5898    11755.009 
   47880    312.48739    2.9863818    57.417471   -156.24585   -145.57661    11755.009 
   47890    299.43052    5.0636691    56.694086   -159.36188    1499.2379    11755.009 
47900        0.96964599211427948688 10.210326499866878791 1 69 -300.21879056630240257
   47900    305.34272    6.2393182    52.460121   -161.87316   -3174.8084    11755.009 
   47910    289.52348    6.4746424    56.942093   -163.89407    1595.1638    11755.009 
   47920    265.99829    6.9250474    62.036334   -165.06874    1509.6014    11755.009 
   47930    286.38945      5.88842    57.633394    -165.4183    1041.0604    11755.009 
   47940    267.71928    5.0027062    60.004871   -165.01513   -1622.9417    11755.009 
   47950    296.04682     4.641335    61.726841   -166.20453    775.20485    11755.009 
   47960     310.1671    5.1527608    61.409238   -163.95777    1170.2873    11755.009 
   47970    304.37228    6.1718192    60.131261   -161.54717   -1853.6068    11755.009 
   47980    300.57819    11.085757    60.796533   -156.42122   -5028.4683    11755.009 
   47990    289.44115    10.205879    69.121482   -153.57652    1872.8488    11755.009 
48000        0.97734608090835839445 10.1864210647067015 1 69 -292.4368559615028289
   48000     314.2453    8.8710369     62.22304   -150.05761      2720.39    11755.009 
   48010    313.69063    8.3468357    65.515189   -146.11198    1625.0704    11755.009 
   48020      342.861    8.9692329    57.920358   -143.88814    -3528.573    11755.009 
   48030    321.85169    10.986516    66.566153   -140.17345   -2359.5306    11755.009 
   48040    301.45893    11.916334    74.323901   -137.05968    2565.5941    11755.009 
   48050    300.83194    12.689415    71.983517   -134.45981    3408.4993    11755.009 
   48060    299.04366     10.98012    72.511193   -131.81276    2017.1686    11755.009 
   48070    327.15414    8.4864485    65.353692   -128.85672    -2578.233    11755.009 
   48080    318.48485    6.7778471    73.231792   -123.85225   -2188.4186    11755.009 
   48090    319.30908    5.6342242    72.673591   -121.37199   -1649.6595    11755.009 
48100        0.9824020025828912317 10.151036568400211735 1 71 -276.40520354215806265
   48100    347.33806    3.8854854    66.568944   -119.03219   -437.47842    11755.009 
   48110    337.43128    4.6540175    76.990948    -117.2596    1601.4737    11755.009 
   48120    360.67776    8.7986658    64.291081   -116.80948   -464.61921    11755.009 
   48130    340.10194     11.36322    64.873553   -118.49064    748.78349    11755.009 
   48140    315.39597    8.9928323    68.059211   -122.32519    477.54217    11755.009 
   48150    305.93191    7.7038514    60.726067   -127.24151   -3393.2712    11755.009 
   48160    321.72637    5.3150078    62.338149   -132.67625   -1279.3957    11755.009 
   48170    321.14056    5.7585754    65.385118   -137.88662    1273.3293    11755.009 
   48180    321.32453    3.0997769    59.155015    -142.9617    991.96055    11755.009 
   48190     279.5532    6.7484777    66.626478    -147.4319   -34.552509    11755.009 
48200        0.98412785746519026997 10.122125038652058038 1 68 -279.56801505225303117
   48200    284.94567    7.8710304    64.448239   -150.46394   -829.97652    11755.009 
   48210    290.26932    9.4714099    54.244491   -152.57642    1227.2552    11755.009 
   48220    310.18879    7.9279737    51.964739   -153.84274    217.87687    11755.009 
   48230    311.77724    5.3640874    54.495481   -154.46966    1789.5125    11755.009 
   48240    335.22326    5.2019934    55.971988   -154.80481    3696.2339    11755.009 
   48250    335.23702    7.1304376     54.70018   -155.52206   -948.02239    11755.009 
   48260     313.9051    8.3030427    60.146403   -157.15696   -2775.9188    11755.009 
   48270    296.54761    13.456506    70.666884   -159.39462   -3656.5713    11755.009 
   48280    269.85309    15.425928    64.409548   -161.81249    2736.4834    11755.009 
   48290    274.24493    13.797008    61.294339   -163.62975    2706.9278    11755.009 
48300        0.98604057202280059879 10.103362893193112981 1 64 -299.72403111109190377
   48300    297.93042    9.0970825    55.060553   -164.73679    3799.0419    11755.009 
   48310    289.21031    8.6555718    53.105578   -165.36235   -3196.0233    11755.009 
   48320    296.38349    8.9672112    55.980446   -165.40497   -1532.6695    11755.009 
   48330    287.38729    7.8842583       67.206   -165.11232   -1747.5909    11755.009 
   48340    284.07401    9.5897825    57.828095   -164.69127     2031.419    11755.009 
   48350    259.31438    9.1587571    59.587903   -163.56116   -1651.3032    11755.009 
   48360    284.89168    8.8419036    52.974328    -160.8454   -1902.0396    11755.009 
   48370    278.67552    8.8620259    62.835313   -158.31124   -927.73568    11755.009 
   48380    303.49045    6.6692827    58.047138   -152.22201     4570.642    11755.009 
   48390     312.3244    7.2681209    63.073184   -146.29666    3475.0073    11755.009 
48400        0.98456134984642107444 10.124354135837744906 1 66 -280.18219756428823075
   48400     306.0419    8.5473385    67.067211   -141.51978    2842.1114    11755.009 
   48410    301.98676    6.9702468    69.278946   -138.41553   -1440.5116    11755.009 
   48420    316.50017    5.6566693    64.712037   -136.38875   -1540.0288    11755.009 
   48430    317.86506    4.2704111    64.980264   -135.57881   -2121.1445    11755.009 
   48440    329.69461    4.6284755    57.153422   -132.86551   -533.06369    11755.009 
   48450     306.1549    5.8390108    66.124223   -132.69924    150.34993    11755.009 
   48460     307.5405    5.1318301     58.49304     -132.764    3448.0273    11755.009 
   48470    300.68469    6.3887829    63.589653   -132.90754    -193.7299    11755.009 
   48480     295.5926    7.2172485    67.255589   -133.17735   -1547.2803    11755.009 
   48490    312.27391    4.8096529    61.709829    -133.6084   -4113.2788    11755.009 
48500        0.98112454461483222801 10.141430975226100486 1 70 -277.01454922667619485
   48500    314.34571    3.8190247    69.165245   -134.58981    1304.1493    11755.009 
   48510    320.25998    5.6314355    66.977773   -136.46171    1179.1181    11755.009 
   48520    320.31964    9.1234718    64.029713   -139.41693    4145.8547    11755.009 
   48530    314.07601    10.704903    64.252107   -143.70062    1004.5144    11755.009 
   48540    305.01053     11.28631    58.801733   -148.65033   -2390.6001    11755.009 
   48550     279.8002    10.785288    64.082895   -153.86832   -4187.5466    11755.009 
   48560    276.28438    9.5614132    59.842949   -157.86992   -3057.1659    11755.009 
   48570    271.60891    9.8072926    59.411127   -162.14401    749.02773    11755.009 
   48580    284.29124    7.1389047    57.543799   -163.31487    526.76595    11755.009 
   48590     271.7688    7.7016556    60.085796   -163.58209   -1875.8396    11755.009 
48600        0.98291055497773716088 10.150575246781119887 1 69 -294.81993336428257635
   48600    290.39237    8.7150781    64.050031   -163.24805    2249.1367    11755.009 
   48610    313.23156    7.6231626     53.83954   -162.77919   -128.08141    11755.009 
   48620     300.9451    5.1865749    64.937435   -162.72043    1454.1884    11755.009 
   48630    315.65028    6.3482794    53.652914   -163.13023    -765.5845    11755.009 
   48640    279.27356    5.1904589    64.406848   -163.88419   -1945.1364    11755.009 
   48650    271.37735    4.7114586    64.226822   -164.01602   -2491.3967    11755.009 
   48660    282.15409    5.3330344     61.17441   -161.49611   -347.35356    11755.009 
   48670    280.14054    7.5894906    66.610567   -160.47746    2788.3599    11755.009 
   48680    300.19716    8.4236266    51.181528   -159.20922    2757.0733    11755.009 
   48690    258.54686    7.9947942     62.14664    -157.5584    1028.9667    11755.009 
48700        0.98940880447258161556 10.107705277338835614 1 70 -286.14648861656399959
   48700    288.91322    5.7390506    58.895048   -155.24478     1128.702    11755.009 
   48710    268.76992    5.1260126     67.90536   -152.56429   -282.94497    11755.009 
   48720    284.50858    3.8945129    57.460237   -149.85572   -406.61851    11963.089 
   48730     264.3849    5.0619786    66.177372   -147.32952   -4474.7853    11963.089 
   48740     315.9246    7.6137051    59.882554   -145.12315   -247.19538    11963.089 
   48750    325.63766    9.6236739    60.216591    -143.8798    280.55483    11963.089 
   48760    329.87708    11.102785    62.692605   -143.76699    495.62958    11963.089 
   48770    313.33539    14.459457    61.768307   -144.49395   -387.01652    11963.089 
   48780    293.88927    13.900022    58.164986   -145.42158   -1087.4912    11963.089 
   48790     317.6777    11.419518    54.958843   -146.19469    674.05143    11963.089 
48800        0.99237547324651731451 10.083264321763282467 1 70 -284.1359859040903757
   48800    302.28313    9.5847802    69.432161    -147.1766    4047.3302    11963.089 
   48810    289.33421     10.07475    65.234744   -148.31148    2464.7216    11963.089 
   48820     291.0248    11.090344    62.513554     -149.376     927.0816    11963.089 
   48830    297.19843    10.536254    57.993403   -150.09732   -570.18311    11963.089 
   48840    317.49584    9.3445054    51.372445   -150.43745   -78.315368    11963.089 
   48850    297.98648    8.6567618    62.731779   -150.34987    178.20938    11963.089 
   48860    311.99436    8.2910116    52.156355   -149.88572     -4659.53    11963.089 
   48870     271.1155    7.1794833    71.904157   -149.24943   -2473.5048    11963.089 
   48880    308.77284    4.2119804    62.267761   -148.09186    2359.5204    11963.089 
   48890    289.49486    3.7763805    71.150263   -146.75404     2576.877    11963.089 
48900        0.99229214091501249939 10.083457625855444917 1 67 -285.67938790653749948
   48900    310.45646    4.6080489     63.92234    -145.0168    2056.6684    11963.089 
   48910    302.83491    5.6675829    65.993476   -142.93449   -1824.7384    11963.089 
   48920    320.98238    8.3368725     56.69172   -140.71312    254.19903    11963.089 
   48930    290.56095    7.3363914    70.575773   -138.40827    2105.6402    11963.089 
   48940    302.73538    6.9164604    67.113879    -135.6768    284.27292    11963.089 
   48950    299.55238    8.3328658    67.298265   -132.56903   -131.03055    11963.089 
   48960     292.9975    9.4111551    67.195558   -129.36671   -2223.3955    11963.089 
   48970    299.48416    7.3812387    69.070745   -125.73021   -2436.8608    11963.089 
   48980    318.48253     6.635389    68.300317   -122.22031    748.30257    11963.089 
   48990    322.47702    7.1319709    72.835148   -119.37156    1411.7112    11963.089 
49000        0.99062831013249841305 10.073140585314664719 1 69 -262.23401764142948878
   49000    319.19094      7.40471    61.896915   -117.61399    1658.2572    11963.089 
   49010     300.8362    5.2486397    77.540034   -116.47172    2680.3171    11963.089 
   49020    323.76365    6.4214301    72.463181   -115.89501    413.98743    11963.089 
   49030    323.47607    7.5630838    73.126427   -116.24668   -2084.0865    11963.089 
   49040    334.52929    9.6297222    74.220711   -118.55187    -2114.542    11963.089 
   49050    317.69566    9.3722522    68.890184   -122.86267    174.09586    11963.089 
   49060    328.64085     9.104653    62.902399   -128.48158   -1530.5207    11963.089 
   49070    318.64704    6.9979163    66.917902   -135.25369    730.29795    11963.089 
   49080    305.55445    7.5570733     64.51708   -141.55551   -1022.4811    11963.089 
   49090    293.71027    7.5600943    62.301693   -145.99993     2315.279    11963.089 
49100        0.98622261569773839174 10.112053365490657697 1 70 -273.50480211936741171
   49100    276.01992    10.030938    63.768266   -148.44483    972.93542    11963.089 
   49110    291.06559      10.1362    54.402108   -149.71385    1005.9138    11963.089 
   49120    275.09398    7.4781022    64.679368   -150.08358   -91.359106    11963.089 
   49130    308.38863    5.9838134    51.201637   -149.86343    1949.2299    11963.089 
   49140    282.48676    4.6298437    62.709686   -149.34523   -1269.9787    11963.089 
   49150    318.39825    4.2082086    55.264779   -148.55634    532.44883    11963.089 
   49160    319.43475    4.9323612      56.6931   -148.07103   -128.79794    11963.089 
   49170    299.09244    5.7549999     57.27473   -147.85576    647.13532    11963.089 
   49180    297.99127    5.2985832    55.453127   -147.64984    503.88082    11963.089 
   49190    295.47911    6.1035618    61.121518    -146.9668    431.38767    11963.089 
49200        0.97164114243841825935 10.202676874389521089 1 69 -286.604295937329141
   49200    310.57736    3.9090916    56.833691   -145.88693   -3879.8747    11963.089 
   49210    291.60392     5.213644    67.803971    -144.7811   -1992.1473    11963.089 
   49220    286.94952     7.677395    62.435237    -143.6714       350.97    11963.089 
   49230    303.93889    9.7784067    62.800132   -142.27073     3955.825    11963.089 
   49240    310.72516    6.3162709    65.369195    -140.5103   -114.62524    11963.089 
   49250    314.02097    6.7165188    58.694933   -138.85664   -5885.1879    11963.089 
   49260    302.57753    5.3289946    67.120536   -137.25359   -4348.6838    11963.089 
   49270    299.00422    6.2360381     67.17582   -135.54872    433.46654    11963.089 
   49280    298.52874    8.6954783    64.597503   -133.51376    880.84266    11963.089 
   49290    318.59964    8.9125112    63.609805   -131.17267    5034.5474    11963.089 
49300        0.96984366883919126412 10.182526257490536636 1 70 -275.64537407214743325
   49300      324.147     8.164519    58.965737   -128.77984    1614.6434    11963.089 
   49310    317.41919    7.7624307    60.865736    -126.4641    645.14162    11963.089 
   49320    333.56272     5.835488    64.003663   -123.98186    983.27962    11963.089 
   49330    327.91536    6.8631659    60.126599   -122.16633   -538.38819    11963.089 
   49340    315.84047    5.3214585    61.384084   -120.76294   -4095.8886    11963.089 
   49350    317.53996    5.6376717    64.526353   -119.45556   -1157.4336    11963.089 
   49360    340.69599    4.2140632    65.114797   -118.21689   -1221.2515    11963.089 
   49370    330.41873    4.5908489    76.707384   -118.35892    3179.1065    11963.089 
   49380    354.00958    5.2183496    67.874474   -120.76254   -95.776823    11963.089 
   49390    350.26276    7.7358794    60.222353   -126.25065    348.70227    11963.089 
49400        0.97065993423853536015 10.185302567733883095 1 71 -290.01432702136486341
   49400    343.67217    9.8963494    53.946386   -134.30226    -927.0577    11963.089 
   49410    297.12972    8.5995409    67.679626   -141.90195   -1589.7349    11963.089 
   49420    300.58314    9.4238037    62.081955   -149.39168     2171.305    11963.089 
   49430    270.87556    11.386181    67.542053   -152.68586   -89.713112    11963.089 
   49440    274.35444    11.742465    59.985299   -152.48733    -1068.922    11963.089 
   49450    288.82834    8.7350891    54.310833   -153.58893   -306.39177    11963.089 
   49460    291.27411    4.7038982    61.232713    -154.1269    1097.0415    11963.089 
   49470    310.97163    4.2771293    55.902984   -154.16683    130.74499    11963.089 
   49480    298.26923    5.0260218    60.880446   -153.97496   -2174.3763    11963.089 
   49490    280.48602     5.901612    62.817894   -153.78994    505.37187    11963.089 
49500        0.9747936703071693465 10.167737444709317174 1 74 -280.95880943826313114
   49500    281.49932    6.6467109    59.319268   -153.41621   -16.501849    11963.089 
   49510    293.28988    6.0097461    65.659151   -152.90202    2967.2937    11963.089 
   49520    325.74987    8.0295492    51.448442   -152.51455    663.96926    11963.089 
   49530    295.99719    8.6987298    57.015318   -152.39339   -398.83382    11963.089 
   49540    290.13592    9.0664229    51.897091   -151.92129   -1827.1274    11963.089 
   49550    265.19181    8.3715325    64.484147   -150.67651   -889.02497    11963.089 
   49560    287.28361    5.9145619    61.252396   -148.52963    2646.7238    11963.089 
   49570    307.98702    7.4735377    59.854886   -145.50711    1541.5777    11963.089 
   49580    301.82484    11.061582    54.696245   -142.16333   -484.70684    11963.089 
   49590    316.82715    11.212026    56.642109   -138.26952   -194.00038    11963.089 
49600        0.97591048992652129623 10.161615902610741102 1 74 -282.76832659946074955
   49600    327.29405    8.4512968     71.63278   -134.47691   -261.55174    11963.089 
   49610    336.74815    8.9848472    57.985935   -131.87149   -1650.7968    11963.089 
   49620    315.53664     10.41702    65.914888   -130.98274   -2948.2459    11963.089 
   49630    311.14293    11.300827    65.884984   -131.01372   -2054.0365    11963.089 
   49640    315.47056    10.364358    62.997723   -131.81614    192.52471    11963.089 
   49650    281.54864    9.0677989    75.543528   -133.49201    4609.5726    11963.089 
   49660    301.29264    7.8962097    63.391787    -135.6689    2490.0946    11963.089 
   49670    295.22477    7.2408938    73.195063   -138.87316     1755.217    11963.089 
   49680    313.35894    7.2461332    56.805629   -143.28093   -52.456487    11963.089 
   49690    280.41557    4.8372822    63.008357    -148.9797    1958.1552    11963.089 
49700        0.9685787427843016717 10.210552169164039071 1 76 -280.61330792394426226
   49700    279.17662     5.235259    58.897808   -154.12309    1317.6038    11963.089 
   49710    276.78433    4.5355618    59.871805   -158.45078   -6617.7031    11963.089 
   49720     286.2905    4.4537843     57.06231   -161.35963    -3374.226    11963.089 
   49730    301.24259     5.622259    51.726657   -163.31787    161.02579    11963.089 
   49740    278.72429    5.0338472    59.954648   -164.62777    4768.2816    11963.089 
   49750    275.09155    6.6303541    54.541083   -165.15245    603.44333    11963.089 
   49760    251.54352     7.200373    56.602818   -164.90451   -1126.3629    11963.089 
   49770    275.93244    7.1978427    54.543878   -163.73936   -1058.4334    11963.089 
   49780    260.59788    7.9424224    63.756176   -161.77236   -1231.7035    11963.089 
   49790    288.21944    7.9369348    57.099023   -159.36279    488.10944    11963.089 
49800        0.96199315241809668642 10.242422953160829735 1 76 -287.49670126234320833
   49800    288.27637    8.4901855    59.477767   -156.88354   -849.35112    11963.089 
   49810    279.39416    6.9193105    67.128967   -154.61668   -1554.1178    11963.089 
   49820    280.31014    7.3082177    56.264323   -152.28937   -902.47913    11963.089 
   49830    302.78708    8.4159654    61.861715   -149.91159     2319.923    11963.089 
   49840    327.79067    7.5993369    67.741483   -148.25874    1640.6015    11963.089 
   49850    334.67153    6.1531733    50.293572   -148.03122   -4905.0404    11963.089 
   49860    298.66592    5.4796426    57.724977   -148.65126   -1146.7776    11963.089 
   49870    294.54096    7.7379811    64.459235   -149.14478    2638.1612    11963.089 
   49880    267.61434     9.165678    59.078989   -149.23643    3322.1639    11963.089 
   49890    287.54864    8.3856359    58.602646    -148.7685    800.23382    11963.089 
49900        0.96587933491277955245 10.202886426158801925 1 71 -279.13745469686801925
   49900    289.91447    6.3063035    63.488274    -147.7821   -1995.6274    11963.089 
   49910    305.70488    6.3128797    58.745066   -146.32286    -1037.159    11963.089 
   49920    316.27958     6.533203    62.884918   -144.90309   -414.33316    12370.644 
   49930    302.26135    7.1218052    66.002293   -143.81783   -1646.3866    12370.644 
   49940    287.77469    7.5397459    66.572971   -142.97702   -299.69857    12370.644 
   49950    292.76745    7.1778533     67.81396    -141.9693   -205.17509    12370.644 
   49960    306.62412    5.1394744    61.057077   -140.89995     832.7308    12370.644 
   49970    316.12013    5.3168673      57.1567   -139.40551    1100.9167    12370.644 
   49980    300.34818    6.6274649    62.362942   -137.27286    -894.6756    12370.644 
   49990    315.45499    8.3792227    65.094953   -134.21111    1250.0429    12370.644 
50000        0.96582153877289056432 10.200512998317520896 0.99735449735449732689 70 -270.3520625297717288
   50000     307.8651    7.1619269    62.367623   -130.86358    -1862.615    12370.644 
Loop time of 216.599 on 1 procs for 50000 steps with 153 atoms

Pair  time (%) = 9.05056 (4.17849)
Bond  time (%) = 0.712402 (0.328904)
Neigh time (%) = 0.00875449 (0.0040418)
Comm  time (%) = 0.0918355 (0.0423989)
Outpt time (%) = 0.718621 (0.331775)
Other time (%) = 206.017 (95.1144)

Nlocal:    153 ave 153 max 153 min
Histogram: 1 0 0 0 0 0 0 0 0 0
Nghost:    0 ave 0 max 0 min
Histogram: 1 0 0 0 0 0 0 0 0 0
Neighs:    5936 ave 5936 max 5936 min
Histogram: 1 0 0 0 0 0 0 0 0 0
FullNghs:  11872 ave 11872 max 11872 min
Histogram: 1 0 0 0 0 0 0 0 0 0

Total # of neighbors = 11872
Ave neighs/atom = 77.5948
Ave special neighs/atom = 2.64052
Neighbor list builds = 12
Dangerous builds = 0
