LAMMPS (9 Oct 2012)
# 3d protein simulation

units real

timestep 2

dimension	3

boundary s s s
#boundary p p p

neighbor	10 bin
neigh_modify	delay 5

atom_modify sort 0 0.0

special_bonds fene

atom_style	peptide

bond_style harmonic

pair_style vexcluded 2 3.5 3.5

read_data data.testeo
  3 = max bonds/atom
  orthogonal box = (-200 -200 -200) to (200 200 200)
  1 by 1 by 1 MPI processor grid
  153 atoms
  202 bonds
  5 = max # of 1-2 neighbors
  5 = max # of special neighbors

pair_coeff * * 0.0
pair_coeff 1 1 20.0 3.5 4.5
pair_coeff 1 4 20.0 3.5 4.5
pair_coeff 4 4 20.0 3.5 4.5
pair_coeff 3 3 20.0 3.5 3.5


velocity	all create 300.0 1582686

group		alpha_carbons id 1 4 7 10 13 16 19 22 25 28 31 34 37 40 43 46 49 52 55 58 61 64 67 70 73 76 79 82 85 88 91 94 97 100 103 106 109 112 115 118 121 124 127 130 133 136 139 142 145 148 151
51 atoms in group alpha_carbons

group		beta_atoms id 3 6 9 12 15 18 21 24 27 30 33 36 39 42 45 48 51 54 57 60 63 66 69 72 75 78 81 84 87 90 93 96 99 102 105 108 111 114 117 120 123 126 129 132 135 138 141 144 147 150 153
51 atoms in group beta_atoms

group		oxygens id 2 5 8 11 14 17 20 23 26 29 32 35 38 41 44 47 50 53 56 59 62 65 68 71 74 77 80 83 86 89 92 95 98 101 104 107 110 113 116 119 122 125 128 131 134 137 140 143 146 149 152
51 atoms in group oxygens


fix		  1 all nvt temp 300.0 300.0 100.0
fix		  2 alpha_carbons backbone beta_atoms oxygens fix_backbone_coeff.data testeo.seq
Chain flag on
Chi flag on
Rama flag on
Rama_P flag on
SSWeight flag on
ABC flag on
Dssp_Hdrgn flag on
P_AP flag on
Water flag on
Burial flag on
Helix flag on
Fragment_Memory_Table flag on
DebyeHuckel on

Reading fragments...
Computing FM table...

variable      biasinge equal f_qbias
# output wham.dat, a file with collective variables that can be used to compute pmfs
compute     qw alpha_carbons qwolynes rnative.dat 2 0.15
variable    qw equal c_qw
compute     rg alpha_carbons gyration
variable    rg equal c_rg
compute     qo alpha_carbons qonuchic cutoff 12.0 nativecoords.dat 1.2
variable    qo equal c_qo
compute     tc beta_atoms totalcontacts 6.5 2
variable    tc equal c_tc
variable    step equal step
variable    E_P equal pe

fix         wham all print 100 "${step}        ${qw} ${rg} ${qo} ${tc} ${E_P}"

thermo		10
dump		1 all atom 50 dump.lammpstrjPH


dump_modify	1 sort id

reset_timestep	0
run		50000
Memory usage per processor = 0.857471 Mbytes
Step Temp E_pair E_mol TotEng Press Volume 
       0          300    54.408864    955.49334    706.11014    -33253.58    10890.368 
      10     1278.895    61.929736    297.03205    646.46287    9216.2545    10890.368 
      20    722.68354    27.098719    508.29539     556.4427    6542.9774    10890.368 
      30     998.0896    13.918346    360.16349    483.86335    30640.899    10890.368 
      40    782.00144     8.707155     352.9158    390.58529   -31711.275    10890.368 
      50    740.59337    7.0570258    281.24292     320.5187   -3254.4149    10890.368 
      60    757.79096    4.7020202    236.01544    249.77684   -6312.5432    10890.368 
      70    630.56093    7.5842575    244.90735    191.39515    23137.944    10890.368 
      80    618.23399    15.539959    180.29879    141.84899   -1157.9835    10890.368 
      90    469.43015    15.272207     192.3493    97.629367   -15956.803    10890.368 
100        0.99288000039703905308 10.052453898754343697 1 69 -171.48489039657152944
     100    506.54169    7.8646467     175.2901    58.020601    1177.1381    10890.368 
     110    470.28269    3.2851919    162.23281    22.401833    7995.6285    10890.368 
     120    456.12318    3.9497524    143.16796   -9.2235229    417.17375    10890.368 
     130    432.36174    3.6773612    120.74166   -35.258313   -5007.0316    10890.368 
     140    401.81822    6.0774563    121.83925   -59.982128   -5118.5944    10890.368 
     150     392.9068    7.4824262     113.2095   -82.315439    11131.511    10890.368 
     160    402.76978    11.156232    94.634886   -102.35613    3447.8656    10890.368 
     170    390.60764    10.233226    88.181213   -120.22266    1071.4435    10890.368 
     180    348.61274    6.8561601    98.827584   -136.50273   -4837.3202    10890.368 
     190    309.22299    6.2982935    96.825764   -151.45732    -3235.063    10890.368 
200        0.99172643791403669589 10.108739270308982228 1 69 -292.8931912762549814
     200    281.10622    4.8559519    101.36407   -165.52871   -423.86115    10890.368 
     210    274.86197    6.2953491     96.14438   -176.71457   -57.960281    10890.368 
     220    274.17253    7.0774043    87.664958   -186.36137   -5551.1881    10890.368 
     230    245.50201    9.8252719    84.911204   -193.96655    2742.1143    10890.368 
     240    285.29973     12.37391    65.036343   -200.08596    918.94878    10890.368 
     250    241.13319    11.278841    79.830341   -204.91539    4235.6643    10890.368 
     260    261.79303    10.967012    72.697965   -208.22367   -656.91325    10890.368 
     270    259.64084    8.7726372    68.675405   -210.00668   -2389.3775    10890.368 
     280    241.25286    9.3680959    78.216293   -210.14115   -244.16134    10890.368 
     290    280.13829    6.8013115     65.95455   -208.41803    -2000.713    10890.368 
300        0.99011582502984896159 10.105148755025723517 1 68 -316.78968338073894984
     300    245.00247    5.1721478    82.253484    -205.7832    4357.6963    10890.368 
     310    260.43051    5.5390131    76.125334   -201.69919    408.03576    10890.368 
     320    251.51821    8.0972241    75.979418   -196.54149    -2783.117    10890.368 
     330    269.23244    7.6371957    75.080941   -190.95072   -3250.1821    10890.368 
     340    309.29142     8.203834    68.312745   -183.54834    1183.9124    10890.368 
     350    260.90119    6.1643282    98.342304   -176.40963    5663.9433    10890.368 
     360    308.32184    8.4548321     74.34027   -168.09966   -945.35493    10890.368 
     370    291.66389    7.8185057    88.829029   -160.40196   -1944.0243    10890.368 
     380    348.53101    9.4080512    72.432805   -152.66861   -2138.1878    10890.368 
     390    327.32706    9.0039083    87.068212   -144.54571    1240.0067    10890.368 
400        0.98910208835593182997 10.111854833664406073 1 68 -287.15473534527279753
     400    329.28939    5.6605182    92.474427   -137.95927    764.38001    10890.368 
     410    331.74529    8.1474744    98.800495   -132.16474     466.9706    10890.368 
     420    325.20061     5.898025    99.881378   -127.39238     476.8105    10890.368 
     430    342.07463    6.1893115    98.157053   -124.79796    4237.0993    10890.368 
     440    327.55119    6.6975368    115.80464   -124.17432    1624.2248    10890.368 
     450    359.41572    9.0395642     89.78315   -125.34429   -2367.5335    10890.368 
     460    313.08705    9.8223884    97.759068   -128.20897   -9230.9018    10890.368 
     470    328.96521    10.697656    96.928711   -132.61856    2512.7301    10890.368 
     480    310.24746    9.3607651    99.375071   -137.71043     2890.732    10890.368 
     490    308.93767    7.8235509    92.622943   -143.50773    5231.2872    10890.368 
500        0.98577309440211169367 10.141869769051787387 1 69 -300.41562477295235567
     500    330.07557    8.0352599     89.49281   -150.86395   -1193.9068    10890.368 
     510    276.24408    4.3410769    102.73107   -158.01512   -3536.1732    10890.368 
     520    298.72367    3.9786723    86.943179   -163.90434    1762.3081    10890.368 
     530    283.02737     5.125579    93.546952   -171.24636   -3863.7316    10890.368 
     540    286.52699    9.2398504    82.923386   -176.77789    1290.0542    10890.368 
     550    302.88737    9.8159663    73.594385   -182.65074   -3035.5785    10890.368 
     560    249.73912    7.6645316    90.388941    -186.8106    862.33883    10890.368 
     570    288.43152     7.534533    71.241378   -190.43993     695.3769    10890.368 
     580    241.29651      5.46678    84.286357   -193.15398    1245.6153    10890.368 
     590    286.51809    5.0619237     69.73112   -194.47121   -875.87232    10890.368 
600        0.98488713122565751945 10.136035344866881402 1 68 -305.62743719604281978
     600    243.85233    4.3584071    78.361245   -195.14206   -426.03387    10890.368 
     610    256.36919    4.5398487    78.117262   -194.16506   -534.31342    10890.368 
     620     267.5854    6.7047147    78.483191   -192.06623    1186.5545    10890.368 
     630    272.93172    6.2905637    75.009454   -189.27385   -712.73841    10890.368 
     640    285.63938    5.3261901    77.685497   -185.24565    1511.7174    10890.368 
     650    278.08974    7.6733546    78.332759   -180.97978   -2237.6443    10890.368 
     660    277.75275    7.7831424    85.692413   -176.25287    924.28283    10890.368 
     670    283.03264    8.4601016    88.468437     -171.056    2127.5002    10890.368 
     680    287.40622    8.5861129    87.303006   -165.58971    983.14515    10890.368 
     690    321.22794    8.2520347    78.231075   -160.36921   -2102.9454    10890.368 
700        0.9838720195551758918 10.138821238173235884 1 67 -291.26875628061401358
     700    300.30999      10.7335    83.297356   -155.20337   -1593.1131    10890.368 
     710     313.6361    10.366926    88.736213   -150.20302   -1480.0977    10890.368 
     720    314.43942    11.780919    90.406973   -145.45774      4626.88    10890.368 
     730    318.67578    8.0272997    91.797629    -141.9868   -1503.3858    10890.368 
     740    325.61704    9.7134665    89.084975    -139.4763    1692.1811    10890.368 
     750    322.57219    9.7172963    95.758293    -137.8703   -1718.7592    10890.368 
     760    327.68479    9.8628073    96.371555   -136.89817     5273.387    10890.368 
     770    324.64144    7.9822643    92.593871    -137.4858   -557.06608    10890.368 
     780    331.91282    8.9784957    85.286707   -138.82944   -181.08922    10890.368 
     790    304.94813     8.022481    96.507268   -141.59863   -4724.0515    10890.368 
800        0.97832929731106055282 10.161866703118757727 1 69 -274.69150215304415497
     800      287.179    6.8935268    94.351056   -144.57554    725.74929    10890.368 
     810    289.50307    4.6343326    96.530853   -148.13448   -1984.2642    10890.368 
     820    282.98479    4.1830003    97.675128   -151.58416    1830.4214    10890.368 
     830    298.30413    4.8610584    84.043155   -155.00101   -814.49325    10890.368 
     840    287.25049    4.6603715    85.827738   -159.12292     2081.001    10890.368 
     850    297.10194     4.789581    87.963832   -162.65857    2166.0864    10890.368 
     860    280.99489     4.495638    83.997657   -165.92107    871.22027    10890.368 
     870     297.9049    5.4956285     78.92635   -168.67977   -2181.7698    10890.368 
     880    280.79936    5.0866743    80.682101   -171.07017   -682.03242    10890.368 
     890    308.08979    5.3209366    74.272651   -173.00245    -1709.923    10890.368 
900        0.97405441386782742885 10.179247496432921594 1 68 -310.74699337052749115
     900    300.32484    6.1590117    75.112989   -174.67487   -603.79916    10890.368 
     910    293.05305    6.0346335    76.501117   -176.12977    -3113.436    10890.368 
     920     282.5331     7.559741     80.56818   -177.45425    2622.4891    10890.368 
     930    288.20675    8.7163016    73.718248   -178.22379    1957.3893    10890.368 
     940    297.81229    9.2799562     73.22207   -178.20368    3173.4327    10890.368 
     950    283.89098    6.4924535    84.883988   -177.56485    574.89413    10890.368 
     960    296.60117    7.9023892    75.514159   -176.62815   -585.48498    10890.368 
     970     270.1897    7.8335778    85.193576   -175.28728   -382.98796    10890.368 
     980    296.78862    11.280472     75.45609   -173.37596   -3249.2097    10890.368 
     990    302.23804    8.3102338    74.217801   -171.19161   -815.60065    10890.368 
1000        0.97187949448089627769 10.183900743268871736 1 64 -304.45450654765755871
    1000    298.81997    8.1864742    87.529594   -169.06422    1293.8425    10890.368 
    1010    294.93983    5.8859722    80.158131   -166.33736   -2549.0369    10890.368 
    1020    274.34209    2.9990241     89.21092   -164.00312    2713.6394    10890.368 
    1030    274.95327    4.6795125    86.465454   -161.57526   -1376.4576    10890.368 
    1040    296.81717     4.304605    87.652729    -158.7221    3267.6138    10890.368 
    1050     290.2767    4.6864814    87.563869   -155.79786    1246.1488    10890.368 
    1060    318.37169    4.7886559    86.695964   -152.63451    -409.3866    10890.368 
    1070    299.87781    6.5357713    89.956188   -149.91847   -3555.1118    10890.368 
    1080    316.75687    7.8039199    81.467359   -147.77472   -5173.7682    10890.368 
    1090     312.1625    5.3689703    87.851105   -145.74158    1113.3604    10890.368 
1100        0.97097000063994753916 10.184887812790753614 1 65 -281.87058991095722149
    1100    302.77875    6.0407159    86.815328   -144.68665    1887.0324    10890.368 
    1110     323.7676    5.5663554    77.205302    -143.8924   -2773.9144    10890.368 
    1120    306.53478     5.825741    84.228741   -143.74919    2790.4923    10890.368 
    1130    350.06913    4.7944862    77.556049   -144.32616   -147.61293    10890.368 
    1140    288.18133    4.8037258    96.838436   -145.00362    41.287304    10890.368 
    1150    336.49267    4.6689791    74.907201   -146.37631   -2292.3278    10890.368 
    1160     307.0963    4.7089094    91.814892   -149.28558    1371.1684    10890.368 
    1170    337.73182    5.4869855    78.238958   -152.18897    3083.8854    10890.368 
    1180    326.35339    6.9695906     77.63355   -156.02693   -758.01527    10890.368 
    1190    325.55261     7.243919    75.689412   -159.84353    263.43939    10890.368 
1200        0.97556882238578490618 10.179144646635432281 1 66 -303.97555406375238363
    1200    310.41657    6.2655944    76.959444   -163.33104   -2907.4401    10890.368 
    1210    299.07179    5.2581176    72.376716   -166.82812   -837.22151    10890.368 
    1220    289.59913    6.3254541    82.168718   -170.08819   -1003.1416    10890.368 
    1230    289.85191    7.9559801    81.720065   -172.81831    4948.2677    10890.368 
    1240    282.92769    8.0388569    85.216617   -176.02389   -956.53753    10890.368 
    1250    276.83567     6.845341    75.005743   -178.19656   -1784.5655    10890.368 
    1260    289.08936    8.4476569    74.079546   -179.94172   -90.369873    10890.368 
    1270    273.34719    8.0547385    75.861149   -180.46598    3035.1484    10890.368 
    1280    296.95558    8.3649004    71.136674   -180.95698   -3090.0191    10890.368 
    1290    235.51911    7.7592733    87.221527   -180.70879   -2301.2063    10890.368 
1300        0.9833308693841843473 10.152018022462058866 1 62 -300.89597299503020622
    1300    269.66445    9.6636677    77.683369   -178.71556    -888.4992    10890.368 
    1310    251.71338    9.2204918    88.595601    -176.0558    2228.2286    10890.368 
    1320    293.66884    10.212324    82.122279   -172.37313    3594.0518    10890.368 
    1330    283.85915    10.858776    83.579553   -168.40294    572.69265    10890.368 
    1340    318.98304    10.061659    75.308508   -164.43316       4213.4    10890.368 
    1350    315.68296    8.6287584    81.238626   -160.85224   -3106.0564    10890.368 
    1360    335.35461    7.7750399    74.071567   -157.49546   -4108.9278    10890.368 
    1370    316.72018    5.8608491     81.21232   -155.00087   -708.84777    10890.368 
    1380     315.9777    5.9909358    77.900641   -153.12585   -213.71232    10890.368 
    1390    304.21012    5.9073168    89.207719   -151.18915    823.85023    10890.368 
1400        0.98730127498616548909 10.123760259877153445 1 66 -288.93680914150729677
    1400    306.06063    10.603867    81.108818    -150.2659   -547.94809    10890.368 
    1410    301.07143     10.79432    85.560312   -149.91563   -432.06997    10890.368 
    1420    309.12876    9.1456042    78.244201   -149.41647    3407.2078    10890.368 
    1430    295.52015    6.2130043     87.68548   -148.63379    881.78707    10890.368 
    1440    297.77745    6.1455477    87.392966   -147.65793    2060.6476    10890.368 
    1450    308.29404    6.0849297    86.669618   -147.15828   -5090.9898    10890.368 
    1460    318.64212    4.4835092    86.622134   -148.30836   -413.51412    10890.368 
    1470     313.4562    7.2731652    76.773997   -149.71348     2740.246    10890.368 
    1480    304.18306    9.8171355      73.6643   -150.83035    1646.6648    10890.368 
    1490    289.40884     10.35252    88.501007   -151.31383   -495.89311    10890.368 
1500        0.98699789366654022693 10.114434070584422898 1 63 -303.72798892336834342
    1500    333.96963    8.9281525    75.013142   -152.41198   -3913.8343    10890.368 
    1510    282.40717    7.8482309    94.270135   -154.93247    2261.8575    10890.368 
    1520    315.34683     9.042541    77.106355    -157.6238   -639.17124    10890.368 
    1530    273.61564    6.5934353    88.418501   -160.53668   -1675.3802    10890.368 
    1540    316.88292    9.0141743    75.815055   -163.10912    476.79108    10890.368 
    1550    295.65202    6.9943769    76.897207    -165.9233    1950.7908    10890.368 
    1560    287.15966    7.7104813    75.791389   -167.66804    754.22523    10890.368 
    1570    282.23229    7.4800652    75.338614   -170.06449   -948.43767    10890.368 
    1580    280.90097    5.7096621    76.134912    -171.6337    1247.8052    10890.368 
    1590    289.54166    4.8787641    76.094383   -172.62381   -1081.1456    10890.368 
1600        0.98852754004620102535 10.123223824615575239 1 65 -297.44519348091029087
    1600    273.90656    5.4450564    84.902517   -173.34275   -716.23711    10890.368 
    1610    271.10035    5.7485882    86.040447   -173.26676    242.63343    10890.368 
    1620    277.30631    7.2188237    80.568951   -173.38866   -1810.4524    10890.368 
    1630    302.78979    5.2613534    68.062602   -172.78612   -750.56493    10890.368 
    1640    293.53315    6.8196896    78.352762   -171.48891    168.13933    10890.368 
    1650    278.27131    7.2714775    79.418542   -170.16605    6174.6068    10890.368 
    1660    294.89984    6.5842072    69.525565   -168.18006    115.48819    10890.368 
    1670    298.12697    5.6708142    75.317354   -165.93079    -3468.932    10890.368 
    1680    316.37904     7.166317    70.365181   -163.90847   -1837.9931    10890.368 
    1690    291.50067    8.4122703    75.638553   -161.11693   -882.10881    10890.368 
1700        0.98904083706684720045 10.108151421929262526 1 69 -302.46685328001274229
    1700     318.5582    10.625552     72.86041   -158.13351   -124.37079    10890.368 
    1710     307.3536    7.1639121    76.768218   -155.45635    465.01841    10890.368 
    1720    286.75365    7.1924944    92.224138   -152.66654    2310.2567    10890.368 
    1730    293.56825    8.1076169    88.337802   -151.22289    817.53589    10890.368 
    1740    282.48768    9.1183387    89.310091   -149.92304   -2200.3159    10890.368 
    1750    303.25177    7.1267122    85.191839   -148.53313   -1643.0524    10890.368 
    1760    311.17575    7.5712609    83.820896   -147.49975   -384.04554    10890.368 
    1770     308.9054    7.7366004    79.826643   -146.48417   -2390.2196    10890.368 
    1780    316.81666    7.2000484    84.958507   -145.86835    2124.6868    10890.368 
    1790    299.40503    7.2554854    80.824932    -145.6468    2564.9802    10890.368 
1800        0.9872444797617827561 10.082313785597429856 1 68 -271.2863615475632173
    1800    277.76277    7.5367358    86.011694   -145.43674    815.37985    10890.368 
    1810    302.25809    8.2421166    85.031451   -144.89182   -1864.2598    10890.368 
    1820    310.22454    7.7695534    88.349141   -144.52808    2085.7842    10890.368 
    1830    332.86064    5.8630105    86.600294   -145.45474    2771.5321    10890.368 
    1840    315.36876     8.005957    85.861508   -147.53625   -367.52898    10890.368 
    1850    316.97481     7.440379    72.544067   -150.08952   -6639.6469    10890.368 
    1860    276.03115    10.531086    88.395799   -153.36338    1828.8487    10890.368 
    1870    290.26677    8.4470362     84.91305   -156.35993    2263.7382    10890.368 
    1880    290.25044    10.943657    78.458054   -159.56859     5543.288    10890.368 
    1890    319.72307    8.6099023    70.005104   -162.47234   -1645.2212    10890.368 
1900        0.98762332963283372411 10.103788384491902974 1 70 -297.06435064402523949
    1900    291.12676    9.7417985    73.417066   -165.15973   -1144.9951    10890.368 
    1910    288.65574      5.78212    73.327023   -167.98388   -4110.1152    10890.368 
    1920    268.00061    6.0884121    78.466596   -169.95461    -2413.244    10890.368 
    1930    301.21108    8.4681145    72.812675   -171.17727    1383.4397    10890.368 
    1940    301.45956     9.365977    78.438364   -172.07305    3855.3128    10890.368 
    1950    292.13589    7.0944381    73.994105   -172.46172   -2295.8183    10890.368 
    1960    266.41855    5.3818335     80.47113   -173.35226   -1103.8045    10890.368 
    1970     273.8099    5.2819185    76.613712   -173.88921   -1220.7323    10890.368 
    1980    267.36348    6.7141057    83.087377   -174.20575    544.85511    10890.368 
    1990    287.64419    5.3314041    70.000346   -173.90947    344.68271    10890.368 
2000        0.98867411757074596945 10.106091332988427212 1 72 -302.99524374730907539
    2000    287.60921    5.2157962    65.773849   -172.68436    1711.0865    10890.368 
    2010    282.76789    5.7090333    71.181978   -171.11623    3021.0317    10890.368 
    2020    280.21288    5.5827434    79.010628   -168.15146    2531.8557    10890.368 
    2030    303.46834    6.3787085    68.932174   -164.28549   -1444.6517    10890.368 
    2040    313.13541    7.0916932    68.866433   -159.94898    -492.9923    10890.368 
    2050    297.85639    6.8065206    72.739998   -155.93598   -4387.0403    10890.368 
    2060    283.70072    7.4122226    79.226239   -152.14036   -279.41085    10890.368 
    2070    312.24958    5.9263511     76.94323   -148.74951   -1785.8245    10890.368 
    2080     308.8113    5.7771757    72.774179   -145.64245    2001.6704    10890.368 
    2090     306.2237    6.0686957    82.913303   -143.13903   -1246.3782    10890.368 
2100        0.98974669376057777814 10.099135291232531841 1 71 -285.37746064016903347
    2100    316.87821    8.7163855    81.655532   -141.80529    2989.9069    10890.368 
    2110    325.83495    9.8325244    81.088805   -141.51847   -966.88906    10890.368 
    2120    327.04898    10.065488    76.360011   -142.28698    2252.0089    10890.368 
    2130    319.24168    9.1965916    77.955327   -143.92942   -1809.7266    10890.368 
    2140    306.94262    13.158506    80.159375   -145.68952    152.92089    10890.368 
    2150    323.35491    9.0589369    75.924615   -148.03181   -2517.3014    10890.368 
    2160    294.56869    9.0758582    87.801774   -151.07561     1835.219    10890.368 
    2170    307.53751    8.0044998    80.671007   -153.55057   -373.32026    10890.368 
    2180    289.03077    8.2555459    85.487624   -156.77249   -608.10452    10890.368 
    2190    281.12758    6.6659348    88.507104   -158.84327   -220.12967    10890.368 
2200        0.98793389024164190992 10.119430740408271063 1 71 -299.2149918085376612
    2200    306.04167    5.9027342    69.947045   -160.55267    1788.6038    10890.368 
    2210    276.17225    7.0771422    83.244785   -162.12951    333.81803    10890.368 
    2220    299.47427     8.149878    75.830537   -163.30958    886.88162    10890.368 
    2230    254.01905    7.6101883    84.943732   -164.21404   -2392.8296    10890.368 
    2240    287.44509    8.1542649    78.644352   -164.57069    1349.4268    10890.368 
    2250    286.49834    6.7443731    76.929925   -165.07688     2875.509    10890.368 
    2260    294.36852    9.4180604    76.769794    -164.8651   -1821.6074    10890.368 
    2270    283.20567    10.738603    75.509227   -165.22982   -2114.8593    10890.368 
    2280    293.36699    9.0638248    70.510409   -164.82709   -587.71353    10890.368 
    2290    275.81791     8.505489    84.009637   -164.08336   -86.757529    10890.368 
2300        0.98566015511956039941 10.135677642093568807 1 72 -304.61390665493888719
    2300    312.77672    9.3571296    70.640067   -162.90005    1485.0161    10890.368 
    2310    288.22602    10.351084    80.323847   -161.81847   -6170.4333    10890.368 
    2320    311.89084    10.204302    69.602242   -160.65516    1880.5465    10890.368 
    2330    273.24964    8.1873843    91.082196   -159.40309    2823.7547    10890.368 
    2340    309.46126    8.7755985    75.094446   -159.08538     5518.342    10890.368 
    2350    265.70178    12.064571    91.459831    -158.9719   -3984.9786    10890.368 
    2360    289.59078     12.58724    78.670905   -158.57005   -3297.6682    10890.368 
    2370    287.89023     7.637502     82.65632   -158.76363    662.11718    10890.368 
    2380    303.09993    8.5889491    75.669189   -158.41842    4253.9946    10890.368 
    2390    314.90739    9.6696618    69.906737   -157.62021   -2846.7116    10890.368 
2400        0.98605035316625411212 10.120551683032054768 1 69 -287.26415815720577029
    2400    289.18596    11.213352    78.732126   -156.23888    1044.6804    10890.368 
    2410    292.08374    10.298846    77.634492   -154.41365   -66.957536    10890.368 
    2420    307.71322     8.554061    78.821434   -151.46626    1659.7309    10890.368 
    2430     321.3832    7.8863841    74.276554   -148.97895   -833.70146    10890.368 
    2440    311.53124    5.5586724    79.032468   -147.86972   -1606.1502    10890.368 
    2450    305.40638    5.4125444    82.730296   -146.69663   -2006.1199    10890.368 
    2460    310.55542    5.8984502    79.520172   -145.57858   -568.55742    10890.368 
    2470    311.65297    6.4720605    75.794699   -145.14721    1438.4105    10890.368 
    2480    281.33813    7.9624179    91.658025   -143.28727    2502.2615    10890.368 
    2490    315.00084    5.9145859    82.260325   -143.08722   -527.24941    10890.368 
2500        0.98245372814452291976 10.148052294930002049 1 66 -271.98913932941781013
    2500    284.08194    7.1278538    88.635115    -143.2764    1529.1475    10890.368 
    2510    334.97171    5.2913722    71.006656   -143.82075    418.49608    10890.368 
    2520    303.44772    5.3093748    83.767165   -145.30258     -487.265    10890.368 
    2530    332.82083    5.0032781    67.718838   -146.83402   -758.28848    10890.368 
    2540    305.22043    7.0602252     84.53937   -149.89002   -574.92046    10890.368 
    2550    324.01231    8.9687501     74.79365   -154.17513   -977.39073    10890.368 
    2560    293.16075    9.1206592    73.016912    -158.7753   -1289.4181    10890.368 
    2570    307.22492    9.2255549    65.969533   -162.14467    -3647.838    10890.368 
    2580    299.54172    9.7581776    75.701917   -165.26613    1812.0356    10890.368 
    2590    298.72111    6.6383058    72.992352   -167.93579    1873.7284    10890.368 
2600        0.97843486137543034253 10.151312048697556989 1 68 -308.83368971317543128
    2600    305.13266    5.9300083    68.267136   -170.58323    2721.8579    10890.368 
    2610    298.28363    3.5624044    66.684006   -172.87849   -865.23137    10890.368 
    2620    297.75491    5.4731812    56.499461   -174.36441   -361.32772    10890.368 
    2630    280.99934    7.0149938    69.199698   -174.96863      886.483    10890.368 
    2640    266.06344     8.499259    74.227534   -174.54752    1035.8359    10890.368 
    2650     260.5921    8.7748951     73.70805   -173.61042   -3258.2065    10890.368 
    2660    300.57391    7.6419042    66.222802   -171.38309   -1040.6434    10890.368 
    2670    315.57763    6.8257911    62.954592    -168.9259    2609.0355    10890.368 
    2680    305.30535    8.0616797    72.162904    -165.5932    1753.3434    10890.368 
    2690    303.28216    6.4126897    76.318334   -162.67065    2452.9278    10890.368 
2700        0.97289236349425589623 10.159863566602217233 0.99735449735449732689 63 -295.88167246312093539
    2700    300.84883    7.0746119    69.988772   -159.57215   -2646.6553    10890.368 
    2710     308.9597    7.3958137    68.850812   -157.03121    341.94698    10890.368 
    2720    317.63972    9.5980552    71.212387   -153.69584   -2063.1524    10890.368 
    2730    305.27713     8.475868    77.979911   -151.35863   -451.03797    10890.368 
    2740    294.11976     8.388724    80.787369   -149.77676   -1931.0997    10890.368 
    2750    301.03299    6.7357564    71.195907   -149.10084    449.83641    10890.368 
    2760     308.8508    8.6591338    73.061491   -148.40087    34.932309    10890.368 
    2770    328.11712    5.3704985    65.294773   -148.07291    675.23496    10890.368 
    2780    324.93938    6.1760096    66.592924   -148.76105   -466.68704    10890.368 
    2790    312.93977    4.1345751    70.818596   -148.48191   -1606.5385    10890.368 
2800        0.97213294725113374994 10.153729593257638797 0.99735449735449732689 66 -283.7088364502285458
    2800    299.40157    4.8679672    75.871517   -148.05504    469.95846    10890.368 
    2810    297.66073    6.0402577    75.037403    -149.1093    2246.1976    10890.368 
    2820    323.25885    7.7929229    71.348131   -149.90446     2326.718    10890.368 
    2830    326.32244    6.7632611    64.594572    -151.2315    1226.0815    10890.368 
    2840    306.03148    7.2817681    67.973779   -151.84106   -2377.9908    10890.368 
    2850    279.62838    5.6045633    86.492122    -152.6607   -1015.4915    10890.368 
    2860    308.75226     4.581686     73.59303   -153.56896   -1951.6496    10890.368 
    2870    322.81232    3.7256977    72.573222   -154.73103    703.65541    10890.368 
    2880    320.16657    4.3664135    62.755565   -156.18342    130.92901    10890.368 
    2890    285.25567    4.5651847    70.668446   -157.52277    767.15602    10890.368 
2900        0.9771049970429407372 10.155603474221218008 0.99735449735449732689 66 -296.25655578016784375
    2900    303.91728    5.9343643    69.478548   -158.55676    3615.3662    10890.368 
    2910    293.83015    5.3261638    78.431862   -159.89947    2239.4998    10890.368 
    2920    308.27004    8.6818445     68.28566   -161.35344   -3060.4181    10890.368 
    2930     305.9007    7.9452416     65.92897   -164.37341   -2218.0235    10890.368 
    2940    292.71758    7.1750609    69.672214   -167.12951   -1831.3009    10890.368 
    2950    276.03246    8.0029984    72.207477    -170.1954    333.16111    10890.368 
    2960    257.44004    8.3451437    76.373628   -173.42167   -391.83471    10890.368 
    2970    275.28929    8.6021371    67.007836   -176.16071    1389.6033    10890.368 
    2980    265.16574    8.5467678    69.453712   -178.50061     1807.967    10890.368 
    2990    287.11803    7.5440649     60.76773   -179.76693   -514.54154    10890.368 
3000        0.9757025239479394374 10.166622167199886206 0.99470899470899465378 65 -296.45671487447549453
    3000    257.10924    7.2850636    76.732442   -179.96486   -829.30139    10890.368 
    3010    302.55282      6.21018    64.284135   -179.76883    843.88156    10890.368 
    3020    265.92744    5.9029726    75.763365   -179.10151   -2776.5401    10890.368 
    3030    280.82843    5.1246339    64.813808   -178.06425    1001.7588    10890.368 
    3040    249.61355    5.5952385     76.46651   -176.02393    3603.9012    10890.368 
    3050     273.6523    8.0785974    71.295926   -172.33258    1829.0037    10890.368 
    3060    276.58312    7.4013969    77.996672   -166.45676     359.3461    10890.368 
    3070     283.0843    7.6096441    73.532079   -160.27373   -4167.8644    10890.368 
    3080    290.22421    6.7754387    74.217681   -155.53083    1045.3871    10890.368 
    3090    313.68581     7.653674    68.332268   -151.68207   -2535.6036    10890.368 
3100        0.97796859218706644334 10.160924960413964868 1 64 -284.62772778819987707
    3100    300.23134    5.6765574    73.605604   -148.59797   -3184.3547    10890.368 
    3110    301.03023    3.8847633    78.826609   -146.10557    -558.2041    10890.368 
    3120      319.268    4.4702633    77.188914   -144.46679    3154.6028    10890.368 
    3130    319.30668    7.0157787    76.013439   -144.32182    4335.6946    10890.368 
    3140    295.43531    9.9663156    81.192567   -143.79252   -2378.8967    10890.368 
    3150    295.47819    9.0152342    84.077621   -144.03834   -2031.4545    10890.368 
    3160    290.55979    9.2304009    88.064485   -144.69988   -30.997476    10890.368 
    3170    337.58481     9.915055    73.441889     -146.139   -777.99684    10890.368 
    3180    323.27572    10.762502    73.333374   -148.92883    409.37935    10890.368 
    3190     298.3285    12.721528    73.239085   -152.01423    2511.8536    10890.368 
3200        0.98166276627413295852 10.147559965459786113 1 67 -279.2075578111506502
    3200    275.18929    11.404981    78.706761   -154.52394    1305.9963    10890.368 
    3210    265.45755     9.832902     88.98548   -156.65421    1102.6566    10890.368 
    3220    303.35805    9.5464784     79.62424    -159.4193      545.623    10890.368 
    3230    306.26396    7.3418518    76.388372    -162.6146    -3269.339    10890.368 
    3240    321.57546    6.1980171    55.485875   -165.97622    -3562.897    10890.368 
    3250    275.86987     4.995888    72.997357   -168.98376   -793.13524    10890.368 
    3260    296.67635    4.6934301    75.293392   -171.47187    4232.6471    10890.368 
    3270    286.13511    7.8167705    67.586061   -174.22236    3167.5325    10890.368 
    3280    308.89615    8.5513006    55.197603    -176.9295    -1077.225    10890.368 
    3290    317.47921     6.052358    62.876201   -178.99571    1859.6806    10890.368 
3300        0.98091336563001729765 10.165273567249036191 1 66 -311.91009355552478155
    3300    288.02063    7.8853114    68.503292    -181.4128   -635.17442    10890.368 
    3310    263.06477    7.1631929    68.872239   -183.17863   -1667.0665    10890.368 
    3320    286.48531     6.055128    62.840959   -184.58656    -1103.199    10890.368 
    3330    271.97246    4.4632406    62.662162   -185.32871   -1888.3168    10890.368 
    3340    251.64994    5.5414499    67.320894   -184.92695   -708.02024    10890.368 
    3350    275.66029    6.4819673    65.983414   -182.23811    -1218.098    10890.368 
    3360    307.52808    6.8947863    64.566521   -176.32045    2416.2913    10890.368 
    3370    306.19814    8.0159149    66.239407   -168.40745   -1140.8432    10890.368 
    3380     298.7463    9.1373336    66.104406   -161.70412   -1241.5909    10890.368 
    3390    302.89273    8.0940543    69.222804   -156.09631   -1609.2968    10890.368 
3400        0.98372481209846318606 10.149576856916093348 1 68 -297.95864722500147082
    3400    321.48086    8.6322068    63.499632   -152.30109    2518.6179    10890.368 
    3410    324.79845    7.1782775    71.407747   -149.01276    1308.0736    10890.368 
    3420    328.37196    6.1665963    67.092688   -146.38677    1944.3427    10890.368 
    3430    340.56413    6.8782206    67.766077    -144.9774   -486.95559    10890.368 
    3440    322.98089    7.6393743    78.376686    -144.0342   -505.86982    10890.368 
    3450    345.88509    5.7662229    72.233206   -144.04464    264.53967    10890.368 
    3460    338.46274    6.6485173    70.050697   -145.29309   -407.17948    10890.368 
    3470    340.85776    9.8253832     65.89309   -147.88115    3075.2748    10890.368 
    3480    304.88593    9.9068947    70.894359   -150.93301   -719.13773    10890.368 
    3490    318.06742    6.2272182    72.108035   -154.69798     812.3993    10890.368 
3500        0.98430462816699593187 10.14571748979843413 1 67 -295.25028229390215984
    3500    301.61117    3.6370179    72.413803   -158.59535   -36.668729    10890.368 
    3510     293.7418    5.0885694    68.900012   -162.39355   -2095.8254    10890.368 
    3520    289.38676    8.3323448    67.288325   -165.20309   -4676.6913    10890.368 
    3530    304.98782     9.293354    63.920307   -167.95062   -796.21984    10890.368 
    3540    289.23347    9.4381332    70.427569   -169.95274    5186.7634    10890.368 
    3550    276.46757    11.176371    68.395424   -170.76478    2089.0093    10890.368 
    3560    300.23939    11.609926    67.087511   -171.40433   -3345.3683    10890.368 
    3570    286.16521    11.338827    73.259687   -171.34548    798.43767    10890.368 
    3580    276.81447    13.633525    73.342615   -171.27032   -861.75262    10890.368 
    3590    281.78415    14.210738    68.691149   -170.86104    618.86139    10890.368 
3600        0.98563079290749133765 10.129829937889709868 1 64 -304.20330918104644979
    3600    297.82632    12.021213    66.105514   -169.26323   -1694.1958    10890.368 
    3610    299.30721    9.4208449    67.662048   -166.53062   -855.64586    10890.368 
    3620     296.0892     7.358925    77.946841   -163.32699    3388.9677    10890.368 
    3630    300.58495     5.772465    73.915973   -159.58424     565.4028    10890.368 
    3640    291.70797    7.6178215    79.673636   -155.61717    2258.9012    10890.368 
    3650    329.50679    6.0537307    70.819056   -150.58901   -1413.9373    10890.368 
    3660    326.28366    7.4331813    73.332272   -145.71189   -2206.4476    10890.368 
    3670    327.09711    6.5678457    76.922632   -141.65893    445.56632    10890.368 
    3680    303.67407     8.705104    84.279553   -138.89442   -2691.5949    10890.368 
    3690    310.92285    7.2124912    85.176698   -137.23579    122.84929    10890.368 
3700        0.97980931161614481795 10.132793436373338736 1 65 -279.78321848634601565
    3700    319.77933    5.3586676    81.631565    -134.8966    2110.4674    10890.368 
    3710    309.86039    4.7990311    83.188452    -135.0863    2383.5698    10890.368 
    3720    318.14082    6.7704061    75.558409   -136.01087    1372.9208    10890.368 
    3730    260.79499    8.5217293    90.679206   -136.83559   -3791.3082    10890.368 
    3740    323.75272    7.4101096    86.481124   -139.17252    3121.2907    10890.368 
    3750    310.96303    6.5688195    81.640415   -145.41913    2061.8005    10890.368 
    3760    328.40624    8.5804217    66.451028   -153.78527   -1158.8423    10890.368 
    3770    273.47509    8.6844106    78.932152   -161.92976    -1068.527    10890.368 
    3780     259.1738    7.2518775    84.688566   -167.88528   -6215.8581    10890.368 
    3790    250.06663    7.7092656    84.551638   -170.88515    1126.7216    10890.368 
3800        0.98098692476046578381 10.145717693834406248 1 63 -291.57301565250759268
    3800    264.38346    7.4691951    70.796413   -171.78533   -1177.9406    10890.368 
    3810    278.91996    7.4879166    62.386371   -172.14361    2829.9584    10890.368 
    3820    275.24813    6.2963958    75.279694   -171.64461    4186.5295    10890.368 
    3830    273.92442    6.0826974    70.755552   -170.39264   -223.82567    10890.368 
    3840    276.08873    7.3142246    74.918042   -168.12306   -1537.9014    10890.368 
    3850    299.19528    7.0205552    64.286515   -165.73929   -6781.5996    10890.368 
    3860    318.21319    6.9480706    64.267966   -162.99388   -2734.9002    10890.368 
    3870     309.8571    6.4156801    72.294361   -160.36127    5338.2586    10890.368 
    3880    319.89146    10.167915    64.606509   -158.04488    2620.4358    10890.368 
    3890     298.2416    10.127048    79.857733   -155.68613    138.99639    10890.368 
3900        0.9852781244186099574 10.131463183444829212 1 68 -298.2704612731230327
    3900    319.02037    8.7994114    70.600737   -153.72771    -1697.098    10890.368 
    3910    310.87263    5.4235463    79.175253   -152.66385   -435.54171    10890.368 
    3920    320.88354    4.5560072    72.645797   -151.28994    775.36679    10890.368 
    3930    288.46412    6.2183346    75.031062   -150.07957   -1611.7686    10890.368 
    3940    304.68504    7.0743654    72.642085   -149.17519   -884.93131    10890.368 
    3950    314.24872    7.5484719    68.758435   -148.31921    112.62318    10890.368 
    3960    316.03632     9.530673    73.483958   -147.83105    1507.3307    10890.368 
    3970    302.15042    10.989015    79.624165   -147.01924    4810.0621    10890.368 
    3980    295.13966    10.050655    76.300174    -146.5162   -1075.5783    10890.368 
    3990    295.90119    9.9155572    80.132069   -145.56065    87.409687    10890.368 
4000        0.98483496939094750111 10.123316841330485261 1 66 -275.68767935463023377
    4000    288.89894    10.201178     78.45655   -144.79244    -6161.311    10890.368 
    4010    319.72883    12.654061    70.090335   -143.65909    1820.7907    10890.368 
    4020    316.60636    11.207948     75.18295   -142.51505    1337.5132    10890.368 
    4030    322.99853    9.3141092    68.485835   -141.76821    827.88454    10890.368 
    4040    295.31479    8.4427205    83.525351   -141.20735    912.90327    10890.368 
    4050    302.25546    9.8558129    77.251296   -141.58304   -706.36145    10890.368 
    4060    335.99619    7.9790014    75.363135   -142.14703    966.18664    10890.368 
    4070    354.96868    6.3589235    67.728972    -144.4721    2947.5143    10890.368 
    4080    345.52299    8.4743056    73.094774   -149.04631   -1566.0114    10890.368 
    4090    302.43489    8.8312805    74.365273   -154.07387   -965.46908    10890.368 
4100        0.98388147599229069939 10.159234181524826823 1 66 -291.30347619461974773
    4100    291.65323    6.9558716    70.464392   -159.16032   -4171.9672    10890.368 
    4110    300.13367    3.9056779    69.283423   -163.29061    638.10091    10890.368 
    4120    291.06027    5.6690804    68.831129   -166.74537   -1114.3279    10890.368 
    4130    308.30047      8.14605    61.483901     -168.784    355.78351    10890.368 
    4140    299.32097    7.6514387    72.121004   -170.90588     3964.929    10890.368 
    4150    292.23813    6.5346262    66.162251   -172.30949    2593.9863    10890.368 
    4160    284.21669     7.434991    67.822679   -174.13208    12.527769    10890.368 
    4170    281.02706    8.4348441    60.842508   -174.57052   -4300.5346    10890.368 
    4180    315.17119     6.547804    57.604063   -173.86014   -1026.3761    10890.368 
    4190    291.71381    3.7720569    67.214558   -173.38145    1890.3312    10890.368 
4200        0.98229536815986218112 10.149197878230923564 1 67 -294.26748469426223664
    4200    269.31496    5.9877599    71.547965   -172.24542    2449.8827    10890.368 
    4210    279.10305    7.8875545    66.040944     -170.516    2001.3935    10890.368 
    4220    288.74161    9.0723376     74.23946   -167.60982   -1383.5895    10890.368 
    4230    281.18682     9.197683    75.036518   -163.55441   -2409.5627    10890.368 
    4240    297.73607    8.2610941    68.382976   -159.75435   -292.89628    10890.368 
    4250     304.9966    8.5923725    70.050502   -154.69618   -130.54053    10890.368 
    4260    323.36908    6.9217284    74.589423   -149.92162    2196.8331    10890.368 
    4270    311.38713    6.8940908    80.045101   -145.98418   -5336.1391    10890.368 
    4280    305.31451    4.4123009    84.137863   -144.51352   -2279.6387    10890.368 
    4290    322.28655    3.9744361    66.312708   -143.77482   -325.18619    10890.368 
4300        0.98359722777959990303 10.136055602275217069 1 66 -280.31850130777610275
    4300    300.07379    3.8241467    75.343768   -144.36013   -964.56266    10890.368 
    4310    301.71032    3.9714645    77.669875   -144.54681    5714.5651    10890.368 
    4320    301.86686     8.280006    73.914767   -144.94589    3081.0858    10890.368 
    4330    302.66257    7.8320753    75.364114   -145.36953    969.26495    10890.368 
    4340    316.18718    9.9323363    71.285551   -146.26521   -3563.1704    10890.368 
    4350    304.12213    11.003805    73.849654   -146.76786    -3294.651    10890.368 
    4360    307.23674    11.118993    74.085173   -147.31387    1858.8415    10890.368 
    4370    294.31275    9.0512752    80.494355   -148.03684    1904.8222    10890.368 
    4380    308.37175    11.064501    75.257651   -148.96921    798.96088    10890.368 
    4390    314.19004    13.259816    70.448327   -151.18722      315.194    10890.368 
4400        0.98083086213214421001 10.157718753065767103 1 65 -288.89823685070098236
    4400    298.83561    12.594504    70.140332   -153.50086   -3891.6989    10890.368 
    4410    327.92503     12.47623    61.384985   -155.90868   -471.13093    10890.368 
    4420    303.39005    11.280718    71.764768   -158.42805   -1370.9608    10890.368 
    4430    305.88454    10.033835    69.860357    -160.8947     478.1852    10890.368 
    4440    279.97099    9.4552813    73.658043    -162.9275   -1561.5171    10890.368 
    4450    272.98804    8.5456833    70.816834   -164.48341    2021.2999    10890.368 
    4460    302.19627    7.1553889    65.828424   -165.66923    3658.0204    10890.368 
    4470    301.07603    4.2596371    60.398819   -166.56684    828.68919    10890.368 
    4480    290.30201    3.9324277    64.007775   -166.98424     1873.969    10890.368 
    4490    287.02154    4.0872083    68.683569   -167.55297    110.93713    10890.368 
4500        0.97890038204453444504 10.154424450112674805 1 68 -283.16635533684518578
    4500    255.36041    4.1929115     75.46949   -167.46686   -784.12945    10890.368 
    4510    274.21326    3.7369029    71.734401   -166.59866    -3894.058    10890.368 
    4520    280.10041    4.7718951    69.929644   -165.11706   -2637.9345    10890.368 
    4530    299.28366    4.8208993    64.179015   -163.58448    1801.3988    10890.368 
    4540    275.46879    3.7982401    65.663716   -161.51918    1387.8773    10890.368 
    4550    292.22786    3.9244552    63.688816   -159.69706    1165.0529    10890.368 
    4560    306.22378    4.6592658    60.212675   -157.52134   -379.75628    10890.368 
    4570    285.57669    4.1488121     73.20595   -155.41829   -1674.0377    10890.368 
    4580    312.86871     2.926429    61.438091   -154.01457     909.8994    10890.368 
    4590    305.81533    3.7738671    69.498697    -153.5462   -857.91856    10890.368 
4600        0.98288788901917512053 10.156775871806122069 1 69 -302.60709826875466888
    4600    329.85097    6.1882831    61.249756   -153.15719   -936.44511    10890.368 
    4610    318.69592    6.6639385    65.680996   -153.15511   -2954.2235    10890.368 
    4620    338.69845    8.8096131    59.421583    -153.5369    345.50317    10890.368 
    4630    296.64993    9.6512688    68.507377   -154.37937   -1195.8287    10890.368 
    4640    287.66452    9.1700881     64.34767   -155.03335    448.66915    10890.368 
    4650    304.44442    7.6474391    62.848294   -155.36969    1945.3296    10890.368 
    4660    323.42786    9.5454749    59.837504   -155.59947    628.00525    10890.368 
    4670    332.37791    8.1038326    63.277258   -156.71501    3718.5372    10890.368 
    4680    306.49175    8.2606166    68.129175   -157.16053   -116.67489    10890.368 
    4690    291.87592    6.9368412    68.094262   -158.61846   -1190.9019    10890.368 
4700        0.98772544387769012353 10.137754694491398766 1 70 -298.05017339042314006
    4700    305.40783    9.1299023    66.308908   -159.67504   -5163.2407    10890.368 
    4710    307.13327    13.187198    60.008459    -160.9758    354.58255    10890.368 
    4720    297.71011    12.185981    69.044698   -162.56407    2367.6604    10890.368 
    4730    282.36571    12.019254    70.321106   -163.75406    1193.8906    10890.368 
    4740    312.14369    9.6896949    64.322741   -165.09201   -727.05374    10890.368 
    4750    278.67803    7.0233315    69.074794   -166.51756    1333.8859    10890.368 
    4760    299.61673    6.2806438    59.290279   -168.18797    -379.1024    10890.368 
    4770    268.75086    6.4918401    73.619841   -170.07031    1751.2804    10890.368 
    4780    255.94489    9.2250501    70.945795   -171.54729   -2546.3319    10890.368 
    4790    256.00678    9.1061332    68.436364   -172.29027    2503.9302    10890.368 
4800        0.98815563597447964028 10.118758022793979734 1 71 -298.45858964067986108
    4800    278.94908    8.6048929    67.960473   -172.07147   -2129.8147    10890.368 
    4810     276.0558     7.696393    68.896691   -171.08576   -934.73644    10890.368 
    4820    273.96065    8.1171365    69.948232   -168.84029   -891.03139    10890.368 
    4830    275.38018    7.3587851    70.581749   -166.00631    3272.0153    10890.368 
    4840     306.2426    7.0376232    66.973483   -162.71556    2925.0412    10890.368 
    4850    293.57088    7.3284674    78.307377   -159.26657     1510.336    10890.368 
    4860    295.07415    9.1004628     72.37894   -156.27296   -679.96513    10890.368 
    4870    271.56243    9.9466846    81.002178   -153.16976   -4227.4182    10890.368 
    4880    296.78839    10.605184    77.949409   -149.82143   -3361.3091    10890.368 
    4890    318.12463    8.0002836    70.514423    -146.5636    591.07409    10890.368 
4900        0.9824128549737499716 10.13295256006133549 1 71 -277.95503138147046229
    4900    295.38977    7.9913835    79.077666   -144.11891    3237.0217    10890.368 
    4910     318.1012    5.0875908    70.627846   -141.84476    1216.7653    10890.368 
    4920    306.20639    6.3099452    78.013946   -140.31769   -247.72446    10890.368 
    4930    326.37138    6.3854248     64.72919   -139.11925     2308.853    10890.368 
    4940    313.58093    5.9166399    65.593392   -139.49144   -3534.8703    10890.368 
    4950     308.1626    5.1306086    71.248829   -139.82952   -502.30399    10890.368 
    4960    295.51846      5.84917    73.921957   -140.83203    231.63402    10890.368 
    4970     273.2044    5.0689914    83.822338     -142.461    2086.6951    10890.368 
    4980    279.69131    3.0873729    76.935528   -145.24288   -467.31666    10890.368 
    4990    322.25788    4.0937669    68.455337   -148.62458    339.69866    10890.368 
5000        0.97696742714342366121 10.163053489577194455 1 71 -291.35532661637898855
    5000    302.18054    5.8049303    73.096405   -154.44242    2819.9171    10890.368 
    5010    284.24081    4.2470441    69.378293   -161.53579   -3122.2789    10890.368 
    5020     266.8777    6.5519934    66.034205   -167.52122   -2722.8993    10890.368 
    5030    288.67176    5.5479702    58.275119   -171.25191   -2135.0334    10890.368 
    5040    287.28439    5.4974077    61.222939    -173.6182    303.54088    10890.368 
    5050    285.82471    5.5143519    61.349306   -174.89717    629.79471    10890.368 
    5060    279.24831    8.2654086    57.631733   -175.40014     2137.272    10890.368 
    5070     268.0023    9.7417664    72.704318   -175.19953    1756.9461    10890.368 
    5080    302.62307    10.094396    52.774403   -173.95588    1093.2443    10890.368 
    5090    295.48772    10.386009    60.914739   -172.12905   -5807.9273    10890.368 
5100        0.97341358666337962635 10.189488606608398058 1 71 -308.33378656083129954
    5100     304.5922    9.8426709    54.774193    -170.3282   -720.01757    10890.368 
    5110    307.91856    8.5419704    57.307813   -167.82838   -2065.5583    10890.368 
    5120    307.09025    9.4232909     64.66157   -165.23668    3050.7193    10890.368 
    5130    294.58263    7.3841261    60.230212   -162.48708    4168.6021    10890.368 
    5140    296.94227    7.7035766    64.589384   -159.51009    1197.3157    10890.368 
    5150    318.89601    5.2565708    67.577952   -156.44662    2299.1601    10890.368 
    5160     305.3441    4.9888874     65.02574   -154.15599   -6130.9332    10890.368 
    5170    305.51125    5.1927157    63.784066   -152.28901   -1587.1402    10890.368 
    5180     313.0564    4.9578835    69.996492   -150.22858    993.25035    10890.368 
    5190    310.54323    7.8814936    69.205887    -148.7967   -124.03858    10890.368 
5200        0.97645019868093496651 10.18016366432554598 1 70 -270.81131510235360338
    5200    273.89248    9.3700168    71.897695   -146.71525   -1108.0817    10890.368 
    5210    281.00162    7.0897325     70.19963   -144.94411   -343.53982    10890.368 
    5220    307.52135    4.4612317    75.957695   -142.57309    4225.7661    10890.368 
    5230    339.84917    5.2371394    65.090418   -140.88979    711.66216    10890.368 
    5240    329.43669    5.9714822    67.459092   -140.67218   -1115.0291    10890.368 
    5250    305.80492    7.1636969    70.546957   -140.94204   -1960.8609    10890.368 
    5260    309.10346    8.3451987    70.986898     -141.727   -4246.6903    10890.368 
    5270    335.04377    5.4218943    67.681195   -143.89094   -1283.3612    10890.368 
    5280    316.63723    6.0809545    71.740082    -148.5606    1359.2544    10890.368 
    5290    313.75168    3.4171979    67.789539   -157.57876    64.990597    10890.368 
5300        0.97988146410763410366 10.160428115049620956 1 73 -301.44819758661941478
    5300    293.56848    3.3978378    58.590509   -168.43727     1874.199    10890.368 
    5310     266.9718    5.4934865    66.718709   -175.14448    1504.4667    10890.368 
    5320    279.49873    6.9784714    60.307232   -177.70085    2228.4322    10890.368 
    5330    262.52991    8.3831093    61.726443   -179.47128   -385.24083    10890.368 
    5340     253.9581    9.3386205     57.81022   -179.35203   -2615.4186    10890.368 
    5350    260.72565    9.9287944    61.011642   -177.60236   -2703.0826    10890.368 
    5360    293.10168    9.4889531    61.268292   -174.67003   -3047.7762    10890.368 
    5370     279.2934    7.9539598    75.606151     -171.427    866.86544    10890.368 
    5380    267.39192    9.2291103    64.491394   -168.59859    3021.3585    10890.368 
    5390    289.28914    8.8064994     62.25682   -164.75393    127.10518    10890.368 
5400        0.98233338168827288861 10.146137708178757819 1 70 -296.4293693572092252
    5400    300.12605    7.1841154    68.643334   -160.44732    2645.3992    10890.368 
    5410    318.25988    8.2972554    66.909543   -156.34585     2359.404    10890.368 
    5420    305.00284    8.3678746    66.086466   -153.00294    565.52803    10890.368 
    5430    276.87724    8.9488231    79.288447   -150.75085   -3491.9377    10890.368 
    5440    303.35894    9.2243127    69.600626   -148.36291   -699.87518    10890.368 
    5450    304.60369    8.0613686    80.839079   -146.52774    595.32347    10890.368 
    5460    304.46397    9.2155151    72.591342   -145.92097    1417.9736    10890.368 
    5470    310.05987    8.5217138    63.837776   -145.38642   -309.87025    10890.368 
    5480    319.10389    8.5663453    68.175793   -144.85166    1706.4848    10890.368 
    5490    319.05712    5.6820236    68.995647   -145.23085   -1398.9448    10890.368 
5500        0.98585052539458761789 10.110272955411387485 1 69 -286.9118229247283125
    5500    309.44874    5.2796818    63.214108   -146.70582   -1871.5796    10890.368 
    5510    293.36673     6.051797    74.522395   -148.69132   -2356.1656    10890.368 
    5520    313.61646    9.3480799    62.147366   -151.31775    1686.4999    10890.368 
    5530    299.27905    11.104114    54.620104   -153.65747    -872.2166    10890.368 
    5540     317.6356    8.6694909    58.592384   -156.49455    2740.3387    10890.368 
    5550    285.39718    7.9494183    70.868015    -159.6794   -1447.8258    10890.368 
    5560    287.69256    6.0823613    63.524175   -163.25946    2183.9475    10890.368 
    5570    273.66797    5.5141874    67.916001   -166.31034    -240.3363    10890.368 
    5580    269.28367    5.8799649    61.043706   -168.69964    798.08881    10890.368 
    5590    256.61318    5.7538406    56.854572   -169.84163    2499.0258    10890.368 
5600        0.98780101737731118572 10.093247239522373349 1 70 -299.69657790285043575
    5600    287.76537    7.9986713    65.240418   -169.31494   -1596.0473    10890.368 
    5610     305.6793    9.0161459    57.575737   -168.45301    2049.5768    10890.368 
    5620    292.42054    9.4266877    64.162908    -167.2777    -2672.939    10890.368 
    5630    273.22378    10.204015    69.325117   -165.79823    2502.9434    10890.368 
    5640    289.37843    7.8446277    67.208143   -162.76403   -1824.0746    10890.368 
    5650    307.66577    5.9630205    73.592193   -158.17128    4090.9902    10890.368 
    5660    318.32837    4.1841985    69.727554   -153.28683   -3246.7951    10890.368 
    5670     282.3488    5.5160614    68.393955   -148.24126   -3308.5109    10890.368 
    5680    303.43329    8.2943776    64.445975   -143.11528   -5298.7716    10890.368 
    5690     305.8364    10.149732    73.750209   -138.69067    4301.3525    10890.368 
5700        0.98742971977759308455 10.101368578610136595 1 67 -278.36716570277667415
    5700    316.55714    13.619234    67.319652   -134.94046    2647.9649    10890.368 
    5710     308.6896    11.937814    75.706708   -132.81522    6276.2621    10890.368 
    5720    315.84941    10.939441    72.734865   -131.12967   -627.34943    10890.368 
    5730    337.02939     8.754888    69.764878   -131.19729    497.69459    10890.368 
    5740     335.9806    8.0075871    72.769451    -131.8841   -4352.7101    10890.368 
    5750    332.74805     8.913428    64.342821    -133.9181   -2650.3304    10890.368 
    5760      282.036    10.363679    74.590032   -136.61903   -2535.9059    10890.368 
    5770    284.04947     9.370556    73.966191   -138.69951     1822.747    10890.368 
    5780    311.76389    7.8206457    72.650283   -140.33533    1047.5836    10890.368 
    5790    343.82781    5.8400464    65.058986   -143.59644    5244.1931    10890.368 
5800        0.98546982634310942295 10.130278750867402593 1 66 -280.36069944674113685
    5800      292.762    5.1920516    74.275686   -147.71518   -2971.9442    10890.368 
    5810    287.65362    5.0981314    66.308246   -150.92048    -1945.306    10890.368 
    5820     292.9119    5.6260431    68.727663   -153.35996    -702.2312    10890.368 
    5830    295.51425    5.1460242    65.197447   -155.38754    1797.9415    10890.368 
    5840     292.6032    6.7665342    66.673644   -156.65739    616.67582    10890.368 
    5850    285.89417    8.3239987    69.315937   -156.76329   -1417.0143    10890.368 
    5860    298.45645    7.9544847     66.28538   -157.31246   -91.863309    10890.368 
    5870     292.7675    7.1465883    66.879984   -158.12604    4794.1017    10890.368 
    5880    305.88049    5.5378928    66.255853   -158.48785   -2779.9643    10890.368 
    5890    302.96714    5.7138226    69.519983   -159.29193   -179.23142    10890.368 
5900        0.98220394236563690615 10.159330333224996679 1 67 -297.29740973557790085
    5900    303.90366    5.8964601    61.857962   -159.60379   -3489.5542    10890.368 
    5910     300.5849    4.7823208    61.559422   -159.92533    858.20464    10890.368 
    5920    296.04712    5.2716597    63.130137   -160.24473   -338.60443    10890.368 
    5930    296.45372    7.5780824    62.068364   -160.68357   -366.81436    10890.368 
    5940    305.64435    6.1392932    61.642339   -160.64783   -297.42043    10890.368 
    5950     305.6853    6.2254364    63.278201   -159.77257    3563.3255    10890.368 
    5960    282.10989    7.3107311    64.611062   -158.99807    628.63247    10890.368 
    5970    291.37951    7.6441779    68.065182   -157.34016    450.24875    10890.368 
    5980    293.39575    8.5425196    69.872664    -154.7988   -8407.9333    10890.368 
    5990    314.63937    9.0013501    67.646213   -151.39351   -1257.9453    10890.368 
6000        0.98046984495915967539 10.156757671033000534 0.99735449735449732689 64 -284.96530704610745488
    6000    302.17943    8.8289422     69.51403   -148.05291    1722.6437    10890.368 
    6010    302.99561    7.5634351    69.209129   -143.57917    4092.7812    10890.368 
    6020    321.57438    6.0018435    76.005704   -137.90569    2092.7572    10890.368 
    6030    331.54516    4.6361294    70.313085   -132.74153   -3835.0939    10890.368 
    6040    328.08764    6.4735539    76.141792   -128.80232   -274.54825    10890.368 
    6050    311.70734    5.9258062    75.545024    -126.0073     836.2952    10890.368 
    6060    285.47223    7.8528741    80.775838   -123.71733   -1430.8858    10890.368 
    6070    318.70062     3.899292    73.936046   -121.90916    1609.4558    10890.368 
    6080    321.97695    3.4293301    82.091115   -120.80127    -252.5674    10890.368 
    6090    348.93131    4.1368367    72.442397   -120.98747    3509.2347    10890.368 
6100        0.98366516067737996831 10.144863810484906708 1 64 -269.24673277763054102
    6100    322.30403    6.8745971    81.146756   -123.21622   -1701.5921    10890.368 
    6110    336.17987    7.0256123    63.609016   -126.56774    2167.2956    10890.368 
    6120     318.7882    6.9052379    74.863597   -130.39824    750.45471    10890.368 
    6130    339.49384    7.1421787    66.871896   -134.65911   -1209.8691    10890.368 
    6140    334.70847    7.1391893     67.55979    -138.1556   -4225.2366    10890.368 
    6150    332.57336    7.4762873    63.442158   -141.63471   -486.02875    10890.368 
    6160    327.05754    7.4595979    67.024219    -144.4315   -419.48574    10890.368 
    6170    320.89197    6.5071003    65.992234   -146.91792    3615.8017    10890.368 
    6180    330.88979    7.4238504    63.982316   -148.81328    485.56842    10890.368 
    6190    315.84489    7.1349391    69.592634   -150.80247    4409.7236    10890.368 
6200        0.98185794312057284028 10.163625533018725733 1 65 -285.07349402525335336
    6200    291.40665    7.6221791    72.999302   -153.04206   -3236.0852    10890.368 
    6210    288.23767    9.0056478    75.615678    -155.0388   -2123.3286    10890.368 
    6220    284.35735    8.2534778    73.704599   -157.16507   -2165.6892    10890.368 
    6230    279.77057     7.879958    71.486201   -159.34576     1191.716    10890.368 
    6240     292.6478    6.9856814    69.962534   -160.62756    753.51559    10890.368 
    6250    296.77706    9.4785424    65.202215   -161.92683    807.40713    10890.368 
    6260    301.28129    10.520479    63.533571   -163.33751   -879.62874    10890.368 
    6270    295.87286    11.252369      63.3647   -164.30667    2041.4667    10890.368 
    6280    294.27029    10.376296    65.004999    -165.8715   -403.05967    10890.368 
    6290    275.59369    9.3077724    72.689102   -167.40757    618.04618    10890.368 
6300        0.97829558591240795007 10.165678006257282462 1 65 -297.7955448044313016
    6300    284.94726    8.8784363    66.421468   -168.69075   -2937.8648    10890.368 
    6310    280.03687    7.3685112    60.558853   -169.94122   -1797.5976    10890.368 
    6320    269.05058    8.8751777     67.21742   -170.25563   -1226.5952    10890.368 
    6330    278.41875    13.018362    65.766416   -169.22771    929.49415    10890.368 
    6340    288.08646    12.872215    71.926005   -167.69084     1458.947    10890.368 
    6350    305.07243    8.8437488    64.781535   -165.75817    3453.4857    10890.368 
    6360    287.76045    8.5471673    71.309227    -163.4742   -86.193737    10890.368 
    6370    299.38792    10.349552    63.518414    -160.0016   -729.94932    10890.368 
    6380    308.52512    11.754984      62.5333   -155.97513   -2366.1887    10890.368 
    6390    347.31589    7.3069521    56.139497   -151.22968   -1020.7007    10890.368 
6400        0.97720135171461430801 10.169543193405550241 1 65 -292.25214237859700006
    6400    319.91781    6.1499396    68.763753   -147.30278    4289.4265    10890.368 
    6410    296.47991    5.7706989    64.443743   -144.24602    1779.2597    10890.368 
    6420    288.98761    6.8072806     78.16918   -141.18715   -841.20273    10890.368 
    6430    325.96853    5.4802421    67.739152   -138.11336   -1978.6655    10890.368 
    6440    335.08481    5.3614694    70.589431    -135.6019   -1679.1155    10890.368 
    6450    324.26844     4.693462    73.117883   -134.98187    172.16303    10890.368 
    6460     304.5911    5.8966056    75.079974   -136.15168   -1562.1776    10890.368 
    6470    306.15754    6.9007998    75.307837   -136.73823    450.81829    10890.368 
    6480    287.57252    6.2032417     82.09072   -137.99026   -2145.6236    10890.368 
    6490    277.78376      6.09355    75.162726   -139.96834   -2778.0227    10890.368 
6500        0.9767121764596782274 10.167329692768293015 1 70 -272.18723992650041055
    6500    287.82812     5.431176    79.520249   -141.77717    2854.7091    10890.368 
    6510    315.51722    5.0132317    69.553108   -144.39815    2771.1501    10890.368 
    6520    293.31321    6.4451236    67.519318    -149.4167    890.59321    10890.368 
    6530    288.02115     6.441188     64.59209   -155.70944    328.02734    10890.368 
    6540    284.23956    6.8540034    64.494725   -162.43048    1330.7386    10890.368 
    6550    307.28495    4.6697493    62.984058   -168.57805   -926.20127    10890.368 
    6560    297.34711    6.1823023    59.797443   -173.06696    -1500.293    10890.368 
    6570    310.76161    6.5902043    58.409411   -176.46672    -311.2065    10890.368 
    6580    281.53539    6.7540149    58.967501   -178.86101   -1066.0975    10890.368 
    6590    282.96011    5.5385256    55.483419   -179.81626   -1979.9789    10890.368 
6600        0.97660256532483891156 10.164582092602213237 1 68 -300.79283360679795578
    6600    268.08003    7.1073188    59.578127   -179.33029   -742.71419    10890.368 
    6610    269.28299    6.7880016    63.819692   -178.19899    -763.3207    10890.368 
    6620    276.32154     9.140045    62.363213   -176.28251    2036.0684    10890.368 
    6630    289.13272    9.0080727    59.046598   -173.69453    545.65429    10890.368 
    6640    302.43598    8.5000182    60.060414   -170.13415    2580.9007    10890.368 
    6650    280.66676    8.3246563    68.073292   -166.59351     398.0913    10890.368 
    6660    278.43981    9.3380504    62.324969   -162.68736   -1682.5433    10890.368 
    6670    298.20492      11.4354    65.697577   -159.35132   -1968.8525    10890.368 
    6680    307.62848    11.362484    64.210659   -156.14355    2314.9254    10890.368 
    6690      313.387    11.523161    66.958415   -153.72774    1073.4376    10890.368 
6700        0.9809866816343367768 10.144244836599902726 1 73 -292.16947996715492764
    6700    309.45316    10.442933    67.371352   -151.96147   -1613.6208    10890.368 
    6710    302.80728     7.298872    70.325327   -150.85895   -989.20412    10890.368 
    6720    299.84097    4.5311764    73.269769   -150.18852    2238.0388    10890.368 
    6730    301.20474    2.7214972    71.044375   -150.12184   -494.03751    10890.368 
    6740    315.33734    5.4969053    64.462827   -150.09922    -2147.797    10890.368 
    6750    312.68487    4.4915205    68.974159   -150.52801   -1325.6911    10890.368 
    6760    304.56189    4.5638664    64.435146   -151.88178    801.04266    10890.368 
    6770    282.60823    7.1814831    76.538281   -153.68703     3464.121    10890.368 
    6780    286.69531    5.9455788    67.749439   -155.87306   -187.96307    10890.368 
    6790    286.59038    4.6649693    73.928403    -158.0967   -1617.2456    10890.368 
6800        0.98281309343529876799 10.115790112494845943 1 68 -294.77535231669628502
    6800    296.13675    3.4905158    66.440663   -160.60079   -1110.6891    10890.368 
    6810    264.76559    3.4593489    70.425657   -162.89154      -1872.5    10890.368 
    6820    252.25479    4.1391748     73.85651   -166.02005    2792.6423    10890.368 
    6830    277.47571    3.1182983    61.026133   -168.31272    285.27119    10890.368 
    6840    269.98089    5.8375445    65.871668   -171.00419    2843.5751    10890.368 
    6850    271.60423    6.2646632    71.902399   -173.79121    2159.0949    10890.368 
    6860    272.98328    8.2329828    57.991337   -177.40154   -378.56498    10890.368 
    6870    275.80836    8.2483981    60.010494   -180.61197   -2071.8435    10890.368 
    6880    260.79467    8.0352294    67.028711    -182.9666    1198.8043    10890.368 
    6890    254.76166    6.3563802    61.319811    -185.2138   -756.38305    10890.368 
6900        0.98334577374686549245 10.139290892389038135 1 71 -306.42269657732708765
    6900    263.97896    6.4361279    66.083428   -186.81829     1035.043    10890.368 
    6910    260.38389    8.0908693    61.586913   -186.69189   -4654.0814    10890.368 
    6920    265.72247    7.9413308    61.503404   -186.48538     724.0137    10890.368 
    6930    272.96486     7.220577    72.293295   -185.04979    609.88556    10890.368 
    6940    283.35648    10.051205    56.331531   -182.51004    2559.9309    10890.368 
    6950    288.95378    7.2322027    62.269016   -179.29489   -2966.5707    10890.368 
    6960    290.54556    8.6090115    59.208729   -174.62456   -256.43812    10890.368 
    6970    266.65361     7.403155    73.736295   -169.36974   -1796.4847    10890.368 
    6980    280.94369    8.9223389    67.797515   -164.41148    2865.8605    10890.368 
    6990    291.24893     7.831219    68.087118   -160.24209   -2429.1686    10890.368 
7000        0.98584069318095968182 10.119656115821525688 1 73 -302.89486116570390095
    7000    320.82753    8.5495453    58.554175   -157.53332     1180.506    10890.368 
    7010    307.39346    7.1778551    63.127368   -155.40748    -180.5795    10890.368 
    7020    300.98461    8.1445345    60.649725   -153.28879    1296.8208    10890.368 
    7030    292.57665    7.7629371    63.367533   -152.02968   -2622.4505    10890.368 
    7040    307.01065    6.5279379    69.109383    -150.6114    1142.2734    10890.368 
    7050    327.35387    5.6008328    62.461317   -149.66486    -977.9426    10890.368 
    7060    318.93695    7.0445421    59.048243   -149.21847    713.12623    10890.368 
    7070    316.05262    6.2879168    63.143919   -149.25394    1505.1926    10890.368 
    7080    288.41336    6.7549318    68.009857    -148.7678    1329.2884    10890.368 
    7090    300.97136    5.9799108    72.761018   -148.75932     764.8098    10890.368 
7100        0.9842913140296697394 10.121683913486741346 1 71 -279.53475211315344495
    7100     287.8544    6.9826894    78.366667   -149.11278    1513.7005    10890.368 
    7110    300.41661    7.4879359     62.11771    -149.4234   -2722.1217    10890.368 
    7120    311.12935    9.5818552    58.858593   -150.21408   -677.07745    10890.368 
    7130    288.34445     8.594575    71.114693   -151.11037   -2932.7149    10890.368 
    7140    290.67691    10.705775    70.431283   -151.61216    1111.6538    10890.368 
    7150    293.95601    9.1343423    68.356852   -151.53226   -1299.6501    10890.368 
    7160     319.8292    8.3750936    64.192411    -151.9191    1237.7938    10890.368 
    7170    330.45609    5.5417023    69.068539   -152.61115    1763.6816    10890.368 
    7180    325.97917    5.7517578    59.147105   -154.75313    1657.9491    10890.368 
    7190    300.16089    5.4866503     65.00259   -157.74418    1199.6367    10890.368 
7200        0.98490064749713401859 10.115786047489484289 1 70 -298.33148901617903448
    7200    302.27701    4.6367158    60.901482   -161.37488    1495.2055    10890.368 
    7210    285.05701    5.0810863    59.796014   -164.91928    823.88831    10890.368 
    7220    255.10017    6.7426885    64.752287   -167.80742    152.49216    10890.368 
    7230    282.02932    5.7297926    58.696109   -169.20807   -1378.5208    10890.368 
    7240    289.51067     5.427814    59.187766   -170.42097   -2204.2209    10890.368 
    7250    285.11427    6.6785611    66.071849   -170.62947   -2028.4419    10890.368 
    7260     287.4095    6.9174978     58.92245   -170.15695   -1170.4403    10890.368 
    7270    272.03808     6.665803    65.048578   -169.25924     2231.948    10890.368 
    7280    317.09617      7.46554    54.137234   -167.58301    1317.1069    10890.368 
    7290    294.45133    7.0932125    62.796524   -165.01578   -133.42821    10890.368 
7300        0.98486965288661498796 10.125673062568873561 0.99735449735449732689 67 -300.80957211310436605
    7300    306.06886     6.208165    59.324205   -162.13493   -2253.8082    10890.368 
    7310    296.19546    5.4157759    71.658899    -159.4037   -1772.6786    10890.368 
    7320    334.99623    5.6395307     61.44156    -156.2021   -133.81835    10890.368 
    7330     320.5442    4.5150035    64.330804   -153.55192   -228.32037    10890.368 
    7340    311.75454    4.4884265    65.252373   -151.11681   -141.37138    10890.368 
    7350    315.79491    5.7428219    61.626387   -148.58725    64.210761    10890.368 
    7360    312.06836    6.5654188    65.270011   -145.68873    1210.6185    10890.368 
    7370    319.85991     5.470746    70.116287   -142.81885   -2028.2711    10890.368 
    7380    306.60477    4.5055867    64.746761   -139.68549    456.96924    10890.368 
    7390    323.72197     5.060392    62.474903   -136.80754    1666.5561    10890.368 
7400        0.98536499540258226659 10.107670966255531297 1 70 -281.00697403468819857
    7400    326.18564    9.0580737    66.255386   -133.21776    3194.6497    10890.368 
    7410    311.03636     12.24197     77.96914    -129.2334    2848.9863    10890.368 
    7420    347.22549    9.2664483    70.300287   -124.98702     28.30092    10890.368 
    7430    361.81429    8.6185735    72.338876   -122.19728    168.43164    10890.368 
    7440    339.22683    9.2348272    69.396754   -121.59925   -2468.8516    10890.368 
    7450    342.09481    7.9082878      68.7907   -122.57639    -2788.324    10890.368 
    7460    327.65917    8.1055623    68.829067   -125.04117    -841.4273    10890.368 
    7470    327.37698     8.665787    69.051954   -129.53682   -881.11855    10890.368 
    7480    310.46184    10.567159    70.603912   -136.21836    2619.9679    10890.368 
    7490    311.37901    11.211686    65.652498   -143.82205    2991.1434    10890.368 
7500        0.98369760547607398848 10.123548850607738459 1 65 -286.07794032688047992
    7500    298.53507    8.5682008     68.72094   -150.81674    3520.0202    10890.368 
    7510    302.00959    10.122344    66.702606   -154.36495   -606.73592    10890.368 
    7520    313.60892    11.145493    63.914947   -157.67745   -1168.6322    10890.368 
    7530    316.62888    11.311878    63.884012   -160.07755    715.96697    10890.368 
    7540    310.54545    8.0300116    60.295517   -162.09349   -3864.2334    10890.368 
    7550    286.80355    3.2218675    69.003965   -163.69587   -1526.0461    10890.368 
    7560    290.39506     4.737493    63.080979   -164.94413   -603.94065    10890.368 
    7570    282.78088    5.0464657    65.416219   -165.90317    1036.7355    10890.368 
    7580    296.38154    6.5035227    60.439452    -166.4653    2403.1138    10890.368 
    7590    277.03762    8.6781594     69.11395   -166.32819    2605.4657    10890.368 
7600        0.97992759733718359794 10.155405852124193444 1 66 -303.56583217012070008
    7600    303.97587    10.255008    52.804166    -165.8395    2237.9109    10890.368 
    7610    277.77328    10.434017    58.759799   -165.26854     664.5781    10890.368 
    7620    299.84192    6.6922682    52.184822    -163.0729    -1134.069    10890.368 
    7630    279.79156    3.9051646    65.925458   -159.98184    351.02987    10890.368 
    7640    306.91455    2.7119685    60.652993   -156.54974   -3220.7299    10890.368 
    7650    311.64141    3.0701997    64.266271   -152.75011   -3985.6808    10890.368 
    7660    308.61917    5.2083445    70.611883   -149.27925   -2927.5323    10890.368 
    7670    335.92227    6.0574631    64.813073   -145.92669    2544.2193    10890.368 
    7680    320.48882    8.5925134    68.307939   -143.64715   -306.34363    10890.368 
    7690    312.51451    11.272473    62.373636   -141.89264    4039.1969    10890.368 
7700        0.97572051172306417666 10.181818723887676725 1 71 -277.05346728470033213
    7700    301.29443    10.664996    76.230488   -140.54204    -1811.583    10890.368 
    7710    324.16369    10.352694    66.392831   -140.41932    1875.7144    10890.368 
    7720    305.68866    8.5769237    71.348487   -141.69264   -6106.2286    10890.368 
    7730    286.05578    10.380017    71.145887   -143.35361    1950.2083    10890.368 
    7740    283.26618    9.4842671    75.787598   -145.40415   -1804.9858    10890.368 
    7750    287.14255    9.3590162    66.080714   -147.04452   -470.09032    10890.368 
    7760    296.22289    9.5025375    71.322764   -149.01551    281.33863    10890.368 
    7770    310.03789    9.5497709     63.99453   -151.20582    1793.7819    10890.368 
    7780    282.04792    10.608463    69.456034   -154.30782    1112.6612    10890.368 
    7790    297.01282    8.4447738    67.272899   -158.85793    2191.1181    10890.368 
7800        0.97297391759118134758 10.201413346684965688 1 63 -288.91339322874557638
    7800    273.12565    8.0673162    69.477455   -165.16477    49.083143    10890.368 
    7810    283.94927    6.9321008    61.062543   -172.52441     220.2337    10890.368 
    7820    275.95096    7.1821603    62.698291   -178.45582   -1429.9945    10890.368 
    7830    279.38206    9.3507707    55.458719   -182.03005   -960.03923    10890.368 
    7840    261.23564    10.448669     61.24059   -183.60233   -413.33883    10890.368 
    7850       247.22    8.0713428     67.77616    -183.9572   -3074.7245    10890.368 
    7860    248.95209    7.8744365    64.945569   -182.31762   -2291.9426    10890.368 
    7870    280.19034    5.7985477     57.89896   -180.60281    1414.4111    10890.368 
    7880    259.44068    6.1448364    69.466613   -177.91079    707.61035    10890.368 
    7890    274.76513    7.1851706     62.88537    -174.6478    2051.4352    10890.368 
7900        0.98101993605015136435 10.16429704856903804 1 64 -293.98688720261543494
    7900    267.99188    8.1141677    58.989918   -172.56429   -1989.2876    10890.368 
    7910    283.92737    8.1304148    63.595027   -169.39843    375.08297    10890.368 
    7920    290.92932    8.4351757     72.84764   -165.68208    94.864038    10890.368 
    7930    315.72912    10.229562    54.114579   -162.57268   -3389.8206    10890.368 
    7940    326.75376    8.5844138    63.529006   -160.93274    7.8264643    10890.368 
    7950    330.55717    8.8075446    51.666825   -159.53826    5058.8774    10890.368 
    7960    314.88412    9.4438206    56.717454   -158.38775    2333.3264    10890.368 
    7970    293.51558    10.702432     62.49394   -156.76926    2.6809272    10890.368 
    7980    292.00991    9.4261183      64.2837   -155.42529   -3898.6662    10890.368 
    7990    318.45404    6.8375489    59.367902   -153.43565   -803.76412    10890.368 
8000        0.98374939256706439572 10.132866993024896018 1 68 -295.58593274904228565
    8000    317.49832    6.7889988    62.590792    -151.7328    794.97913    10890.368 
    8010    296.03854    6.7681203    69.475197   -150.16731     382.3919    10890.368 
    8020    311.84472    8.7112994    63.132037   -148.57313   -1307.5075    10890.368 
    8030    333.62025    8.9535184    58.905474   -146.95524   -2669.0034    10890.368 
    8040    335.42193    8.4180208    56.784889   -145.52991    371.13611    10890.368 
    8050    336.12234    6.2356697    63.466578   -145.15614   -458.28511    10890.368 
    8060    339.62989    4.4616397    61.144304   -145.97025     2677.155    10890.368 
    8070    306.60042    4.1657458    61.945314   -148.59326     2726.244    10890.368 
    8080    292.76809    5.1351746    61.880492   -151.60322    1408.5156    10890.368 
    8090    291.04154    4.2586013    56.400291   -155.52587    1084.0644    10890.368 
8100        0.98263405573467532683 10.11711280685889669 1 69 -291.99113425191848137
    8100    292.20602    6.2119965    57.773357   -159.59752    250.58838    10890.368 
    8110    288.20653    8.2103871    65.645452    -163.8791    816.60989    10890.368 
    8120    292.27961    7.8332378    60.529357   -168.00179   -329.84884    10890.368 
    8130    265.57612    7.2239575    69.375218   -171.88804   -2874.4609    10890.368 
    8140    280.28196    7.4390631    56.444587   -174.69537   -1615.5451    10890.368 
    8150    262.70434    7.5235317    69.557193   -176.52541    215.44142    10890.368 
    8160    293.81611    8.3266205    53.256863   -176.68683   -1853.3055    10890.368 
    8170    264.24967    8.8023895    66.657111   -177.05703   -335.72138    10890.368 
    8180    292.05856    8.5463044    52.106455   -176.52329    2757.1088    10890.368 
    8190    275.86699    7.2900488    58.108471    -175.3347    5265.2795    10890.368 
8200        0.98110759117485835112 10.110583880492610476 1 68 -301.94446837349801172
    8200    283.52893    6.1426722    59.264609    -173.4823    3309.9193    10890.368 
    8210    269.74552     8.050559    64.982524    -170.3418   -6094.8749    10890.368 
    8220    287.76236    8.5857231    61.141045    -165.8434   -736.68222    10890.368 
    8230    310.56038    8.4407918    60.895638   -161.24619   -1785.0897    10890.368 
    8240    328.61202    8.0692126    62.522272   -156.93548    3541.0421    10890.368 
    8250    290.25839    8.8318398    71.137209   -154.16301   -2103.9048    10890.368 
    8260    297.96035    9.3272097    64.680652   -152.54256   -503.72903    10890.368 
    8270    267.78161    7.6791057    74.009821   -151.41917    561.50868    10890.368 
    8280    306.35058    6.4909654    64.365243   -151.07199    2639.8266    10890.368 
    8290    303.28026    6.0595821     71.02526   -150.70449   -2072.8447    10890.368 
8300        0.97916671331549109958 10.132516927109717741 1 67 -299.79117765501302983
    8300     330.3454    5.7943602    56.656194   -150.11725   -84.633724    10890.368 
    8310    298.17023    4.4725667    69.642201   -150.44131    -1247.574    10890.368 
    8320    298.02985     4.847452    66.894057   -151.10123    3099.2038    10890.368 
    8330     280.1161    5.7964488    66.505378   -151.80572   -12.210302    10890.368 
    8340    283.21244    5.7127682    71.680497    -151.9671   -1168.2621    10890.368 
    8350    282.49936    5.0587927    65.845771   -152.03674   -298.45043    10890.368 
    8360    278.66453    6.0281452    62.782353   -152.44804    400.60598    10890.368 
    8370    284.93217    5.4937984    69.045366   -151.74332    374.38836    10890.368 
    8380    302.82617    5.0061622    69.189485   -151.30499    2677.8153    10890.368 
    8390    308.80226    5.8898958    68.282405    -150.8364   -1832.0302    10890.368 
8400        0.97230637027703847863 10.174347452603154096 0.99735449735449732689 69 -289.18004965586527533
    8400    306.63828      6.02044    60.929718   -150.24742    -125.6806    10890.368 
    8410    302.89295    7.1231363    59.981962   -150.33619   -685.30473    10890.368 
    8420    301.79974     5.222229    70.073356   -150.05395   -1468.0115    10890.368 
    8430    304.37669    5.4788904    64.652746   -150.06566    970.64995    10890.368 
    8440    282.41976    4.5505445     70.25143   -151.02261     658.0346    10890.368 
    8450    290.25259    7.0626975    57.013634   -151.71746   -2631.5935    10890.368 
    8460    311.29472    7.1365893    59.073695   -151.83202    637.28008    10890.368 
    8470    297.62128    6.2454195    64.254901   -152.79378   -5237.7983    10890.368 
    8480    290.90978    6.7836692    52.811732   -153.64628    40.364828    10890.368 
    8490    271.58709    6.1798715    68.110795   -154.18721    132.47351    10890.368 
8500        0.97150863330537329254 10.179150938455116204 1 66 -294.85381471172689771
    8500    311.80867    6.3928368    59.021417   -153.57857    1702.7625    10890.368 
    8510    313.21537    8.5817779     67.98505   -153.32464    2058.9035    10890.368 
    8520    314.26628    8.8459207    56.281319   -153.79156    686.54339    10890.368 
    8530    279.12671    6.4605797    68.132976   -154.74235   -267.45591    10890.368 
    8540    287.62766    6.6702495    63.425784   -155.07503    849.51264    10890.368 
    8550    292.58263    8.1188035    58.345241   -154.97837   -3673.7734    10890.368 
    8560    305.83819    8.3454417    58.992386   -154.81314    1591.3523    10890.368 
    8570    283.96289    7.5798643    64.424414   -154.40101     1536.342    10890.368 
    8580     280.6766    5.8933653    66.563516   -153.57517   -184.56773    10890.368 
    8590    295.25536     3.938367    68.262057   -152.31373   -2207.6271    10890.368 
8600        0.97581900229852547302 10.188306959624886971 1 70 -287.47604730108878357
    8600    301.28955    3.4391064      70.7921   -150.96684   -2993.9945    10890.368 
    8610    311.84526    4.7407464    68.949197   -149.58827    4341.2249    10890.368 
    8620    299.62664    7.7408855    63.908489   -149.08698    549.02988    10890.368 
    8630    314.76504    8.0649882    57.330243   -147.99566   -1389.1406    10890.368 
    8640    305.85679    8.5451487    67.231227   -146.81414    140.20924    10890.368 
    8650    321.52655    8.4853836    68.679813   -145.76927    919.84825    10890.368 
    8660    300.18273     8.476679    74.794358   -146.10898    542.74417    10890.368 
    8670    320.77474    7.9549983     55.93927   -146.97551   -2458.3277    10890.368 
    8680    322.89242    7.7951212    58.025394   -148.07664   -3427.7136    10890.368 
    8690    306.16722    7.8850494    59.779167   -149.24005    33.932403    10890.368 
8700        0.98368127473788447013 10.137645325278185737 1 70 -281.7907168242940088
    8700    289.63291    9.2764141    61.197482   -150.56293   -355.84404    10890.368 
    8710    271.46955    6.7884192    73.440539   -152.15333    1234.2348    10890.368 
    8720    303.21971    7.0986146    58.660002   -153.26422    74.689267    10890.368 
    8730    300.03992    6.0551943    66.502488   -154.55541     1736.875    10890.368 
    8740     294.4433    6.3320495    64.976764   -156.28233    4080.9492    10890.368 
    8750    287.32064    5.5020707    64.051658   -158.26506   -989.61901    10890.368 
    8760     293.5534    5.8722014    56.975701   -159.93434   -2015.2538    10890.368 
    8770    296.44586    5.0711875    62.034593   -161.74553   -1836.4031    10890.368 
    8780    308.79234    5.3187155    62.120871   -164.44136    1232.3274    10890.368 
    8790    296.42096    8.1309501    64.067596    -167.6015    1444.5482    10890.368 
8800        0.98410915998115888748 10.110073451570608327 1 69 -300.98502300640825524
    8800    287.89677    9.2455025    61.994727   -170.54385   -1118.1706    10890.368 
    8810    260.36825    9.7040105    61.466731    -173.2573    2456.4795    10890.368 
    8820    284.76857    7.6454812    56.508091   -175.29726   -121.30852    10890.368 
    8830    276.45816    8.6372129      56.4235   -176.92352    343.90036    10890.368 
    8840    291.57643    10.774557    52.878437   -177.10282    -607.1623    10890.368 
    8850    290.72123    9.7149241    57.681476   -176.77284    1727.3886    10890.368 
    8860    283.85789    7.7083716    58.549139   -175.75771    721.40149    10890.368 
    8870    275.90151    6.9035683    57.374048   -173.15659      2899.58    10890.368 
    8880    281.68787    7.5398869    60.294888   -169.31901   -1981.1348    10890.368 
    8890    303.54473    7.1473579    62.902181   -163.77816   -1615.1662    10890.368 
8900        0.98566150397558738305 10.129141605149635907 1 66 -305.28211744645153658
    8900    325.27471     6.912589    52.098375   -157.90564   -1636.8625    10890.368 
    8910    311.58175    7.1972093    62.251884    -152.8406   -241.78393    10890.368 
    8920    294.05472    10.883829    64.621073   -149.07147     2828.253    10890.368 
    8930    283.14966    7.3065763     74.53932   -145.82172    -3877.116    10890.368 
    8940    322.37875    6.5234092    66.836272   -143.65015     2342.481    10890.368 
    8950    337.39841    5.5047198     69.87425   -142.85784    2016.0012    10890.368 
    8960    323.64432    7.2295452    63.697575   -143.29184    806.44218    10890.368 
    8970    313.51093    9.4919134     68.19571   -144.52833    1522.1991    10890.368 
    8980    303.13953    10.166601    56.973077   -145.83373   -5120.4811    10890.368 
    8990     298.8157    12.622411    65.061601   -146.91436   -802.76227    10890.368 
9000        0.98034409227837648881 10.164949526058371987 1 67 -302.94751467866228722
    9000     343.4535    10.879229    54.458414   -147.33453    1146.0795    10890.368 
    9010    328.43903    11.525819    62.667143   -148.43792    2208.7014    10890.368 
    9020    313.55482     11.47963    61.905668   -149.86076    3223.0418    10890.368 
    9030    308.34016     10.30696    68.965182   -152.43837    1980.5463    10890.368 
    9040    308.83348    9.1895713    59.457532   -155.62835    682.52242    10890.368 
    9050    311.16059    9.9612567    54.108395   -158.93869   -1096.6071    10890.368 
    9060    299.85996    11.117324    58.247125   -162.29705   -3877.2998    10890.368 
    9070    294.33808    8.6208997    61.298886   -165.59298    13.105561    10890.368 
    9080     274.0456    9.1715149    64.470767   -168.66861   -1380.0196    10890.368 
    9090    278.45596    8.2017268    58.465374   -170.74302   -539.42803    10890.368 
9100        0.97533351598375117586 10.183008536018020251 0.99735449735449732689 68 -295.40438996229829627
    9100    271.93471    7.1763807    59.548323   -172.19536    34.679823    10890.368 
    9110    270.79694    5.8272323    57.172761   -172.42158    -1369.327    10890.368 
    9120    263.29908    6.1880586     66.24055   -171.64706    1195.4374    10890.368 
    9130     276.8898     6.548528    65.433113   -169.76283   -213.93374    10890.368 
    9140     299.0994    6.7832919    56.167478   -166.07202   -1873.8519    10890.368 
    9150    300.11589     4.293866    67.245074   -160.78584    323.06435    10890.368 
    9160    311.28784    6.1945203    62.262158   -153.87309   -3305.5432    10890.368 
    9170    299.16099    6.1867812    72.394632   -146.52018    907.81173    10890.368 
    9180    322.17809    5.9707972     71.19427   -140.31289   -1814.6524    10890.368 
    9190    323.37695    6.6117142    65.625922   -136.71584    1470.8971    10890.368 
9200        0.98247671217549170652 10.143107944777515428 1 67 -279.01657735065839461
    9200    317.20591    5.7586666    71.779106   -135.29593     2571.362    10890.368 
    9210    322.45419    6.7224273    69.224716    -134.9091    431.78329    10890.368 
    9220    309.20462    7.3469411       68.897   -135.67669    509.45144    10890.368 
    9230    309.14307    8.0539696    62.453631    -136.9192    1248.7446    10890.368 
    9240    313.13332    7.0164616    67.082432   -137.95959    -2740.701    10890.368 
    9250    313.18804    8.2443647    66.330358   -139.04218   -760.04726    10890.368 
    9260    306.50428    9.7627106    65.873513    -141.1959   -4908.6213    10890.368 
    9270    338.21144    11.573721    59.226302   -143.58072    4524.0785    10890.368 
    9280    336.32336    9.0844512    61.300772      -146.84    2333.8618    10890.368 
    9290    314.76431    7.9317322    62.231314   -150.38805    18.013817    10890.368 
9300        0.98641506743952922509 10.122768631992892452 1 68 -284.06291607381467657
    9300    287.17125    7.4129379    63.108857   -153.95047   -2348.8572    10890.368 
    9310    275.41167    5.6693873     61.99018   -156.39554    966.99614    10890.368 
    9320    302.79554    6.4823349    62.520101   -158.88517    2375.9656    10890.368 
    9330    298.55017    6.6427426    59.589353   -161.46012    414.99094    10890.368 
    9340    306.24812    9.9171385     51.62228   -163.48487   -1670.9399    10890.368 
    9350    285.49379     9.456407    57.128309   -164.58407    1554.5881    10890.368 
    9360    285.30226    9.6930579     54.35397   -164.90788     3173.944    10890.368 
    9370    307.70574    8.9646621    57.194449   -164.22873    2758.1463    10890.368 
    9380    332.31964     6.959593    56.250023   -163.49116   -1850.0795    10890.368 
    9390    322.09749    4.7200714    53.763641   -163.38514    -3958.424    10890.368 
9400        0.98550010264663101545 10.141924302880859443 1 67 -314.45781765834033195
    9400    333.64271    5.2828115    54.621046   -163.28994   -815.34836    10890.368 
    9410     299.9714    6.1993156     62.21478   -163.85366    642.29268    10890.368 
    9420     288.8903    7.9523292    58.771973   -164.59638   -825.35589    10890.368 
    9430    306.03799    7.7311992     53.06035   -165.33419   -1040.1626    10890.368 
    9440    300.10815    9.3789512    56.440874   -166.08565   -159.72541    10890.368 
    9450    298.81583    12.245787    57.984297   -166.54552    5229.0866    10890.368 
    9460    286.13268    14.141313    57.772257   -166.84003    1344.5878    10890.368 
    9470     283.7552    9.9972445     62.41488   -166.48587   -1479.8177    10890.368 
    9480    272.70614    7.6169048    61.450153   -165.51873   -1332.3038    10890.368 
    9490    279.80607    5.7702488    64.136659   -163.40656   -2086.2029    10890.368 
9500        0.98568769157614333221 10.140026352602756532 1 66 -293.82943106778481024
    9500    294.24672    6.8017875    62.725213   -160.51121   -126.58361    10890.368 
    9510    328.00736    4.7920862    56.142469   -156.75929   -1554.0587    10890.368 
    9520    307.22395    5.9314012    71.010896   -152.88623    874.69283    10890.368 
    9530    289.29515     8.223944    65.746839   -150.28334   -2882.4987    10890.368 
    9540    280.12367    13.478867    73.141852   -147.75167    51.025734    10890.368 
    9550    309.45014    11.419489    68.231669    -146.2512   -3027.4433    10890.368 
    9560    318.43323    9.5030054    69.781521   -144.67277    589.75035    10890.368 
    9570    292.43931    9.2106111    72.603526   -143.44089   -1997.7284    10890.368 
    9580    316.39608    8.2442017     62.99071   -142.91688    527.07845    10890.368 
    9590     303.8467    5.2241749    72.197654   -142.58548    2479.8646    10890.368 
9600        0.98745435561363281707 10.103556989920368991 1 65 -276.15703373514122632
    9600    294.39467    5.3675706    66.269218   -142.77177     2820.335    10890.368 
    9610    283.44835    4.9044925    73.084477   -143.12663    2915.1281    10890.368 
    9620    291.28675    5.2923666    66.937331   -143.17694    385.65169    10890.368 
    9630    294.10747    4.6335634    63.855812   -142.57277    -216.8479    10890.368 
    9640    305.67741    4.1861304    71.929285   -142.26967    927.29701    10890.368 
    9650    326.79916     5.045104    59.441863   -141.34213   -2163.6717    10890.368 
    9660     306.6456    5.7761729    70.833213   -140.73557   -451.46634    10890.368 
    9670    319.44161    6.7427136    65.669471   -139.94276   -694.30305    10890.368 
    9680    336.84641    5.2792174    61.612714   -139.79297    551.22946    10890.368 
    9690    319.40145    5.3402555    69.098122   -141.19138    2512.1012    10890.368 
9700        0.98368506056737703425 10.122854773964773401 1 67 -293.39632716107678334
    9700     330.7699    6.5087741    59.827205   -143.53007     972.0484    10890.368 
    9710    306.77211    6.9377864    66.875204   -146.53241   -388.88847    10890.368 
    9720    316.73088    6.0309707    60.630059    -149.8356   -4456.1521    10890.368 
    9730    276.39002     5.382234    69.717408   -153.46698   -349.85127    10890.368 
    9740     285.0423    6.6206403    75.119182   -157.28375    645.23743    10890.368 
    9750    284.20569    8.0290178     62.80324   -161.27293    1779.3247    10890.368 
    9760    279.64766    9.7626971    62.406012   -164.44858     1844.709    10890.368 
    9770     283.6758    10.786435     53.76258   -166.37385   -770.14548    10890.368 
    9780    274.91946    10.111693    60.215643   -167.56737    185.98227    10890.368 
    9790    297.23374    10.054936    60.855112   -168.02699    1245.7668    10890.368 
9800        0.98304745476466515175 10.113091716535171471 1 66 -304.6838382517514674
    9800    301.38117    8.5813874    55.661453   -168.13312    1319.1167    10890.368 
    9810    290.35261     8.347271    56.289814   -167.26068   -1252.5634    11415.628 
    9820    285.19426    7.5064101    64.381136   -165.90735   -2123.5908    11415.628 
    9830    281.99875    5.4477535    70.501372   -163.55688   -2925.5718    11415.628 
    9840    311.83321    5.5038023    62.594009   -160.61917    559.48228    11415.628 
    9850    288.91993    8.0745902    68.104182   -157.27094   -1159.7903    11415.628 
    9860    309.89234    9.4580004    63.483837   -153.15991    2470.9708    11415.628 
    9870    314.20225    9.5681245    67.242586   -148.95226    1861.1162    11415.628 
    9880    325.72187    8.0306929    63.449047   -144.74544    2656.5175    11415.628 
    9890    320.30443    8.9220457     66.54364   -141.13939   -2886.7582    11415.628 
9900        0.98493503072784671648 10.105921706476346245 1 66 -278.58068247149088847
    9900    310.42564    8.6596197    63.697142   -137.93206    -3728.479    11415.628 
    9910    306.12861    5.3047893     73.08113   -135.33799   -493.63636    11415.628 
    9920     310.6302    5.3160552    73.511699   -133.23826    2611.7397    11415.628 
    9930    318.87449    6.8486166    69.965106   -131.34047    5027.0889    11415.628 
    9940    331.66948     6.699567    63.054713    -130.2939    2204.2592    11415.628 
    9950    324.80005    4.2067702    63.560463   -130.36691   -1727.5104    11415.628 
    9960    325.14657    5.4863921    68.725426     -130.794    -227.3212    11415.628 
    9970    317.72544    7.8768215    63.032166   -132.66604   -1271.0262    11415.628 
    9980     303.2505    9.7873242     69.52291   -135.98055   -205.48765    11415.628 
    9990    317.26724    8.2647708    65.565116    -142.2342     -3323.94    11415.628 
10000        0.98540561135379645119 10.124603179020562393 1 68 -291.03950870951365459
   10000    308.05977    8.9124678    55.250052   -151.46283    -1445.714    11415.628 
   10010    302.47814    8.8397434    57.133143   -159.99464    2011.9281    11415.628 
   10020    313.92793    6.7542701    52.188934   -165.06423    472.65314    11415.628 
   10030    268.05597    6.1882983    60.225488   -168.34687    568.53831    11415.628 
   10040    275.46319     5.946397    59.599514   -170.39638   -943.63234    11415.628 
   10050    295.71502    8.0812676    52.333878   -170.50231    2085.4152    11415.628 
   10060    291.14584    9.1723771    58.398201    -170.2497     392.3658    11415.628 
   10070    290.29419    9.0480394    56.510694   -169.24811    -503.4815    11415.628 
   10080    285.50698    8.4645068    62.625862   -167.35909    1290.1612    11415.628 
   10090    291.03556    7.6451089    61.447311   -165.59153   -1748.2138    11415.628 
10100        0.9871184031208813936 10.117954421680433796 1 67 -292.83568362867828228
   10100    286.44402    5.6347131    62.084021   -163.05273    1232.9756    11415.628 
   10110     295.5598    4.4901581    61.958971   -160.88971    240.30776    11415.628 
   10120    311.49297    4.6292692    55.967729    -158.6353   -2513.8643    11415.628 
   10130    305.88885    6.0721037    65.140352   -156.01592   -3031.3466    11415.628 
   10140    295.82005    7.1685432    63.682923   -153.56282   -1632.9363    11415.628 
   10150    299.14007    5.5100628    65.432497   -151.34186    4383.7555    11415.628 
   10160     297.4423    4.8185253    66.311159   -149.10196    3611.2961    11415.628 
   10170    316.50907    5.1247479    59.820693     -146.977   -269.22854    11415.628 
   10180    324.21294    7.8610081    57.729474   -144.58659    4584.1019    11415.628 
   10190    321.57064    6.0596656    70.509672   -143.39603   -1317.4944    11415.628 
10200        0.97860171969779785606 10.181339229033792293 1 72 -277.20676653998475558
   10200    297.05824    6.4933945    72.917162   -142.61469   -723.15026    11415.628 
   10210    306.33938    7.4837088    68.051065   -143.67525   -7398.5592    11415.628 
   10220    302.71904    8.3854235    66.284649    -145.1608   -1603.8243    11415.628 
   10230    298.31035    6.0025059    62.889256    -146.6632   -1390.4226    11415.628 
   10240    298.93096    6.5723612    60.044243   -148.19102    1747.1067    11415.628 
   10250    281.11978     5.346363    63.854433   -150.27592    2012.4947    11415.628 
   10260    286.49213    4.8829395    65.889596   -152.22915    3977.7223    11415.628 
   10270    310.02298    4.3434716    56.527061   -154.32846    655.01473    11415.628 
   10280    294.68194    5.2591839    57.381448   -157.29888    -1000.581    11415.628 
   10290    299.85191    4.2862745    56.187269   -160.52561   -3203.7278    11415.628 
10300        0.97637584362106710767 10.16977169233950562 1 68 -294.79063456564369972
   10300    288.81239    4.4435746    60.186112   -163.93461   -1234.1287    11415.628 
   10310     285.1714    4.7481852     65.09786   -166.91109   -1279.5436    11415.628 
   10320    257.95948    7.0419104    64.973307   -169.66174    839.14564    11415.628 
   10330    264.61984    5.2096871    60.254361   -171.28789   -1187.4989    11415.628 
   10340    276.03972    4.4076708    57.266497   -172.66973     1497.924    11415.628 
   10350    256.65608    5.9460738    61.745201   -173.51297    2086.7378    11415.628 
   10360    257.60094     8.714431    60.522569   -173.11614    3015.5616    11415.628 
   10370    272.94784    7.3432428    58.609717    -171.7361    407.25357    11415.628 
   10380    283.28535    7.2948765    54.712372   -169.15503    1374.1331    11415.628 
   10390    295.76227    7.8276453    62.602336   -165.52628   -1307.4456    11415.628 
10400        0.97592686038483944522 10.176972264617678121 1 70 -289.87843792964520162
   10400    285.83885    7.0583871    61.532314   -160.36968    -2515.487    11415.628 
   10410    294.67534    5.4745089    66.232338   -155.15678   -4485.2014    11415.628 
   10420    298.43508    5.9960127    70.321432   -150.74399    929.42709    11415.628 
   10430    328.02901    5.3375671    59.217056   -147.52984    122.20044    11415.628 
   10440    288.35127    7.1485295    70.559064   -145.94308    832.65014    11415.628 
   10450    303.71406    5.7809193    60.756518   -145.07113    557.51506    11415.628 
   10460    274.83465    8.8412982     76.29747   -144.51926    459.60004    11415.628 
   10470    305.36544    9.2007809    56.553909   -143.79892   -798.76404    11415.628 
   10480    287.73775    10.243409    68.551237   -143.03703   -3562.3098    11415.628 
   10490    322.11472    8.5910364    61.658895   -142.24048    3892.2045    11415.628 
10500        0.97765608305053197657 10.142097308653948318 1 69 -285.49404368823729783
   10500    316.81993    7.3073414    66.377345   -141.94828    1745.3027    11415.628 
   10510    305.78135    5.1347292    63.430691   -142.51529   -1015.0722    11415.628 
   10520    302.40872    5.6793275    70.810209   -143.51242   -511.15982    11415.628 
   10530    310.11667    5.7096695     65.51188   -145.00227    748.31594    11415.628 
   10540    315.52758    5.3049801    62.738558   -146.77951    730.71188    11415.628 
   10550    292.86341      6.12739    58.202111   -148.85298   -3229.3532    11415.628 
   10560    307.60302    9.4587572    58.818916   -150.79852   -146.79712    11938.184 
   10570    308.82892    9.3822682      62.4192   -152.86845   -2096.3851    11938.184 
   10580    314.97505    11.994734    55.611509   -155.38199   -282.77103    11938.184 
   10590     301.5619    10.499434    59.592013   -157.79355    3065.4422    11938.184 
10600        0.9764853116242330211 10.163809957410254725 1 68 -289.81970606146319369
   10600    287.55582     13.58384    55.864753   -159.53302      1617.85    11938.184 
   10610    263.58291    12.018807    58.496053   -160.68075    1650.5849    11938.184 
   10620    271.27779      10.2353    55.569868   -161.39414      11.7806    11938.184 
   10630    287.62076    7.8609236    61.151847   -160.63094    2584.7532    11938.184 
   10640    284.97784    7.3930307    67.133071   -159.70406   -1394.6577    11938.184 
   10650    270.23898    8.0725163    66.828154   -158.38996   -2626.0918    11938.184 
   10660    285.30254    9.2613751     68.41162   -155.70602   -1537.5524    11938.184 
   10670    291.60546    10.630925    66.563598   -150.29816   -908.71508    11938.184 
   10680    308.99616    8.5476427    67.516159   -143.89627   -685.29059    11938.184 
   10690    312.11669    7.4698689    65.028636   -137.60142    705.28731    11938.184 
10700        0.97836466638142993713 10.14873990161476236 1 67 -268.18456291414486259
   10700    299.50335    5.9395674    70.349157   -132.48465   -196.90218    11938.184 
   10710    316.71897    5.1331873    70.494947   -129.29934    1965.4767    11938.184 
   10720    347.69364    5.4649056    60.011894   -127.60467   -1975.6343    11938.184 
   10730    339.24487    6.4727835     63.24344   -127.10361   -707.00463    11938.184 
   10740    325.03738    6.7480599    60.559155   -128.16837   -2266.6826    11938.184 
   10750    283.54325    7.5763742    69.602755   -129.09408   -1424.0892    11938.184 
   10760    289.92303    8.1937796    66.852406   -130.99007    2077.2156    11938.184 
   10770    284.03494    7.1956957    73.656606   -133.15456    2577.6304    11938.184 
   10780    305.07515    6.8600281    59.428365    -134.5026    550.38307    11938.184 
   10790    313.82684    4.5690213     54.30879   -136.43204    1651.8581    11938.184 
10800        0.97302166939989542804 10.152534023479351077 1 67 -278.89112254769878518
   10800    309.67572    3.4404852    57.300169   -138.58228   -1608.4266    11938.184 
   10810    306.19362    4.7484006    55.723625   -140.52716    3191.0914    11938.184 
   10820    310.16594    5.2822047    61.346019   -142.81872   -2229.0145    11938.184 
   10830    319.53997     4.271624    55.449058   -145.76306    2171.4224    11938.184 
   10840     315.3732     4.148264    60.535734   -149.69921   -755.06586    11938.184 
   10850    303.89881    5.0062293    53.804281   -153.74844   -247.77919    11938.184 
   10860    297.98611    5.8706911    55.612767   -157.66833   -2273.4983    11938.184 
   10870    284.26428    7.3999631    52.394594   -161.68173    2034.1124    11938.184 
   10880    284.55405    6.5543352    54.221887   -163.98564   -1113.9077    11938.184 
   10890    292.02271    5.7624174    59.848081   -165.19534    2788.6288    11938.184 
10900        0.96970733152538657329 10.189237278413161292 0.99735449735449732689 67 -305.14826674162026166
   10900    305.50434    6.6850732    59.827069   -166.72941   -2999.6916    11938.184 
   10910    294.23012    6.5877343    55.596438   -167.87936    2806.5413    11938.184 
   10920    261.43629    6.9685562    58.163227   -169.17377   -704.57662    11938.184 
   10930    269.22159    6.5387685    60.883561    -168.9238   -376.44089    11938.184 
   10940    296.77933    5.2685324    54.444626   -167.70526   -1269.2835    11938.184 
   10950    283.65552     6.134891    56.719427   -167.31389     489.6541    11938.184 
   10960    297.08081    8.7279688    49.923442   -166.29406     2562.895    11938.184 
   10970     297.9312    8.5431976    53.323574   -164.79015    1293.4066    11938.184 
   10980    292.76476    9.1983908    53.588649   -163.63126   -3018.8492    11938.184 
   10990    257.48653    8.6731348    61.162691   -162.24121   -2650.2221    11938.184 
11000        0.96725316449080533943 10.210282946407655658 1 67 -289.02457802798113562
   11000    284.28545    4.8396175    53.109984   -160.21964   -2044.5464    11938.184 
   11010    290.67771    4.8250678    62.180198   -158.04359    1379.6614    11938.184 
   11020    311.11841    4.4738548    53.981564   -156.20395   -2234.1511    11938.184 
   11030    269.42137    6.3800398    62.807785   -154.97142   -1196.5367    11938.184 
   11040     279.4934    7.3544509    59.732757   -153.58421    3035.5169    11938.184 
   11050    282.02171    6.7495553    64.681402   -151.75008    1284.6448    11938.184 
   11060     289.6289    8.3747092    63.143054   -149.52277   -114.65395    11938.184 
   11070    297.77461    8.2653391    62.068013   -147.17193    -1817.476    11938.184 
   11080    304.38934    6.1266203    63.912597   -144.95303   -633.93794    11938.184 
   11090    320.10611     6.402943    59.494036   -142.77743    1726.7665    11938.184 
11100        0.97000915158187750453 10.175701749864753509 1 66 -274.63395438442239538
   11100     294.3333    8.1739102    58.423398    -141.2765   -1087.6661    11938.184 
   11110    310.09228    9.3992993    59.839252    -140.4716   -217.22267    11938.184 
   11120    311.53982    7.6861439    62.612862   -139.44703    526.05783    11938.184 
   11130    306.35428    7.4717488    63.030216   -139.01273    112.00883    11938.184 
   11140    291.53679    7.9845368     65.58085   -138.78573    1406.7795    11938.184 
   11150    320.90893    8.1395571    60.222131   -138.28332    113.73712    11938.184 
   11160    326.43338     8.805775    64.995002   -138.29061   -498.95676    11938.184 
   11170    324.90511    10.005224    62.981704     -139.283   -117.73979    11938.184 
   11180    313.10027    11.389193     65.76316   -142.71711    974.74505    11938.184 
   11190    302.04098    10.155734    62.456309   -146.50783    2286.0572    11938.184 
11200        0.97766721055034511156 10.14858333890244424 1 64 -278.87617933983653984
   11200     279.5434    8.7806264    63.675555   -152.21978   -818.91063    11938.184 
   11210    272.22473    6.4709176     63.43906   -158.13617   -1520.1861    11938.184 
   11220    295.25774    4.7990435    60.766793   -163.53048   -913.61352    11938.184 
   11230    307.40449     6.700359    55.856875   -167.98191   -683.54497    11938.184 
   11240    314.02103    3.5623943    54.829132    -171.1145   -1629.3999    11938.184 
   11250    274.79619    4.5733688    59.697013   -173.10819   -360.42896    11938.184 
   11260    257.42837    5.6571063    62.476941   -174.07558    2441.3652    11938.184 
   11270    238.95449    6.8679014    65.348868   -173.69479    2535.6593    11938.184 
   11280    278.88481    6.5248572    54.426605   -172.66012    671.82518    11938.184 
   11290      290.158    5.3050907    59.932942   -170.34946    746.08934    11938.184 
11300        0.98004632278153314129 10.14289626959149615 1 67 -297.93780797160911789
   11300    285.90217     6.417409    60.831599   -168.40036   -3047.1207    11938.184 
   11310    284.24971    7.8146359    55.878542   -165.96246   -1774.8367    11938.184 
   11320    269.35944    8.1515299    70.123679   -163.13363    474.63662    11938.184 
   11330    304.03372    8.8049629      66.7375   -160.22828    4134.2777    11938.184 
   11340    284.57486    7.1571902    71.311849   -157.12025    789.42266    11938.184 
   11350    333.27481     5.537924    57.870168   -154.57161   -1059.6719    11938.184 
   11360    310.13851    3.8882465    65.111327   -153.44461   -2702.2393    11938.184 
   11370    304.49654     3.787508    64.512394   -153.75466   -1250.1508    11938.184 
   11380    290.99169    4.8080431    70.809956   -153.76865    1403.3144    11938.184 
   11390    293.32941    8.0093498    61.520126   -153.72928    3833.6011    11938.184 
11400        0.98485574186036539679 10.13900544368300416 1 66 -288.97748167843639067
   11400    298.74159    11.757795    63.905153   -153.62271   -1734.3979    11938.184 
   11410    256.66742    13.672338    72.089478   -153.40668    719.21617    11938.184 
   11420    275.37266     11.72606    57.389021   -151.84677   -4217.1044    11938.184 
   11430    281.80391    9.9250842    67.020387    -150.0269    765.53329    11938.184 
   11440    309.46803    8.2364298    62.004016   -147.78601   -2192.4573    11938.184 
   11450     291.0319    8.4053714    70.090273   -145.45142    516.27427    11938.184 
   11460      301.233    5.9925455    71.488268     -143.002   -694.49564    11938.184 
   11470    304.10352    9.6410661    65.186929   -140.10848    1714.8616    11938.184 
   11480    320.06908    10.046605    64.702832   -135.83725    1743.2825    11938.184 
   11490    324.76975    9.9483651    68.840254   -129.72883     2205.898    11938.184 
11500        0.98516279808731899159 10.129966075121275892 1 68 -268.84090210366542806
   11500    323.60199    8.5811921    71.496338    -122.2223    685.61641    11938.184 
   11510    331.86031    7.4486123    73.235823   -114.91758    1303.6899    11938.184 
   11520    345.67348    8.1028754    71.865829   -110.08867   -1962.5758    11938.184 
   11530    351.74884    9.1586551    75.488724   -107.76376   -1782.9695    11938.184 
   11540     362.7205    8.1428207    64.091537   -107.76041   -2795.0098    11938.184 
   11550    325.02657    7.3676454    80.410781   -109.76721   -597.42071    11938.184 
   11560    335.14508     5.678053    66.327512    -112.5609    1145.0109    11938.184 
   11570    303.04727    5.4227928    77.597544   -116.61091    5.7178941    11938.184 
   11580     325.7609    5.6646817    59.141989   -120.35488   -1022.1979    11938.184 
   11590    304.34576    7.5879857    69.749868   -123.88002      695.671    11938.184 
11600        0.98480132541419462822 10.123835262794417034 1 68 -274.87198406780203186
   11600    326.88146    8.5985042    60.845516   -126.76751    83.359734    11938.184 
   11610    334.51602    7.9152929    53.438024   -129.26042    1672.1704    11938.184 
   11620    310.45881    4.5187462    70.020401   -131.60497    1767.1467    11938.184 
   11630    327.02321    4.4516651    59.116964   -134.21608    1610.3125    11938.184 
   11640    277.64768    6.0084296    74.508848   -136.53142   -77.227542    11938.184 
   11650    319.10688    8.1089562    52.512612   -138.72844   -1705.2828    11938.184 
   11660    299.79239    6.4981562    67.285968     -140.818   -1529.7092    11938.184 
   11670    323.04574    7.1219692    55.331399   -142.48561   -2287.2456    11938.184 
   11680    280.31192    8.0423051    69.805165   -144.85976   -2583.0827    11938.184 
   11690    323.78635    8.6655518    56.244146    -146.3822    1806.3171    11938.184 
11700        0.98562326373284891989 10.108679026321091499 1 63 -297.22555506685461069
   11700    328.98122    9.0199836    55.575223   -148.16971    2531.8376    11938.184 
   11710    324.02401    8.2473996    53.658272   -150.37452    2953.3753    11938.184 
   11720    315.90061    8.3614986    53.765809   -152.67008    274.36626    11938.184 
   11730    301.06649    7.3375251    62.228968   -154.56432   -234.67247    11938.184 
   11740    292.63143    7.0558666    62.821946   -156.51832    1436.5256    11938.184 
   11750    268.89693    8.2006808    65.801577   -158.13904   -4193.2427    11938.184 
   11760    277.94381    10.256627    57.795108   -158.86274     195.1055    11938.184 
   11770    293.99561    9.4109939    55.695749   -158.88913   -2267.5597    11938.184 
   11780    286.67942    9.3261203    59.535079   -158.18934   -1173.0319    11938.184 
   11790    295.49236    8.1132756     57.01733   -157.42757   -2233.6254    11938.184 
11800        0.98590320754702209793 10.121416651542492815 1 68 -284.82731459951656916
   11800    284.60558    8.3437677     64.15526   -155.87733    273.02238    11938.184 
   11810    309.97307    9.6800334    62.399747   -154.66631    3827.2264    11938.184 
   11820    303.55085    8.6726344     58.76913   -152.99599    1538.0935    11938.184 
   11830    300.25188    10.280021    58.431546   -151.67727   -1910.5738    11938.184 
   11840      303.073    8.5646837     60.55274   -149.94698    1617.9606    11938.184 
   11850    296.55901    6.5408188    65.494044   -147.38564    -1820.725    11938.184 
   11860    321.47846    7.0324111    65.276856   -142.88997    1956.8059    11938.184 
   11870    330.06452     7.687867    62.842815   -136.32992   -503.32216    11938.184 
   11880    329.30838    11.713618    66.143331   -130.28269    2189.0735    11938.184 
   11890    324.69074    12.898609    73.231409   -124.15011    907.34462    11938.184 
11900        0.98711935117428273312 10.111098138158441273 1 67 -269.21515142429961998
   11900    328.12598    8.4930996    73.300215   -120.54681   -963.67376    11938.184 
   11910    333.89419    10.786478    71.334913   -119.04066   -1913.1059    11938.184 
   11920    329.55826    8.9208262    70.961304    -118.5967   -1439.7296    11938.184 
   11930    312.24829     6.815041    73.553968    -119.4669    2407.0406    11938.184 
   11940    320.79733    7.1327439    70.584914   -121.17866    1732.3759    11938.184 
   11950     298.7218    8.9650467    76.628499   -124.38038   -3005.6493    11938.184 
   11960    309.25514    8.9978341    69.959285    -127.9741   -715.17002    11938.184 
   11970    306.12592    7.0234835      69.4691   -132.94348   -1137.7369    11938.184 
   11980    306.91251    7.3435442    66.454566   -137.84119    2706.4249    11938.184 
   11990    301.12757    6.4840155    69.125748   -141.78057    -532.4588    11938.184 
12000        0.9796241966772964993 10.125819522029926745 1 69 -278.38812576430484569
   12000    294.26383    4.0288045    73.448477   -145.06215    548.43825    11938.184 
   12010    293.95117    5.0643994    68.011107   -148.56975    1284.8251    11938.184 
   12020    298.31777     4.886168    61.488056   -150.92461    583.31375    11938.184 
   12030    296.52708    3.9111796    58.889739   -152.98619   -2315.4224    11938.184 
   12040    283.28548    3.8834899    60.711859   -153.83373   -1696.8224    11938.184 
   12050    283.85581    3.9485833    66.029626   -154.41474    462.86011    11938.184 
   12060    283.69397    4.2955594    69.361578   -154.42708    3012.0715    11938.184 
   12070    298.43312    5.8608286    60.761339   -154.77887     691.2466    11938.184 
   12080    296.53385    7.2198848    60.291693   -155.06057   -357.56742    11938.184 
   12090    323.02616    7.6913384    47.472312   -154.82103    1875.7297    11938.184 
12100        0.97886101093525157424 10.154596768312414312 1 69 -288.85344613265840508
   12100    296.95621    4.3751325    61.978072    -154.3076    1973.1263    11938.184 
   12110    296.23668    3.9270909    63.384383   -153.18172   -690.41965    11938.184 
   12120    294.77702    3.0841742    65.330663   -153.46627   -4066.3146    11938.184 
   12130    310.69895    2.3856785    62.708576    -153.6377   -1141.2576    11938.184 
   12140    318.06402    3.3928487    54.201412     -155.236   -658.32968    11938.184 
   12150    303.04618    6.6349189    53.232266   -157.42334    217.90098    11938.184 
   12160    297.93849    10.901889    51.142911    -159.5233    1278.1983    11938.184 
   12170    268.83898    11.604587    62.339676   -162.07347    1364.7675    11938.184 
   12180    277.78597    12.174661    59.226447   -164.19748    1431.8608    11938.184 
   12190    265.95425    12.413338    57.684404   -166.14175   -1157.9579    11938.184 
12200        0.9753118335364682201 10.192745162324570174 1 65 -290.6720770336996793
   12200    271.68273    10.750002    59.466209   -167.57722   -1196.7346    11938.184 
   12210    291.39532    8.1122875    60.107296   -167.69112   -1071.0781    11938.184 
   12220    301.84747    6.7112387    57.887646   -168.33541   -1249.4534    11938.184 
   12230    278.90392    6.5731444    57.962807   -168.21069   -845.79666    11938.184 
   12240    295.12866     8.240463    58.400242    -167.8667   -1862.8831    11938.184 
   12250    304.08379    8.7467114    57.130471   -166.88075   -1695.3187    11938.184 
   12260    294.74243    8.4466486    60.491263   -165.36157    704.93269    11938.184 
   12270     294.7803    11.414059    52.192732   -163.66306    1559.2152    11938.184 
   12280     292.8148     8.933725    59.380005   -161.81494    1118.2008    11938.184 
   12290    298.48642    6.7389623     54.91394   -158.77921    1316.5843    11938.184 
12300        0.97688909417171643224 10.162632390654312786 1 68 -290.09800174710755982
   12300     297.5482     4.662677    63.299155   -155.28393   -525.36466    11938.184 
   12310    288.71639    7.5067728    68.850943   -151.15384    3252.4381    11938.184 
   12320    293.37574    7.6604185    64.600203    -147.2609   -2681.1827    11938.184 
   12330    292.22575    8.5419862    68.645666   -144.04898    584.32486    11938.184 
   12340    346.03016    5.4878352    54.947165   -140.95739   -1368.8537    11938.184 
   12350    350.76704    5.0064436    56.232476   -139.16698    1785.9858    11938.184 
   12360    352.66122    4.8023364    58.945373   -138.96711    793.56066    11938.184 
   12370    313.74941    5.4402412    66.408149   -139.88681   -258.05254    11938.184 
   12380    294.71824    6.5387841    70.469422      -141.47    2345.8992    11938.184 
   12390    287.31653    7.7098984    64.628239    -142.8206    828.48539    11938.184 
12400        0.97562821582493020056 10.173541708587375609 1 68 -284.15323742130101436
   12400    309.66106    8.4412332    64.309106   -143.85104   -1137.6259    11938.184 
   12410    302.21177     9.460108     61.96407    -145.4873   -760.90769    11938.184 
   12420    293.51185    6.3488748    61.418152   -147.49073     -1723.72    11938.184 
   12430    276.62826    6.6083427    68.071874   -149.97257   -1933.7552    11938.184 
   12440    295.46494    6.6032528    50.562729   -152.49044   -1778.3835    11938.184 
   12450    285.04975    6.8346836    58.761493   -155.23752     1186.048    11938.184 
   12460    291.08322    5.3590733      55.6762   -157.97053    1032.2587    11938.184 
   12470    290.41573    5.3581308    52.197393   -161.78353   -855.98079    11938.184 
   12480    282.61048     3.502222    54.251048   -165.70355    -137.0929    11938.184 
   12490    283.48191    2.8398946     57.01295   -169.85698   -465.27719    11938.184 
12500        0.97559296757068891814 10.168815760335021992 1 70 -302.94340738305851346
   12500    285.22823    4.2543687    51.785142   -173.71131    808.24545    11938.184 
   12510    287.02547    6.6725485    53.664313   -176.72273   -554.38523    11938.184 
   12520    290.32223    6.6409366    48.178129   -178.73231   -2326.8328    11938.184 
   12530     265.8145     7.280441    58.426855   -180.08808   -1815.0037    11938.184 
   12540    278.45172    7.9988614    53.845093    -180.3511    857.89842    11938.184 
   12550     283.5802    10.206264    56.706567    -179.9519    2641.4518    11938.184 
   12560    308.16766    8.2707841    54.360072   -179.14639     1615.833    11938.184 
   12570    280.62281    9.0016683    52.706395    -177.7374   -820.45482    11938.184 
   12580    286.02712    10.035233    53.223148   -175.53465    -316.5666    11938.184 
   12590    280.71587    11.007015      57.2298    -171.3596    1189.2949    11938.184 
12600        0.97903521411783100969 10.141666689148227221 1 67 -300.36692148596563356
   12600    296.73813    9.2173125    56.547685   -165.91988    3239.5418    11938.184 
   12610    304.94452    7.9450232    58.935387   -159.77378    1180.0091    11938.184 
   12620    315.46851     6.215294    58.487545   -154.98774   -2621.2733    11938.184 
   12630    323.20682    3.9253902    55.557531   -151.68772   -2190.1566    11938.184 
   12640    305.32911    4.7188498    63.522409   -149.82992   -775.56371    11938.184 
   12650    329.43921    7.1169723     53.25553   -148.65653   -946.93526    11938.184 
   12660    299.62265    9.5151615    63.742116   -148.30932    1468.0276    11938.184 
   12670    275.35247    12.041909      64.2946   -147.51169     1928.103    11938.184 
   12680    285.18371    10.166771    60.485039   -146.81662   -354.36385    11938.184 
   12690    294.98159     8.250301     59.07959   -145.94745   -1354.4884    11938.184 
12700        0.98171023755340469652 10.14727505172909261 1 70 -277.63235810793992187
   12700    292.53866     5.570083    64.255043   -145.08803    3095.7002    11938.184 
   12710    295.64486    5.4666159    65.493233   -144.68533   -724.18874    11938.184 
   12720    312.03886    3.4862701     60.53658   -144.10407   -371.05059    11938.184 
   12730    315.06559    5.5114761    65.318859   -143.87006   -228.58927    11938.184 
   12740     329.1961    6.3058707    66.379343   -144.52302    617.81243    11938.184 
   12750    323.92711    7.8959591    62.244212   -146.46904    1026.0785    11938.184 
   12760    273.99031    7.8467749    70.309289   -149.65112   -2881.1976    11938.184 
   12770    267.52492    6.0949921    67.771333   -153.06013   -1021.8154    11938.184 
   12780    302.96182    7.3969887    61.921625   -156.02986   -1756.3317    11938.184 
   12790    310.06089    9.3087713    56.108783   -160.06702    975.41187    11938.184 
12800        0.97770038854581253762 10.174097514166104972 1 71 -290.99207498065152322
   12800    278.07561    8.7244516    66.037685   -165.00071   -1688.0738    11938.184 
   12810    282.15335    7.8533682    60.708403   -169.51684    2116.2999    11938.184 
   12820    278.97703    4.9677533    63.975661   -172.97972    1837.3233    11938.184 
   12830    277.20774    5.8202711      55.0323   -175.72856    1983.1745    11938.184 
   12840    252.61105    4.1549065     63.48005   -176.61313    276.21619    11938.184 
   12850    273.01741    5.2740368    52.476907   -176.74176   -803.85053    11938.184 
   12860    278.94335    5.0689333    52.109999   -175.96161    -3011.185    11938.184 
   12870    267.87538    5.6498787    51.259698   -174.66669    -857.3337    11938.184 
   12880    266.49677    5.6037993    64.366817   -172.70142    406.42381    11938.184 
   12890    278.75675    4.1624342    60.038368   -170.76696    1168.9675    11938.184 
12900        0.97015559953883079292 10.211079873156110764 1 68 -301.90726143562670813
   12900     293.9447    3.3322681    56.021956   -168.72588   -1860.5231    11938.184 
   12910    307.57313    3.6021551    57.074003   -167.72051    -2666.358    11938.184 
   12920    288.47416    3.6369443    54.239709   -166.77476   -148.31241    11938.184 
   12930    291.11757    4.2968649    60.880515   -166.33612    4284.9046    11938.184 
   12940    272.31723    5.4950525    62.060354   -164.90293    3459.3635    11938.184 
   12950    271.45436    7.7508009    62.476936   -163.29817   -2055.4833    11938.184 
   12960    280.96077    8.2882928    61.901148   -161.70917   -165.97789    11938.184 
   12970    284.43302    7.2392157     61.42679     -159.687   -1764.4658    11938.184 
   12980    286.31805    7.1381802    58.160896   -157.76685   -2939.6472    11938.184 
   12990    295.92144    7.4936838    56.989306   -154.87328   -1790.9822    11938.184 
13000        0.97018040081273460018 10.199057108970487562 1 71 -291.86862307273395345
   13000     308.9696    8.5890984    59.832467   -151.87971   -2235.2316    11938.184 
   13010    297.20535    7.6323671    68.983551   -149.42936    2382.1898    11938.184 
   13020    311.34176    9.4193629    58.987664   -148.00117    3548.0762    11938.184 
   13030    307.36297    10.097659     50.35322   -146.47077    2004.9465    11938.184 
   13040    333.10068    6.7330221    50.339657   -144.83565   -2285.0221    11938.184 
   13050    332.06845    6.2871386    56.596574   -143.69825    535.49139    11938.184 
   13060    307.00471    5.9277481     62.18786   -143.04674    624.97374    11938.184 
   13070    302.81786    6.1297425    57.605936   -142.18478   -2011.0977    11938.184 
   13080    309.46958    6.3115323      55.4107   -140.95444   -3778.3857    11938.184 
   13090    313.82289    8.6201587    58.341819   -139.10351    -2138.475    11938.184 
13100        0.97597319151210271126 10.15995544997035438 1 73 -286.39884188491544137
   13100    332.68898    6.7635191    63.870274   -135.66308     902.0083    11938.184 
   13110    327.84563    6.7768613    65.498907    -131.4994    2716.2819    11938.184 
   13120    342.43621    8.0000115    67.674485   -128.07374    1487.2297    11938.184 
   13130    357.08192    8.1358102    57.159355   -125.18702   -411.15124    11938.184 
   13140    349.72969    7.7128289    55.701816   -124.77488    -1946.374    11938.184 
   13150    344.65546    6.8861832     58.69935   -125.71946    616.54585    11938.184 
   13160    310.59125    10.048581    64.603335   -127.77198     2939.995    11938.184 
   13170    308.37849    11.729018    59.563624   -130.25021    2886.9186    11938.184 
   13180    300.64897    12.659762     60.31983   -133.49718    1501.8517    11938.184 
   13190    313.18278    9.6688974    62.307259   -137.20052   -873.97753    11938.184 
13200        0.98254914803205684048 10.121691198839188885 1 73 -280.76705777266988662
   13200    308.03429    8.9135681    57.698702   -141.20192   -84.477551    11938.184 
   13210    290.84674    9.2640241    58.012829   -144.87137    288.75364    11938.184 
   13220    300.57822    8.7815409    53.107885   -147.56401     1122.338    11938.184 
   13230     315.8647    9.5355266    51.073517   -150.56301    321.68139    11938.184 
   13240    300.84373    7.1738798     58.36172   -153.18457   -812.10137    11938.184 
   13250    280.40877    4.4501887    57.126302   -155.74104    -114.5581    11938.184 
   13260    263.53871     3.303171    59.452308   -157.31644    299.63994    11938.184 
   13270    281.09006    4.3289456     57.24229   -158.41161     878.5214    11938.184 
   13280    299.09132    4.8881574    56.583249   -158.28637   -2121.3143    11938.184 
   13290    296.91418    6.6767324    53.861959   -157.70943   -907.86352    11938.184 
13300        0.98573029397968159326 10.110175608768340538 1 68 -281.18299683406883105
   13300    274.36944    6.1626808    64.889671   -156.87083    1951.4678    11938.184 
   13310    263.68746    8.6976125    57.465662   -155.39143     1541.852    11938.184 
   13320    284.85456    7.7176104    57.842519   -152.80394   -2158.3418    11938.184 
   13330    296.42082    8.1717304    59.147516   -148.75394   -3643.4612    11938.184 
   13340    315.71383    6.4931013    59.668093   -144.53241   -156.31378    11938.184 
   13350    324.17935    6.9667736    55.339127   -139.49686    3529.2484    11938.184 
   13360    336.57887    7.9887842    54.993523    -134.7677    3696.2412    11938.184 
   13370    329.08485    8.1751507    55.468366   -130.90384    258.30952    11938.184 
   13380    345.26358    8.5503719    60.952331   -128.40764    387.00644    11938.184 
   13390    328.11309    7.8333806    67.394864   -127.69978    825.38489    11938.184 
13400        0.98244994335796498319 10.129563707358437696 1 68 -268.79180732802080911
   13400    307.88493    9.2810689    70.607686   -129.29434    333.74011    11938.184 
   13410    324.85977    12.000965    57.182595   -131.34145   -305.45527    11938.184 
   13420    313.08496    9.9094182    70.122824   -133.66283   -3739.2789    11938.184 
   13430    323.20653    10.438968    57.192907   -136.28948    195.85091    11938.184 
   13440    310.09277    11.081898    61.309803   -138.20087    2273.8672    11938.184 
   13450     315.3031    9.3181106    56.148881   -139.81935    4258.8818    11938.184 
   13460    322.50738    6.4891746    60.362625   -140.71119   -533.02905    11938.184 
   13470    328.00511     7.740607    54.276519   -142.50662   -2253.2315    11938.184 
   13480    357.23269    7.2929941    45.822862    -145.1812   -823.35342    11938.184 
   13490    332.18122    7.5870094    58.706139   -148.22657     204.0325    11938.184 
13500        0.97836165792735674263 10.164042857971026024 1 66 -310.09425029529882067
   13500    347.36815    6.2518231     47.69429    -152.7076   -1447.2421    11938.184 
   13510     300.2538      6.84155    59.448431   -156.83177   -2155.4288    11938.184 
   13520    292.28356    7.1085495     55.93796   -160.61018    1461.6558    11938.184 
   13530    281.08044     7.538402    52.749515   -162.84156    2852.9409    11938.184 
   13540    270.42068    7.8213721    50.699237    -164.3569    1529.5621    11938.184 
   13550     274.4416    4.9284691    54.817134   -163.88835   -2369.4456    11938.184 
   13560    283.02296    4.8780084    48.963068   -163.15078   -55.267882    11938.184 
   13570    289.59088    5.1904608    56.135423   -161.30596    999.41956    11938.184 
   13580    285.24266    6.0963939    58.720251   -159.22653    915.59642    11938.184 
   13590    304.01542    6.0264535    44.956951   -156.94669   -643.15161    11938.184 
13600        0.97644228813839351044 10.180342530363837739 1 68 -287.43036845908500254
   13600     294.4836    6.0908617     50.02271   -154.00482   -2617.3379    11938.184 
   13610    318.36637    5.1050513    46.172223   -150.97885   -246.87143    11938.184 
   13620    295.84682    5.0809746    61.373479   -147.62371    371.97186    11938.184 
   13630    315.38083    5.4997474    54.647121   -144.48795   -1080.5723    11938.184 
   13640    289.45648    6.2437226     62.97957   -141.67019   -3770.4316    11938.184 
   13650    298.97025    8.8402972     52.69462   -140.18074   -3310.9994    11938.184 
   13660    309.47459    11.972942    55.000856   -138.41725      122.969    11938.184 
   13670    305.81175    13.451844    56.162725   -137.11313    5187.4969    11938.184 
   13680    321.46111    10.412233    52.066525   -136.08923    862.50827    11938.184 
   13690    304.45321    6.5335034    56.389409   -135.82623    776.11442    11938.184 
13700        0.97142580335257555646 10.197398851558066468 1 67 -281.79398102399920845
   13700    322.00862    4.1110369    55.690749   -135.89731    649.08157    11938.184 
   13710    325.41663     3.981482    61.414004   -136.47376    2093.1387    11938.184 
   13720    317.07605    3.7935504    63.766918   -138.00772   -3.5905446    11938.184 
   13730    310.92486    4.3798382      55.7145   -139.65572   -2537.4973    11938.184 
   13740    293.14043    4.0200845    63.867311   -141.53848   -2195.9005    11938.184 
   13750    289.52296    5.6896526    60.482773   -143.54061   -795.27555    11938.184 
   13760    284.59303    5.7504379    54.896624   -144.77968     889.8523    11938.184 
   13770     303.8374    5.3904566    49.116295   -144.81536    1935.5393    11938.184 
   13780    306.20584    5.3451252    52.670333   -144.48823   -1494.7473    11938.184 
   13790    314.12734    4.8332861     51.08284    -144.1971   -1102.8708    11938.184 
13800        0.97063945468146040074 10.200681873478064432 0.99735449735449732689 65 -283.81890888680987928
   13800    307.69845      5.19204    58.226228   -144.40593    -730.6028    11938.184 
   13810    297.17038    5.9747047    60.296225   -144.32506    1615.8203    11938.184 
   13820     292.1195    6.8847996    59.412483   -144.74771    -804.2702    11938.184 
   13830    312.63507    5.9001658    45.455985   -144.14934   -1444.4585    11938.184 
   13840    300.02588     7.446976     56.52719   -143.76446   -403.32517    11938.184 
   13850    323.73879    11.737647    46.493066   -144.54951    4191.5589    11938.184 
   13860    301.90735    11.287274    51.937376    -144.5737    774.06492    11938.184 
   13870    295.96032    10.511058    51.854137   -143.66401    142.84539    11938.184 
   13880    307.11709    7.7986434    54.648363   -142.37385    -4008.399    11938.184 
   13890     298.2417    8.0478094     59.70443   -141.52114   -2701.5672    11938.184 
13900        0.97309488040522285068 10.193497007392725351 1 67 -277.57942288310982804
   13900    303.66914    9.0900146    49.582726   -139.99206   -1501.9121    11938.184 
   13910    317.72645    8.4678005    50.726253   -137.86384    1364.1867    11938.184 
   13920    329.89665    8.4706216    56.449176   -134.95814    3242.1026    11938.184 
   13930    322.80295    10.128519    52.613018   -132.54033    1596.4277    11938.184 
   13940    301.45308     13.04202     62.04412   -130.32009    214.79814    11938.184 
   13950    323.32783    13.081655    56.533304   -128.53901    -585.9143    11938.184 
   13960    340.66719    10.713428    61.458348   -126.21214   -646.57085    11938.184 
   13970    341.41735    5.6245209     57.65833   -125.30079    -3183.973    11938.184 
   13980    314.75874    4.7862693    60.006844   -125.63231   -1714.6034    11938.184 
   13990    296.64276    5.4649299    68.838722   -126.74868   -591.18918    11938.184 
14000        0.97430977579130240152 10.168178594460659525 1 65 -267.54882804372459759
   14000    306.23169    5.4043796    60.218779   -128.80042    3417.3953    11938.184 
   14010    313.75954    6.3660202    54.771285    -131.6965    19.784813    11938.184 
   14020     303.9632    6.5476856    51.704919   -136.33071    2121.7718    11938.184 
   14030    299.75498    10.347324    56.334757   -140.12512    1877.6245    11938.184 
   14040    297.63383    9.6805878    53.925339   -143.71628   -323.40655    11938.184 
   14050    286.89263    8.2820174    54.893441   -147.18183    -1332.332    11938.184 
   14060    275.77422    6.4021389    59.898235   -149.98274    -3578.821    11938.184 
   14070    307.38942    5.6338061    51.817455   -152.18606   -2937.3449    11938.184 
   14080    311.47866    5.7260467    53.469026   -154.12522   -297.53619    11938.184 
   14090    316.09911     4.708432    48.410723   -156.51087    2342.5769    11938.184 
14100        0.98033134900470586537 10.148128129098086703 1 68 -297.77562248367343045
   14100    305.70872    4.2034414    53.722388   -159.26416    4111.1809    11938.184 
   14110    297.32609    6.4479475    53.183211   -161.84632    282.26746    11938.184 
   14120    315.57205    5.7922014    46.398919    -164.4969   -297.99184    11938.184 
   14130    299.35304    5.6943918    47.098757   -166.67002    1861.7346    11938.184 
   14140    288.92135    5.5000586    46.187697   -168.00558   -2291.3454    11938.184 
   14150    266.36106    5.2565213      50.9939   -169.39915    -1770.535    11938.184 
   14160    269.76427    5.3059675    49.334902    -170.0413   -2720.3233    11938.184 
   14170    278.07421    6.7063307     56.93598   -169.06593    1945.2186    11938.184 
   14180    282.45951    8.2305793    54.402447   -167.93724    4823.2473    11938.184 
   14190    270.09764    11.574901    48.440035   -166.33983    569.65146    11938.184 
14200        0.97966551481576513716 10.157573016089886053 1 67 -282.75468517590968531
   14200    260.43386    12.873392    51.254037    -164.7565    398.32246    11938.184 
   14210    279.64287    9.9357811    52.177622   -162.31245    -1271.208    11938.184 
   14220    298.60797    9.8731995    56.701307   -160.18245    1348.9359    11938.184 
   14230    306.95371    10.882781    52.399989   -158.91076   -826.65155    11938.184 
   14240    296.72692    12.439488    59.224616   -158.14188   -1048.4635    11938.184 
   14250    304.87541    8.7941118    55.933668    -157.4971   -1751.2129    11938.184 
   14260    292.01846     9.146721    52.448948   -156.93037   -2355.9609    11938.184 
   14270    279.88839    8.9302679    57.710598   -156.20929   -1758.6025    11938.184 
   14280    291.46002    8.0009993    52.593096   -154.74311   -541.14194    11938.184 
   14290    305.19585    7.7136579    54.667413   -153.47464    452.98035    11938.184 
14300        0.98220835802351980082 10.148905800713178493 1 66 -297.2216461373641323
   14300    319.88112     8.185032     50.37361   -152.28891    4629.6301    11938.184 
   14310    292.65911    9.8650056    52.893912   -151.20289    3997.2793    11938.184 
   14320    307.29609    8.4144363    54.451332   -149.81922    808.33949    11938.184 
   14330     285.6771    7.5675419    59.204458   -148.25937      -3845.6    11938.184 
   14340    303.33178     5.510165    47.702142   -145.63523   -5352.4811    11938.184 
   14350    305.59525    6.5856253    58.163402   -142.00659    97.243098    11938.184 
   14360    333.34686    8.8411521    53.700486   -138.22897    816.75815    11938.184 
   14370    334.54391    9.8104191    55.269534   -133.93378    107.34349    11938.184 
   14380    346.49939    9.8531677    56.958633   -131.31704    778.93022    11938.184 
   14390    359.45172    8.3759834    57.241319   -129.76875      51.7384    11938.184 
14400        0.97907516678321726555 10.135051094183857856 1 70 -284.09050732145652773
   14400    337.99936    9.3105675     52.17656    -130.9487    1018.0412    11938.184 
   14410    314.62395    12.034447     56.11471    -132.7433    1495.1844    11938.184 
   14420    314.30791    10.837131    51.816947   -135.26239    293.00181    11938.184 
   14430    310.46199    8.8346098    55.768179   -139.10475   -694.71741    11938.184 
   14440    300.15576    8.9467328    60.219191   -145.50301    2583.3895    11938.184 
   14450    288.56957    11.588289    54.256625   -151.90714    677.41811    11938.184 
   14460    291.34708    11.202485     56.56459   -157.71594    1770.6796    11938.184 
   14470    268.14562    10.296865    55.592824   -161.92825   -1619.2849    11938.184 
   14480    287.87087    10.166423     54.02915   -164.37849    287.11636    11938.184 
   14490    284.20643    9.4238927    58.171775   -165.82888   -1307.5645    11938.184 
14500        0.97086373530956004974 10.164185843765729089 1 68 -293.13221176378044674
   14500    278.98799    6.7199993    52.163767   -166.72746    -1065.361    11938.184 
   14510    283.15095    4.3265696    50.844699   -166.56961    1221.1882    11938.184 
   14520     286.1884    3.2342663    59.657372   -165.43077    2455.7828    11938.184 
   14530    278.60104    4.3962389    59.514269    -164.0982     1117.832    11938.184 
   14540    282.74944    5.5400205    55.901063   -162.93454   -578.50422    11938.184 
   14550     289.0035    5.0957386    55.479047   -161.40793    -1594.706    11938.184 
   14560    285.95227    4.6911492    56.239837   -159.67602   -1488.2831    11938.184 
   14570    267.86514    4.7625266    63.121798    -157.3069   -2748.7311    11938.184 
   14580    279.40917    7.2429651    57.062461    -153.9902        960.7    11938.184 
   14590    285.55945     8.185109    53.836017   -150.49422    989.96923    11938.184 
14600        0.97136205805715047923 10.171058224624529132 0.99735449735449732689 67 -280.86912215775782897
   14600    297.06513    10.622854    57.986188   -146.27392    3474.7115    11938.184 
   14610    312.15361    9.6502815    57.911946   -142.43654   -208.32757    11938.184 
   14620    313.32378    8.3434767    58.081853   -139.65997   -696.32642    11938.184 
   14630    326.67382    6.2190916    55.890857   -138.32263    600.88548    11938.184 
   14640    333.50102    4.7535167    59.647485   -137.59357    3817.6685    11938.184 
   14650    300.28335    5.1186595    60.919289   -138.20471   -150.71865    11938.184 
   14660    296.16608    7.4116301    56.902178   -138.97091   -2520.9639    11938.184 
   14670     308.6525    7.2966925    54.959355   -139.96459   -2929.0208    11938.184 
   14680    308.79338    7.2975364    61.284791   -140.87596   -474.39708    11938.184 
   14690    314.55343    8.6393492     49.05495   -141.78086     -667.776    11938.184 
14700        0.97190362773275085218 10.186276590087416594 1 68 -270.91538668659643463
   14700    283.56823    8.8128428    56.593533   -142.43541   -376.80822    11938.184 
   14710    296.94084    7.4235917     53.73468   -142.37844    1282.4102    11938.184 
   14720    290.43154    6.1068644    62.782141   -141.96107    3594.1088    11938.184 
   14730    310.31548    5.2010831    58.971029   -141.66807   -764.21215    11938.184 
   14740    309.87056    5.5398496    59.911044   -142.08773    464.68191    11938.184 
   14750    319.06276    4.7892331    51.850802   -143.09037   -1042.4751    11938.184 
   14760    336.68078    4.4437525    48.390461   -144.94253   -433.22121    11938.184 
   14770    329.10554    5.1557746    53.498954   -148.03023   -2023.1102    11938.184 
   14780     293.4613    6.2958449      48.3872   -152.96519   -1539.5889    11938.184 
   14790    261.66666    6.2581589    56.409593    -157.7179   -1429.0983    11938.184 
14800        0.96391567287131996178 10.234943440336445875 1 69 -283.92959546541447935
   14800     269.0075     8.205072    53.195134   -162.04684    287.14945    11938.184 
   14810    276.71686    9.9965712    53.371865   -165.57677    2503.4968    11938.184 
   14820    287.70985    9.8495581    48.862721   -168.32463    2421.1495    11938.184 
   14830    281.09952    8.5555422     50.46543   -170.60621   -1447.3685    11938.184 
   14840    273.61912    10.945193    46.825534   -172.17195   -2828.6687    11938.184 
   14850     257.5829    11.328368    57.240077   -172.21951   -2298.8572    11938.184 
   14860    276.97211    8.6522096    55.287974    -171.2161   -444.66734    11938.184 
   14870    287.15974    5.0474351    59.414276   -169.46288    -857.0768    11938.184 
   14880    305.99752    4.0539953    54.906878   -167.09301    387.05422    11938.184 
   14890     309.7356    4.6568142    57.274563   -165.40918   -1340.5034    11938.184 
14900        0.9716847868564313373 10.187245085179460702 1 67 -297.60789103641093334
   14900    295.19859    6.1315065    55.126145   -163.85839    -157.2588    11938.184 
   14910     279.4097     5.998716     54.31442   -162.33872    601.98581    11938.184 
   14920    277.69326    7.2083924    52.172897   -160.27529    4338.8317    11938.184 
   14930    289.66921     9.382559    56.038014   -157.08435    3649.2446    11938.184 
   14940    320.55471    9.5982819    53.579148   -152.87114    1097.9535    11938.184 
   14950    340.14174    7.6798205    51.463746   -147.60813   -3717.1643    11938.184 
   14960    324.86578    5.6094172    58.378196   -142.04001   -4705.0244    11938.184 
   14970    324.74579    5.2600773    59.257512    -135.5052   -1284.5129    11938.184 
   14980    331.46415    4.4121383    60.499088   -127.54546   -210.54566    11938.184 
   14990    337.81314    6.3454476    70.056003   -119.87494    2321.8891    11938.184 
15000        0.98220448135305427062 10.130969480916032666 1 69 -267.13124983766073228
   15000    336.35804    7.8241508    63.448206    -114.7331    1667.8151    11938.184 
   15010    317.24185    9.4750102    59.640206   -111.71366   -128.02851    11938.184 
   15020    353.25604     10.20088    54.184914   -110.54162   -1465.1008    11938.184 
   15030    342.12011    10.695565    64.524823   -111.27514    1652.5115    11938.184 
   15040    340.09992    10.473372    58.679383   -113.05803    3914.2291    11938.184 
   15050    332.04432    8.2234227    57.496015   -115.61491    1223.0401    11938.184 
   15060    333.41259    6.8971022    62.059649   -118.69857   -276.32214    11938.184 
   15070    323.21376    7.1500588     62.43346   -122.18936   -2579.1282    11938.184 
   15080    313.54773    6.8187618    69.700186   -126.65397   -1775.9759    11938.184 
   15090    306.44406    6.3039316     67.48262   -131.27534   -1046.1567    11938.184 
15100        0.98246843193516331105 10.101063128635891175 1 68 -277.18932026339598451
   15100    310.84734    6.9801534    53.591009   -136.34964     451.5582    11938.184 
   15110    309.04426    7.6420582    57.174996    -140.6926    839.47912    11938.184 
   15120    301.64317    6.4293617    57.895157   -144.17851     2225.768    11938.184 
   15130    281.23525    8.8907808    52.092832   -146.94997    1453.9155    11938.184 
   15140    284.33859    7.7746486    56.461346    -149.7341    3152.8431    11938.184 
   15150    291.56449     5.932111    56.563331   -151.29548   -3126.7281    11938.184 
   15160    293.33611    6.2144047     54.39302    -152.9879   -1351.6003    11938.184 
   15170    280.00202    7.7445011    53.301727   -154.15158   -3505.0555    11938.184 
   15180    271.08981    7.3501552    62.454957   -154.73802   -1791.1674    11938.184 
   15190    305.73477    6.9195405    60.920146   -154.66695    2317.6934    11938.184 
15200        0.98341560848077214096 10.113824312158760321 1 68 -304.05066804426246563
   15200    328.86455    6.1835353     60.47725   -155.04769    569.73993    11938.184 
   15210    322.60312    7.8222681      52.3853   -156.58147    538.37311    11938.184 
   15220    296.77007    9.0516486    57.122211   -158.93878    2023.2937    11938.184 
   15230     282.3106    7.5313362    63.476431   -161.33435    194.60696    11938.184 
   15240    320.60561    7.8201604    44.860464   -164.10906   -1820.9499    11938.184 
   15250    276.32256    8.8255962    60.402541   -166.99691   -2911.9697    11938.184 
   15260    273.77471    12.478165    49.017032   -169.37645   -674.14552    11938.184 
   15270    235.93078    12.315393    64.706213   -171.24987     1492.273    11938.184 
   15280    266.01396    13.314017    45.225155   -171.80098    607.03389    11938.184 
   15290    268.84306    11.917962    47.568466   -171.24773    -747.2929    11938.184 
15300        0.98258276932689880834 10.115616467570822223 0.99735449735449732689 67 -300.01205653717403266
   15300     288.9877    12.098387    45.285478    -169.0766    1502.6285    11938.184 
   15310    286.88867    11.785334    52.787092   -165.89654     1157.416    11938.184 
   15320    315.49143    12.292537     45.40288    -160.7291    3108.7318    11938.184 
   15330     297.3921    9.6946173    57.867743   -154.93309    417.72619    11938.184 
   15340    304.11908    7.9449455     62.14485   -150.00579   -395.28742    11938.184 
   15350    301.98113    7.1862045    58.609583   -146.13888    446.74398    11938.184 
   15360    314.04275    6.2810258    54.111584   -143.71732    -219.7194    11938.184 
   15370    300.07764    6.4004404    63.492104   -142.17715   -1108.6697    11938.184 
   15380    323.36912    5.8783305    48.805234   -140.91508   -2161.7154    11938.184 
   15390    288.72328    5.2964763    66.016412   -141.07072   -136.65769    11938.184 
15400        0.97553316439082071732 10.140724820926340755 1 70 -274.24792184095701941
   15400    293.97748    6.1574352    62.819141   -141.05169    2485.1252    11938.184 
   15410    270.32872    5.5405174    65.132876   -140.79363   -35.495171    11938.184 
   15420    304.13738    5.7012733    56.260776   -140.35792    906.20515    11938.184 
   15430    287.68959    4.3804096    70.004777   -140.30506   -2833.0355    11938.184 
   15440    305.44576    5.3225775    55.144099   -139.71219   -2813.8066    11938.184 
   15450    299.41697    5.6128158     63.69901   -139.60149   -242.80976    11938.184 
   15460    326.00873    5.8599316    58.795446   -140.02855    1629.3165    11938.184 
   15470    319.81989    6.2086019    57.536875   -141.24514    2918.9203    11938.184 
   15480    319.84791    7.5327664    54.362354   -142.56252    1060.1167    11938.184 
   15490    302.14386    6.4815778    61.883696   -144.91205   -3623.7495    11938.184 
15500        0.97046060078805740368 10.192044696236127521 1 70 -297.4058545397188027
   15500     329.6996    7.6932028    51.176395   -148.02453     39.45184    11938.184 
   15510    300.90738    9.3547725    62.643888   -153.10014    177.93869    11938.184 
   15520    298.53913    9.4339574    55.585507   -158.48619    1910.3102    11938.184 
   15530    280.15709    5.6506954    56.230161   -163.69903   -2791.9433    11938.184 
   15540    280.55389    5.8117654     59.14162   -167.89503    604.20725    11938.184 
   15550    274.51998     7.723575    58.853992   -170.14819   -1296.9176    11938.184 
   15560    268.71833    7.3664657    54.240683    -171.1597    714.46304    11938.184 
   15570    281.31195     5.839264    50.480982   -171.16988    -1053.216    11938.184 
   15580    279.94341    4.1961285    46.210881   -170.55432   -378.06188    11938.184 
   15590    302.30061    5.7188156    47.041733    -169.4296   -328.13214    11938.184 
15600        0.97577173887224122328 10.178015056805163496 1 66 -295.85684208043198851
   15600    282.49953    8.2664988    51.414864   -167.86107   -81.311095    11938.184 
   15610    271.91037    8.5590321    52.076444   -165.77119    375.49197    11938.184 
   15620    269.36625    7.3079614    57.490013   -163.48127    660.52872    11938.184 
   15630    288.36871    7.8596336    58.433068   -160.70263   -341.94349    11938.184 
   15640    304.76412    7.4776662    58.662391   -157.94755    1435.3552    11938.184 
   15650       313.74    8.1764982    54.549158   -155.72498    792.36987    11938.184 
   15660    285.22072    10.593677    58.520975   -154.13386    1123.1909    11938.184 
   15670    299.90049    9.4849235    54.082464   -152.59266   -1003.9794    11938.184 
   15680     293.9637    7.3431964    69.411656   -150.65702    1249.7597    11938.184 
   15690    321.33958    6.9053936    60.787415   -149.36037    1850.7285    11938.184 
15700        0.97662990059691201505 10.165491688625289513 1 70 -284.31079534057477076
   15700    298.28427    6.9166538    61.664889   -149.16323     1318.313    11938.184 
   15710    315.82802    6.9482243    52.170467   -149.49163    730.52029    11938.184 
   15720    303.19489    7.4401945    57.355537   -150.12964     1884.228    11938.184 
   15730    324.39965    8.0463633    54.593162   -151.01186   -2233.5833    11938.184 
   15740    305.63525    6.5690627    52.528465   -151.79805   -2114.4363    11938.184 
   15750    303.20056    7.1381884     51.78469   -153.35165    -3031.277    11938.184 
   15760    273.31185    8.2698233    55.242601   -155.30959   -1738.3428    11938.184 
   15770    280.87907    6.7304785    52.110854   -156.37462   -3277.2574    11938.184 
   15780    275.32676    5.8246466    60.821431   -157.39032   -1274.2282    11938.184 
   15790    293.19419    6.6161483    55.024934   -158.51164    2494.1433    11938.184 
15800        0.98008149390584720084 10.158008412281970934 1 72 -291.08319048180578648
   15800    289.55356    9.4736253    56.743182   -159.89136    2654.3546    11938.184 
   15810    307.69125    9.3290705    48.999758   -161.64568    2460.0427    11938.184 
   15820    288.51646    9.0746606    55.484172   -163.66726    205.30017    11938.184 
   15830    285.32646    9.0209696     51.41379   -165.58335    697.48584    11938.184 
   15840    285.61142    8.1934575    57.642629   -167.15053   -1737.6602    11938.184 
   15850    279.25609    7.4649811    54.884363   -168.40357   -5592.5921    11938.184 
   15860    286.73752    5.3867522    52.627041   -169.19482    -3322.875    11938.184 
   15870    267.15088    7.5815965    57.947395   -169.43666    2200.4895    11938.184 
   15880     277.0439      7.06656    56.027308   -168.85373     4871.243    11938.184 
   15890    294.73364    7.6482433     51.79724   -167.43726    1543.3391    11938.184 
15900        0.98159804266407413298 10.161860495117283065 1 74 -302.25420787102819986
   15900      301.998     9.032566    49.757844   -165.42401    338.33756    11938.184 
   15910     308.0513    5.9847782    54.150824   -162.48119   -130.40688    11938.184 
   15920    299.68311     4.594549    46.778529   -158.85524    110.23793    11938.184 
   15930    288.55279    4.3604496    56.965355    -155.4754   -892.40004    11938.184 
   15940    300.15792    5.9374188    54.691824   -151.46338   -1156.6719    11938.184 
   15950    321.54342    6.2281928    54.737268   -147.21839   -1009.1576    11938.184 
   15960    318.97269    7.7639087    57.010858   -143.45357    1335.3019    11938.184 
   15970    294.96688    8.6922077    60.105569    -141.0341    1256.1724    11938.184 
   15980    289.26887    7.7234234    60.441047   -138.65075      3303.13    11938.184 
   15990    314.87377    7.6204325    63.779198   -136.41762   -1082.9019    11938.184 
16000        0.98169698847583752865 10.138924168460299313 1 73 -267.91969252700340576
   16000    293.79213    5.5073974    65.141004   -134.80744    72.009819    11938.184 
   16010    294.58518    6.1797362    66.167538   -133.81147   -361.43837    11938.184 
   16020    288.95642    8.6138373    69.797203    -133.3685   -1641.2612    11938.184 
   16030    328.82719     9.490134    55.983928   -132.07291    -1798.638    11938.184 
   16040    321.88543    11.087649    58.349123   -132.21882   -3080.1212    11938.184 
   16050    327.47958     14.07759    54.029163   -132.68163   -647.47195    11938.184 
   16060    311.77209     14.47483    59.524743   -133.36263    2554.4577    11938.184 
   16070    317.42671    12.416807    56.264134   -134.54175    4558.6452    11938.184 
   16080    328.28701    8.5226969    57.720614   -136.47028    1880.6454    11938.184 
   16090    327.17829    8.1818595    58.491344   -140.59148   -566.42662    11938.184 
16100        0.9815215214021296708 10.114255262979847672 1 70 -282.67930719384770555
   16100    300.91359    8.6215912    60.849428   -146.34044   -1829.3086    11938.184 
   16110     290.8527    7.4322904    58.309399   -153.11572   -811.36784    11938.184 
   16120    283.84325    6.7635855    57.040997    -158.4848   -331.00379    11938.184 
   16130    306.34859    6.9311741    47.965527    -163.1165    611.18686    11938.184 
   16140    266.54055    8.9748308    59.727098   -165.28896   -246.05207    11938.184 
   16150    281.55431    9.7679931    54.753212    -165.8979   -584.84067    11938.184 
   16160    281.65155    8.2689693    60.124397   -165.70858    2635.4753    11938.184 
   16170    305.82517    8.4692839    50.826414   -165.06199    442.90609    11938.184 
   16180    279.31598    13.129187    58.168336   -164.64595   -806.36562    11938.184 
   16190    283.35738    14.907153     54.40906   -164.12265    -1395.606    11938.184 
16200        0.97928314765095580974 10.151845597831524515 1 70 -285.40582683221271054
   16200    270.39654    11.558915    66.043661   -162.89372   -1886.6774    11938.184 
   16210    293.75172    7.3176733    60.456256   -161.25416      1674.13    11938.184 
   16220    294.59106    6.0963442    58.632039   -159.26733    155.53179    11938.184 
   16230    305.96721    8.5150078    56.104747    -156.9182    1224.9216    11938.184 
   16240    326.84829    7.4221655    54.139488   -154.46309    2153.8464    11938.184 
   16250    304.58322    6.7887041    67.238607   -152.11393    2153.9349    11938.184 
   16260    305.26441    8.5040319    57.881932   -150.33671   -1516.7713    11938.184 
   16270    294.21684    6.7787784    59.210801   -148.42409   -35.352454    11938.184 
   16280    293.70587    4.1510036    69.224441    -147.2327   -875.28161    11938.184 
   16290    318.88996    3.0942998    62.187804   -145.68908    1581.9172    11938.184 
16300        0.98040234080708010822 10.147208787191955182 1 66 -284.94087607304157928
   16300     309.1035    5.2905507    72.017588    -144.8913   -2961.4635    11938.184 
   16310    314.29391    7.3663907    61.779082   -144.33104   -284.95562    11938.184 
   16320    292.22163    8.1892669    67.052549   -143.55487   -1287.5284    11938.184 
   16330    302.76401    11.041756    62.217678   -143.16754     360.5503    11938.184 
   16340    321.62281    12.491227    62.174834   -142.87269    436.39402    11938.184 
   16350    312.67655    10.317826    65.993965   -143.94444    2482.8684    11938.184 
   16360    307.83426    8.6788724    64.324362   -145.41731    173.28296    11938.184 
   16370    303.65433    9.6016904    60.246132   -147.69297   -3188.0565    11938.184 
   16380    326.58464     8.545669    53.672314   -150.47436    556.49513    11938.184 
   16390     298.5434    7.2096463    61.537796   -154.00428   -6.7006439    11938.184 
16400        0.9788243481463170248 10.164015999271542867 1 70 -287.10746826458716896
   16400    286.80044    6.6230519    62.148344   -157.16303    3368.9951    11938.184 
   16410    304.03656    6.8949085    50.833197   -160.44103   -3201.4013    11938.184 
   16420    274.90928    7.1467679    63.824792   -162.82281   -1474.9701    11938.184 
   16430    284.85733    6.8431439    60.872301   -165.50071    -101.2999    11938.184 
   16440    253.69816    8.3935448    69.070342   -167.71725    1948.7632    11938.184 
   16450    258.22582    8.1753932    63.433478   -169.01845   -1286.1382    11938.184 
   16460    253.62674    8.8393515    55.687718   -169.39821     1297.466    11938.184 
   16470    270.97412    7.1843302    53.564477   -168.63546   -1906.9439    11938.184 
   16480    279.74559    6.8426915    52.982398   -167.17204    949.09298    11938.184 
   16490    294.11422    5.8759618    57.839433   -164.15442   -1605.8093    11938.184 
16500        0.97472054055342782775 10.190456069012524765 1 67 -293.83534657769541809
   16500    293.41616      5.47118     62.72134   -160.89343    1330.5509    11938.184 
   16510    309.02529    6.1084868    55.357324   -157.01102     198.5691    11938.184 
   16520    308.54584    6.5307639    60.765713   -153.62603    -79.12892    11938.184 
   16530    299.94544    7.4367358    61.589642   -150.44814    1017.5248    11938.184 
   16540    293.48781    5.6702756    61.709719   -147.54326   -1097.6967    11938.184 
   16550    299.07704    4.9179515    58.486703    -144.6564   -1464.9226    11938.184 
   16560    280.89832    3.1965675    75.687579   -142.15472    227.30891    11938.184 
   16570    313.98486    3.0885923    65.422436   -139.80472    1459.6039    11938.184 
   16580    302.95156    4.0400717    62.354801   -138.06729   -323.73712    11938.184 
   16590    303.97916    5.9046577    59.524005   -137.01917   -3764.6329    11938.184 
16600        0.97334405886848496259 10.169288824295239948 1 68 -277.25627002398516652
   16600    310.78498    7.5712668    61.407083   -136.44484   -525.95803    11938.184 
   16610    292.12119     12.71527    64.940217   -136.19821    193.72383    11938.184 
   16620    312.50859    10.291302    66.712585   -136.08846    1368.1143    11938.184 
   16630     298.9047    7.1464143    66.218594   -136.33146    473.77142    11938.184 
   16640    303.88669    3.7904106    63.010866   -136.65389    197.50612    11938.184 
   16650    289.52006    2.2513387    69.146107   -136.44557   -453.47806    11938.184 
   16660    334.15349    3.6983834    59.115272   -136.61716    2726.2727    11938.184 
   16670    300.42497    6.2572636    73.295562   -137.54398   -192.13438    11938.184 
   16680    323.74483    5.3002762    58.696553   -139.41872    1580.1865    11938.184 
   16690    318.29795    5.7696635    60.811304   -141.63867    -3576.897    11938.184 
16700        0.97510978163158867904 10.165135878127703251 1 65 -287.33895177777316121
   16700    316.25646    4.0962172     64.39841   -144.04849   -1504.3968    11938.184 
   16710     348.9185    2.8757556    52.397265   -147.09964   -444.28475    11938.184 
   16720    292.97504    4.4757402     65.72955   -150.56853    719.42264    11938.184 
   16730    305.69468      6.91746    54.288143   -153.78741    1277.8603    11938.184 
   16740    272.96056    8.0845439    62.781147   -156.55454   -688.47004    11938.184 
   16750     297.7773    6.1933504    57.420697   -158.15067    1340.7758    11938.184 
   16760    304.90842    6.4046932    52.029022   -159.44271   -2110.4281    11938.184 
   16770    278.70835    7.4483233    64.100865   -160.19008   -612.06214    11938.184 
   16780    307.07589    5.9572725    57.475807   -160.19179    68.714356    11938.184 
   16790    284.69102    4.8332015    62.459345   -160.23453   -84.636101    11938.184 
16800        0.97657043570226786944 10.131506216598356929 1 67 -291.28861738882613963
   16800    289.24371    6.3344388    59.667305   -160.23717    1129.4869    11938.184 
   16810    279.91077    7.9483069    63.820772   -159.71719    2531.1584    11938.184 
   16820    324.06871    6.7078262    49.617324   -158.80359    2790.2009    11938.184 
   16830    313.02189     5.814072    53.415653   -158.44737     -103.188    11938.184 
   16840    306.33465    5.4817067    54.146849     -157.997   -2225.2804    11938.184 
   16850    303.12638    6.1042814    61.528322   -157.48441   -488.38299    11938.184 
   16860    304.75163    5.7652848    60.099886   -157.78497    937.82106    11938.184 
   16870    280.13744    7.5800167    61.520263   -157.64794    386.56997    11938.184 
   16880    295.02351    8.5097419    52.438177   -156.71822    662.91487    11938.184 
   16890     271.1719    8.8886438    68.112276   -154.31959   -1583.5333    11938.184 
16900        0.96843658786211417322 10.158617356775907936 1 68 -280.70670782898775997
   16900    290.02704    8.5602064    66.530793   -149.30035    -2165.171    11938.184 
   16910    278.19018    13.065267    68.493471   -140.98494   -1255.9143    11938.184 
   16920    307.44109    11.953885    57.019654   -132.40395    305.94913    11938.184 
   16930    329.59627    9.0609434    65.529855   -125.84106    257.93062    11938.184 
   16940    353.96344    7.1723632    63.218568   -121.97795    1155.7969    11938.184 
   16950    342.89254    8.1510096    60.824448   -120.85841    4415.8855    11938.184 
   16960    312.42594    7.0263625    80.239577    -120.9747    193.97476    11938.184 
   16970    337.65239    8.2178701    66.088753   -121.76993   -1864.7703    11938.184 
   16980    332.97299    10.165949    67.195807   -124.44846    -3650.866    11938.184 
   16990    312.96545    10.339593    68.701756   -128.28625    1924.6043    11938.184 
17000        0.96477208653041146569 10.184581193376512687 1 68 -269.38520399609001288
   17000    303.96227    5.9741107    73.480257   -131.66503    3300.6736    11938.184 
   17010    305.40708    5.5130495    63.314324   -135.43325   -194.27871    11938.184 
   17020     294.2547    5.8642728    65.130324   -139.20557   -6219.2263    11938.184 
   17030     307.7585    6.4179756    61.737113   -142.77381    1710.5276    11938.184 
   17040    289.53694    6.7878013    64.889032   -145.68154    789.51079    11938.184 
   17050    292.63222     8.030329    66.267476   -147.89502    4624.5393    11938.184 
   17060    290.87139    6.7182339    58.194603   -149.67982   -2064.9223    11938.184 
   17070    305.85028    5.7743946    54.896479   -150.72549   -512.23852    11938.184 
   17080    314.02503    4.9759907    72.913506    -151.3712    1148.9622    11938.184 
   17090    325.83543    6.3333113    64.581624   -153.22841    258.76375    11938.184 
17100        0.96804762770338426137 10.203176472252115659 1 67 -296.82473098919115273
   17100    309.34109    7.2815115    64.661572    -156.6675   -2795.3392    11938.184 
   17110    279.82319    7.0257668    60.474773   -160.42468   -1279.8609    11938.184 
   17120    298.97162    7.3654336    53.647587   -163.63509    562.47643    11938.184 
   17130    281.59687    6.8537696    61.402317    -166.0624    2451.6146    11938.184 
   17140    312.51801    7.8427194    49.813688   -168.18675   -115.50405    11938.184 
   17150    286.25964    7.4482281    58.382769   -170.00355   -1238.8778    11938.184 
   17160    281.12397    7.1263348    54.984231   -171.11463   -1607.1705    11938.184 
   17170    263.40385    6.0414335    65.496843    -171.3604    782.52601    11938.184 
   17180    287.64605    7.4213562    50.937223   -170.98034    603.65476    11938.184 
   17190     277.9757    7.1465742    58.225174   -170.08081   -1324.5967    11938.184 
17200        0.97166206341299998783 10.196760619307248419 1 67 -296.528130683096947
   17200    283.12973    7.3227376    64.964591   -168.24683   -460.09457    11938.184 
   17210    283.34729     6.025257    58.340989   -165.67222    796.74017    11938.184 
   17220    284.18561    7.2886483    58.652894   -162.37194    1737.6086    11938.184 
   17230    315.16527    7.0978207    55.860154    -156.4793   -712.75236    11938.184 
   17240    299.84045    4.9431878    60.497074   -149.43705   -3693.6572    11938.184 
   17250    307.67461    3.9187965    63.285067   -142.16661   -2949.6594    11938.184 
   17260    297.20553    5.3205967    72.279185   -136.57613    -63.34776    11938.184 
   17270    301.63262    6.2474538    65.760613   -133.34653    1464.2528    11938.184 
   17280    292.84793    5.1955004    75.031792    -131.5185    3141.5454    11938.184 
   17290    322.39336    4.4933499    57.227406   -130.54935    2847.7099    11938.184 
17300        0.97021691261481501911 10.207390510530943928 1 69 -280.56792707591569069
   17300    331.41244    6.8633709    59.179908   -130.41054    587.37096    11938.184 
   17310    313.56448    6.1562697    68.295644   -131.06726    -1091.274    11938.184 
   17320    312.63801    5.6460234    62.582389   -131.88235   -2218.2869    11938.184 
   17330    289.36407    4.5824308    73.099284   -132.84139   -56.073722    11938.184 
   17340    310.01614    5.4008075    67.624191   -134.10266    806.09651    11938.184 
   17350    319.76424    5.5042567    60.994052   -135.40476   -161.49927    11938.184 
   17360    314.15084    8.1411753    58.401023   -136.57695   -2166.6298    11938.184 
   17370    324.69548    8.4186437    56.349429   -138.56563   -4483.2186    11938.184 
   17380    322.86016    8.4757082     61.96517   -141.07924    1962.8651    11938.184 
   17390    326.29768    8.8825868    58.709998   -144.62415    2063.8911    11938.184 
17400        0.97464291601411201516 10.169965806339316572 0.99735449735449732689 68 -286.16201170929650743
   17400    303.29054    9.8686677    64.342849   -148.74618    3113.2824    11938.184 
   17410    306.23105    10.238011    56.547138   -153.09928   -1693.5542    11938.184 
   17420    291.40234    9.4918264    60.386663   -157.74127   -1500.4349    11938.184 
   17430    316.05111    9.4072282    55.619643   -161.11199    1590.0216    11938.184 
   17440    299.97725    9.9123209    54.170303   -164.44679    2926.9624    11938.184 
   17450    295.48567    8.2972169    59.834533   -166.88251     1701.504    11938.184 
   17460    292.89098    5.6030137    54.208315   -168.58329   -1233.9739    11938.184 
   17470    281.24011      5.18277     54.94729   -169.51566   -1380.1936    11938.184 
   17480    272.57818    4.9754361    53.573975   -169.48745   -3740.7736    11938.184 
   17490    278.31223    5.7219278    58.291751   -168.05589    -1153.771    11938.184 
17500        0.97857370613536565074 10.162618777024460925 1 68 -296.13140098855899396
   17500    286.37543    6.2510495    59.738126   -166.37953   -67.146004    11938.184 
   17510    282.04486    7.5798077    50.572968   -164.04221    742.95835    11938.184 
   17520    272.33202     5.503795    60.389356   -161.46081    806.11701    11938.184 
   17530    296.40429    5.5614161     52.13972   -158.16481   -1444.3698    11938.184 
   17540    287.38474    6.1194959    62.034136   -154.58449    397.88229    11938.184 
   17550     305.1348    5.2431727    59.552419   -151.39858   -1082.9719    11938.184 
   17560    307.22814    3.4960913    61.258145   -148.29581    1911.6292    11938.184 
   17570    317.95665     4.119405    58.165394   -146.21237    3013.8771    11938.184 
   17580     324.0064     5.957227    55.248749   -146.32241    1766.3063    11938.184 
   17590    289.80429    6.9253124     65.72861   -146.79385    -2368.668    11938.184 
17600        0.98250593375939376806 10.135875951169623477 0.99735449735449732689 67 -294.86881894943599036
   17600    327.48885    4.8300924    53.198802   -146.48915     -2291.42    11938.184 
   17610     317.8079    4.9220115    58.465566    -146.8437   -1350.1369    11938.184 
   17620     306.7047    5.4140643     60.27252   -147.51522    875.15943    11938.184 
   17630    298.86528    4.8851677    58.511181   -148.35597    993.59761    11938.184 
   17640    310.24383    5.6790315    56.789195   -148.71265    2352.7959    11938.184 
   17650    325.29009    7.6541173    56.122236   -148.89059     814.4655    11938.184 
   17660    284.30723    9.5886739    65.607614   -149.77601   -882.53897    11938.184 
   17670    300.77467    10.712481    59.195495   -150.29329     95.37978    11938.184 
   17680    286.07408    8.0456539    65.557911   -151.87408    1182.9092    11938.184 
   17690    293.17369    8.4686198    57.714395   -152.79847   -1175.9166    11938.184 
17700        0.98425319757291485079 10.11428928863425547 0.99470899470899465378 71 -283.42891718712212423
   17700    286.85844     7.782456    59.405495    -153.4582   -955.61731    11938.184 
   17710    299.81748    6.8117258    52.534422    -154.2211   -2892.5002    11938.184 
   17720    285.07367    6.6344543    65.226356   -154.85507     3201.236    11938.184 
   17730    290.32132    7.7205011    55.914597   -155.13084    1909.7653    11938.184 
   17740    299.64065    7.8147458    53.616345   -154.45379   -55.729554    11938.184 
   17750      304.023    6.0980227    65.696659   -154.29962    1427.4695    11938.184 
   17760    333.93544    7.0356565    55.630503    -153.8854   -3109.6312    11938.184 
   17770    300.37697    8.2193225    65.213568   -154.63113   -1298.5377    11938.184 
   17780    290.33853    7.5175932    63.408667   -155.41145   -1774.7615    11938.184 
   17790    300.52728    7.7405669    55.901422   -156.18822   -740.14624    11938.184 
17800        0.98532579297366484905 10.113126304537850331 1 69 -296.18902456776902454
   17800     307.2051    7.0888744    56.095454   -156.99958    3170.6836    11938.184 
   17810    313.14232    5.8377821    55.779154   -158.15206    1637.9677    11938.184 
   17820    298.63748    5.4747025    58.773703   -160.00644     1993.777    11938.184 
   17830    281.41838    6.3534697    55.955032   -160.83469    1212.6006    11938.184 
   17840    293.12905    8.3117956    50.984667   -161.91884    3289.4104    11938.184 
   17850    293.42288    5.9099569    59.050653   -162.18814    1074.1802    11938.184 
   17860    283.06377    4.8462291    56.091539   -162.35805   -2634.2549    11938.184 
   17870     281.6127    5.1153928    58.818517   -162.02224    -3707.748    11938.184 
   17880    302.51721    4.8613638     49.56754   -160.89682   -5037.4495    11938.184 
   17890    300.50296    5.5109376    55.435261    -159.4731   -894.31788    11938.184 
17900        0.97892864509075028234 10.128126760348520108 1 70 -300.75773122919866864
   17900    316.34293    6.6897615    45.193962   -157.42809   -888.28589    11938.184 
   17910    285.13178    8.4417632    57.631241   -155.10562    3348.2947    11938.184 
   17920     290.7345    9.6525052    56.268352   -152.14731    6224.2093    11938.184 
   17930    305.96552    11.571183    61.573396   -147.67987    5096.9068    11938.184 
   17940     327.5396     10.96085    55.713912   -143.22894    1466.8238    11938.184 
   17950    303.02369    10.161452    54.281495   -139.34368   -4907.0904    11938.184 
   17960    310.16215    8.3915955    58.814299   -136.50747   -7145.5483    11938.184 
   17970    323.17964    6.8563584     63.43968   -133.54724   -3946.1407    11938.184 
   17980    336.22127    7.2914905    66.070689   -131.74944    752.23441    11938.184 
   17990    357.15746    8.8384784    54.900406   -131.19068   -26.638083    11938.184 
18000        0.98100559774394735513 10.120499955257841407 1 73 -275.24078981749460127
   18000    316.69663    10.600024    67.218283   -131.75089    4790.5911    11938.184 
   18010      291.851    8.4692172    69.799293   -133.09535    3557.5231    11938.184 
   18020    298.45759    7.0173558    59.838776   -134.97036    1167.8778    11938.184 
   18030    295.97129    5.5236284     70.72955   -136.99863   -2637.1446    11938.184 
   18040    301.95998    5.8405732    61.427753   -138.77258   -1772.4937    11938.184 
   18050    291.75515    6.6261508    65.686739   -140.76487    129.74349    11938.184 
   18060    312.80644    7.7103094    54.243092   -142.56604   -226.17005    11938.184 
   18070     301.4109    6.5307166    58.044632   -144.45103   -3611.0849    11938.184 
   18080    283.30975    4.0931185    65.831642   -145.88223    1072.3415    11938.184 
   18090    285.15108    4.5051949    62.118045   -147.14745    355.94856    11938.184 
18100        0.98034891442327709576 10.137069961366060866 1 73 -273.48103842459238422
   18100    275.33732    4.0495691    67.743243   -148.73034    4470.9982    11938.184 
   18110    283.41716    3.1106349    69.817298   -150.53325    1390.3307    11938.184 
   18120    286.05635    3.3008073    60.234589   -152.77101   -1261.2329    11938.184 
   18130    294.96755    3.2744285    57.146144   -155.65582   -2997.6904    11938.184 
   18140    307.41101    4.3136476    51.768774   -160.72804   -2474.7421    11938.184 
   18150    292.87653    5.9960009    60.898749   -167.85556     2399.443    11938.184 
   18160    292.80088    8.0675158    49.305909   -175.85059   -1212.6048    11938.184 
   18170    247.89756    7.1547977    60.399384   -181.32432   -1448.5251    11938.184 
   18180    276.86468    5.9402741     44.74507   -184.06482    2196.5064    11938.184 
   18190    260.17663      8.17465    48.392683   -185.62139   -175.40806    11938.184 
18200        0.98490078094305233414 10.122828330572637867 1 70 -305.68937482409461381
   18200    265.79599     10.68484    45.887751    -185.2617   -1391.4827    11938.184 
   18210    264.42362    9.6322266    53.886174   -183.32625   -1848.0928    11938.184 
   18220    280.22764    8.9670298    54.843555   -180.21282    5267.1715    11938.184 
   18230    294.65056    9.5921695    48.432373   -176.27775     2339.596    11938.184 
   18240     256.0298    9.8429977    61.506267   -172.41123   -2353.2921    11938.184 
   18250    289.13605    6.3139597     54.50308   -167.85153   -3517.1162    11938.184 
   18260    306.78255    4.0242198    55.300218   -163.62169   -691.97239    11938.184 
   18270    327.79973    4.8563195    52.498146   -159.83517    1454.8154    11938.184 
   18280    307.27219    6.2512276    57.412221   -157.47948    1457.6514    11938.184 
   18290    298.51609     5.186621    58.022277   -155.50568    1041.9539    11938.184 
18300        0.98839640657995875284 10.11534114545261609 1 71 -289.10250188909878943
   18300    297.45747    8.3785538    58.241325   -154.32954   -650.70142    11938.184 
   18310    311.75575    10.291141    56.112027   -153.01123   -732.98389    11938.184 
   18320    311.97358    10.937199    48.060266   -151.74457    220.74162    11938.184 
   18330    294.57269    10.683423    69.027917   -150.53454     353.4556    11938.184 
   18340    341.13539    9.3469886    46.686997   -149.07976   -274.30915    11938.184 
   18350     308.1153    6.5735699    52.981922   -148.31946   -420.89489    11938.184 
   18360     313.5689    4.8658029    60.418529   -147.80365    1901.5684    11938.184 
   18370    295.49403    6.1177552    61.405736   -147.53005     3816.575    11938.184 
   18380    301.12556    8.5847796    54.960895   -147.98132    1987.6963    11938.184 
   18390     317.9204    8.8738409    53.620576   -148.54049   -508.86641    11938.184 
18400        0.98584871524280714983 10.128629926433500685 1 70 -293.46682308237092229
   18400    318.37311    10.102644    55.975507   -149.21734   -2577.9045    11938.184 
   18410    327.34633    11.481443    51.484204   -150.50162    -3797.799    11938.184 
   18420    297.65449    11.026001    62.798869    -152.8461   -1252.6163    11938.184 
   18430    293.41915    8.9167166    59.563171   -155.98082   -885.39452    11938.184 
   18440    307.37282    8.4439624    50.774432   -160.11175    2050.6844    11938.184 
   18450    294.94714    7.5376193    55.209693   -164.83562    -275.8423    11938.184 
   18460    282.81101    7.9171006    49.684659   -169.10248     655.4216    11938.184 
   18470    264.68581    7.5367302    54.197517    -171.6011    690.43845    11938.184 
   18480    250.80269    9.9653374    60.638197   -173.24336    1738.1242    11938.184 
   18490    256.65826    10.898695    55.177723   -173.73856   -493.37453    11938.184 
18500        0.98343956196416437709 10.130539738246309156 0.99735449735449732689 71 -282.57400181381387938
   18500     241.8928    7.2847886    60.935121   -172.97645    764.26267    11938.184 
   18510    275.49628    5.6565146    49.031086   -171.12187   -2477.7495    11938.184 
   18520    263.21815    3.7391807    57.114238   -167.38422   -189.73379    11938.184 
   18530    272.80114    3.8495951    54.411465    -162.8856   -2612.3364    11938.184 
   18540    269.48873    6.0191135    58.100825   -158.34454     765.7906    11938.184 
   18550    303.97977    7.6339733    57.268404   -154.37655    1466.8964    11938.184 
   18560    285.13153    8.0527658    68.858191   -151.50072    2043.6457    11938.184 
   18570    323.76986    6.7559087    53.641499   -149.70779    291.33016    11938.184 
   18580    325.56048    7.6359361    57.799637   -148.82267   -3019.0476    11938.184 
   18590    356.44467    6.5890162    51.968583   -148.58184   -639.71489    11938.184 
18600        0.98675748282774056186 10.132225209729714521 1 72 -277.58148203300942214
   18600    283.17814    6.6684243    70.833279   -149.27825   -1370.3177    11938.184 
   18610    282.19405    8.0839374    57.046933   -150.43237    233.40396    11938.184 
   18620    285.95395    6.3111943    64.452988   -150.59364    1805.4773    11938.184 
   18630    331.03769    5.9552539    52.539768     -150.794     998.8827    11938.184 
   18640    311.77533    6.5115026    58.712606   -151.45039    1273.9825    11938.184 
   18650    290.36576    7.6995767    58.405588   -153.00142    1120.1638    11938.184 
   18660    293.72245    7.6848906    52.488245   -153.48097    2727.3188    11938.184 
   18670    283.47612    5.8138357    60.428602   -153.96525    516.53588    11938.184 
   18680    276.89786    6.7181745    63.467119    -153.9122   -2788.7908    11938.184 
   18690    285.15921    5.3635487    64.059395   -153.53276   -3166.5281    11938.184 
18700        0.98731169483776159979 10.116554046072481654 1 69 -292.58113507429465017
   18700    308.44381    6.6534963    64.298752   -152.83045   -921.24246    11938.184 
   18710    304.04229    5.6128072    63.126836   -152.23401    669.18529    11938.184 
   18720    300.55641    7.3347649    57.275837   -151.80392    849.98833    11938.184 
   18730    291.93513    10.849806    62.719669   -151.50653   -505.99036    11938.184 
   18740    295.23419    11.956784    59.920261   -150.65211    1892.9534    11938.184 
   18750    305.92758    12.028532     58.56684   -149.48677    1496.1347    11938.184 
   18760    325.62866    10.375344    56.361455   -148.39712   -1319.8808    11938.184 
   18770    325.34854    8.8428276    56.852165   -147.28948   -72.333629    11938.184 
   18780    312.75051     10.35319     57.61626   -146.97034    648.99266    11938.184 
   18790    275.33743    12.193926    63.641341   -147.08307     2531.418    11938.184 
18800        0.98602626843329432837 10.14176329675520094 1 68 -266.38066666010024619
   18800     263.5395    11.423006    69.164185   -146.97537    362.53934    11938.184 
   18810    294.80245    12.447081    62.270856   -145.57007   -640.23953    11938.184 
   18820     325.6205    8.6502242     63.26374   -143.55841   -3483.2163    11938.184 
   18830    326.43917    6.6218493    65.087786    -141.6486    -1886.919    11938.184 
   18840    328.04536    4.8600543    56.939655   -141.01451   -1078.6757    11938.184 
   18850    309.68393    2.9685143    60.707945   -141.26566    2912.7638    11938.184 
   18860    324.55219    2.6964179    55.984138   -141.94284    66.814099    11938.184 
   18870     299.4562     5.979924    61.102935   -143.29857    2156.1503    11938.184 
   18880    302.84755    9.8618593    59.320443    -145.2712   -745.60311    11938.184 
   18890     289.3467    8.0675533    64.812398   -147.55041    341.67791    11938.184 
18900        0.97963364140525988066 10.154613494014119723 1 68 -282.96980120430333727
   18900    293.74655    8.2377022    57.984517    -149.8782   -1773.6548    11938.184 
   18910    283.70761    7.1607515     59.65085   -152.38256    216.37325    11938.184 
   18920    279.46061    6.9949692    63.798531   -155.32795    707.28769    11938.184 
   18930    284.25152    5.0376952    66.715566   -157.72144    438.83995    11938.184 
   18940    310.57571      5.29612     54.01856   -160.45497    24.324397    11938.184 
   18950    274.77353      7.65725    60.879994   -163.18246    94.105164    11938.184 
   18960    269.23959    10.707191    60.977275   -166.00019     963.0199    11938.184 
   18970     257.1297    10.877821    62.107642   -168.50043    409.54544    11938.184 
   18980    286.26637    8.0265221     51.37914    -170.3084    -1137.127    11938.184 
   18990     286.8628    5.2395188    57.756106   -171.92652   -174.21729    11938.184 
19000        0.97852028895221343507 10.167658076880762508 0.99735449735449732689 70 -296.40724461226676567
   19000    271.69665    6.0575524    55.527775   -173.30608   -4158.3838    11938.184 
   19010    274.67251    7.6970121    53.790065   -173.68116   -408.42724    11938.184 
   19020    271.81916    5.6343407    57.961422   -173.32942   -468.48446    11938.184 
   19030     280.8702    6.1520818    55.648217   -171.83558    1101.9247    11938.184 
   19040    259.98099      8.65059     58.36075   -168.75586    -816.0048    11938.184 
   19050     290.8995    9.0341827    50.383863   -163.42064    1927.7914    11938.184 
   19060    311.07917    9.0906096    59.456232   -156.62726    3372.9932    11938.184 
   19070    335.91726    6.9803915    55.506514   -150.43304    2258.9786    11938.184 
   19080    286.70407    6.0809691    62.054903   -146.63984   -2190.9133    11938.184 
   19090    306.18618    4.7845095    58.001889   -143.91161    365.26344    11938.184 
19100        0.97479815094076582849 10.179536613362829556 1 65 -271.12679184571061342
   19100    285.77515    6.1363739    65.644612   -141.64689   -2216.7691    11938.184 
   19110    322.57215    6.2494698    58.271834   -139.53893    -1729.699    11938.184 
   19120    329.19221    6.7977357    60.409728   -138.63208    -4539.267    11938.184 
   19130    354.29338    5.9331423    63.525077   -138.84418    2569.4389    11938.184 
   19140    322.43689    5.9717669    66.247131   -140.98926    3509.5385    11938.184 
   19150    300.24869    7.9878149    67.671434   -144.11354    3737.0094    11938.184 
   19160    295.92266    9.7060507    62.046327   -147.08856    1494.0432    11938.184 
   19170     303.5841    10.187363      59.6384   -149.95163   -2070.1246    11938.184 
   19180    306.35089    7.6534499    60.030776   -153.11223   -710.57538    11938.184 
   19190    310.76425    7.6505858    54.722435   -155.68618   -1332.0939    11938.184 
19200        0.97130286214805572342 10.176938946052262125 1 64 -284.30005924757767843
   19200    277.93303    7.5736695    58.537018   -158.37329   -1556.3379    11938.184 
   19210    270.31519    5.8977127    59.157743   -159.96984    469.04506    11938.184 
   19220    275.83407    6.1050416    61.051137   -160.75251    400.56131    11938.184 
   19230    296.23395    9.9499326    55.076653   -160.66806    1450.1923    11938.184 
   19240    287.48715    15.185717    53.795704   -160.23973   -4607.6919    11938.184 
   19250    281.61196    15.215937    59.028083   -159.08308   -1913.8277    11938.184 
   19260    308.41516    10.498393    53.228308    -157.3475   -514.42945    11938.184 
   19270    298.36895    10.265807    63.671087   -155.57081    5733.2563    11938.184 
   19280    289.87922    11.349554    60.968952   -154.07028    3567.5433    11938.184 
   19290     293.2491    9.9632292    58.992527   -152.77836   -1636.8787    11938.184 
19300        0.97265558385724293355 10.184382601981463168 1 63 -301.62098756301213598
   19300    333.12238    5.0264053    53.045207   -150.68886   -1176.1591    11938.184 
   19310     316.0444    3.5316122    58.217613   -149.20027   -782.58363    11938.184 
   19320    311.09391    5.8290466    50.554252   -148.27258   -618.94802    11938.184 
   19330    286.40638    6.2607943    62.220854    -147.0244   -3775.2664    11938.184 
   19340    319.96386    4.4615534    58.049672   -145.72809   -1475.6579    11938.184 
   19350    312.68658    3.6967248    70.913385   -143.98256    2060.5111    11938.184 
   19360    298.24776    5.4792408    71.095981   -142.64725    3503.5232    11938.184 
   19370    324.49829    6.6757137    60.663437   -141.41158   -193.57253    11938.184 
   19380    325.02073    7.3133784    65.168551   -140.27096    1649.1499    11938.184 
   19390    310.23937    6.3767849    55.445811   -139.36505   -2354.1169    11938.184 
19400        0.96768562802411928203 10.19906511344651534 1 65 -267.92713672187164775
   19400    284.91636    8.0039637    58.526179   -138.83634    1282.7431    11938.184 
   19410    299.15707     9.905245    58.130516   -137.35315   -2743.3358    11938.184 
   19420    312.64024    9.3420311    65.939862   -135.73047   -4192.5353    11938.184 
   19430     330.9646    8.7925189    61.063732    -133.7125   -72.638585    11938.184 
   19440    305.73218    9.8033176    67.792931   -133.22723    1700.1002    11938.184 
   19450    345.45172    8.3401657    60.666281   -133.51309    3520.2181    11938.184 
   19460    321.69029    9.8720464    63.534128   -134.73881    1149.7166    11938.184 
   19470    334.97421     7.551066    55.132209   -136.50108    226.25522    11938.184 
   19480    332.43597    5.2952002    64.343119   -138.99186    3817.0798    11938.184 
   19490     315.6714    6.7432584    53.336704   -142.85564   -1335.7285    11938.184 
19500        0.96578141159117569803 10.193906698610449624 1 65 -282.67174427008342263
   19500    300.50885    8.0873672    58.665797   -146.51625   -1231.2849    11938.184 
   19510    301.16701    9.9105273    59.067758   -150.12417   -2425.6426    11938.184 
   19520    293.70379    11.172391    67.043128   -153.73759    368.82652    11938.184 
   19530    303.87233    10.932649    60.288342   -157.38612    2410.8735    11938.184 
   19540    292.05261    8.2294816    56.829258   -160.52254   -833.90265    11938.184 
   19550    300.49475    5.8363347     51.94347    -163.2723    236.34713    11938.184 
   19560    256.57493    4.6744199    62.213666   -165.23055    862.19794    11938.184 
   19570    279.25564    3.8440098    55.873832   -166.40914    81.668931    11938.184 
   19580    288.97974    3.3431827    57.527078   -166.44817   -1609.7351    11938.184 
   19590    287.60549    2.9266827    59.298899   -166.15674   -2308.7602    11938.184 
19600        0.96214579092245655634 10.216789128763357652 1 64 -289.78100009891443278
   19600    274.34711    5.6577003    62.287457   -165.47895   -1045.1025    11938.184 
   19610    284.38689    7.2640429    53.018116   -164.01476   -1110.7898    11938.184 
   19620    288.64505    6.7458007    61.179339    -162.4502    233.74123    11938.184 
   19630    295.01743    5.8471026    61.310455   -159.84879   -303.74234    11938.184 
   19640    286.53149    5.7514688    59.739136   -156.81987    5659.7385    11938.184 
   19650    303.47243    4.5096913    62.209602   -152.45347    -1300.378    11938.184 
   19660    297.93855    3.8127905    66.063755   -149.20587    -8.246178    11938.184 
   19670    300.25076    5.5438788     57.79588   -145.38266   -1358.6098    11938.184 
   19680     294.2069    8.9024326    60.373579   -142.01327   -3.4624395    11938.184 
   19690     294.8916    8.7131586    67.638661   -137.20223   -1495.5493    11938.184 
19700        0.95676631005010814857 10.253895459530244949 1 64 -274.31980054486098197
   19700    310.36222    7.7231667    62.528607   -133.69992   -2940.6825    11938.184 
   19710    333.34638    9.2481865    61.662514    -130.0898   -100.33878    11938.184 
   19720    317.03697    8.4743116    65.338549   -128.56177   -855.40074    11938.184 
   19730    287.82589    7.6809363    71.106242   -128.08725    1507.2423    11938.184 
   19740    308.32804    6.3819882    65.522347   -128.55834    1103.1355    11938.184 
   19750    322.57178    8.4635791    62.085992   -128.88468   -14.947244    11938.184 
   19760    331.12692    7.2211469     68.36317   -129.97311    98.666316    11938.184 
   19770     325.6468    8.4635468    64.325074   -131.97116   -154.46854    11938.184 
   19780    310.31874    9.7973841    72.042632   -134.57809    2164.1518    11938.184 
   19790    308.05557     9.377646    65.088106   -137.45363   -1192.0317    11938.184 
19800        0.96198749223361412763 10.224942890205072743 1 65 -272.80219015155006446
   19800    293.34659    8.0743547    57.814089    -139.8918   -1414.2863    11938.184 
   19810    315.93926    4.8137685    58.636924   -141.79903   -102.90394    11938.184 
   19820    318.60623    4.6207977    54.420645    -143.3633    311.84505    11938.184 
   19830    303.33082    5.6569271    59.233566   -145.25302    424.39401    11938.184 
   19840    290.20037    4.8338048    60.390982   -147.09074   -946.39128    11938.184 
   19850    285.83183    5.6703596    65.939753   -148.90762    2215.5928    11938.184 
   19860    279.03794    8.0062826    61.629959   -150.05745    2147.6728    11938.184 
   19870    285.48809    9.0196255    57.421198   -150.32983   -1710.9628    11938.184 
   19880    286.38446    8.9195917    64.116437   -150.05975   -911.63481    11938.184 
   19890    306.16845    7.6928201    57.689925   -149.36537   -1503.6067    11938.184 
19900        0.97180902130423929552 10.187987976061506856 1 70 -271.36274822335224144
   19900    272.82977    6.6311905    63.699207   -147.74818   -3105.2578    11938.184 
   19910    303.86537    7.5492501    57.661134   -145.52495   -1151.6048    11938.184 
   19920    316.23166     9.116622    61.726867   -143.96653    1776.4203    11938.184 
   19930    310.29223    10.641348    60.730961   -142.08215    3288.1692    11938.184 
   19940    313.08829    12.161145    57.961652   -139.63261    5155.3152    11938.184 
   19950    325.34524     9.202897    67.028238    -135.8017    753.10652    11938.184 
   19960    359.81424    8.2973849    61.839274   -132.68179   -251.86132    11938.184 
   19970     347.8972    6.6177591    65.395545    -130.5783   -3668.9489    11938.184 
   19980    320.19166    9.4960359    66.860425   -129.72222    -3122.943    11938.184 
   19990    330.35885    9.7677173    63.331755   -129.65334    594.44754    11938.184 
20000        0.97624957503156950533 10.158961291025669027 1 71 -275.92368058999164759
   20000    319.99376    6.7228018    63.686462   -130.93991   -232.22335    11938.184 
   20010    318.02091    5.0271255    64.198169   -133.09685    1194.0532    11938.184 
   20020    307.84469    5.8399505    67.587886   -136.69803   -0.1601068    11938.184 
   20030    300.46443    5.1875479    59.845932   -140.60618    -906.3958    11938.184 
   20040    304.60537    5.1133768    58.384535   -144.77767    1050.8959    11938.184 
   20050    283.49816    6.9702013    57.542756   -148.15649    348.95368    11938.184 
   20060    278.74443    8.7955357    59.162952   -151.38843    3073.5016    11938.184 
   20070    287.96769    8.2053545    59.071536   -153.39034    -249.9589    11938.184 
   20080    295.48576    5.6500257    60.874069   -155.14038   -1206.8904    11938.184 
   20090    307.56964    5.4055005    61.238846   -156.67955   -2804.1514    11938.184 
20100        0.97882837267763100897 10.153641727300353637 1 68 -284.0775221479413517
   20100    278.49885    7.9181464    64.180853   -157.89439   -927.88011    11938.184 
   20110    310.24617    8.4097051    54.490118   -158.85896    2558.1125    11938.184 
   20120    307.72705    7.9997528    60.442552   -160.15414   -315.88111    11938.184 
   20130    316.74388    8.4888618    51.858654    -161.8614    1042.4979    11938.184 
   20140     296.8178    8.5870189    54.608077   -164.31726     362.8667    11938.184 
   20150    283.46906    8.5824434    57.556552   -166.44889     2695.578    11938.184 
   20160    286.55554       9.3824    60.033354   -168.62499   -2366.7437    11938.184 
   20170    281.63671    9.2956138     54.75603   -170.32502   -2151.0641    11938.184 
   20180    279.26607    6.9035696    58.811213   -172.00774   -4036.3762    11938.184 
   20190    252.83264    7.4187853    59.852888   -173.07754    1392.9111    11938.184 
20200        0.98620014535883981921 10.134248709885083528 1 71 -297.30641941373175996
   20200    273.13763    7.5157914    56.502307   -173.55237   -1160.9766    11938.184 
   20210    280.11738    8.8278369    55.512019   -172.92434    3588.8704    11938.184 
   20220    304.69401    6.7344457     52.08925    -171.0936    2423.9937    11938.184 
   20230    299.14422     6.362771    48.777061   -167.97896     2294.861    11938.184 
   20240    311.80988    6.9870747    56.596126   -164.13208    2895.7417    11938.184 
   20250    319.51218    8.2153817    56.636155   -159.30863   -3378.5537    11938.184 
   20260    289.62027    8.9202037    59.498773   -155.12807   -2657.2452    11938.184 
   20270    299.19073     7.546098    56.126242   -150.97395   -572.94012    11938.184 
   20280    326.17734    4.8739353    59.837422   -147.72816    4045.6509    11938.184 
   20290    329.86399     7.384194    59.100809   -144.32633    3818.5176    11938.184 
20300        0.98312576836563159155 10.150335361418864721 1 68 -285.1042083995463372
   20300    314.61053    11.189941    60.396654   -142.55949   -5690.5647    11938.184 
   20310    301.74027    8.0345002    68.079459   -141.30468   -1751.7583    11938.184 
   20320    339.69404     5.199491     57.03841   -141.14666   -1718.8188    11938.184 
   20330    308.83549    7.7683353    63.004067   -141.30553    160.90586    11938.184 
   20340    307.63647    9.0257463    63.595441   -142.30678   -69.091432    11938.184 
   20350    294.03218    6.1536019    69.734194   -143.53487   -14.770906    11938.184 
   20360    317.97211    6.1049842    57.480456   -144.85596    2173.9897    11938.184 
   20370    266.18352    6.7624896    59.808273   -146.35137    1348.1586    11938.184 
   20380    278.83453    5.0909822    55.065035   -147.00131   -413.95359    11938.184 
   20390    275.17212    4.3139755    66.302402   -146.97962    1704.4967    11938.184 
20400        0.97796402350815403448 10.147294460939120242 1 68 -286.01330693913064351
   20400     308.1281    3.3799214    61.104909   -146.40567   -2523.7898    11938.184 
   20410    296.66489    6.3927413    58.267387   -144.19598   -1878.6555    11938.184 
   20420    323.23226    4.8757391    59.693503   -141.93538   -484.73796    11938.184 
   20430     331.0482    5.7358632    65.027642   -139.27751   -633.76989    11938.184 
   20440    345.29395    7.0739826    63.898559   -136.45205   -1536.3749    11938.184 
   20450    320.89324    7.1182865    69.666245   -134.79565   -1239.3946    11938.184 
   20460    333.16331    5.2887584    57.883105   -134.21097    1933.0633    11938.184 
   20470    307.46541    7.5260931     70.71995   -134.44512    4108.6176    11938.184 
   20480    314.07533    11.376547     56.93554   -135.57351   -53.259023    11938.184 
   20490    287.79058    9.9180904    72.303979    -136.7337     713.1024    11938.184 
20500        0.97410690202602534526 10.143140363577318297 0.99735449735449732689 71 -279.47783148459899394
   20500    310.50218    6.4750852    66.001248   -138.79453    670.03656    11938.184 
   20510     301.7063    7.0233422    59.073113   -141.84727    83.343266    11938.184 
   20520     299.8794    8.5447248    58.608707   -145.05069    460.46709    11938.184 
   20530    268.99644    9.9013537    67.076964   -148.47797   -2835.5904    11938.184 
   20540    296.13634    7.5290814    63.761266   -151.25743   -720.80615    11938.184 
   20550     291.8016    7.0680556     58.10597    -153.5081   -2379.0288    11938.184 
   20560    296.23754    7.6443761    57.155424   -156.13494    488.03795    11938.184 
   20570    298.90277    7.3820355    62.038603   -158.47006    1317.9715    11938.184 
   20580    304.77092     7.748251     54.38133   -160.87343   -657.58684    11938.184 
   20590    300.01435    9.4219165    54.188766    -163.2379   -875.25152    11938.184 
20600        0.97506780310380836152 10.122042907750421037 1 72 -291.73954711968684705
   20600    278.85423    8.5348973    61.293759    -165.3954    1167.1104    11938.184 
   20610    285.57185    10.252037    55.178321   -166.83247    3396.6702    11938.184 
   20620    266.99342    9.0976429    63.734778   -167.92678    758.02993    11938.184 
   20630    284.39969    8.2061251    52.810841   -168.94941    -2827.773    11938.184 
   20640    255.92973    5.8513112    65.168127   -169.29647   -1073.7642    11938.184 
   20650    274.64067    5.2233778    51.764871    -168.4115    1255.3782    11938.184 
   20660    266.96883    6.0599056    69.560461   -165.38682   -953.71279    11938.184 
   20670    284.14358    6.7361412    62.533604   -160.14178    221.99372    11938.184 
   20680    277.71685    6.4095278    63.073988    -153.4653     -1670.08    11938.184 
   20690    290.52896    7.2285668    60.365299   -146.30191   -820.39562    11938.184 
20700        0.98244031834989364871 10.102192083050914206 1 71 -290.37255093080034385
   20700    328.66617    6.7394207    63.166664   -141.45946    2340.4624    11938.184 
   20710    331.52834    7.9422725    62.449303   -137.88761    845.93654    11938.184 
   20720    322.51689    6.1941619    71.616661   -136.95005   -1419.1232    11938.184 
   20730    329.72222    5.4115551    61.507158   -136.85906   -2134.7737    11938.184 
   20740    321.02611    4.7289004    66.931395   -137.77875   -1744.7066    11938.184 
   20750    315.92718    7.4424155    67.051643    -139.9688    2549.1642    11938.184 
   20760    299.95315    10.632534    64.173088   -142.46888   -3323.8845    11938.184 
   20770    293.11416    11.126463    66.034676   -145.37716    841.76504    11938.184 
   20780    290.40324    10.584287    68.260649   -147.71242    4282.9325    11938.184 
   20790    315.20561    9.6810407    54.379507   -149.94458    5170.5698    11938.184 
20800        0.98438935666066140762 10.080608397439574375 1 72 -286.61185437500904527
   20800    296.20288    6.7991839    61.543759   -152.40733    763.85769    11938.184 
   20810    315.87608    5.0525526    52.286293   -154.61228   -3152.0365    11938.184 
   20820    296.27347    4.1797325    55.744362   -156.90612   -683.47937    11938.184 
   20830    281.18882    3.7729555    56.060435    -158.5151    1556.4716    11938.184 
   20840    272.21059    5.6905551    63.691102   -159.95431    110.96858    11938.184 
   20850    263.52688    4.2200097    62.150578   -160.07237    356.63875    11938.184 
   20860    296.50883    6.3790949    48.476095   -158.88812   -3516.4876    11938.184 
   20870    283.13668    6.0041207    64.010688   -157.14046    1136.9378    11938.184 
   20880    323.07036    5.2825439    56.326401   -154.27535    783.65718    11938.184 
   20890    300.27572    5.3805968     71.39461   -149.83049   -967.06653    11938.184 
20900        0.98520084657159823216 10.08041946243062803 1 68 -285.56534828894319844
   20900    309.49696    7.6899247     60.17176    -145.3375   -1549.0572    11938.184 
   20910    289.71647     9.910737    70.454931     -140.382   -1836.0456    11938.184 
   20920    299.42522    9.6662307     66.08527   -135.38005    818.87459    11938.184 
   20930    313.71806    10.344267    60.579706   -130.57768    1464.9348    11938.184 
   20940     339.9728    11.059705    63.745765   -126.61888    3654.6036    11938.184 
   20950     319.5793    12.021221    74.209416   -124.44333    2595.3388    11938.184 
   20960    345.46322    9.5121651    67.441044   -123.66883     475.6086    11938.184 
   20970    315.73323    6.2614107    81.647682   -124.05274   -4438.0819    11938.184 
   20980    332.42986    10.331714    64.603456   -126.07295   -3027.1835    11938.184 
   20990    319.63425    14.472744    79.504228   -128.63668   -1376.5238    11938.184 
21000        0.99242119205196399623 10.087598307899055428 1 72 -289.37403047336556483
   21000    345.97405    15.499841    65.920012   -132.61903   -82.002436    11938.184 
   21010    320.68027    11.406285    69.940475    -136.8043    580.66524    11938.184 
   21020    314.32886    9.9605805    65.722816   -140.43684     2754.216    11938.184 
   21030    273.62116    8.5828447    76.628338   -143.59507    1773.0818    11938.184 
   21040    280.83632    8.7092837    70.745844    -145.7517    -681.2871    11938.184 
   21050    295.46898    9.1062255    64.885568   -147.87347   -2209.1481    11938.184 
   21060     288.8624    10.747635       70.538    -149.5069     664.6908    11938.184 
   21070    304.14358    9.5203563    57.856431   -151.41626    170.14508    11938.184 
   21080    266.97941      9.32857    63.192923   -152.22414   -1014.1625    11938.184 
   21090    301.79314    6.9498633    57.439481   -152.39956    1305.2156    11938.184 
21100        0.98971681365436048328 10.092528691545492592 1 71 -287.22642509101154928
   21100    296.70542    5.8766468    62.296082    -152.7942    2077.8272    11938.184 
   21110    271.06455    4.2783316    73.191839   -153.18181    2780.0501    11938.184 
   21120    287.84095    4.5167221    55.001179   -153.49643   -1115.8726    11938.184 
   21130    304.54236    4.0965147    63.207205   -152.44604    1109.5152    11938.184 
   21140    341.73541    6.1511517     52.38279   -150.83649    1025.0142    11938.184 
   21150    306.45599    7.5790832    61.481684   -149.27348   -3753.2911    11938.184 
   21160    303.20141     11.56637    62.790788   -147.23814   -1133.4675    11938.184 
   21170    314.87095     11.71944    66.007601   -145.71041     402.1636    11938.184 
   21180      338.024    10.182339     65.91158   -143.93567    1268.1333    11938.184 
   21190    319.78773    9.9171947    57.134566   -142.12576   -2768.2978    11938.184 
21200        0.98492031395481005607 10.146507431218887874 1 69 -277.34435959641206182
   21200    300.99282    8.9971109    66.321995   -140.96959    314.62806    11938.184 
   21210     314.1293    8.1516431    73.179257   -139.73742    1573.0087    11938.184 
   21220    340.72734    8.7102047    65.325891   -138.74067   -550.33687    11938.184 
   21230    333.55384    8.9688816    71.046264   -139.31288   -144.94506    11938.184 
   21240    318.66814    9.3326971    61.875413   -141.04049    1668.1204    11938.184 
   21250    318.23763    8.5614342     63.83228   -143.81086    1984.8149    11938.184 
   21260    326.62313    10.813863     57.71907   -147.89581    1493.6272    11938.184 
   21270      299.179    9.5788935    64.030426   -152.43242    -1610.745    11938.184 
   21280    265.10076    6.1497062    61.331387   -156.91914     856.3177    11938.184 
   21290     265.0913    4.2336919    65.988161   -159.63436   -1969.9366    11938.184 
21300        0.97649001430288395742 10.189271495663374978 1 67 -288.77807669462265494
   21300     282.0624    3.3229283    65.098158   -160.98036   -5173.7653    11938.184 
   21310    292.25332    3.5592319    63.737397   -161.74413   -3821.8567    11938.184 
   21320    300.82866    3.1317811    57.570856   -162.31241   -305.83267    11938.184 
   21330    294.89463    3.2081545    53.596248   -163.53199    1504.0597    11938.184 
   21340    294.73697    5.9969344    56.921291   -163.88286    3476.3638    11938.184 
   21350    293.81583    7.1177481    51.225858   -163.65368    3450.0596    11938.184 
   21360    298.96576     4.908496    57.341278     -162.454    2873.9932    11938.184 
   21370    297.72416    2.9133042    66.414587   -161.22781   -22.400605    11938.184 
   21380    292.76548    3.1214826    63.954004   -159.50299   -2517.3048    11938.184 
   21390    282.48418    7.4746085    67.606545   -158.14115    -90.30572    11938.184 
21400        0.97535227952793057682 10.189311271000176973 1 65 -299.92431360085015513
   21400    319.60523    9.1287802    57.822446   -155.11658   -3393.4019    11938.184 
   21410    307.09456    10.130184    64.350976   -151.64423   -1525.7197    11938.184 
   21420    317.20252    10.888407    54.599837   -147.52545   -3195.6418    11938.184 
   21430    287.71319    16.940899    68.601767   -142.91668    1042.5739    11938.184 
   21440    324.04481      15.6925    62.715398   -138.16703     2750.766    11938.184 
   21450     314.5161    11.583972    70.486014   -134.15283    3280.7894    11938.184 
   21460    340.56306    8.6943408    59.615387    -131.0002    191.85676    11938.184 
   21470    319.54744    6.9232966    60.341614    -128.8336    -3476.862    11938.184 
   21480    345.63766    3.6432672    62.861542   -127.24859   -3723.9861    11938.184 
   21490    334.34907    3.6331321    73.349016   -127.12279    573.38824    11938.184 
21500        0.97259757090814147329 10.175540706797217894 0.99735449735449732689 68 -286.75633466355100154
   21500    348.65803    5.3282293    65.663574   -128.78526    3035.4198    11938.184 
   21510    308.23137    8.3649765    73.901591   -132.59851   -122.93342    11938.184 
   21520    331.34538    8.6035488    63.169415   -137.58583    1966.9178    11938.184 
   21530    283.00873    7.7144637    73.907814   -143.45521    3147.5146    11938.184 
   21540    301.43727     7.626611    59.726605   -147.95346     1209.507    11938.184 
   21550    267.66146    7.9935819    63.940528   -150.97552   -3667.7284    11938.184 
   21560    303.26979    7.3149902    56.718797   -152.34115   -895.94182    11938.184 
   21570    269.01865    4.6283072    68.512669    -152.9845    1891.0518    11938.184 
   21580    307.11578    2.9030984    56.506419   -153.03209    994.32763    11938.184 
   21590     283.2948    4.2253332    60.904092   -152.58707    -3091.729    11938.184 
21600        0.96732598235912348184 10.183816699067840261 1 67 -287.44803781751136285
   21600    298.41194    6.6397398    53.246298   -152.24262   -311.60013    11938.184 
   21610     291.2901     6.616302    60.303589   -151.58843    -604.0037    11938.184 
   21620     314.2108    4.5412826    54.986433   -150.61287    846.99013    11938.184 
   21630    308.17498    5.2347636      56.1855   -150.12446    -1587.011    11938.184 
   21640    322.57505    6.4655171    55.282445   -149.38161    555.37927    11938.184 
   21650    312.71901    6.0353643    68.260083   -148.81048     865.2986    11938.184 
   21660    307.49419    7.7328568    61.137925   -148.88546   -413.99293    11938.184 
   21670    308.12475    9.5141609    53.372584   -149.36451    786.61657    11938.184 
   21680    304.34913    10.491966    55.886491   -149.89518    576.21691    11938.184 
   21690    314.15182    8.6495253    54.281769   -149.88174     1848.915    11938.184 
21700        0.97112549773050693691 10.176740006591208143 1 67 -295.74524803418529473
   21700     321.4559    7.2460611    55.817327     -150.099    2206.5919    11938.184 
   21710    320.61088    6.3884206    60.049734   -151.75288   -3338.7404    11938.184 
   21720    260.23658    6.0025355    67.318916   -153.78032   -3413.5016    11938.184 
   21730    280.27646    6.1962621     58.14897    -156.5184    -5043.792    11938.184 
   21740    283.80547    7.2249214    62.630223   -158.56843    2090.6322    11938.184 
   21750    314.85174    7.8416197     50.67591   -161.23641    1590.0562    11938.184 
   21760    275.99404    7.5785822    58.145283   -163.73057    2869.0906    11938.184 
   21770    259.99452    9.3337558    55.101202   -165.72618    3192.6943    11938.184 
   21780    276.02173    9.8786176    55.922256    -166.3602    2231.8005    11938.184 
   21790    286.50259     9.741369    60.539886   -166.08402   -2374.5588    11938.184 
21800        0.96970457233957452203 10.209729305436409774 1 73 -299.22183191326388396
   21800     295.6246    10.654117    46.768654   -165.27931   -4173.0585    11938.184 
   21810     288.2768    8.0424916    61.965056   -163.98707   -3135.2369    11938.184 
   21820    308.71742    8.5041048     59.42852   -162.26316    1550.0319    11938.184 
   21830    298.30706    5.7558318    65.472221   -159.18589   -353.05779    11938.184 
   21840    300.89679    5.5576372    60.565545   -156.75675    3022.0547    11938.184 
   21850    294.15384    6.9456558    61.694574   -154.24615   -1787.7059    11938.184 
   21860    324.97515     6.508521    52.363492   -152.66505    1345.0189    11938.184 
   21870    322.59325    5.7526456    56.744969   -149.79846   -1337.1108    11938.184 
   21880    307.65912    8.9962565    61.854868   -147.61884    2524.2626    11938.184 
   21890    291.31272    8.0605982    64.850892    -145.6634    753.12364    11938.184 
21900        0.97019075380057262503 10.184324934240800431 1 73 -277.43096610537696733
   21900    295.55034    7.5971907    59.327408   -143.52209   -1986.9697    11938.184 
   21910    306.33422    5.9185759    62.812243   -141.10901   -2375.0799    11938.184 
   21920     312.7714    7.8719956    58.522666   -137.86653    1270.9117    11938.184 
   21930    305.77182     10.39882    61.074301    -134.5729    555.72897    11938.184 
   21940    317.96435     7.477026     63.72971   -131.01337    1610.0747    11938.184 
   21950    326.80216    7.3010077    60.901908   -127.82644     1451.027    11938.184 
   21960     333.1512    8.6533604    66.633986   -125.37441    1103.3925    11938.184 
   21970    320.39124    9.0294809    59.042643   -123.51442   -3047.9317    11938.184 
   21980    310.65482    7.3501842    66.106215    -121.9856   -1363.7767    11938.184 
   21990    335.44656     4.438232    63.442114   -120.77901    689.16907    11938.184 
22000        0.96933992233234311797 10.16602281876346936 1 72 -272.26611895833787003
   22000    335.50022    4.8992652    68.241148   -120.25663   -346.50776    11938.184 
   22010    329.67497    6.5235904    66.598427   -121.48444   -858.34603    11938.184 
   22020    304.31973    7.4987451    69.714833   -124.73353    1966.1428    11938.184 
   22030    311.72187    7.8182733     64.20149   -129.33287    3366.9733    11938.184 
   22040    298.53163    7.8995222    60.807621   -135.03378   -1399.5151    11938.184 
   22050    331.87698    5.3767624    52.701721   -140.83724   -859.88012    11938.184 
   22060    293.10245    4.2052423    67.586861   -147.19173    519.77851    11938.184 
   22070    314.21069    3.9839496    53.468438   -152.12806    1274.6013    11938.184 
   22080    276.73695    5.0720282    61.047991   -156.27413   -567.12165    11938.184 
   22090    300.39011    5.0397987     50.44009   -158.42928    376.27499    11938.184 
22100        0.97132796173359292613 10.178219220389792099 1 70 -290.35362234319507024
   22100    287.41779    6.0386424    55.433325   -160.12947    2120.8108    11938.184 
   22110    265.81642     6.357214    57.803531    -160.7141    363.94133    11938.184 
   22120    255.35409    5.9886333    56.459509   -160.25983     446.3061    11938.184 
   22130    262.38512    4.0765232    60.275568   -158.78861   -2189.5586    11938.184 
   22140    280.08955    4.1033279    58.027747   -156.31158   -2260.3896    11938.184 
   22150    280.02428    5.3226995    58.569809   -153.16773   -446.88827    11938.184 
   22160    294.09454    5.3852201    61.986515   -149.34047    1132.2267    11938.184 
   22170    278.87105    6.1087847    65.373629   -144.92969   -629.77438    11938.184 
   22180     328.0762     5.954753    59.012105   -141.75467    2392.0256    11938.184 
   22190    310.23331    4.9528628    68.888517   -139.30992   -1586.4223    11938.184 
22200        0.97170415141977384277 10.199601734314724055 1 70 -291.23700542371761912
   22200    337.97089     7.309585    54.846657    -138.1081   -1457.6056    11938.184 
   22210    312.93463    10.119239    68.916638   -138.01371   -3075.8984    11938.184 
   22220    338.76402    8.5622178    54.280942   -138.92019   -1831.9268    11938.184 
   22230    314.49834    8.9685481     66.82156   -140.53161    1450.6772    11938.184 
   22240    318.23232    10.082455    57.545922   -142.73252    3011.5084    11938.184 
   22250    311.78851    6.4504146    62.113001   -145.41111    1626.7468    11938.184 
   22260     298.6827    4.6967611    62.185216   -148.25488   -1060.4132    11938.184 
   22270     300.2037    3.4247928    61.697937   -150.66612    -582.9079    11938.184 
   22280    294.39019    3.4907182    68.093757    -153.7451    1480.8638    11938.184 
   22290    280.25348    4.1036656    59.222306   -156.18898   -1363.0425    11938.184 
22300        0.96883064024361020827 10.204328027734609563 1 66 -278.27533032221077747
   22300    266.03076     3.621819    64.461137   -157.74128    -672.6261    11938.184 
   22310    303.31048    5.9316871     56.60461   -158.45649   -77.338776    11938.184 
   22320    308.03467    9.6124452    58.980021   -158.65216    923.06733    11938.184 
   22330    309.10995    10.244378    49.275728    -159.2813   -1328.2107    11938.184 
   22340    290.20407    11.251816    55.561178   -159.65129   -898.18228    11938.184 
   22350    300.63533    12.852529    55.176429   -159.39124      859.958    11938.184 
   22360    297.67828    12.941632    56.644377   -158.92687     761.7652    11938.184 
   22370    283.82487     12.07393    64.472808   -158.13471    1201.7907    11938.184 
   22380    288.33266    13.316107    59.472893   -157.85329    21.061778    11938.184 
   22390    301.47369    12.218874    61.980704   -157.35873   -1740.5501    11938.184 
22400        0.97620765444947965594 10.160209274137761426 1 67 -289.46900556448906627
   22400    292.06588    11.607678    59.323071   -157.13888   -1048.1288    11938.184 
   22410    290.23546    9.4522457    58.906703   -156.75144   -77.769888    11938.184 
   22420    289.90018    8.5334005    62.551832   -156.28981   -1478.6039    11938.184 
   22430       295.45    8.4436064    61.086171    -155.3375   -1955.7059    11938.184 
   22440    307.03185    9.8542046    57.424752   -154.55333   -1325.9846    11938.184 
   22450    295.62527    9.5207369    63.175431   -153.84263    4189.0934    11938.184 
   22460    302.81485     10.94421    57.330338   -153.30562    5366.5767    11938.184 
   22470    289.83771    11.433629    63.753876    -152.7331    1127.5803    11938.184 
   22480    324.34524    9.9532315    52.138577   -152.37459    -1152.015    11938.184 
   22490    296.67826    7.2592204    63.811829   -152.35388     -168.822    11938.184 
22500        0.98564274407615015683 10.125661005500489864 1 66 -286.13853107476325022
   22500    295.94408    6.0731726    65.084844   -152.05126    1624.6815    11938.184 
   22510    300.50193    7.1485467    59.135723   -151.72087    -1517.846    11938.184 
   22520    305.79636    9.5532268    56.632766   -151.19494   -2387.7931    11938.184 
   22530    305.16907    9.7534013    61.795459   -150.42836    102.59413    11938.184 
   22540    292.74384    9.0788211    55.955569   -149.30904    3236.5035    11938.184 
   22550    291.63809    6.2079482    63.607386   -147.48821    -447.3156    11938.184 
   22560    289.25296     7.143634    71.520457   -145.20246   -2392.3562    11938.184 
   22570    311.25495    8.0249384    60.847694   -143.01008   -4964.1698    11938.184 
   22580    301.36592    7.1834275    65.568874   -140.99077   -264.65231    11938.184 
   22590    318.63285    7.3054348    55.420108   -138.63363    3277.3809    11938.184 
22600        0.98032179384164341851 10.133869243041713659 1 64 -267.21991560013719891
   22600    288.89621    7.4686912    67.141709   -136.32592    717.76305    11938.184 
   22610     292.3662     9.379786    61.799877   -133.55936   -1697.9395    11938.184 
   22620    310.18153    10.630437    61.982194   -130.38993   -310.54932    11938.184 
   22630    315.80096    8.1831975    68.101828     -127.512    3026.0778    11938.184 
   22640    313.54811    8.8264397    71.993792   -125.28374    2383.7049    11938.184 
   22650    314.83102     8.917573    67.644674   -123.75598   -2814.6435    11938.184 
   22660      321.408    7.0356161    62.946349   -123.75274   -660.43969    11938.184 
   22670    316.25516    5.2393492    69.275774   -125.03143    819.05956    11938.184 
   22680     333.3556    6.0779884    59.931331   -126.35222   -164.76442    11938.184 
   22690    313.61249    5.7338284    66.380562   -129.41179   -527.51632    11938.184 
22700        0.97959890295414975281 10.146536367006975254 1 67 -276.32354380529670834
   22700    315.49698    5.9776576    67.597774   -133.37719   -172.56269    11938.184 
   22710    321.53636     3.943477    64.012839   -138.38513    2466.7455    11938.184 
   22720    337.50574    5.7807583    49.110647   -144.47134   -387.79233    11938.184 
   22730    289.86486    7.7227607    62.449044   -149.79693   -1900.9874    11938.184 
   22740    305.62349    8.8540389    56.826532   -153.46378     1048.624    11938.184 
   22750     292.5387    8.3679414    67.759851   -156.01473   -1022.9794    11938.184 
   22760    298.93681    7.4270504    59.544072   -157.68854    3625.3929    11938.184 
   22770    293.11214    6.6688645    57.178685   -158.98597   -1803.4167    11938.184 
   22780    299.37554    4.8430642    57.301241   -159.71496   -739.40825    11938.184 
   22790     283.1746    4.2350742    62.727726   -160.02898   -1247.2405    11938.184 
22800        0.98264723918645391354 10.152722248858406573 1 66 -294.98188054888260012
   22800    297.86805    3.6088572      56.2942   -160.02289   -1091.1871    11938.184 
   22810    286.88441    5.4706497    64.943893   -159.90453    227.42028    11938.184 
   22820     313.7445    5.6533339    58.384633   -159.80416   -3139.5534    11938.184 
   22830      290.585    4.3203314    62.763008    -159.7112   -465.92926    11938.184 
   22840    308.49456    4.0309862    62.937677   -159.65579    2730.8974    11938.184 
   22850    289.47105    5.9387952    62.472335    -160.4323    72.555602    11938.184 
   22860     304.8039    7.6561651    53.542816    -160.9988    1103.8082    11938.184 
   22870    278.16985    6.7291543    59.939474   -162.18624    604.85006    11938.184 
   22880    303.14865    5.8315745    57.059641   -162.36012    2572.0179    11938.184 
   22890    289.93945    7.0794609     54.52027   -162.47248   -1384.7376    11938.184 
22900        0.97944718775351125029 10.15817691434222958 1 67 -304.94033533176747142
   22900    315.29054     8.736458    52.657246   -162.08751   -959.71216    11938.184 
   22910    276.60602    7.0326052    64.197338   -161.93762   -2554.3268    11938.184 
   22920    290.20751    8.0044287     52.27358   -161.58201    1035.5197    11938.184 
   22930    274.84514     8.291309    65.992742   -159.98089    1524.8058    11938.184 
   22940    295.54213    9.8362688    52.017192   -157.43017   -1169.2775    11938.184 
   22950    261.97621    6.9787849     62.29537   -153.59572   -1170.9458    11938.184 
   22960    280.40907    7.7645823    59.995554   -148.90024    341.53549    11938.184 
   22970     295.6355     7.894195    62.654346   -143.01402    320.35971    11938.184 
   22980    304.31009    6.9927144    67.065977   -138.28098   -1854.1697    11938.184 
   22990     301.9438    5.7123993    67.177407    -134.8839   -1924.7461    11938.184 
23000        0.98124274464529726014 10.143078426947377935 1 67 -281.82860601549464263
   23000    330.34693    6.6456871    65.401907   -132.15399     973.6531    11938.184 
   23010    343.71747    6.4996706    62.909222   -130.49785    3290.8618    11938.184 
   23020    318.19402    5.3032222    73.784046   -130.62522   -2086.6346    11938.184 
   23030    313.10202       5.4488    64.425632   -131.74827   -1607.3619    11938.184 
   23040    313.00607    6.0213354    64.068327    -133.9152    -1964.743    11938.184 
   23050    319.44578    6.9348616    62.453398   -137.11704    3171.7999    11938.184 
   23060    303.51048    8.5831754    58.723313   -139.70071    1156.7545    11938.184 
   23070    304.83513    10.140172    59.725796    -142.5109    1184.3834    11938.184 
   23080     288.9341    11.221884    67.234875   -145.17639    907.79869    11938.184 
   23090      308.574    8.4188003    58.373824   -147.79653    314.90058    11938.184 
23100        0.98798799867454178969 10.110086624207060169 1 66 -283.95171960514721832
   23100    294.69109    7.4429544    65.616729   -150.43216    62.027001    11938.184 
   23110    307.31251    7.0837014    54.485661   -153.23523    527.68186    11938.184 
   23120    297.46395     6.897424    66.215294   -155.91571    -111.6414    11938.184 
   23130    302.89273    5.7430501    61.656891   -158.49656    981.96735    11938.184 
   23140    286.14119    5.9522333    59.897063   -160.72343   -2245.7546    11938.184 
   23150    283.30449    7.8058073    60.273204   -161.97693    1521.9024    11938.184 
   23160    296.32768    6.8678712    60.423117   -163.19312    423.29783    11938.184 
   23170    299.14502    7.8383846    54.389068   -164.15947   -690.31336    11938.184 
   23180    277.44992    9.0709474    61.568514   -164.60497   -991.26192    11938.184 
   23190    300.13118    8.0498924    55.208306   -164.00177   -2007.4653    11938.184 
23200        0.98564547835206017812 10.137309107780973605 1 66 -301.74484672160451737
   23200    304.64803    7.6170329    62.450912   -163.71396    2263.2598    11938.184 
   23210    297.94019    8.2299189    61.998513   -163.26142    1416.6125    11938.184 
   23220    285.86294    10.610255    53.552768   -162.53472     79.16408    11938.184 
   23230    282.18753    10.571853    58.486927   -160.94146   -994.14259    11938.184 
   23240    301.96513    12.235074    63.759589   -156.73042    273.15098    11938.184 
   23250    333.33986    11.548551     59.23262   -148.41256     866.4897    11938.184 
   23260    353.57994    10.209589    60.349744   -139.85238   -2954.7758    11938.184 
   23270    360.65383    8.4901182    56.617328   -133.29425    973.84997    11938.184 
   23280    312.88584    7.3117891    68.347657   -130.11339    2353.9947    11938.184 
   23290    331.11343    8.6963649     59.46441   -128.28594    2464.6281    11938.184 
23300        0.98324505562631536737 10.12832901290703802 1 67 -262.60161192571700894
   23300    297.57076    7.4264087      67.4405   -127.77732    1113.9228    11938.184 
   23310    305.10844    8.6200393    60.348804   -127.25723   -4822.6679    11938.184 
   23320     319.1417    8.2140035    65.139463   -126.78633   -1545.0758    11938.184 
   23330    318.24054    8.3607366    70.925462   -126.51525   -669.15199    11938.184 
   23340    354.64612    11.906152    51.041548   -127.24929   -1004.0885    11938.184 
   23350    309.11347    8.3433734    70.516438   -129.11252    1508.3066    11938.184 
   23360    330.76946    8.2823349    62.588213   -131.92589    1513.2201    11938.184 
   23370    322.25327    7.6803796    66.292695   -135.84663    330.51227    11938.184 
   23380     303.5153     8.776876    65.853413   -140.59214   -2759.3475    11938.184 
   23390    326.45949    6.5063987    53.550563   -145.23369   -2813.1173    11938.184 
23400        0.98573755002833796102 10.109290647106611516 1 66 -283.64794466272553564
   23400    296.45685    6.9156627     64.53975   -149.32835    2077.5585    11938.184 
   23410    315.17772    7.2921094     54.05364   -152.52962    2551.5963    11938.184 
   23420    298.45698    9.1626979    58.401058   -154.79719    3216.9621    11938.184 
   23430    271.47103    10.621789    61.108344   -156.20275   -947.53725    11938.184 
   23440    265.39409    13.290384       66.744   -156.48068   -1465.3805    11938.184 
   23450    298.34354     9.607087    59.525276   -156.42133    963.07119    11938.184 
   23460    296.27486    8.5620989    64.101846   -156.09308    1401.3611    11938.184 
   23470    290.87958    7.9387609    66.231335   -155.75243   -2176.9152    11938.184 
   23480    292.79384    10.362586     55.35747   -155.02315   -2988.4753    11752.892 
   23490    291.96443    9.4244484     64.60993   -154.20522   -1413.5438    11752.892 
23500        0.98509575843231689252 10.136626414207151825 1 70 -296.37442002238515215
   23500    315.28422    10.157061     53.79184   -153.52446    2402.0476    11752.892 
   23510    306.15411    9.1530292    54.978451   -153.72384    -475.9095    11752.892 
   23520    305.71469    7.3705961    57.841661   -153.67777    989.58062    11752.892 
   23530    300.29862    5.4395468    55.895844   -153.47364    727.45803    11752.892 
   23540    292.12676    5.2893464     60.51825   -152.35488    1984.5916    11752.892 
   23550    281.60088    4.8184141    60.851295   -151.79319   -1939.1414    11752.892 
   23560    276.74572    4.2958756    56.937818   -151.17714   -2168.9495    11752.892 
   23570    304.60866    4.0008412    57.816388   -149.27664    397.37349    11752.892 
   23580    299.21457    6.8535413    57.795169   -146.22852    2375.1917    11752.892 
   23590    339.09777    7.5347297    56.419584     -141.716   -969.32264    11752.892 
23600        0.98593864236786843414 10.114926259890019367 1 67 -283.2679289646827101
   23600    322.30484    9.8860063    59.502046   -137.23704   -1051.2307    11752.892 
   23610    309.84876    9.6398925    63.544873   -133.44497    997.08908    11752.892 
   23620     313.6987    7.8277483    70.070397   -128.90502    2768.8525    11752.892 
   23630    313.56305    7.3731597    66.584527   -125.81736    269.25455    11752.892 
   23640    321.34823    6.2370478    69.503923   -123.54679    -1897.823    11752.892 
   23650    327.66217    7.3920088    68.270399    -122.4205   -33.470766    11752.892 
   23660    317.04229    6.1782821    65.146425   -122.18783    855.81082    11752.892 
   23670    345.33746    7.3858593    59.093267   -123.24286    1171.7799    11752.892 
   23680    323.54424    8.4022685    71.038019   -125.41273   -1557.3976    11752.892 
   23690    325.32739    8.5822537    56.866659   -129.53328   -3125.1722    11752.892 
23700        0.98540408247400546049 10.116798344740514537 1 67 -274.21086688731003278
   23700    308.61885    10.902923    66.096006   -134.38087   -442.52911    11752.892 
   23710    321.19322    10.448312    64.792297   -139.08343    2770.9474    11752.892 
   23720    306.96174    9.7879498    61.514909   -143.92651   -1691.4282    11752.892 
   23730    291.13683    9.7927938    58.392694   -147.79576     876.9623    11752.892 
   23740    305.61269    8.6254703    59.123921   -150.19283    1911.0132    11752.892 
   23750    311.39243    6.2648798    57.752744   -152.17544     5471.809    11752.892 
   23760    315.69727     5.364305    58.174997   -153.68694    -2333.955    11752.892 
   23770    286.23234    5.1387978    54.230965   -155.30135   -5512.4817    11752.892 
   23780    307.37821    4.5174179    53.264285   -155.87381   -1518.2412    11752.892 
   23790    305.88705    6.2180672    60.800374   -156.44181    2485.5788    11752.892 
23800        0.98392606225027723355 10.119230958923987274 1 74 -301.69512143959894956
   23800    318.35798    9.6531838    51.280179   -157.45249    2691.4455    11752.892 
   23810    290.70614    11.941477     59.45286   -158.51901    4323.8147    11752.892 
   23820     303.3373    9.8509529    55.657476   -159.60266   -2008.9046    11752.892 
   23830    282.60463    7.9506845    58.221037   -159.97809   -745.92206    11752.892 
   23840    289.20781    7.6908035    56.922767   -161.39787   -946.61973    11752.892 
   23850    301.24663    7.7625414    55.928027   -162.03177   -1331.4428    11752.892 
   23860    280.68219    6.6952736    56.032829   -163.08479   -1874.2204    11752.892 
   23870    306.97418    5.4680304    49.711701   -163.74278     1221.564    11752.892 
   23880    268.92367    4.8924827     59.48767   -164.10061    2468.7668    11752.892 
   23890    289.03251    5.0205849    53.425113   -163.31239    1179.3408    11752.892 
23900        0.98168621316972226598 10.148692547934016872 1 74 -283.0833086456676142
   23900    268.01568    6.1766661    62.783895   -161.64993   -1030.7015    11752.892 
   23910    292.83706    6.0750687       55.228   -158.64505   -13.678852    11752.892 
   23920    297.45995    5.7776085    56.857749    -154.4471   -183.50484    11752.892 
   23930    305.37301    2.8843486    61.271639   -149.08352   -2234.3125    11752.892 
   23940    332.87916    3.6548434    53.558687   -143.31873   -3657.5262    11752.892 
   23950    318.86036    4.0267207    75.194337   -138.81684   -82.682907    11752.892 
   23960    331.96906    4.2885327    69.495819   -136.18546    2149.3355    11752.892 
   23970    337.97212    5.9768739    60.945463    -135.9447    1608.8009    11752.892 
   23980    308.39371    8.5542787    63.950479   -136.64167    577.53087    11752.892 
   23990    315.33172    10.687765    59.731879   -137.43478   -1732.5769    11752.892 
24000        0.9851433470671976389 10.127609526275406893 1 71 -279.07061550048490517
   24000    310.85193    6.8003226    63.370465   -138.22885   -2210.0521    11752.892 
   24010    303.75235    6.2872506     61.64115   -139.61454   -288.79128    11752.892 
   24020    292.40326    6.5005619    61.284256   -141.56667   -299.19624    11752.892 
   24030    296.12928    8.0951541    57.370357   -143.78924    470.33679    11752.892 
   24040     287.2096    10.866086     61.60439   -145.28382   -512.06142    11752.892 
   24050    311.11615    12.355927    55.474458   -146.93371     2315.589    11752.892 
   24060    290.44531    13.570191    63.124114   -149.14466    2549.5638    11752.892 
   24070    316.43597    13.671572    51.263573   -151.53535    2026.6818    11752.892 
   24080     311.0352    15.514564    52.061618   -154.02536    260.73392    11752.892 
   24090    306.73562    14.190488    52.586028   -157.98685   -598.52179    12633.478 
24100        0.98449692200986271828 10.133012308029872628 1 74 -286.88156080693460126
   24100    272.86427    9.8409592    58.600299   -163.25136    32.112165    12633.478 
   24110    264.88489    8.8985399    62.001498   -168.16259   -3259.0592    12633.478 
   24120    280.91269    6.8449144    53.648813   -173.05298   -658.17374    12633.478 
   24130    272.51085    7.4629367    61.170939   -177.49465    986.98607    12633.478 
   24140     274.4729    9.1288994    47.507276   -180.69767    1089.1922    12633.478 
   24150    255.56285    9.0197258    53.869462   -182.31272    3276.3106    12633.478 
   24160    276.43123    9.4763626    51.017688   -182.47506    2563.7853    12633.478 
   24170     282.9363    8.1466901    54.617972   -181.87991    -165.1063    12633.478 
   24180    264.60839    11.446849    56.745691    -180.7705    -2847.453    12633.478 
   24190    251.45417    11.890219    57.109747   -179.45808   -5487.0003    12633.478 
24200        0.97992527137411178373 10.151754021589889376 1 70 -304.69642127258117625
   24200    281.84305    10.718137    53.643338   -176.99809    -1195.937    12633.478 
   24210    292.33355    9.2140589     54.78912   -175.03216    2584.6405    12633.478 
   24220    285.39034    10.964984    56.582552   -173.19973    2996.8497    12633.478 
   24230    298.96793    12.784445    47.175367   -171.81467     1784.621    12633.478 
   24240    283.94641    11.062036    54.291291   -169.87121    3108.4486    12633.478 
   24250    297.07009    8.3262055    54.443117   -167.38142    386.61041    12633.478 
   24260    254.93136    6.1310322    60.512195   -164.99846   -1946.6096    12633.478 
   24270    264.64325    5.5369989    62.125897   -162.30929   -5153.3828    12633.478 
   24280    281.18926    5.2256495    57.739442   -158.64484   -2947.5776    12633.478 
   24290    291.79002    3.1878441    56.379256   -154.98095   -458.14057    12633.478 
24300        0.96762852129059673256 10.210575290072332777 1 66 -294.91916621568822166
   24300    315.69143    2.6279339    51.165789    -151.8847     1924.741    12633.478 
   24310    286.43042    3.7678006     65.66527   -149.36258   -740.44087    12633.478 
   24320     301.6476    5.4371076    54.331784   -146.95479    197.04822    12633.478 
   24330    279.44372    4.4966006    71.460681   -145.39091     321.9121    12633.478 
   24340    297.12367    4.2846261    61.430287   -144.17324    1511.3503    12633.478 
   24350    287.83526    4.8914274    60.763671   -143.12822   -1033.8955    12633.478 
   24360    325.78389    5.6202515    53.749974   -142.02187   -2559.7644    12633.478 
   24370    316.41452    6.9403084    61.710679   -141.54511   -2232.7038    12633.478 
   24380    319.78532    7.8005395    53.074652   -141.88857      2059.91    12633.478 
   24390    279.05227    9.0987466    66.737621   -142.49841    1164.2572    12633.478 
24400        0.96341739064898435085 10.207134668192546556 1 68 -263.59735875429066709
   24400    267.33554    8.5400595    64.532856   -142.47214    864.21568    12633.478 
   24410    291.87085    7.8175148    61.024584   -142.45399    1087.1629    12633.478 
   24420    290.54816    8.4959778    62.639118     -142.266   -75.160233    12633.478 
   24430    316.59932     6.341218    53.403644   -142.04795   -366.04191    12633.478 
   24440    308.20205    5.6208736    55.199993   -142.01687   -2546.9712    12633.478 
   24450    338.12034    4.4906577    55.938798   -141.09528   -2468.8596    12633.478 
   24460     302.1903    2.8646272    68.250337   -142.32845   -848.88834    12633.478 
   24470    302.83144    2.2278024    58.208967   -143.74623   -809.01578    12633.478 
   24480    291.74708    3.1157432    63.062248   -145.79198    504.23799    12633.478 
   24490    300.29434    3.3862151    52.863403   -148.20624    608.31659    12633.478 
24500        0.96645791432007843724 10.168609437104928261 1 68 -277.40154298886670858
   24500    278.98449    3.3978487    59.135518   -150.99838     4255.545    12633.478 
   24510    292.53867     2.891049    54.082852   -153.27029    1991.7443    12633.478 
   24520    303.08985    2.8342394    55.386355   -154.95219    365.00203    12633.478 
   24530     282.5574    3.5378711    63.747846   -156.84438    -3025.964    12633.478 
   24540    286.41981    3.7289861    55.928413   -158.63057   -1214.9763    12633.478 
   24550    250.34838    3.5245725    66.729544   -160.35901    810.41965    12633.478 
   24560     285.4151     3.494107    47.869949   -160.43202   -659.92131    12633.478 
   24570    280.22256    4.3310319    59.815019   -159.50113   -543.46792    12633.478 
   24580    331.88553    7.1848012    43.805572   -157.66669       1523.4    12633.478 
   24590    271.91188    10.952386    63.469995   -155.69145    295.28603    12633.478 
24600        0.96738004817600931062 10.175505818457301288 0.99470899470899465378 67 -284.88262690160536295
   24600    291.21984    11.998847    55.315378   -152.93583   -778.49577    12633.478 
   24610    291.93438    8.8112016     58.73208   -149.64612   -2444.8784    12633.478 
   24620    321.06124    5.7995668    54.042605   -145.86454   -1276.7383    12633.478 
   24630    323.52785    3.6028998    60.550588   -142.17649    3703.2648    12633.478 
   24640    334.45474      5.88228    60.199603   -139.02504     636.4301    12633.478 
   24650    359.04368    6.5569493    56.692277   -136.95184   -805.43654    12633.478 
   24660    327.08762    9.6690802    63.500962   -137.28382   -2779.9582    12633.478 
   24670    319.12053     10.05512    58.790304   -138.83478    695.68611    12633.478 
   24680    291.46645    10.349097    66.238697   -141.36079    2482.0233    12633.478 
   24690    300.35454     7.347739    61.595599   -144.08123    -1735.663    12633.478 
24700        0.97686261275646102398 10.154493498167424193 0.99735449735449732689 67 -284.01007487277928476
   24700    302.19362    5.0730281    62.648346   -147.09124   -1786.9305    12633.478 
   24710    309.42593     4.553564    56.675912   -151.04706   -804.83687    12633.478 
   24720    303.49541    5.1672999    53.355374   -155.42558    188.83957    12633.478 
   24730    298.43392    5.9107522    52.621631   -159.74079   -8.9576829    12633.478 
   24740    278.49416    7.6693924    52.749782   -163.47817    2163.1943    12633.478 
   24750    271.68217     8.368697    56.205666   -166.68991    1401.6699    12633.478 
   24760    282.28149    6.1478529    49.053852   -168.35489    1176.2275    12633.478 
   24770    280.70059    4.8943905    51.998819    -168.6304    3763.5188    12633.478 
   24780    290.12011    4.9320367    47.592532   -169.10344      50.7198    12633.478 
   24790    306.34725     4.459999     48.37143   -168.56866   -1361.5046    12633.478 
24800        0.9860837829629505169 10.120496075414729731 1 66 -305.97910092748526267
   24800    303.92224     5.067874    53.654544   -168.27706   -733.01598    12633.478 
   24810    294.99505    9.4854627    49.375432   -167.97382   -503.16233    12633.478 
   24820     287.2605    9.5681773    55.571856   -167.25398   -493.17053    12633.478 
   24830    280.43803    7.9672117    47.984262   -166.98348    -4369.618    12633.478 
   24840     255.7335    8.5188276    57.959182   -165.49836   -3077.4883    12633.478 
   24850    288.37482    11.993894    45.282896   -162.74862    2968.3919    12633.478 
   24860    294.80691    9.1038015    48.558676   -159.87118    3726.6487    12633.478 
   24870    298.64703    6.2282141    51.957477   -156.79199    3420.4231    12633.478 
   24880    293.60852    6.4674713    57.062768   -153.99356    504.44809    12633.478 
   24890     302.4202    8.5612239    51.550308   -151.18162   -486.38542    12633.478 
24900        0.98498521573034192311 10.125848390234047258 1 66 -283.96819340703439138
   24900    299.56338    9.5458268    62.892314   -148.24108   -1561.6434    12633.478 
   24910    325.58006    10.206741    54.863933   -145.61255    50.238883    12633.478 
   24920    313.34974    9.6034984     55.37502   -144.18341   -2221.2699    12633.478 
   24930    288.70087     9.254764    62.626326   -143.69066   -712.81324    12633.478 
   24940    303.98845    7.7049477    50.891393   -142.32228   -1495.5854    12633.478 
   24950    290.06402    9.5607557    61.506314   -141.05354   -262.12443    12633.478 
   24960    300.05071      10.7578    58.967604   -139.74688    1508.9666    12633.478 
   24970    318.26878    10.235488    54.737565   -137.68999    247.94977    12633.478 
   24980    323.74999    6.2038432    63.238506   -136.22369    3394.0413    12633.478 
   24990    346.72199    4.3917878    55.264433   -136.27826    1807.3837    12633.478 
25000        0.98007378222642904664 10.147522126854463309 1 67 -293.39173997549801243
   25000      342.157    4.9350188    53.242698   -138.36618    1083.0115    12633.478 
   25010    319.08496    5.6316934    62.076794   -142.62507   -3623.3181    12633.478 
   25020    301.99764     7.387081    60.072979   -148.90262   -2846.5872    12633.478 
   25030    291.71474    7.6234672    56.873361   -156.74224    468.39713    12633.478 
   25040    269.34946    7.7866789    57.263668    -162.4375    178.72072    12633.478 
   25050    288.80061    9.3800226    50.998795   -165.69621     1066.924    12633.478 
   25060    290.10858    6.7193444    56.720649    -167.2853    1753.1882    12633.478 
   25070    286.74491    7.1694126    52.075274   -168.47263     2148.587    12633.478 
   25080    272.83567    5.4968136    56.032278   -168.59443   -501.50485    12633.478 
   25090    289.17079    5.6245731    52.214311   -168.20723    753.86546    12633.478 
25100        0.9761116973024641652 10.164514982921906139 1 66 -310.89087411746146472
   25100    316.51982    7.0949071    48.779189   -167.48108   -2369.2772    12633.478 
   25110    288.14092    9.9745565    53.070037    -166.4976   -851.27831    12633.478 
   25120    301.12556    11.089796    47.107259   -165.85253   -1888.9769    12633.478 
   25130    281.68153    8.0491478    53.737298   -163.85303    557.98878    12633.478 
   25140    296.57856    7.9662351    49.844875   -162.04782   -719.50461    12633.478 
   25150    299.71123    6.5485292    51.049269   -159.72705    527.97325    12633.478 
   25160    274.73253    6.5038508    58.914294   -156.53403    2170.5441    12633.478 
   25170    292.64656    5.9849973    49.499386   -152.48174    1474.3059    12633.478 
   25180    285.96643    4.6508362    68.231237   -148.11755   -2602.5716    12633.478 
   25190    326.97397    5.5424876    55.009324   -144.59957   -4507.7969    12633.478 
25200        0.98026269763035633886 10.156951979321972246 0.99470899470899465378 70 -278.08225451186945065
   25200    300.23273    5.6886758      62.3172   -142.05187   -2647.6372    12633.478 
   25210    319.25691    5.7284242    56.127208   -140.39839    1523.2871    12633.478 
   25220    299.46086    7.2024172    65.710805   -139.58822    3173.1887    12633.478 
   25230    320.57244    6.6905272    60.599398   -139.22526    3722.8693    12633.478 
   25240     326.4996    6.4142102     60.30478   -139.82562   -236.17615    12633.478 
   25250     298.3597    8.0101151    58.780272   -140.66826   -1976.9588    12633.478 
   25260    307.96276    5.4436538    54.571181   -142.01022   -756.60719    12633.478 
   25270    304.12414    5.2560089    57.813968   -143.07536    1711.2779    12633.478 
   25280    312.90542    6.5210895    56.855892   -144.20931   -832.02263    12633.478 
   25290    287.22374    10.343659    52.654091   -144.44191   -1197.0794    12633.478 
25300        0.98127848027412523102 10.136399338503698786 0.99206349206349198067 67 -279.85287490945455602
   25300    297.71444    7.1776318    63.262852   -144.96349    150.18862    12633.478 
   25310    303.86207    5.1442446    53.135508   -145.24513    2440.2025    12633.478 
   25320    298.89516    6.6616022    55.429266   -144.79985   -1404.4882    12633.478 
   25330    315.24705     7.098707    51.246958   -145.04277   -2354.7394    12633.478 
   25340    309.34836    7.5953059    57.194881   -145.23536   -3616.9873    12633.478 
   25350    319.61625    7.6622057    54.845868   -145.76307     1246.305    12633.478 
   25360    316.28323    8.6995721     57.84345   -147.34949     1417.086    12633.478 
   25370     293.9853    8.1029443    59.869217   -149.02715   -111.55846    12633.478 
   25380    300.61054    7.7018471    53.519744   -149.76071   -113.72175    12633.478 
   25390    279.12404    8.5725246     56.66385   -150.31509    1586.2313    12633.478 
25400        0.98248913954724392816 10.114844294066370978 0.99735449735449732689 66 -283.48745746086751751
   25400    293.75967    6.8369448    58.531133   -150.38991    2114.9609    12633.478 
   25410    288.80298    6.3689236    56.412156   -150.04327   -1765.2826    12633.478 
   25420    312.36594    4.7540265    44.083654   -149.86251   -3845.5774    12633.478 
   25430    297.00751    3.6786951    56.768479   -149.37616   -1087.9704    12633.478 
   25440    314.02786    4.3275233    52.127322   -149.09553    2447.8657    12633.478 
   25450    285.06229    7.4766153    64.649189    -148.8131    2693.4945    12633.478 
   25460    305.93204    10.571598    57.381019   -148.95481    514.70293    12633.478 
   25470    288.62492    14.677137    58.886955   -149.17667   -396.24872    12633.478 
   25480    316.87036    15.148468    54.414065   -149.11801    510.18462    12633.478 
   25490    306.96952    11.818115    52.668876   -149.52616    577.63608    12633.478 
25500        0.98798554684154238359 10.076918742436872023 1 70 -287.93314619712253943
   25500    304.33813    8.9795667    57.769658   -150.04267    1187.1629    12633.478 
   25510    280.79081    8.3208853    60.860284   -150.57906   -416.88959    12633.478 
   25520    294.36963     5.381483    57.840468   -150.78453    -2268.124    12633.478 
   25530    284.71035    7.8719643    59.850828   -150.86423   -1152.7575    12633.478 
   25540    297.05298    11.343082    57.877717   -150.58554    1266.8245    12633.478 
   25550    301.22458    11.563132    63.660967   -149.92443    2710.6088    12633.478 
   25560     305.1004    9.7808876    61.753556   -149.74569   -1018.7575    12633.478 
   25570    304.84573    7.5792977    62.583004   -150.66545   -309.95119    12633.478 
   25580    272.91926    8.0444298    65.390378   -152.10723     486.7604    12633.478 
   25590    314.62909    10.578316    52.700776   -153.98532    2033.7274    12633.478 
25600        0.99075115117854672953 10.064658908877483157 1 71 -297.17160504941892896
   25600    307.53869    13.718801    59.639556   -157.83101    1471.0999    12633.478 
   25610    300.20511    14.994271    54.063677   -162.84324   -3004.6273    12633.478 
   25620    273.75531    15.018794    50.418683   -167.74395   -3019.3813    12633.478 
   25630    276.15803    12.385389    53.870579   -171.50991   -1602.1075    12633.478 
   25640    272.53631    9.0556448    52.731756   -174.25986    4435.2079    12633.478 
   25650    293.81708    6.7471864    51.697487   -176.24745    2787.2495    12633.478 
   25660     288.1845    4.3144679    50.728484   -177.44412    730.29214    12633.478 
   25670    282.69673    5.4344518    53.123367   -178.19264   -794.79073    12633.478 
   25680    271.33596    6.9275202    51.594706   -178.32555    3448.8477    12633.478 
   25690    259.59863    9.4705652    50.037485   -177.06674   -456.66292    12633.478 
25700        0.98724636648099650671 10.096666210945265618 1 72 -306.52019336564910645
   25700      290.168    8.6478625    49.586663   -175.04997   -2158.9326    12633.478 
   25710    292.78837    8.9875891    51.179742   -172.28001    -4303.726    12633.478 
   25720     295.8911     8.487467    52.619459   -169.02515    1986.8501    12633.478 
   25730    296.09582    8.0238947    54.642081   -165.18407     2173.744    12633.478 
   25740    285.03462    8.2322626    56.824739   -161.66444    -1429.749    12633.478 
   25750    300.66337    6.7811279    54.901234   -157.93553   -2818.9227    12633.478 
   25760     289.5859    8.0478979    61.632262   -154.21973   -81.531886    12633.478 
   25770    318.66682    8.9211085    54.504055   -150.81191    3985.5332    12633.478 
   25780    309.35181    8.3681164    59.472355   -148.51135   -671.77716    12633.478 
   25790    309.22911    9.8431127    52.746159   -147.43568   -3160.6963    12633.478 
25800        0.98049480788550202881 10.138501926856537949 1 75 -280.13838616667095494
   25800     294.0442    8.7470887    60.398391   -146.91192   -1599.1295    12633.478 
   25810    293.80265    7.6298707    54.086975   -147.05844    1056.7565    12633.478 
   25820     311.0823    5.8180461    54.261362   -146.88733    4693.8289    12633.478 
   25830    308.86223    5.7597081    56.080087   -146.54441   -702.26939    12633.478 
   25840    313.64566    5.3722558     52.82641   -146.76354   -3543.0131    12633.478 
   25850    308.94397    7.3730959    53.769786     -147.108   -981.36676    12633.478 
   25860    280.99875    8.5370099    60.071368   -147.55571      1548.68    12633.478 
   25870    277.70336    7.6688333    59.230309   -147.64714    3236.7427    12633.478 
   25880    310.78522    6.9176845    45.876041   -147.11592   -145.06843    12633.478 
   25890    298.73587    5.8617656     56.53024   -146.50495   -128.45312    12633.478 
25900        0.97130501871010488379 10.174111463359430729 1 72 -287.04162152007978648
   25900    312.65727    5.2451079    52.701349   -145.38189    824.75935    12633.478 
   25910     298.7147     3.933415    58.953722   -144.62664   -1829.7328    12633.478 
   25920    308.06204    3.5252254    57.027281   -144.23568   -3815.7253    12633.478 
   25930    328.43213    4.5131699    53.930623   -144.52465   -3652.7332    12633.478 
   25940    311.76001    7.7960581    57.916985   -146.69952    949.05572    12633.478 
   25950    286.36076    9.9009508    61.454705   -149.60929    7037.8592    12633.478 
   25960    282.75628    9.5932181    61.747835   -153.69197    3295.4332    12633.478 
   25970    283.98736    7.7143841    54.635129   -159.03155   -386.74762    12633.478 
   25980    291.96466      3.89139    49.381014     -164.736    -5421.422    12633.478 
   25990    278.95521     2.478402    49.529157    -170.3931    -2510.318    12633.478 
26000        0.96911289155443114396 10.189250966881170157 1 70 -304.12783571030996654
   26000    287.86781    4.4751853    45.147323   -173.69979   -556.84121    12633.478 
   26010    283.11928    4.5858039    49.448329   -176.50102    955.10305    12633.478 
   26020    269.87544    4.0394587    46.301832   -178.72169   -217.18843    12633.478 
   26030    253.33954    4.1307947     44.15173   -178.93924    2155.5323    12633.478 
   26040    262.71398    4.5915727    49.989048    -177.8098     1946.349    12633.478 
   26050    279.98742    4.6272969    48.783254   -175.51649    1002.8864    12633.478 
   26060    241.83257    5.3563984    62.932608   -172.66269   -1643.3753    12633.478 
   26070    264.84769    4.6248796     48.36146   -169.19607    -2561.177    12633.478 
   26080    256.86397    3.8018618    60.111208   -165.38723   -3244.7351    12633.478 
   26090    298.72031    4.0394771    45.831033   -161.52027   -2281.6271    12633.478 
26100        0.96873289651342164852 10.176040986883073458 0.99735449735449732689 62 -284.98656331627284999
   26100    279.89541    7.4589804    57.922687   -158.17068    896.41778    12633.478 
   26110    290.14934    7.9522604    54.745125   -155.12059    2837.6801    12633.478 
   26120    303.16363    8.2219599     56.66541    -152.6693    4661.4286    12633.478 
   26130    310.14096    6.8806273    58.026999   -150.72658    765.03491    12633.478 
   26140    316.40173    7.4595512    54.407777   -149.47215   -1059.3558    12633.478 
   26150    292.05943    8.0730216    61.462639   -148.74714   -1020.1464    12633.478 
   26160    296.43634    8.5966765    58.118124    -148.2384   -1001.0784    12633.478 
   26170    309.96195    7.0213578    62.314789   -147.61667   -2464.9546    12633.478 
   26180     316.3037    10.083241    64.462304   -147.74378    249.38141    12633.478 
   26190    325.56622    11.237465    53.627938    -149.6401    1758.3125    12633.478 
26200        0.98070023310548182227 10.162011265745793054 1 67 -285.60058317466535982
   26200    292.98584    11.938637    61.079021   -152.85364     365.3235    12633.478 
   26210     298.7905    12.434487    55.950663   -155.58681    150.74108    12633.478 
   26220    301.40778    11.233077    49.631325    -158.7335    1326.8663    12633.478 
   26230    301.95212    8.2334331    55.376185   -162.53146    923.37312    12633.478 
   26240    312.50289    8.1595856    52.603981   -165.83804   -360.72118    12633.478 
   26250    303.89254    8.5304651    52.562571    -169.1712   -179.99813    12633.478 
   26260    288.04285    7.6415743    54.828257   -171.89047   -1940.9268    12633.478 
   26270    278.95644    7.2419304    57.134611   -174.63681   -2230.6143    12633.478 
   26280    297.09332    9.6337712    54.058565   -176.38658   -1273.6663    12633.478 
   26290     279.9962    12.388818    51.754094   -177.67612    3172.0335    12633.478 
26300        0.98106932874567387426 10.141939889166975419 1 67 -299.2225746573469678
   26300    266.70045    11.562219    49.840443    -178.3851    2999.4841    12633.478 
   26310    262.62598    12.052697    51.864465    -178.2071    2327.7144    12633.478 
   26320    262.35175    13.582596    51.348855   -176.51853    11.112556    12633.478 
   26330     262.7897     11.78321    52.869814   -174.54081    271.52238    12633.478 
   26340    277.09209    9.4225853    52.777261   -171.78115   -3227.0761    12633.478 
   26350    293.90001    8.6843753    54.420188   -168.85736   -1030.7409    12633.478 
   26360    309.39616    5.7691486    52.580295   -165.99897    373.89292    12633.478 
   26370    300.26668    5.9876881    56.990203   -164.41319    1383.1302    12633.478 
   26380    308.60351    5.4514041    50.382343   -163.46628   -120.97421    12633.478 
   26390    273.97713    6.7564943    52.434635   -163.06621    -1036.195    12633.478 
26400        0.97071251777262779203 10.169000587738393548 1 65 -295.29265798418327904
   26400    295.03087    6.7946752    55.225149   -161.61915    7.6513747    12633.478 
   26410    320.90137    8.1237233    47.775895   -160.05459    39.126931    12633.478 
   26420     304.5892    9.1878185    62.506021   -158.87348   -1783.5358    12633.478 
   26430    299.43113    9.6706944    51.600925   -157.50624    46.845096    12633.478 
   26440    275.93658    8.9270848    60.388157    -156.9032   -211.03139    12633.478 
   26450    298.43521     7.137165    58.297481   -155.16986    297.39127    12633.478 
   26460    322.67486    6.5062275    48.203138   -153.01556    1305.1213    12633.478 
   26470    289.10457    7.2084713    58.398102   -150.83491    2935.7597    12633.478 
   26480    287.00316    8.7362142    56.916417   -149.09629    2248.4105    12633.478 
   26490    267.53857    8.1797225     62.07095   -146.25602    1573.9996    12633.478 
26500        0.96522064059758683197 10.191513762858681602 1 63 -277.20428814439782172
   26500     297.1117     6.054392     61.40167   -142.58799   -1153.3899    12633.478 
   26510    310.67488    3.6674673    59.609644   -138.88087   -1881.9419    12633.478 
   26520    311.35211    4.1159974    63.869484   -135.36861   -1555.6002    12633.478 
   26530    320.36325    5.1072378    58.491649    -132.2185    -1297.515    12633.478 
   26540     321.4433    5.3318589    61.548094   -129.56622   -1698.4698    12633.478 
   26550    305.62112    5.3587471    67.692798    -128.3905   -1253.9557    12633.478 
   26560    338.19448    5.7745031    61.084928   -128.66265    393.91483    12633.478 
   26570    314.41452    5.1177036    63.531533   -130.18454    2280.8064    12633.478 
   26580    321.87614    4.7243728    53.521406   -132.66174    1416.6613    12633.478 
   26590    276.17503    5.4719093    66.150032   -134.84421    634.10563    12633.478 
26600        0.95366344623884280463 10.24565963263241386 0.99735449735449732689 64 -278.34063631476510636
   26600    313.15065    4.6606506    55.591929   -136.45736   -1521.1413    12633.478 
   26610    317.23151    2.7972906    59.170522   -137.88563   -524.44807    12633.478 
   26620    295.03256    2.7077409    65.475176    -140.5128    399.53175    12633.478 
   26630    299.57863    6.4267032    51.253026   -142.34434   -1792.8845    12633.478 
   26640    285.99226    8.8042823    53.450322    -143.8571    666.79437    12633.478 
   26650    307.45883      10.8654    57.758337   -144.92352   -1087.7482    12633.478 
   26660    313.22797    12.182452    56.545727   -145.73723    1485.8116    12633.478 
   26670    294.61836    9.8066984    60.442881   -146.86279   -1574.2879    12633.478 
   26680    302.66987    6.2586121    54.588469   -147.64957   -959.44561    12633.478 
   26690      305.588    4.0357588    57.158069   -148.41399    1000.0988    12633.478 
26700        0.95499275191216270731 10.237806938330187734 1 69 -302.21733663769219902
   26700    337.11591    3.2960996    50.694837   -149.47581   -583.81725    12633.478 
   26710    292.71925    2.7357851    56.611443   -151.22631   -157.37881    12633.478 
   26720    289.08198    2.4782295    55.745281   -152.30272    1372.2468    12633.478 
   26730    291.97378    3.9592372    57.656381   -152.38357    731.53995    12633.478 
   26740    288.76799    5.4215604    57.529721   -152.46751   -1074.3738    12633.478 
   26750    274.71915    8.7022719    61.369197   -151.99442   -2856.5069    12633.478 
   26760      271.992     8.472224    58.663274   -151.18397   -37.650362    12633.478 
   26770    294.08129    8.7387488     55.50967   -149.84889     1022.917    12633.478 
   26780    316.92138    6.4877953    58.877947   -148.60046    462.65671    12633.478 
   26790    310.37855    7.3141316    59.233499   -147.93585    1618.1894    12633.478 
26800        0.95784721199034839056 10.221446205994793033 1 62 -267.10764970113586969
   26800     263.4061    7.1618463    60.396357   -147.76279   -2115.9951    12633.478 
   26810    291.10735    5.2814463    59.672836   -146.56914    849.36221    12633.478 
   26820    332.60258    5.4565143    57.371152    -145.7626    1435.8053    12633.478 
   26830    323.78933    7.5824279    55.652707   -145.71622    1235.2825    12633.478 
   26840    302.81341     9.393979    53.279332   -146.17004    523.43195    12633.478 
   26850    289.45459    8.3785535    55.607275   -146.91466    15.712738    12633.478 
   26860    299.75838    7.4784018    53.947359   -147.16254   -560.44306    12633.478 
   26870    300.38446    8.9072248    60.716493   -146.78296   -3121.4107    12633.478 
   26880     284.3193    9.8675105    53.843633   -146.24696   -4299.3025    12633.478 
   26890    296.71098    7.0698871    61.168739   -145.23413    966.90163    12633.478 
26900        0.95894622064665457906 10.21670335259439355 1 66 -268.98362076301123125
   26900    277.42751    4.5095592    64.318241    -143.2859    2395.8675    12633.478 
   26910    290.34461    6.0240492    56.102739   -141.29264    1371.5538    12633.478 
   26920    308.36411    6.3760672    54.357288   -138.39396   -486.53305    12633.478 
   26930     325.0727    6.5909107    61.398417   -134.83469    799.75272    12633.478 
   26940    315.97881    5.2113863    65.072607    -131.6886    3721.5212    12633.478 
   26950    308.13776     6.109242    57.650899   -129.63431     -1145.15    12633.478 
   26960    312.45958    5.2248645    56.556593   -128.24541   -3358.9499    12633.478 
   26970    320.54976    4.9909417    61.545543    -127.1661   -1539.5358    12633.478 
   26980    331.30702    4.0900844    51.859492   -126.18566   -1473.7461    12633.478 
   26990    322.77836     4.847731    60.295246   -126.42926    1270.4405    12633.478 
27000        0.96665550457308446752 10.195923043188534152 1 65 -284.17657383189322218
   27000    346.80498    4.8939518     50.60436   -127.04509   -2614.1472    12633.478 
   27010    317.36426     7.837947     56.41311   -129.02915    -625.6629    12633.478 
   27020    330.67869    8.1181681    52.635135    -132.2667    510.37306    12633.478 
   27030    275.49087    7.9846176    65.896456   -136.81305    5282.5465    12633.478 
   27040     285.5747    8.0133044    53.174753   -141.43264    2550.4483    12633.478 
   27050     296.7455    4.8876802    51.874822   -145.68655   -733.65052    12633.478 
   27060    304.57319    3.6778883    53.607291   -149.39704   -1101.0973    12633.478 
   27070    292.31239    4.0655731    53.040918   -153.32792    37.462431    12633.478 
   27080    285.03113    6.6793424    54.057217   -155.21536   -84.668012    12633.478 
   27090    277.64822    7.2864362    51.729693   -157.41035   -1717.3306    12633.478 
27100        0.97061026590794208246 10.187938359937776411 1 66 -291.41640082861266592
   27100    294.43223     6.852182    43.690683   -158.01413   -4406.7505    12633.478 
   27110    286.90395    5.2301174    55.873142   -158.11205    217.33237    12633.478 
   27120    289.96366    2.9414878    56.743589   -158.25023   -988.82774    12633.478 
   27130    290.41693    3.5334016    53.486587   -157.84843    381.82544    12633.478 
   27140    290.48799    4.1816748    58.815372    -157.4713    230.66864    12633.478 
   27150    307.52215    4.0264593    44.820126   -156.50181    1915.2086    12633.478 
   27160    267.21371    4.8796003    57.961817   -155.18063    2140.4409    12633.478 
   27170     269.0138    8.4720817    52.186122   -153.51974    370.62244    12633.478 
   27180    258.35685     11.20579    61.192451    -150.6464      1300.23    12633.478 
   27190    290.55084    10.928556    53.461605   -146.38185    1124.1291    12633.478 
27200        0.98270109747228118202 10.108528846099973819 1 66 -285.60742955341947891
   27200    321.06777    11.554954     54.67177   -140.13704   -672.76356    12633.478 
   27210    304.80556    13.789614      59.4095   -133.88506    -1425.039    12633.478 
   27220    322.47543    12.983366    58.277483   -129.05307    447.38699    12633.478 
   27230    319.60442    11.265953    58.508985   -126.43751    2526.1782    12633.478 
   27240    340.23067    12.314306    59.086642   -125.53693    2304.8198    12633.478 
   27250     354.8706    9.1080704    58.173328   -125.64654   -727.22837    12633.478 
   27260    337.15097    8.5877665     54.54695    -127.1242   -2135.6958    12633.478 
   27270    313.55965    9.1725758    64.983158    -129.9933    129.04843    12633.478 
   27280    307.05813    10.913933    60.418512   -132.92217    1709.8546    12633.478 
   27290    305.18585    14.852225    52.708057   -135.49958   -599.86456    12633.478 
27300        0.98485591035550790195 10.11643233094265959 1 71 -266.12885416555604934
   27300    283.78095    15.053111    62.505649   -137.55249   -2840.7037    12633.478 
   27310    300.30871    13.643178    53.333247   -139.12695   -2001.9296    12633.478 
   27320    313.69766    12.238331    56.675747   -140.78308   -221.60991    12633.478 
   27330    301.50636    8.8881059    59.407754   -142.47164    947.69766    12633.478 
   27340    312.38345    8.3025389    49.906493    -144.2787   -2487.2406    12633.478 
   27350    291.95504    8.3344066    60.756254   -145.98779    929.50082    12633.478 
   27360    295.33504    7.9690932    59.726265   -147.69966    2854.1981    12633.478 
   27370    285.78059    10.497264    57.074804    -149.8969    5676.2755    12633.478 
   27380     272.2308    10.590272    60.791449   -151.79317     2183.308    12633.478 
   27390    313.74284    8.1120308    49.389709   -152.79597    813.36901    12633.478 
27400        0.98485587271191044056 10.131398460611414691 1 67 -294.16263577445459987
   27400    309.00929    7.2972955    48.589974   -154.15574   -4195.2571    12633.478 
   27410    295.06432    8.2605841    58.220177   -156.56182   -2415.6148    12633.478 
   27420    281.39891    5.9770299    54.586865   -159.45555   -3978.5189    12633.478 
   27430    288.90512    4.7669343    51.378163   -162.65203    1382.8175    12633.478 
   27440    304.34717    7.9140627    54.181129   -165.96104    413.90002    12633.478 
   27450    289.35639    12.570933    53.156442   -170.02321    2103.4229    12633.478 
   27460    275.31446    10.933444    51.027598   -174.03371    265.49137    12633.478 
   27470    262.19195     7.514799     49.94495   -177.65429   -404.79976    12633.478 
   27480     245.8047    5.1672911    51.794385   -180.01212   -1280.1172    12633.478 
   27490    262.91027    3.4700839    52.165322   -181.21813    -282.6174    12633.478 
27500        0.97877930220932907179 10.153263654565211738 1 69 -291.30813850113946728
   27500    245.01604    4.5406058     59.40978   -180.29551    421.48492    12633.478 
   27510    246.49102    8.7873909    45.726474   -178.10828    1877.0752    12633.478 
   27520    264.52003    10.525923    50.847044   -174.14148   -750.02766    12633.478 
   27530     292.2502    11.022894    52.681691   -169.01216   -31.071979    12633.478 
   27540    273.86941    11.871992    61.087782   -163.13781   -3962.9826    12633.478 
   27550    275.72721     12.29513    57.165234   -159.85307    1910.3614    12633.478 
   27560    297.44174    9.9899783    49.468525   -157.59834    2833.0075    12633.478 
   27570    313.29777    7.2563772    53.749721   -155.61404    3087.4594    12633.478 
   27580    287.80068      7.81822    56.122564   -154.22327   -2937.8276    12633.478 
   27590    272.10435    6.9654144    55.497828   -152.75825   -4451.6945    12633.478 
27600        0.96929227203796686219 10.176946199830460671 1 70 -288.61125005280604228
   27600    304.40466    5.7027352     57.69033   -150.69063    211.43826    12633.478 
   27610    313.13557    4.8192683    55.059707   -148.28588    1046.4097    12633.478 
   27620    303.28962    5.1809533     58.32501   -146.29474    146.98878    12633.478 
   27630    290.79653    6.3903087    58.495998   -144.57053   -1898.4018    12633.478 
   27640    290.98191    7.9591507    63.483744   -142.95723    1377.6873    12633.478 
   27650    318.44141    9.3010012    60.610009   -141.29675     4843.218    12633.478 
   27660    302.60178    9.8064539    61.301582   -140.30739    3404.3632    12633.478 
   27670    288.94795    7.6297453    61.743753   -139.39582   -1503.1749    12633.478 
   27680    282.69297    6.8506545    61.329716   -138.15055   -1713.5724    12633.478 
   27690    307.96556    5.4496743    65.347233   -136.98739   -5017.6347    12633.478 
27700        0.97053460414181969007 10.19864811698835716 1 66 -276.96743761393310024
   27700    311.79385    3.2369256    61.512989    -135.6989   -1990.0413    12633.478 
   27710    295.72015    3.4511438    63.669473   -134.97471   -2900.1355    12633.478 
   27720    311.89116    6.4179955    54.084856   -134.09435    2455.9768    12633.478 
   27730    328.26809    10.638745    52.507074   -133.34465    4000.5981    12633.478 
   27740    341.43071    10.040285    53.211049   -133.08522    4290.7473    12633.478 
   27750    323.86095    9.0857854    53.840768   -133.70003    1115.4042    12633.478 
   27760    312.72619    8.5508841    61.218036   -135.43771    -4889.033    12633.478 
   27770     327.0826    6.9287081    50.687127   -138.05366   -4680.3252    12633.478 
   27780    317.39188    7.7748587    55.161278   -141.92738   -633.68837    12633.478 
   27790    296.27985    8.0345927    60.426615   -146.28556    1935.2685    12633.478 
27800        0.97605790053428331809 10.188183108442721903 1 70 -275.79145612440248669
   27800    276.46793    9.4191633     57.21755    -150.5285    2238.7478    12633.478 
   27810    269.26418    8.8389105    54.256187   -153.85909    2453.7202    12633.478 
   27820    273.41215    7.4996182    58.161702   -156.18821    2110.0596    12633.478 
   27830    275.65674    5.8074189    63.025058   -157.78706   -51.890152    12633.478 
   27840     293.1557    5.7989953    49.406179   -158.56615   -4930.0122    12633.478 
   27850    268.21881    6.7852759    62.859908   -158.94194   -3284.6339    12633.478 
   27860    304.12892    4.7114664     54.27541   -158.89484   -1378.6361    12633.478 
   27870    293.00929    7.0723955    54.671692   -158.50577   -483.42006    12633.478 
   27880    287.58676    9.0960915    54.464214     -157.975    1732.9265    12633.478 
   27890    283.90473     7.938043    54.297898   -156.33121    4046.8279    12633.478 
27900        0.97475368116459570889 10.200281016791302946 1 69 -286.00425461811892092
   27900    290.36579    7.8473822    63.865772   -154.44441    3360.9409    12633.478 
   27910    326.81817    7.1507298    52.057714    -151.6975   -128.49036    12633.478 
   27920    308.80187    8.1788557    52.551455   -148.97798   -2507.2386    12633.478 
   27930    305.89745    8.9806773    60.902831   -144.58656   -3304.3445    12633.478 
   27940    320.06989    7.8590944    59.491665   -139.55761   -2650.9574    12633.478 
   27950    295.54055    8.1531524    68.690137   -134.85605    1102.9343    12633.478 
   27960    336.31929    9.7322687    55.723194   -130.43123    1777.1452    12633.478 
   27970    331.28192    8.4769792    61.835469   -127.72165    890.77885    12633.478 
   27980    326.12053    5.2158799    58.446795   -125.72426    -2348.559    12633.478 
   27990    304.54922    6.4225237    61.074366   -124.52756    403.84079    12633.478 
28000        0.97410569212480946355 10.161738283845410891 1 70 -271.64441801118465492
   28000    328.40315    7.0641973    65.266415   -122.85049    2019.8849    12633.478 
   28010    339.52041    7.1687463    57.883263   -123.38938   -496.68737    12633.478 
   28020    334.93687    5.8057432      64.8875   -125.05769   -796.92864    12633.478 
   28030    322.21209    8.7578211     68.31937   -127.91232   -3591.5599    12633.478 
   28040     341.2665    12.290636    59.269044   -131.82523   -417.38259    12633.478 
   28050    309.32209    15.065892    61.540115   -137.06111    328.70305    12633.478 
   28060    284.54385    13.851012    63.469184   -141.66488    2924.0939    12633.478 
   28070    292.91542    11.334899    62.287858   -145.22981     3523.668    12633.478 
   28080     307.3969    7.7437872    58.110138    -147.7274    2100.6158    12633.478 
   28090    304.93857    6.9221244    58.349861   -150.10387    342.66065    12550.799 
28100        0.98259364389841674647 10.098572755023957015 1 67 -280.09302947174910514
   28100    284.16361    8.6971256    60.065744   -151.34329   -223.60106    12550.799 
   28110     313.9175    7.3716412    57.926082   -152.50312   -2330.2593    12550.799 
   28120    296.59522    9.4777446    63.534564   -153.39125    1977.4027    12550.799 
   28130    302.95089     11.31084    61.116722   -154.33343   -2266.1753    12550.799 
   28140    294.98375    12.472375    55.302047   -155.29719    440.94719    12550.799 
   28150    305.14245    9.7733832    57.599722   -155.68041   -3132.9357    12550.799 
   28160    314.85309     9.154944    58.510769   -155.94016     1273.528    12550.799 
   28170    289.84695    10.490308    59.996724   -157.05472    3302.4771    12550.799 
   28180    284.64767    10.428623    54.570558   -157.63864    138.36111    12550.799 
   28190    289.57509    9.4896304    55.572049   -158.20452   -513.10903    12550.799 
28200        0.98362461565749326198 10.115149221162111459 1 71 -281.60136774391344261
   28200    272.94435     8.636536    59.524934   -157.93489    507.66499    12550.799 
   28210     284.0416    8.5479758    53.776902   -158.06567    1907.8464    12550.799 
   28220    280.81361    5.5522313    59.508199   -156.35429      504.928    12550.799 
   28230    321.87629     4.252792     50.51784   -153.95787    1109.5246    12550.799 
   28240    307.32503    4.6913889    62.828838    -151.3177    2064.6847    12550.799 
   28250    300.28634    5.0850005    63.976268   -148.32959   -1634.1886    12550.799 
   28260    325.71736    5.0942007    53.244262   -144.61133   -4789.1837    12550.799 
   28270    340.86843    6.8868426    51.341343   -140.81486   -5299.2315    12550.799 
   28280    319.76982    10.015878    59.865599   -137.69982    79.524131    12550.799 
   28290     285.7834    11.113855    70.651793   -135.18354    3502.4883    12550.799 
28300        0.9842118299540466575 10.115823339957946914 1 73 -254.41571798907196467
   28300    270.05566     11.25019    70.078021   -132.05806    6428.7457    12550.799 
   28310    302.98734     8.745462    62.777196   -128.00352   -46.224625    12550.799 
   28320    302.01764    9.6592143     56.17861   -124.11847    8.6658679    12550.799 
   28330    332.21375     6.529375    65.788654   -120.38332   -535.35872    12550.799 
   28340    332.87229    5.7070163    65.542361   -117.01212   -116.62735    12550.799 
   28350    348.74448    5.7116839     63.45239   -114.71815   -3382.5766    12550.799 
   28360    355.89968    7.1932154    66.634645   -114.22493   -2965.6457    12550.799 
   28370    336.74623    7.6487598    60.689312   -116.42758   -860.17233    12550.799 
   28380    321.36371    7.0825148    62.888605   -119.72561   -578.07714    12550.799 
   28390    345.00002    5.7247043    58.063496   -123.85634    2770.9945    12550.799 
28400        0.9786438973980753353 10.148222915901873975 0.99735449735449732689 69 -280.97449430747292354
   28400      334.445     5.487722     65.22429   -129.44311    1468.3108    12550.799 
   28410     299.0593    7.2591661    61.680481   -135.30665   -119.92679    12550.799 
   28420    310.30688    7.5438662    60.918476   -139.52888    166.95183    12550.799 
   28430    299.37618    8.3862764    65.838454   -142.23176    -1927.069    12550.799 
   28440    326.54973    7.6518826    57.098709   -143.83873    1291.3362    12550.799 
   28450    305.60774    5.9098523     56.83495   -145.63807    562.04154    12550.799 
   28460    268.99221    4.7232721    59.564689     -146.939    437.16657    12550.799 
   28470    285.02182    2.1352338    55.302827   -147.63744    142.97636    12550.799 
   28480     299.1246    3.2898286    50.149262   -147.04156   -1047.8999    12550.799 
   28490     295.5152    4.0718323    52.259845   -145.79744    14.487052    12550.799 
28500        0.97840009878427847134 10.161891272161284405 0.99470899470899465378 69 -280.13938980318494032
   28500    299.57135    3.1448853    64.682002   -144.40867    656.92794    12550.799 
   28510    311.96038    3.9064509    62.532417   -142.64881   -525.59324    12550.799 
   28520    296.88643    4.1004147    62.594545   -141.08169     1861.365    12550.799 
   28530    313.14802    5.0623298    56.574358   -139.59903   -3165.7458    12550.799 
   28540    292.12237    6.5424388    66.081446    -138.0311    1912.7044    12550.799 
   28550    307.72999    8.1181268    66.598642    -136.2436    2279.4844    12550.799 
   28560    316.80229    10.210842     56.56817   -134.76448   -464.94583    12550.799 
   28570    323.45152    9.1783591     55.48041   -134.08287   -3684.1795    12550.799 
   28580    314.20847    7.4927188    66.588505   -133.97191   -1636.4668    12550.799 
   28590    305.95445    6.2301008    67.380436   -134.42446   -1700.1133    12550.799 
28600        0.97614358403218492999 10.173765560707828115 0.99470899470899465378 68 -265.02661186780238722
   28600    285.55227    7.6266243    65.414622   -135.64769   -1648.2586    12550.799 
   28610    299.72003    5.5894547    58.548215   -137.11212   -1105.0237    12550.799 
   28620    314.84295    4.7419388    69.407608   -139.04356    2455.5628    12550.799 
   28630    310.60815    5.4851206    69.308045   -142.02986    3370.6136    12550.799 
   28640     285.6538    5.9939287    61.828509    -146.2896   -484.25104    12550.799 
   28650    271.10277    5.3777526    56.600211   -150.28689   -1212.2797    12550.799 
   28660    253.30129    4.3074915    64.332276    -153.4718    121.72639    12550.799 
   28670    297.56211    5.3229593    61.347209   -155.61161     351.1664    12550.799 
   28680    304.88972    7.1396962    58.117851   -158.50689     147.0384    12550.799 
   28690    280.35623    7.3120679    59.073628   -160.98322   -79.547458    12550.799 
28700        0.9697028581265008107 10.193033723802439994 0.99735449735449732689 65 -291.94241965377381121
   28700    284.51959    6.0781589    59.552706   -163.03139   -609.14554    12550.799 
   28710    272.33523    4.7810154    57.669675   -164.80382     -1926.17    12550.799 
   28720    255.99736    5.8397517     58.88705   -165.74058    -2512.041    12550.799 
   28730    268.38845    6.0845455     58.82403   -165.35699   -1674.3627    12550.799 
   28740    270.93337    6.8207554    56.552715   -164.29613    2872.2356    12550.799 
   28750    281.85533      8.29571    57.734789   -162.04337    3610.9361    12550.799 
   28760    280.13246    8.5891275    57.607434    -158.4229    1197.2642    12550.799 
   28770    284.23836    8.5840909    64.940346   -152.53295   -1168.1129    12550.799 
   28780    312.72172    6.5722852    59.095553   -145.90569   -3286.2453    12550.799 
   28790    336.55597    6.1427727    55.242353   -140.44851    487.22007    12550.799 
28800        0.97873305483261086035 10.11800973404828774 1 66 -283.80459974957136637
   28800    323.59763      5.56063     58.20738   -137.18797    1699.0009    12550.799 
   28810    316.47835    3.6261391    62.912197   -135.63274    661.98162    12550.799 
   28820    313.81226    3.3182665    63.923923   -135.12305   -1366.2173    12550.799 
   28830    288.37669    4.6442868    63.103872   -135.27991   -732.62535    12550.799 
   28840    317.80454    5.0808033    61.180616   -135.93978   -291.84713    12550.799 
   28850    306.72752    5.2570672    69.143201   -136.37425    1126.8795    12550.799 
   28860    317.00699    8.2264466     54.82905   -137.49215   -2340.5044    12550.799 
   28870    286.14269    10.416369    70.271322   -139.16484    -269.2902    12550.799 
   28880    302.27925    11.053702    55.666443   -140.93934    639.88749    12550.799 
   28890    285.92356     9.491447    68.198701   -142.93376    2473.4448    12550.799 
28900        0.98193645732360990142 10.107517211108667965 1 64 -292.60277178598573755
   28900    326.26021    8.4310663    58.548685   -144.77978    2752.3885    12550.799 
   28910    279.95793     5.775234    66.602208   -147.32128    1664.3589    12550.799 
   28920    298.91682    3.3943814    69.417331   -149.84445    1985.3733    12550.799 
   28930      301.697    3.3570994    61.295118   -153.12537    476.61021    12550.799 
   28940    308.63554    3.9328194     50.45287   -156.44569   -3450.5308    12550.799 
   28950    298.97988    5.3099223    54.450913   -159.86912   -1149.9485    12550.799 
   28960    289.70175    7.2018471    54.293567   -162.60652   -1895.6759    12550.799 
   28970    289.43932    7.1162015    57.091442   -165.24891    2829.4831    12550.799 
   28980    286.12593    7.3174969     58.21682   -167.36067   -543.84887    12550.799 
   28990    296.18044    7.0615696    54.579711   -168.79488    512.23989    12550.799 
29000        0.98322353265304096581 10.143865873310339509 1 68 -295.5344057044865167
   29000      277.667    7.5376379    52.013758   -169.72818   -1858.6793    12550.799 
   29010     279.6854    8.7544801    48.757838   -170.07602   -726.62395    12550.799 
   29020    262.62622    11.259656    60.551975   -168.89219    690.20514    12550.799 
   29030    302.68357    12.501379    53.752823   -166.93664    1310.3076    12550.799 
   29040    307.29494    13.912781    59.039099   -164.67717    308.26573    12550.799 
   29050    320.81053    12.246815    51.626545   -162.62866    41.122084    12550.799 
   29060    328.63131    9.0955122    51.928089   -160.91736    -708.9718    12550.799 
   29070    333.02666    5.6743831    48.012706   -159.50071    3225.5765    12550.799 
   29080    296.19511    4.4886954    50.742864   -159.02288   -217.13218    12550.799 
   29090    278.10928    4.1182072    59.685624   -158.23731    944.36621    12550.799 
29100        0.98035508873573229405 10.152551611038470369 1 68 -291.65544624095042536
   29100    298.75173    3.9045382      56.0539   -156.29608    -1235.003    12550.799 
   29110    317.32062    5.6966493    53.614681    -154.4404    262.95088    12550.799 
   29120    325.67962    6.6957534    57.190928   -152.75453     765.2931    12550.799 
   29130    294.38716    8.6677438    56.983262   -151.88806   -1940.9123    12550.799 
   29140    293.00031    9.7978992    61.292528   -151.07428   -2394.7784    12550.799 
   29150    298.39511    10.997158     62.30935   -151.02329    789.69485    12550.799 
   29160     296.5963    11.977194    62.533749   -150.72556    456.62493    12550.799 
   29170    321.64387    9.0372976    58.530054   -150.81269    1645.2659    12550.799 
   29180    318.74507    6.1646835    61.291179   -151.75013   -2286.8079    12550.799 
   29190    320.04797    5.4584089    55.933832   -152.54734    1261.3422    12550.799 
29200        0.97608378314154176092 10.172194497403079794 1 68 -282.88676963067024417
   29200    285.59094    5.1027162    69.089501   -153.49033    151.15334    12550.799 
   29210    293.54485     6.427743    54.263432   -154.61468    544.55449    12550.799 
   29220    262.13925    8.2044228    64.637801    -155.3014   -509.30867    12550.799 
   29230    294.71904    10.019556    49.533154   -155.06274    1470.1194    12550.799 
   29240    287.97302    8.2825946    58.765305   -154.26417    1300.8106    12550.799 
   29250    284.12741    5.6968575    60.770488   -152.91723    353.58677    12550.799 
   29260    280.99022    5.0742726    59.054223   -151.27036   -1810.1096    12550.799 
   29270    304.53632    4.6445464     54.81395   -148.97294    1287.3265    12550.799 
   29280    296.35042    5.5146327    64.851753   -146.18331   -2858.5974    12550.799 
   29290     332.4788     7.245024    53.373954   -143.12819   -609.53887    12550.799 
29300        0.97067652474299015442 10.205301963263453402 0.99735449735449732689 70 -282.61360321186168676
   29300      313.566     8.084877    65.277232   -140.54214   -2944.9829    12550.799 
   29310    318.65931     5.388523    61.875128   -139.05734   -726.83171    12550.799 
   29320    298.41432    4.6403653     70.35356   -138.25176    1109.2825    12550.799 
   29330    303.48803    4.1385289    64.412025   -138.13918     279.3277    12550.799 
   29340     320.2522    4.1377268    59.333438    -138.2416    1486.8647    12550.799 
   29350     332.6535    2.5118742     57.25391   -139.11561    2395.3128    12550.799 
   29360     317.8069    2.4451885    65.174714   -140.39999    1387.2152    12550.799 
   29370    286.69026    4.3413704    63.215439   -142.92933   -407.47119    12550.799 
   29380    284.49903    6.9291286    56.169693   -145.72022   -2565.3763    12550.799 
   29390    284.10209    5.9725692     58.60124   -148.30078   -2323.1633    12550.799 
29400        0.96725606827179366753 10.198580828110225482 1 69 -287.16859413026350012
   29400    301.30413    6.1961978    55.278479   -150.65278    54.333642    12550.799 
   29410    303.31588    6.0983234    60.324454   -153.23412    1200.0262    12550.799 
   29420    290.82415    7.5522628    58.145745    -156.9553    4019.1721    12550.799 
   29430    286.08739    5.0415272    57.408325    -160.3555    1450.1045    12550.799 
   29440    291.99811    4.6814564    52.587372   -163.67786   -1748.5216    12550.799 
   29450    270.34223    5.6888898    56.804923   -166.61978   -230.71826    12550.799 
   29460    268.69549    4.2156395     54.68742   -168.96578   -2151.0796    12550.799 
   29470    259.51612    4.1769918     54.38336   -170.54135   -176.54462    12550.799 
   29480    277.03462    6.5000466    50.372266   -171.04703    -255.3361    12550.799 
   29490    296.81366    8.9008777    47.405318   -170.76046   -744.21515    12550.799 
29500        0.96268857023472775847 10.214561308313049537 1 69 -296.93910082657629346
   29500    281.43291    12.202213    47.301076    -169.4266   -753.42383    12550.799 
   29510    269.65242    9.9257209    52.482659   -166.36883   -1731.2522    12550.799 
   29520    293.59273    10.093948    52.161385   -160.70637    1611.0262    12550.799 
   29530    306.80283    10.612837    57.170499   -153.06649    772.33396    12550.799 
   29540    300.38048    8.8913422    58.970104   -146.53327   -1528.1923    12550.799 
   29550    316.81807    10.239203    62.252935   -142.58475   -1089.6938    12550.799 
   29560    306.11048    10.431014    64.482282   -139.86639   -361.37568    12550.799 
   29570    303.14231     9.628163    65.171817   -138.43314   -492.83766    12550.799 
   29580    313.56358    11.846583    66.688774   -137.38962    351.62592    12550.799 
   29590    300.90258    10.831355    70.944477   -137.25905   -188.37562    12550.799 
29600        0.97537181035234199467 10.157807346257209602 1 70 -282.57261895547372887
   29600    320.25322    14.312371      62.4891   -137.47129    1502.7573    12550.799 
   29610    313.19636    12.717744    65.846068   -139.05936   -185.10755    12550.799 
   29620    320.39541    13.080446    59.261569   -141.90131    402.59231    12550.799 
   29630    313.41491    9.8110709    69.842029   -145.01625    1457.0302    12550.799 
   29640    285.02192    7.0115986    66.999985   -148.37657    834.26272    12550.799 
   29650    287.36496    7.1298247    54.994022   -152.31039   -726.14663    12550.799 
   29660     293.8908    9.1443143    51.604565   -154.67964   -3035.5942    12550.799 
   29670    271.29168    9.3611769    61.472264   -156.05716   -1022.0505    12550.799 
   29680    269.43254    6.9808074    63.068587   -156.92811   -1493.0696    12550.799 
   29690    287.90728    5.9891493    58.368591   -156.68121    1273.2928    12550.799 
29700        0.97934054448039919993 10.137917230176881844 1 71 -294.62316890107103973
   29700    304.81404    8.5962091    50.539807   -156.51707    2015.1065    12550.799 
   29710    279.59312    6.3640519    59.981031    -156.7859    2463.5019    12550.799 
   29720    282.05283    5.8239433    59.932163    -155.9844    411.21348    12550.799 
   29730    288.05013    6.2705346    58.889311   -154.52823   -1180.1985    12550.799 
   29740    285.37409    6.9010462    57.687046   -152.56934   -3247.6137    12550.799 
   29750    313.41715    7.8864793    59.351109   -148.77057   -1207.6858    12550.799 
   29760    320.81135    7.8538228    66.588314   -143.96042    545.41389    12550.799 
   29770    345.06282    8.6615392    53.777869   -138.58922    1523.5211    12550.799 
   29780    317.07067    7.2808206    67.305335   -133.45961    3614.9102    12550.799 
   29790    339.75351    8.3716173    64.115269   -129.21711    942.59948    12550.799 
29800        0.97840104899704727348 10.113729294015556093 1 71 -276.68075855033077914
   29800    331.71571     6.433318    62.542979   -126.38597    444.92504    12550.799 
   29810    314.75275    5.3776713    71.132489   -124.25951   -242.02455    12550.799 
   29820    309.23319    4.3597441    69.065731   -123.04909   -387.26447    12550.799 
   29830    328.15623    4.6841358    58.293852   -122.79664   -2859.7939    12550.799 
   29840    312.80377    8.2909148    60.893289   -123.29231   -2378.0495    12550.799 
   29850    291.71987     8.793327    71.259135   -124.19015   -541.82569    12550.799 
   29860    307.07713    9.1811897    60.185971   -126.14857    2713.9573    12550.799 
   29870    297.80156    9.0117876    65.618653     -129.555    1773.2332    12550.799 
   29880    316.73322    9.0586989    54.750197   -134.64117    2660.8164    12550.799 
   29890    306.74529    7.0232339    58.792233   -140.82332   -1928.4142    12550.799 
29900        0.98260172770655529462 10.123052795741489973 1 72 -289.10964949136956648
   29900    312.64771    7.7552546    56.339869   -147.45425    542.05194    12550.799 
   29910    290.86432    9.3939014    63.850717   -152.83596   -1947.6668    12550.799 
   29920    317.83027    11.556618    49.558334    -157.3915    868.06936    12550.799 
   29930    297.40237    9.6716001     56.09764   -161.10531    2095.3397    12550.799 
   29940    277.02124    8.7908793    57.413476   -163.67532    124.03186    12550.799 
   29950     272.8539    8.3446348    55.885157   -165.14657   -1140.5517    12550.799 
   29960     284.0475    7.2797625    54.180065   -166.01885   -2565.2625    12550.799 
   29970    288.03265    6.8235794    56.519786   -166.76085   -1750.1444    12550.799 
   29980    282.10468    4.6529606    55.634674   -167.23459    1784.5972    12550.799 
   29990    251.75471    5.9277083    64.916331   -167.34137    2131.0017    12550.799 
30000        0.98713343494170147085 10.115027620726852575 1 73 -302.11021818098191716
   30000    299.79548    6.9796416    50.444041   -166.27794    1609.8376    12550.799 
   30010    301.86539    8.4437123     52.04251   -165.11452    -1751.925    12550.799 
   30020    279.85797    6.6258637    50.538377   -164.04463   -1763.8663    12550.799 
   30030    260.54098    7.2336834     55.23683   -161.86539    1627.5212    12550.799 
   30040    289.09774    8.3747532    52.648463   -158.19123    1749.1719    12550.799 
   30050    309.73629    4.6256495     50.11468   -153.02174    397.19826    12550.799 
   30060    312.15269    3.6233405    53.424109   -148.58642    112.45478    12550.799 
   30070    292.93522     4.159068    60.234607   -144.71481   -584.00476    12550.799 
   30080    340.19929    3.9317261    51.417257   -141.02887    336.02599    12550.799 
   30090    344.79058     5.845879    51.646397   -139.13726   -1268.7398    12550.799 
30100        0.98170432683694153209 10.128223864692863287 0.99470899470899465378 68 -287.97594033841158989
   30100    329.32367    8.1113495    57.852292   -138.76494   -1254.7001    12550.799 
   30110    328.36763    10.847141    54.616142   -139.68349   -1145.8692    12550.799 
   30120    314.16629    8.5351646    59.786358      -141.17    1514.9871    12550.799 
   30130    301.58234     8.335707    60.106175    -143.1579    2708.6979    12550.799 
   30140    304.10398    10.301748    55.351607    -145.1182    2304.9713    12550.799 
   30150     333.6087    9.0577059    52.707798   -146.82856    1114.5261    12550.799 
   30160    310.89099    6.1244501    55.056986   -149.16643   -1793.1861    12550.799 
   30170    295.44005    6.1437906    58.377874   -150.83701    599.55453    12550.799 
   30180     277.0057    9.3285575     61.68799   -152.12804   -4107.4279    12550.799 
   30190    289.68293    10.201669    57.570442   -152.96086   -3617.4525    12550.799 
30200        0.9801348162728547031 10.144626563353853044 0.99735449735449732689 69 -292.66193951783691318
   30200    308.28164    7.5231124     51.04415   -152.98473   -3363.4326    12550.799 
   30210    291.31296    7.4774579    50.525535   -152.79675    1769.5663    12550.799 
   30220    273.91098    7.1516231    63.088942   -152.00494    3244.2973    12550.799 
   30230    296.34237     6.343274    53.098413   -150.96111    2416.6667    12550.799 
   30240    309.63574    7.1972284    58.440191   -149.98621    774.45583    12550.799 
   30250    304.97027    6.6332364    56.535535   -148.80028   -155.27069    12550.799 
   30260    312.46454    4.7119398    53.157316   -147.81914   -3637.7669    12550.799 
   30270    317.06027    5.0428641     59.30812   -147.13231    1141.5703    12550.799 
   30280    313.08155    5.8424107    55.627542   -146.85476   -648.04291    12550.799 
   30290    305.75638    6.1951537    59.343372   -146.29372   -384.80653    12550.799 
30300        0.98346510785549967615 10.128353796302016931 1 66 -292.06255986285100334
   30300    322.85078    6.9594875    55.098951   -145.78432   -1140.4458    12550.799 
   30310    316.68863    9.1057172    53.175052   -146.01162    2244.2928    12550.799 
   30320    311.29923    9.3526792    56.903601   -146.83977    2666.0667    12550.799 
   30330    296.34834    10.402814    56.552656   -148.11705   -706.71606    12550.799 
   30340    291.63939     7.175133    56.041314   -148.77917    1278.7134    12550.799 
   30350    296.88615    5.7759437    55.873442   -149.90752    1129.2125    12550.799 
   30360    290.15354    6.7750221     58.13298   -150.50368    636.06617    12550.799 
   30370    270.32957    8.5492021    57.272034   -151.26136   -3716.4939    12550.799 
   30380    301.92936    7.1202487    57.312819   -151.20292   -730.95994    12550.799 
   30390     315.1168    7.2842656    48.304156   -150.95731   -1954.2418    12550.799 
30400        0.98435447258178565555 10.126165692702247867 1 69 -281.33624669573362098
   30400    288.19244    7.4875788     52.36711   -150.76112    -916.8189    12550.799 
   30410    293.31417    8.9596312     55.26536   -150.19155     947.5912    12550.799 
   30420    317.28534    9.6017702     56.64922   -148.81255    2374.1207    12550.799 
   30430    334.77341    12.479641    49.519431    -147.8091   -160.51501    12550.799 
   30440    312.21126    12.782811    56.840044   -147.21747    1020.7592    12550.799 
   30450    315.48351     12.17378    57.395139   -147.46819    2315.3183    12550.799 
   30460    329.16431    9.8437301    57.142511   -148.95914    160.84204    12550.799 
   30470    320.04947    7.8118955    55.588553   -152.37685   -1411.2145    12550.799 
   30480    302.24848    5.9328044    51.721514   -155.99987   -1303.5906    12550.799 
   30490    271.22041    5.6144056    59.522446   -159.51757    1070.3524    12550.799 
30500        0.9843895254037003939 10.124249374980674787 1 67 -286.52702649777575061
   30500    274.38882    4.3720111    54.221596   -162.20608    988.80329    12550.799 
   30510    263.41372    4.7686421     47.79991   -164.28395   -478.30222    12550.799 
   30520    283.45588    4.9790218    47.944577   -164.98823    715.42584    12550.799 
   30530    289.16691    4.4010786    52.142536   -164.54288   -905.13263    12550.799 
   30540    305.46184    4.6162683    47.345468   -163.62862   -1095.7443    12550.799 
   30550    296.81673      4.64069    51.268023   -162.73871    -941.7422    12550.799 
   30560    279.51606    4.7366991    53.707091   -161.63124    639.89999    12550.799 
   30570    297.91877    3.9767721    48.662435   -158.79519   -1220.2845    12550.799 
   30580    307.56265    4.4300777    56.224296   -154.72004    1017.5782    12550.799 
   30590    327.86217    6.0835201    58.279151   -150.36382    906.95866    12550.799 
30600        0.97492090878889836603 10.149432918901235112 1 67 -287.16791640639104344
   30600    312.56767    7.5772031    53.911073   -145.54878    2418.8628    12550.799 
   30610    317.45821    8.1596594    58.247129   -140.97537   -128.85107    12550.799 
   30620    314.26106    9.3902164     58.53528   -137.20846    -2308.115    12550.799 
   30630    313.06799    11.384078    61.105001   -134.06354   -895.43009    12550.799 
   30640    319.17076    9.9142311    56.787535    -132.2006    -777.2588    12550.799 
   30650    325.55878    8.5406175     54.24852   -130.51523   -378.44859    12550.799 
   30660    351.13982    6.5880065     52.35472   -129.44757    819.76351    12550.799 
   30670    318.92869    7.9862329    63.408887    -129.6385    3216.3494    12550.799 
   30680    302.83013    9.2011373    62.840365   -130.85775    566.11748    12550.799 
   30690    289.69443    8.1364121    70.302334   -132.65148   -609.56668    12550.799 
30700        0.9608930738719223541 10.229674590188462702 0.99470899470899465378 70 -287.58350762154276481
   30700    335.13442    7.2185177    56.642283   -135.73975   -2853.4692    12550.799 
   30710    337.29895    7.8151095    55.647238   -141.38138    81.987818    12550.799 
   30720    309.62061    6.6571165    54.335258   -149.80435    1683.0986    12550.799 
   30730    257.87625    6.8400063    63.116084   -157.23856    3132.0081    12550.799 
   30740    275.33613    5.2579488    53.095743   -161.02461   -1192.1809    12550.799 
   30750    284.02492    4.9359462    50.072897   -162.57356   -1063.5022    12550.799 
   30760    272.00898    4.2761592    56.788958   -162.84162   -1642.7156    12550.799 
   30770     274.1409    4.1874962    53.751444   -162.31591   -486.47023    12550.799 
   30780    305.26187    3.6780919    49.347466   -161.40438    473.69178    12550.799 
   30790    317.39442    3.3323065    49.256834   -159.75196   -1977.3067    12550.799 
30800        0.95381251886009632557 10.257708068005143787 0.99735449735449732689 64 -290.659359570037509
   30800    291.68477    3.2828067    59.686861   -158.50191    948.71661    12550.799 
   30810    305.06162    3.9645182    52.669553   -157.49778    -52.84863    12550.799 
   30820    302.48112    6.1897321    49.475603   -157.27475    357.16347    12550.799 
   30830     281.5285     4.859777    54.657434   -156.77357   -662.23237    12550.799 
   30840    272.48452    5.6106319    54.466195   -155.72879    1719.3272    12550.799 
   30850      275.423    7.7288602     57.30167   -153.83316    -569.1825    12550.799 
   30860    313.07064    8.1982553    48.960824   -151.22032   -3073.1312    12550.799 
   30870     324.5436    8.7619016    52.139511    -148.0923   -2433.0417    12550.799 
   30880    322.35542    7.4904733    57.815441   -145.76915    457.70209    12550.799 
   30890    301.64782     6.666422    59.763342   -144.15436    1166.1366    12550.799 
30900        0.95696903560544044343 10.252741193661963237 1 65 -281.50587958664613097
   30900    305.70802    5.9568164    54.745604   -142.99473    1563.6585    12550.799 
   30910    314.94133    3.9960877    52.047516    -141.1519    1615.8912    12550.799 
   30920    301.55278    3.2921464     58.51757   -139.51807   -2399.5125    12550.799 
   30930    326.16826    4.2555345    50.196503   -136.94367   -2895.3335    12550.799 
   30940    304.01865    5.2080263    62.942579   -134.78438   -2477.3184    12550.799 
   30950    292.43084    7.3466844    58.743826   -132.86824   -1627.8886    12550.799 
   30960    298.20907    9.2085219    50.059787   -130.20603   -373.00969    12550.799 
   30970    314.66991      10.0206    50.787782   -126.27322   -335.68019    12550.799 
   30980    324.00814    8.0201154    61.924084   -121.25062    2379.4695    12550.799 
   30990    334.95801    5.3283387    60.261569   -116.21567    175.94243    12550.799 
31000        0.95825594289204729659 10.177268285315134833 1 64 -259.88349177484013808
   31000    325.21914    4.4636175    59.207847   -112.53218    212.58457    12550.799 
   31010    323.53446    6.5259053    58.650741   -109.63972    1946.4407    12550.799 
   31020    310.10047    6.1795571    73.385996   -108.18969    2464.4389    12550.799 
   31030     338.8531    7.0629128    57.527584   -107.32788   -502.74859    12550.799 
   31040    327.93027    7.6242561    65.150255   -108.20414   -1059.6588    12550.799 
   31050    336.51335    8.1923213    61.523324   -110.69753    975.08505    12550.799 
   31060    316.95519    9.3093925    65.774805    -115.2872    2453.1348    12550.799 
   31070    307.37176    7.3468062    67.693724    -120.8624     302.5329    12550.799 
   31080    293.61877     7.473005    52.493244   -127.58717   -1275.8487    12550.799 
   31090     307.7929    7.8455302    55.181974   -133.58056    1733.5774    12550.799 
31100        0.96029081830335361047 10.114731317271562716 1 67 -277.15847247556496313
   31100    307.61201    8.1776107    55.263181   -137.78466   -1037.3916    12550.799 
   31110    291.58015    6.9354817    63.987074   -140.18099    819.95419    12550.799 
   31120    303.02963    5.5913393    57.066853   -141.72567   -2684.0757    12550.799 
   31130     291.5519    4.5501148    63.086625   -143.27383   -296.78949    12550.799 
   31140    329.61051    4.5199478    52.581589   -143.99132   -552.54227    12550.799 
   31150     308.7761    5.1718934     54.72487   -145.35653     106.3034    12550.799 
   31160     318.8352    6.9744003    51.081555    -147.0401    1355.4482    12550.799 
   31170    281.39053    9.3119269    57.185433   -148.75126    3634.0274    12550.799 
   31180    286.57564    8.4190612    61.220085   -150.52045    2729.7273    12550.799 
   31190    265.79059    10.013184    63.338421   -152.07797    1542.1138    12550.799 
31200        0.96400158721889950275 10.088779870818775919 1 68 -277.47374711723534801
   31200    274.48512    9.1327716    50.926887   -153.10917   -4061.2407    12550.799 
   31210     267.7291     6.926648    55.645474   -152.87968   -2466.4193    12550.799 
   31220    294.45975    6.1857018    48.267967   -151.71441   -2863.2025    12550.799 
   31230    295.07186    6.6273498    51.610619   -149.41773   -495.79928    12550.799 
   31240    322.24245    5.8475422    48.132884   -146.05665    619.23123    12550.799 
   31250    316.86086    4.6855212    56.575018   -142.63194   -958.00156    12550.799 
   31260     322.2316    5.5215161    59.976162   -140.28644    1282.2969    12550.799 
   31270    315.23132    8.5338625    51.502761   -138.17129   -1516.7159    12550.799 
   31280    303.76061    9.7878516    62.087717   -136.22576    2866.5319    12550.799 
   31290    317.15806    8.7383577    55.773316    -134.3759     1938.938    12550.799 
31300        0.96902943256105911196 10.03703263040899607 1 67 -268.19797125996166187
   31300    299.96484    8.0887311    53.992774   -132.28896    43.823543    12550.799 
   31310     310.8585    8.1896941    66.027192   -130.08987     3221.722    12550.799 
   31320    298.48575    8.2214474    67.218692   -128.30441    604.60923    12550.799 
   31330    343.14631    6.8515673    54.094222    -126.3543    1575.1828    12550.799 
   31340    350.28399    6.2090044    49.734587   -125.35053   -1170.1049    12550.799 
   31350    315.96072    6.7858814    50.847625   -125.86135    -3061.192    12550.799 
   31360    302.05323    5.7017307    60.730375   -126.67513    252.71369    12550.799 
   31370    311.97453     4.812869    53.821802   -127.24047   -1805.4715    12550.799 
   31380    313.01501    5.9456963    58.481532   -127.56364    399.18502    12550.799 
   31390    300.29313     4.718779      58.2043   -129.12622   -764.12419    12550.799 
31400        0.97286100642246242653 10.046456390692192429 1 65 -272.78446916587830628
   31400    312.78179    4.3809658      56.1887   -131.06832    248.49788    12550.799 
   31410    306.01706    6.1998312    64.343875   -133.77637     2259.922    12550.799 
   31420    296.69603    7.2199799    58.787078   -136.70984    1375.8793    12550.799 
   31430    312.52758    8.0207948    53.007449   -140.53843   -1407.5722    12550.799 
   31440    301.58141      6.77861    56.954388   -144.85862   -531.37023    12550.799 
   31450    288.45784     5.856842     49.74642   -148.93014   -1633.0651    12550.799 
   31460    279.66192    6.7325741    58.314831   -151.78471     1948.086    12550.799 
   31470    282.58481    8.8474375    54.229951   -154.04824   -1146.9441    12550.799 
   31480    276.02186    10.945555    50.899789   -155.64639     2052.497    12550.799 
   31490    281.56855    7.8705075     58.62048   -156.19338    1279.7252    12550.799 
31500        0.96851864611887605871 10.061030127068201878 1 67 -283.67363071537255337
   31500    281.18075    9.2446951    53.610471   -156.27538    1376.0012    12550.799 
   31510    282.54857    9.5813446    54.055926   -155.30742   -147.63577    12550.799 
   31520    307.86472    7.6611879    51.538604   -154.19373   -198.84002    12550.799 
   31530    290.08116    7.4805992    62.165633   -152.98379   -431.42616    12550.799 
   31540    307.34936    8.2525555    52.864593   -151.28402   -1152.5986    12550.799 
   31550    286.51482    8.0223591    55.803845   -149.23097   -2166.5695    12550.799 
   31560    286.54177    7.3724589    54.462287   -146.70881   -1240.7952    12550.799 
   31570     293.4322    6.1927477    55.483806   -143.29278    1449.6336    12550.799 
   31580    317.51584    7.1683626    53.213179   -138.62063    4730.2711    12550.799 
   31590      328.507    8.4826437    48.814391   -133.35895     1839.987    12550.799 
31600        0.96601865770449546478 10.076655044595430155 1 67 -270.89150663166788036
   31600    314.28116    10.402149    57.584014   -128.49601   -3289.0854    12550.799 
   31610    336.49461    8.9673087    56.563421   -124.70121   -1825.2649    12550.799 
   31620    342.43808    6.5614555     56.79097   -122.31182    -549.9374    12550.799 
   31630    354.07067    7.8427861    56.666855   -121.88401    1737.0891    12550.799 
   31640    310.04017    8.3966264    67.131853   -122.46075    2803.2375    13074.798 
   31650    331.40169    8.9160048    54.324844   -124.11838   -1300.0473    13074.798 
   31660    316.82519    5.0506494    56.020561   -126.23625   -2986.7786    13074.798 
   31670    341.05516    4.9475537    47.403812    -128.9816   -1475.1954    13074.798 
   31680     316.0339    6.1104286    60.841118   -131.78959     853.7957    13074.798 
   31690    291.57799    6.3589572    63.582703   -134.77873    884.47987    13074.798 
31700        0.96248767198700557746 10.113192170744607523 1 68 -265.83032990701792642
   31700    285.85476    9.8021193    53.978305   -136.31436    1181.0281    13074.798 
   31710    295.07725      8.69571    53.341228    -137.1966   -604.86165    13074.798 
   31720    285.79351    7.4964523    54.024239   -137.05869   -641.41915    13074.798 
   31730    275.58415     5.967591    62.495064   -136.85186   -629.67337    13074.798 
   31740    299.38708    4.9696612    55.549766   -136.08212     1523.363    13074.798 
   31750    305.12036    5.4661592    53.403547   -135.32001   -871.42137    13074.798 
   31760    315.54224    3.7977174    51.883708   -133.76141    145.64943    13074.798 
   31770    294.38338    3.2105221    64.626533   -133.73052    1347.6615    13074.798 
   31780    294.64704    5.9220938    55.261838   -132.94826    257.88014    13074.798 
   31790    275.33035    7.3876331    63.222652   -132.49021   -760.88652    13074.798 
31800        0.95827237206569149119 10.129826607301197328 1 66 -269.06559800952754813
   31800    301.45549    6.0446734    59.813304    -132.4812   -839.52669    13074.798 
   31810    320.68048    7.7709967    60.283311   -132.05742    1754.5161    13074.798 
   31820    338.38437    8.3836445    47.953051   -132.33825    2997.2582    13074.798 
   31830    315.53891    9.5274688    58.054808   -133.56348   -742.14527    13074.798 
   31840    312.24183    8.1267118    52.799694   -135.17891    -2022.579    13074.798 
   31850    329.20885    5.7184278    48.493165    -136.9359   -3253.1856    13074.798 
   31860    323.92585    4.9001259    52.384885    -140.2837   -945.44298    13074.798 
   31870     303.7174    5.6254877    56.487094   -144.35732   -1292.7343    13074.798 
   31880    291.69353    6.6209565    55.663322   -149.13773    311.37442    13074.798 
   31890    280.16405    4.8202976    54.608966   -154.58704   -856.16627    13074.798 
31900        0.96188767438654276809 10.136534526883211882 0.99735449735449732689 64 -285.22278237328407613
   31900    280.47505    3.9043244    49.877565   -158.14427   -37.452601    13074.798 
   31910    259.08904    5.6375655    57.097284   -160.19058    1118.2301    13074.798 
   31920    273.30063    7.3007505    52.877378   -161.37566   -539.62864    13074.798 
   31930    269.50588    7.0364934    56.032332   -161.73525   -1709.6169    13074.798 
   31940     274.1182    6.1765853    55.805264   -160.93566   -2172.4396    13074.798 
   31950    272.79214    6.9155184    56.348613   -159.74648    -75.20295    13074.798 
   31960    279.14668     8.305384    54.773636   -158.34301     1332.319    13074.798 
   31970    289.36326    8.2937109    49.957363   -156.63122    1272.9743    13074.798 
   31980    303.47467    6.4642502    55.548999   -155.20562    2666.9186    13074.798 
   31990    312.79197    5.0535357    48.221441   -154.13417    2692.9975    13074.798 
32000        0.97209625977531988195 10.125949249743259273 0.99735449735449732689 66 -293.58373252070668968
   32000    310.08216    5.6039113     55.11665   -153.09074    803.97492    13074.798 
   32010    302.67867    6.7035602    50.821644   -152.34846      -998.93    13074.798 
   32020    264.61933    7.4338443    63.026717   -151.99859   -3638.0339    13074.798 
   32030    292.13054    7.9218664     48.11371   -151.29352   -4594.4853    13074.798 
   32040     288.3397    7.7308271    59.302629   -150.13018    -1855.132    13074.798 
   32050    300.11386    9.6235073    51.448433   -149.27908    2286.9748    13074.798 
   32060     286.7311    10.827416    58.022502    -148.7587    1410.7335    13074.798 
   32070    296.49607    9.5777345    52.696881   -147.82598    482.70504    13074.798 
   32080    307.57402    8.3345522    59.042343   -147.00365   -591.98795    13074.798 
   32090    290.39618    6.8285158    55.933458   -146.32662   -1754.8879    13074.798 
32100        0.97447318130421201055 10.088112275053132905 0.99470899470899465378 64 -265.71754936315926443
   32100    264.33705    4.3971683    54.967271   -145.95089    1970.1508    13074.798 
   32110    266.07351     4.040807    51.290051   -144.63653   -643.74497    13074.798 
   32120    267.05353    6.2518948    53.015034    -141.8303    1258.3378    13074.798 
   32130     261.9014    6.7747259    71.962226   -138.68138     1182.465    13074.798 
   32140    289.94579    6.2838996    55.126482     -135.126    1284.2622    13074.798 
   32150    283.79212    6.3553415    63.555383   -132.17556   -101.80588    13074.798 
   32160    319.70512    5.8060023     57.91045   -130.28645    512.62153    13074.798 
   32170    335.57444    5.0896778    54.887827   -129.11397   -1865.2702    13074.798 
   32180    330.46122    5.4477261    58.997369   -129.19964    223.13979    13074.798 
   32190    312.73707    8.2790306    65.008451   -130.57124    637.72917    13074.798 
32200        0.97645216545751412074 10.071293214433625351 0.99470899470899465378 69 -276.28076947102158556
   32200    317.69726    9.5965903    59.219935    -132.3375    195.96959    13074.798 
   32210    334.32179     9.892275    60.020577   -134.25076   -1318.1616    13074.798 
   32220     334.0082    12.069372    58.699936   -138.36352     63.33925    13074.798 
   32230    316.30204    12.013639    53.153661   -142.57107    1201.9612    13074.798 
   32240    301.94297    12.027567    48.533659   -145.79632   -334.45237    13074.798 
   32250    267.96985    12.371934    55.440296   -148.02967   -758.03057    13074.798 
   32260    286.02039    11.404399    56.555814   -148.99488   -688.08043    13074.798 
   32270    292.53409    10.047587    54.323183   -149.44033    519.72506    13074.798 
   32280    300.94078    10.465966    54.653156   -149.52382    2646.7643    13074.798 
   32290    282.46038     11.52365    58.413889   -149.50514    1145.8306    13074.798 
32300        0.97962443615538441488 10.079241144730056945 1 65 -280.99541843171596156
   32300    291.25125    13.266694    56.247247   -149.03439    2496.8652    13074.798 
   32310    309.94995    11.561205    53.485994   -148.61864    1255.4218    13074.798 
   32320    300.60053    9.3708584     54.16781   -148.03036   -2082.5643    13074.798 
   32330    291.47928     11.08336    63.649323   -147.69879   -1784.9165    13074.798 
   32340    313.29149    11.498924    57.352239   -147.45971   -3332.7197    13074.798 
   32350    302.19322    12.339727    64.502417   -148.41004    1070.7782    13074.798 
   32360    328.52323     10.05043    51.352417    -150.6482    1747.1326    13074.798 
   32370    308.18173    7.5387887    52.797058   -154.44356    2677.4068    13074.798 
   32380    286.03842    6.4794375    55.049303   -159.18641    1158.8322    13074.798 
   32390    274.88622    7.9982284    48.335597   -164.43011    1909.4139    13074.798 
32400        0.97897771416027601354 10.148392803726819622 1 67 -285.39055854583398286
   32400    256.75411    5.2126348    52.517492    -169.0596    -376.4545    13074.798 
   32410    267.23405    4.1843316    53.291855   -172.05983    162.14459    13074.798 
   32420    274.51005    4.7762881    47.572641   -174.20341   -1371.3776    13074.798 
   32430    267.30522    5.0501738    51.337707   -175.47774   -1240.4418    13074.798 
   32440     278.5734    5.1976473    46.889691    -175.0172   -2466.7509    13074.798 
   32450    254.07926    4.6644951    52.192885   -174.24937   -1694.6546    13074.798 
   32460     292.6462    4.5295813    46.722094   -171.61439    1472.3986    13074.798 
   32470    272.18816    4.9847706     57.50931   -169.07513     996.9911    13074.798 
   32480    291.79979     6.611612    46.626973   -166.28094    3268.6799    13074.798 
   32490    283.42866    7.5504919    51.436594   -163.76369   -1749.6379    12898.324 
32500        0.97260054657849293047 10.188193794489540878 1 66 -296.33335265779413703
   32500    297.06221    6.2862762    57.614283   -161.73948    93.962277    12898.324 
   32510    308.97308    4.7340521    55.438763   -160.73754   -1812.9107    12898.324 
   32520    316.10696    7.2373175    51.759883   -160.14385     172.5688    12898.324 
   32530    312.86884    10.187548    50.324914   -160.00506   -656.00239    12898.324 
   32540    297.14811    10.924218    44.353169   -159.49932     -2703.51    12898.324 
   32550    285.86327    8.1897537    58.674183   -158.93184    2199.4264    12898.324 
   32560    286.44602    6.6873998    52.106034    -158.1495   -1811.4786    12898.324 
   32570    286.13215    6.9695657    53.778083   -156.44857    70.147154    12898.324 
   32580    272.90195    7.7945723    57.849037   -155.07249   -948.02455    12898.324 
   32590    274.61622      6.87591     58.27573   -152.32476    1576.1634    12898.324 
32600        0.97548797103858686519 10.16107456824017774 1 69 -277.81380471559435819
   32600    284.50379    5.6562494    60.672372   -148.90994    436.92639    12898.324 
   32610     316.7076    6.9771825    51.901651   -144.91013   -1539.6137    12898.324 
   32620    320.28701    5.4954815    59.645907   -142.07817   -449.41217    12898.324 
   32630    319.91288    5.8879149    61.197415   -140.33553    1005.8456    12898.324 
   32640    313.22376    5.5571019    62.238902     -139.712    1693.7275    12898.324 
   32650    318.56945    4.7777205    59.738102   -139.94623    2378.8701    12898.324 
   32660    332.29569    5.8916347    50.709691   -141.04908   -308.51811    12898.324 
   32670    325.20203    6.2395514    55.924924   -142.62857    171.94337    12898.324 
   32680     302.9747    7.9622805    53.157438   -145.03168   -1114.8014    12898.324 
   32690    296.19975    8.3545763    54.816161   -147.99276   -1934.9554    12898.324 
32700        0.96996388829563973122 10.193446311162176698 1 68 -282.95223695519507601
   32700    291.58541    10.625454    56.586484   -150.83981   -1625.9475    12898.324 
   32710    290.18793    7.3314241     57.36677   -153.60205   -1430.0041    12898.324 
   32720     298.2865    5.9462922    55.558424   -156.64768   -430.29515    12898.324 
   32730    278.27571    5.1114337    56.986728   -160.37711   -69.028404    12898.324 
   32740    286.51531    4.9773197     45.97962   -163.80489   -346.15369    12898.324 
   32750    270.05783    4.4693026     49.81033   -167.10591    1573.7993    12898.324 
   32760     274.6449    5.5823631     49.52722   -169.84529    1535.2412    12898.324 
   32770    274.34724    10.298575    54.317534   -172.75557    2920.6883    12898.324 
   32780    273.42614    10.851619    48.398163   -176.57139   -1692.3395    12898.324 
   32790    277.79566    9.5087294    43.966459   -181.01246   -290.83514    12898.324 
32800        0.97462872553038693013 10.161916208480922919 1 73 -298.37882564777896732
   32800    248.89785    8.4804828    52.713481   -185.60741   -623.23978    12898.324 
   32810    264.76205    7.2315393    44.108359   -189.63006    1121.0804    12898.324 
   32820    245.45397    6.2342295    54.774857   -192.32195      120.381    12898.324 
   32830    270.22094    6.5525454    42.965104   -193.85443    841.21504    12898.324 
   32840    290.97461     7.908321    48.188919   -194.14863    563.92904    12898.324 
   32850    288.03631    8.8686546    41.537864   -194.10556    153.89735    12898.324 
   32860    264.96151    9.2280691     42.96966    -193.2421   -3227.2062    12898.324 
   32870    262.31551     8.338385    49.066554   -190.72459   -682.43068    12898.324 
   32880    256.65691    8.5070644    53.659505   -186.07164    752.33007    12898.324 
   32890    262.01147     9.368067    56.036422   -179.69775     1030.105    12898.324 
32900        0.98099955518908799057 10.134330317126565291 1 70 -303.72501749090162093
   32900    288.65639     10.60866     52.82138   -172.93968   -567.60184    12898.324 
   32910    294.98406    11.871981    50.902831   -168.66912   -1488.6265    12898.324 
   32920    303.91482    9.5606264     50.48818   -165.56201    716.49895    12898.324 
   32930    292.14562    8.7087328    52.419644   -164.01775    1154.8784    12898.324 
   32940    269.55013    8.9806019    63.082818   -162.25048    2232.9996    12898.324 
   32950    282.49864    7.7533662    60.840244   -160.50658    705.66117    12898.324 
   32960    285.71641    5.5776056    59.647393   -158.84757    587.29267    12898.324 
   32970    290.60164    3.8963904    49.417242   -156.83108   -2639.3612    12898.324 
   32980    295.87214    4.0756572    56.599883   -154.43212   -2088.2414    12898.324 
   32990    298.77898    5.8013854    59.312551   -151.24105   -1103.1971    12898.324 
33000        0.98611236274315694494 10.119868761780745459 1 68 -292.24234670631824429
   33000    318.63628    7.1473086    55.256566   -147.87363   -645.88974    12898.324 
   33010    283.08419    7.4385074    68.080536   -146.00376    410.70141    12898.324 
   33020    304.40745    7.7105084    55.838383   -144.32901    734.41224    12898.324 
   33030    322.30754    7.8973248    51.997985    -142.8932    1276.0502    12898.324 
   33040    332.12396    4.5879777    54.801915   -141.18065   -1615.7048    12898.324 
   33050    293.62199    4.2377785    61.654084     -140.128   -3356.4176    12898.324 
   33060     291.9885    4.1051848    58.347775   -139.26877   -1464.8398    12898.324 
   33070    313.91173    6.3612177    61.292862   -138.15498    1718.9689    12898.324 
   33080    320.70681     7.494179    57.833494   -137.38917    2286.7532    12898.324 
   33090    321.69801    7.3673511    57.289405   -137.29604    2156.0867    12898.324 
33100        0.98769508264622385418 10.088711030803253266 1 71 -276.4267508789834551
   33100    304.15537    8.9939367    61.001153   -138.61909    2393.8018    12898.324 
   33110    322.81131    7.9096353    59.195933   -140.93717    616.16105    12898.324 
   33120    323.68298     9.370966     54.04914   -144.44212    1962.2769    12898.324 
   33130    280.43121    11.105063    66.032049   -149.24174   -3102.9017    12898.324 
   33140    299.27239    9.6668486    48.457192   -154.58928    783.65835    12898.324 
   33150    272.02998    8.8717007    62.010458   -159.59242    974.55884    12898.324 
   33160    308.05821    9.0589721    46.742906   -163.46477    3286.0878    12898.324 
   33170    286.56239    8.0236297    56.629767   -166.05484   -1640.8533    12898.324 
   33180    277.43702     7.418054    50.836076   -167.77939   -3211.6284    12898.324 
   33190    276.64294    6.1804652    52.729414    -169.0625   -1777.7616    12898.324 
33200        0.97985666295513762503 10.16873306346433381 1 67 -296.61541324607276238
   33200    280.21376    3.9822744    53.550972   -169.65529   -1086.5908    12898.324 
   33210    304.42801    3.6579856    46.980285   -169.27081    332.09435    12898.324 
   33220    314.23251    4.2197335    45.920487   -168.67162   -680.85769    12898.324 
   33230    303.28647    5.5206692    54.766148   -167.96403    1631.3278    12898.324 
   33240    303.64798    6.5360697    53.995096   -167.65968    2596.1395    12898.324 
   33250    299.26843    5.7387393    52.603085   -167.23904    198.54982    12898.324 
   33260     256.2154    7.3161258    58.698297   -166.57292   -707.66014    12898.324 
   33270    251.29884    7.9144548    52.979568   -164.74374   -2910.5305    12898.324 
   33280    273.26925    6.8712899    57.534391   -161.44448    1086.2937    12898.324 
   33290    314.27277    5.6629815    49.576848   -156.64609    1684.9176    12898.324 
33300        0.98270972026681879807 10.149460032154804523 1 70 -287.51023557035483691
   33300    298.66785    7.0453851    54.004211   -152.18887    24.355092    12898.324 
   33310    307.29373    6.7472527    47.461003   -146.99989    252.03935    12898.324 
   33320    293.25103    6.9404764     59.53269   -142.41571    1139.5832    12898.324 
   33330    301.58424    9.3480293    59.993894   -138.98846    11.944618    12898.324 
   33340    303.78479    10.277059    64.310149   -136.94562   -537.33556    12898.324 
   33350    311.97219    8.2043496    60.126386   -135.66167    -3144.191    12898.324 
   33360    320.90678    8.9332358    53.457488   -135.07826   -2242.8671    12898.324 
   33370    320.23589    8.0933662    55.563902   -135.47914   -1145.6276    12898.324 
   33380    324.92817    9.4725099    59.756216   -136.59972    4158.7797    12898.324 
   33390    299.64382    9.0296385    63.266664   -138.16924    1875.1792    12898.324 
33400        0.98055718624513155124 10.153331622994242522 1 69 -272.81882827082330323
   33400    293.25999     10.07937    67.511317   -139.94767   -190.73291    12898.324 
   33410    303.04648    11.223758    56.245242   -141.68517   -1353.3005    12898.324 
   33420    323.63643    11.199163     54.38717   -144.08075   -1291.4293    12898.324 
   33430    318.10773    8.9498612    48.607323   -146.56163   -116.52283    12898.324 
   33440    327.17773    7.4078924     50.95713    -148.8869     785.7648    12898.324 
   33450    299.31165    6.6182573    58.944527   -151.85175    2120.4841    12898.324 
   33460    322.82593    5.9153955      46.4771   -155.44803   -673.96263    12898.324 
   33470     297.2606    5.8927593    60.049851   -159.50414   -677.76379    12898.324 
   33480    301.40072    9.6390005    47.680825   -162.90474    390.26101    12898.324 
   33490    298.60604     7.278124    51.914031   -165.09991   -341.72213    12898.324 
33500        0.98461488093980353842 10.131889910448366621 1 67 -296.18752242387114393
   33500    284.54733    8.7084223    52.884569   -167.26393     663.0253    12898.324 
   33510    283.49727    7.8881405    50.526504   -168.14841   -2131.5681    12898.324 
   33520    286.07251    7.9334058    53.359806   -168.12621    3030.7438    12898.324 
   33530    276.82541    6.4563319    59.966567   -167.37037    2311.5741    12898.324 
   33540     289.0147    7.5260451    54.213956   -166.45877    755.08102    12898.324 
   33550    278.93078    9.0552306    55.815738   -165.07131   -1152.8907    12898.324 
   33560    270.56353    9.1381259    58.915242   -163.13284    717.79472    12898.324 
   33570    302.76942    8.6357003    57.801324   -161.21534   -291.95704    12898.324 
   33580    278.99905    9.7098364    63.248596   -158.76392   -1203.5642    12898.324 
   33590    305.81098    10.694591    53.172185    -157.2118    889.42921    12898.324 
33600        0.98132480150683454312 10.154092283242835748 1 66 -285.72668494986754695
   33600    287.33226    9.7051918    60.611184   -155.54129   -856.96142    12898.324 
   33610    319.55719    9.3912449    50.148449   -154.15829   -1531.1538    12898.324 
   33620     312.7648    8.2479892    56.097112   -153.20113    194.52984    12898.324 
   33630    281.33556    8.0409833    60.787199   -153.04714    981.12246    12898.324 
   33640    285.01733    7.1847204    58.430093   -152.36541    16.738956    12898.324 
   33650    305.45705    9.7548626    52.522798   -152.43043   -1308.9272    12898.324 
   33660    303.88118    10.111474    53.873686    -152.3946   -274.90806    12898.324 
   33670    309.81211    9.2714048    52.724416   -152.28517    2419.7049    12898.324 
   33680    289.97909    8.9089291     58.36971    -151.9352   -648.27875    12898.324 
   33690    300.30288    8.4106583    58.612152   -151.77563    2634.9745    12898.324 
33700        0.97917371623920967938 10.140774497773806573 1 69 -295.6996173934068679
   33700    316.82258    9.1744775    54.452621   -152.15265    -1332.777    12898.324 
   33710    321.76252    7.6792205    55.139667   -153.43293    -1027.117    12898.324 
   33720    313.23543    7.4465221    52.822571   -155.05344   -1921.7856    12898.324 
   33730    264.18067    7.7605935     57.28531   -156.79669     370.7094    12898.324 
   33740    286.33404    6.7936295    52.818252   -157.84898   -1506.6029    12898.324 
   33750    274.55444     6.382968    55.127871   -157.81934   -602.76988    12898.324 
   33760    276.89886    5.2023849    54.655506   -157.50101   -22.707242    12898.324 
   33770    291.02841    4.7831859    55.395823   -156.25074    1914.6123    12898.324 
   33780    296.32948    5.8645112    53.872308   -154.34411   -918.08633    12898.324 
   33790    299.00288    4.3488482    54.602587   -151.22769    576.85515    12898.324 
33800        0.97495136963766970695 10.173067569125928244 1 66 -285.03042338188026861
   33800    301.80644    4.6150415    59.500996   -148.28702   -3178.2046    12898.324 
   33810    307.72793    5.4946677    59.236742   -144.49443    437.72004    12898.324 
   33820    328.55692    5.0767273     61.15157   -140.44611   -680.85805    12898.324 
   33830       303.14    7.1761334    63.199068   -136.61708    3073.8106    12898.324 
   33840    315.82702    8.4102322    55.576362   -133.32387   -942.31788    12898.324 
   33850    308.25389    7.6963032    67.439207    -130.5328   -181.22732    12898.324 
   33860    306.66432    9.0224774    65.248631   -127.61077   -3524.5281    12898.324 
   33870    306.34447    8.4349266    66.280255   -124.65675    522.98238    12898.324 
   33880    318.50212    5.2014023    67.886895   -121.89918     503.6729    12898.324 
   33890    328.32737    7.1127178    66.669382   -120.91995    3137.5202    12898.324 
33900        0.9726876025235721146 10.171093444549180518 1 65 -272.8405443063796838
   33900    336.82784    6.0505833    63.183387   -120.22953    1001.6163    12898.324 
   33910    346.53421    6.9480683    63.046898   -122.16696    2929.6868    12898.324 
   33920    324.90745    7.2801254    65.438336   -126.09348    467.07761    12898.324 
   33930    330.57331    6.9429143    61.226347   -133.76806   -4244.8462    12898.324 
   33940    298.13533    8.3443309    65.381973   -144.41154   -3346.9913    12898.324 
   33950    305.33153    7.0377543    58.179576   -151.76054   -1602.5437    12898.324 
   33960    299.63322    6.9817278      55.2521   -155.83347     4205.804    12898.324 
   33970    291.58471     10.22962    49.179111   -157.90938    1604.6272    12898.324 
   33980    299.88214    11.250823    51.986284   -159.08289   -1470.4495    12898.324 
   33990    274.32072    10.394734    60.150071   -159.67181   -2176.9267    12898.324 
34000        0.97859436047066405973 10.157711141401438937 1 64 -290.19925635255412999
   34000    287.18563    8.6328611    50.063364   -160.08029   -1833.1887    12898.324 
   34010    271.80783      8.62946    60.661027   -159.68275    1003.4303    12898.324 
   34020    306.19261    7.9637051    54.238699   -158.52723   -732.20673    12898.324 
   34030    306.64792    7.5379944    62.582305   -157.02257    1070.7991    12898.324 
   34040    299.74685    6.6999465    61.851855   -156.59277    51.423441    12898.324 
   34050    296.80764    5.8754326    60.194061   -156.71777    581.80885    12898.324 
   34060    308.40076    6.0764428    58.142897   -157.19456   -281.58585    12898.324 
   34070    300.60525    7.0407745    53.150031   -158.06067    1007.3446    12898.324 
   34080      288.187    8.0744903     56.80762   -159.15227    1493.5377    12898.324 
   34090    294.22569    6.6242332    52.466193   -159.69201    1598.6917    12898.324 
34100        0.97174679184508272467 10.189442033087457773 1 66 -289.84957510599645047
   34100    287.45204    8.1138744    56.006799   -159.60991   -2073.8005    12898.324 
   34110    304.78482     8.591512    57.586229    -159.0699   -1730.8791    12898.324 
   34120    290.80083    8.8502139    60.055005   -158.19027   -1037.0869    12898.324 
   34130    302.82471    6.7397773    56.418769     -157.587    1981.5678    12898.324 
   34140    293.32479    6.9645778    56.864484   -156.66617    2383.7296    12898.324 
   34150    276.34472    10.165375     59.32327   -154.90403    -1763.834    12898.324 
   34160      287.147    9.0148329    59.761807   -152.51276    -2930.525    12898.324 
   34170     311.3501    7.6268012    55.449488   -149.41879   -2292.7005    12898.324 
   34180    312.03207    7.4387165    63.520513   -145.94319    1688.0028    12898.324 
   34190    319.51042    7.4356411    51.053407   -142.91167    1288.5432    12898.324 
34200        0.97189729349777764789 10.189446430344755612 1 69 -278.44373541677418871
   34200    305.89239    7.4452313     60.08241   -139.84905   -997.31946    12898.324 
   34210    305.61846    8.2818122    60.289681   -136.90731    1815.3111    12898.324 
   34220    302.80572     6.847939    58.080606   -133.89574    12.870467    12898.324 
   34230    318.22667    4.8350234    61.448755   -130.92782    1341.7726    12898.324 
   34240    300.21031    4.7259117    67.623024   -128.41546   -959.57731    12898.324 
   34250    325.97466    4.7107237    59.389685   -126.24134   -72.495269    12898.324 
   34260    327.83811    4.2011364     72.01851   -125.07392    2384.5912    12898.324 
   34270    353.23426    5.4946967    61.809568   -125.54132    1498.8451    12898.324 
   34280    323.25195    8.1620917    66.987235   -127.99397   -1178.3946    12898.324 
   34290    309.02334    11.435843    62.865609   -133.17625   -535.90193    12898.324 
34300        0.97545478626527337696 10.171160198476465908 1 68 -272.32031455488822758
   34300    294.99389    9.4487863     66.98993   -138.66356   -2427.7977    12898.324 
   34310      313.196    9.2047366    53.858601   -144.97641    1256.1471    12898.324 
   34320    294.17373    8.6544385    63.294632   -150.32747   -885.82136    12898.324 
   34330    302.54714    6.0946646    48.589933   -154.59792     1992.504    12898.324 
   34340    286.92901      4.06692    57.068703   -156.56748   -36.616406    12898.324 
   34350    291.18205    3.7635678    57.740157   -157.34515    2675.1704    12898.324 
   34360    292.21865    5.8391377    52.840348   -157.35465   -333.55237    12898.324 
   34370    292.43128     5.661959    61.598779   -157.55189   -1581.8836    12898.324 
   34380     298.2169    6.5073499    55.911062   -157.59035   -3197.9007    12898.324 
   34390     315.8107    8.2026774    54.450823   -157.01559   -1206.2601    12898.324 
34400        0.978110569327679924 10.160851658059680602 1 72 -299.84175243064839833
   34400     315.8647    7.3578862    53.784846   -156.72879    882.97702    12898.324 
   34410    309.70292    4.4840769    52.504435   -156.45353    472.58604    12898.324 
   34420    285.40486    3.1225206    57.324581   -156.37538    733.40283    12898.324 
   34430    288.71232    5.1324713    53.806613   -155.64887    245.04012    12898.324 
   34440    294.60068    6.9144414    59.198919   -154.08958   -981.14483    12898.324 
   34450    303.52334    8.1131715    58.654904   -151.85748   -1049.4701    12898.324 
   34460    295.40192    9.6179967    58.897534   -149.56105    35.450391    12898.324 
   34470    295.45201     11.80808    61.167203   -147.08959    842.98521    12898.324 
   34480    295.10724    11.336286     60.43072   -144.44414    1576.6042    12898.324 
   34490    309.43215    10.579498    60.997244   -141.11733   -503.39273    12898.324 
34500        0.98267498137655906465 10.129259928290721859 1 72 -281.26666925514837203
   34500    315.59297    7.3953506    68.061062   -138.27682    1524.0452    12898.324 
   34510    317.34602    6.2496288    67.270502   -135.29556    706.60453    12898.324 
   34520    321.65872      7.01427    63.594056   -133.88947    641.46535    12898.324 
   34530    316.84651     8.513802    66.813621   -133.49459   -2418.5938    12898.324 
   34540    342.66284    7.6792448    53.023363    -134.7792   -1699.6381    12898.324 
   34550    327.51641    7.3863819    57.441392   -137.78693   -408.70525    12898.324 
   34560    298.37424    8.1484793    55.016942   -142.46316    1644.5984    12898.324 
   34570    278.66107    7.1590153    63.333383   -147.70574    2177.5978    12898.324 
   34580     264.0957    6.8859924    61.903987   -152.94547    898.62901    12898.324 
   34590    281.61094    9.0516477    57.130008   -156.81244   -1345.1021    12898.324 
34600        0.98037462166574451672 10.148533967654048027 1 69 -293.99535832882975228
   34600    296.42602    9.4469448    59.595511   -159.68973    224.52649    12898.324 
   34610    305.48655    9.4001104    55.708714   -162.12881   -911.09764    12898.324 
   34620     288.5514     7.496159    58.593476   -164.19096   -1649.1099    12898.324 
   34630    290.42122    9.8701579    54.897546   -165.74467   -1966.8171    12898.324 
   34640    274.63002    9.2875713    63.954801    -166.3551    4323.6886    12898.324 
   34650    302.22535    10.094107    51.563659   -166.92166    2255.8051    12898.324 
   34660    266.20676    10.774294    53.086653   -167.50652    -1632.868    12898.324 
   34670    284.83161    10.132931    57.907402   -166.99137   -4138.4061    12898.324 
   34680    294.92396    7.8453454    57.046049    -166.2946    206.04803    12898.324 
   34690    301.94105    5.9782075    59.141708   -165.77701    979.38458    12898.324 
34700        0.98302342322970903687 10.13698773469324621 1 71 -303.22509225244454001
   34700    304.07847     5.423265     57.67643   -165.45227    3028.7782    12898.324 
   34710     293.5724    4.8554093    57.324528   -165.27993   -540.73221    12898.324 
   34720    294.50621    3.7971469    54.138645   -165.12519   -1858.9495    12898.324 
   34730    291.70288    5.2206965    54.489369   -164.24641   -453.83786    12898.324 
   34740    259.74643    6.1960164    59.842897   -162.68079    493.58226    12898.324 
   34750    269.74883    6.8927558    52.877758   -159.64253    1207.3183    12898.324 
   34760     296.6901    6.3194524    49.278233   -154.31926   -1476.4215    12898.324 
   34770    298.74299    5.9954664    57.049981   -147.39036    387.54522    12898.324 
   34780    330.81776    5.5626905    49.681855     -140.653    2167.3703    14221.896 
   34790    308.31544    5.2989396    64.787731   -136.27411     941.1773    14221.896 
34800        0.97350048583611770159 10.19028227290424482 1 68 -291.50478707556044355
   34800    346.78694     5.046002     52.58992   -134.38148   -2439.8639    14221.896 
   34810    311.95766    5.4692046    60.460127   -134.12406    91.955406    14221.896 
   34820    316.84341    5.0374929    59.774852    -134.8339    837.01196    14221.896 
   34830    314.75285    5.1976798    56.872972   -135.97577    2087.3941    14221.896 
   34840    331.24387    4.9017135     57.22194   -137.30521   -2372.8577    14221.896 
   34850    333.49747     6.977815    55.436343   -139.80346   -950.95236    14221.896 
   34860    294.21659    7.3731716    59.643808   -142.96402   -3321.3043    14221.896 
   34870    296.71268    8.9161281    57.902895   -145.51352    1989.5771    14221.896 
   34880    303.81611    9.5273863    57.941111    -147.9511    790.23405    14221.896 
   34890    308.76534     9.573442    49.941591   -150.69813    1008.8265    14221.896 
34900        0.97550062712111496044 10.174827384225748617 0.99735449735449732689 65 -272.51533812910724919
   34900    263.96111    6.9095713    62.995781   -152.91901   -936.12242    14221.896 
   34910    296.61148    5.1300342    48.320069   -154.80473   -174.35029    14221.896 
   34920    268.20846     4.402571    62.147248   -155.65364    176.97093    14221.896 
   34930    272.53155    3.6855509    55.660644   -155.88414    1208.9479    14221.896 
   34940    271.98706    4.7536995    62.795741   -155.12529   -2688.3571    14221.896 
   34950    326.52122    5.9900694    46.878253   -153.33316    156.61074    14221.896 
   34960    284.51352    5.7837057    64.365741   -152.08587    -987.1966    14221.896 
   34970    304.97591    6.2983102    57.676147   -150.76079    535.70113    14221.896 
   34980    287.65899    7.5098641    67.302736   -148.70933   -2967.2259    14221.896 
   34990    315.30361     7.982603    59.036297   -146.34746    1368.8798    14221.896 
35000        0.98145888159042815602 10.148814271331730197 0.99735449735449732689 65 -284.04178839978209226
   35000    309.50317    4.2733603    71.151722   -143.81112    562.53043    14221.896 
   35010    294.86226    4.9480371    61.870009   -141.85394    667.00958    14221.896 
   35020    286.57426     7.121524    72.543145   -139.97057   -1387.6451    14221.896 
   35030    283.23839    9.5599554     65.50791   -137.99275    1485.5472    14221.896 
   35040    307.75401     8.579538    62.215966   -135.07863    1835.4209    14221.896 
   35050    304.56751    7.3496956    65.210722   -130.95632    2351.3552    14221.896 
   35060    331.99642    8.5183481    57.462974   -127.56102   -932.36249    14221.896 
   35070    301.42992    7.2398814    70.492016   -124.83624    710.10162    14221.896 
   35080    331.01196    4.2485887    60.301897   -121.97553   -1665.1792    14221.896 
   35090    328.28249     4.811499     69.95515    -120.0959    1896.9654    14221.896 
35100        0.98266840816154921168 10.152199190224525438 1 66 -274.85935209293762682
   35100    341.64252    6.5627168    64.299381   -120.06689   -2110.3849    14221.896 
   35110    338.32028     10.96336    62.084087   -120.80993   -1274.0617    14221.896 
   35120    341.86138    13.064811    58.464287   -123.75333   -3316.2818    14221.896 
   35130    326.85955    14.182717    62.164638   -128.18791     -836.157    14221.896 
   35140    309.93502    17.755378    62.856769   -134.18372    1053.4366    14221.896 
   35150    299.89052    18.133884    61.957649    -140.6346    1078.8997    14221.896 
   35160    304.15855    12.492429    63.374921   -146.21793    1928.3344    14221.896 
   35170    299.57639    8.6748003    59.834776   -150.54846   -361.31225    14221.896 
   35180    294.69536    6.5886922    62.336283   -153.19849    1611.1788    14221.896 
   35190    290.87886     8.741877     59.45883    -155.0405   -241.54165    14221.896 
35200        0.99018279357177629851 10.090343894889969079 1 67 -287.99002678562942492
   35200    291.15336    9.3894208    56.734162   -156.07335    106.64065    14221.896 
   35210    294.86432    8.0132167     62.87507    -157.0818    1265.7836    14221.896 
   35220    282.31089    8.7340475     58.06924   -157.89397   -428.18266    14221.896 
   35230    286.86475    10.747535    58.268737   -158.51075   -289.28417    14221.896 
   35240    303.27528    11.747822    53.805158   -158.92431   -511.40603    14221.896 
   35250    311.54349    11.139084    51.202518   -159.15243    927.98098    14221.896 
   35260    293.78756    10.795881    51.119181   -159.57506   -648.27193    14221.896 
   35270    305.65396    9.4397594     57.11694    -159.8004   -1119.0787    14221.896 
   35280    305.46328    7.0913053    64.975766   -160.50042    485.79707    14221.896 
   35290    322.11048    7.3957171    55.353285   -161.74412    2647.1913    14221.896 
35300        0.99072328828114075705 10.103425975633411937 1 66 -293.51356288664572958
   35300    286.49997    7.0645299    57.707264   -163.70526   -549.77287    14221.896 
   35310    287.26611    10.163124    53.628345    -165.4368   -191.21723    14221.896 
   35320    280.79894    8.9738081    51.440433   -166.63823   -566.14687    14221.896 
   35330     279.9025      7.50588    54.693517   -167.25292    327.72778    14221.896 
   35340    264.82948    6.1951927    56.206225   -167.51024   -3065.2699    14221.896 
   35350    262.28337    7.5604811    55.303717   -166.31931    1066.5874    14221.896 
   35360    280.11965    8.2613201    59.325931   -164.35441    1093.2796    14221.896 
   35370    299.88646    9.1845118    52.958502     -160.476    1903.4426    14221.896 
   35380    305.12375    8.7115889    57.679619   -155.32818     587.6897    14221.896 
   35390    303.20411     11.05749    62.593223   -150.01737   -1320.5713    14221.896 
35400        0.98931916126461005856 10.113735496166960104 1 64 -297.62372081499580645
   35400    335.42612    11.108131     59.21919    -145.6478    -1446.084    14221.896 
   35410    348.55071    7.9443058    58.794367   -142.88608    362.90342    14221.896 
   35420    326.69926     7.239405    61.109867   -142.33565    1751.4606    14221.896 
   35430    311.51921    7.6002508    59.109313   -142.54894    247.07642    14221.896 
   35440    284.12511    7.3841424    61.817691   -143.40316   -2064.1473    14221.896 
   35450    307.53788    7.1305518    61.759624   -143.79991   -83.482463    14221.896 
   35460    296.75676    5.2674817    61.444841   -144.21294    515.29299    14221.896 
   35470     318.2157    6.7650941    49.116439   -144.35832   -606.14666    14221.896 
   35480    292.89864    9.0418819    59.811185   -144.78889    223.99516    14221.896 
   35490    299.57405     7.100975    61.280583   -144.99005    1329.2978    14221.896 
35500        0.98064442777273264085 10.125407942253644933 1 67 -282.85260010420557819
   35500    302.01638    5.3338534    65.368125   -146.01407    2990.7288    14221.896 
   35510    308.32067    4.5001846     59.23462   -148.12422   -1146.5693    14221.896 
   35520    302.12103    4.7029586    55.930675   -151.71595   -2306.9068    14221.896 
   35530    276.46963    4.0095037    59.659136   -156.30257    -565.7143    14221.896 
   35540    262.34204    4.3740425     62.13721   -160.40577    607.25459    14221.896 
   35550    264.14735    7.3203315    56.651525   -164.08492   -61.168776    14221.896 
   35560    288.35503    5.0377381    58.394208   -167.52896   -2581.6677    14221.896 
   35570    280.85022    5.1325402    53.714778   -170.87419   -274.53531    14221.896 
   35580    285.12691    5.9547814    54.241397   -173.64712    496.83697    14221.896 
   35590    262.50784    7.5411445    60.264491   -175.57888    1727.6785    14221.896 
35600        0.97469860261411644942 10.151907612406576575 1 65 -298.1725680886625014
   35600    267.08609     7.897212    59.669356   -177.16037     3030.133    14221.896 
   35610    259.08672    6.8751969    59.911375   -177.95629   -1817.1683    14221.896 
   35620    269.99233    6.0377597    51.680731   -177.96141   -1378.5446    14221.896 
   35630    251.16072    6.2854725    54.591281   -177.15932   -420.78444    14221.896 
   35640    263.39634    4.4293239    53.547396    -174.5203   -282.94491    14221.896 
   35650    267.31436    4.9749322    59.193091   -169.69011   -1042.9233    14221.896 
   35660    283.39522    6.0194343    57.967671   -163.58307   -186.81169    14221.896 
   35670     275.2691    4.3725252    58.333121    -157.5517   -696.78758    14221.896 
   35680    268.59506    7.0921563    62.527262   -153.41785     1087.483    14221.896 
   35690    270.60611    7.9502569    66.283565   -150.48529    698.37031    14221.896 
35700        0.96883757388364066809 10.178335995118951374 0.99735449735449732689 65 -273.1119815529827406
   35700    275.32128    7.7562902    63.704549   -148.36856    1223.7915    14221.896 
   35710    293.42845    6.2129748     53.96918   -146.59154   -1059.8292    14221.896 
   35720    267.49295    5.1392546    64.570146   -144.87314   -580.06253    14221.896 
   35730     292.0705    4.4672213    58.401865   -142.80578   -872.15084    14221.896 
   35740    298.71439    3.8209437    62.834931   -140.60928      2569.22    14221.896 
   35750    296.75543     4.249347     63.21347   -138.05607   -513.70655    14221.896 
   35760    280.46807    6.6615668    61.469135   -135.68662   -2857.3886    14221.896 
   35770    288.74553    5.9888099     68.09345   -132.14128   -430.22197    14221.896 
   35780    325.13868    6.1007819    59.918784   -128.41375    3294.4189    14221.896 
   35790    322.55926    6.6150521    67.836177   -126.25797    1456.9756    14221.896 
35800        0.9603397358474046186 10.216783407582447296 0.99735449735449732689 66 -285.17922135122864802
   35800    353.91843    8.4993962    48.308978   -124.82475    -1466.607    14221.896 
   35810    315.59282    7.5100298     67.23526   -124.68921   -2269.1645    14221.896 
   35820    325.48033    6.0155705    67.400786   -124.24729   -241.27099    14221.896 
   35830    333.28308    5.7325942    64.344086   -125.93739    262.45809    14221.896 
   35840    332.19683    7.1083711    62.711872   -129.08336   -1253.1537    14221.896 
   35850    315.86588    5.5671567    63.659382   -133.28354    250.76986    14221.896 
   35860    336.50724    3.2075078    58.132471   -138.47562    2254.0865    14221.896 
   35870    301.16537     3.549921    65.149987   -144.67397    2455.6562    14221.896 
   35880     304.9328    4.0889497    51.057862   -148.51403   -939.99256    14221.896 
   35890    281.40548    5.1605883      56.8493   -151.24899   -4471.8982    14221.896 
35900        0.96053871526317480267 10.230312921098036583 1 66 -280.04940882644439171
   35900    281.60797    5.5022028    59.113408   -152.45759   -2415.6174    14221.896 
   35910    274.27138    5.0639617    59.963454   -153.42306    -480.8806    14221.896 
   35920    282.60447    4.9154815    60.676602   -153.42712    2980.4912    14221.896 
   35930    292.48314     7.517791    59.150394   -153.13703    1385.6073    14221.896 
   35940    309.86553     9.906857    54.927961   -152.78331   -540.84182    14221.896 
   35950    296.77108    8.5862709    63.422878   -152.54631   -3758.5169    14221.896 
   35960    294.91661    6.6173456    61.279458   -152.42258    888.82006    14221.896 
   35970    288.47135    5.7764351    66.501781   -152.76536    70.890499    14221.896 
   35980    289.02127    6.2798472    60.129196   -153.44331    2906.3908    14221.896 
   35990    291.74926    5.5986612     59.73238   -153.90592   -29.012549    14221.896 
36000        0.97348654109659815692 10.175259512118831395 1 68 -285.57406869038840114
   36000    289.23786      3.51957    61.156069   -154.52527     2278.413    14221.896 
   36010    287.64199    3.5086515    54.382952    -154.9568    119.62176    14221.896 
   36020    293.50164    5.2551864    57.866237   -155.30191   -949.91542    14221.896 
   36030    304.97234    6.8282566    60.636214   -155.86699    -2392.738    14221.896 
   36040     279.6568    8.3758391    64.674719   -157.02149    1108.1519    14221.896 
   36050    275.52984    9.2423771    62.715343   -158.47752    884.78078    14221.896 
   36060    297.48235    8.7138035    54.288488   -159.61872    215.42387    14221.896 
   36070     283.9536    7.1392179    62.323206   -160.85055   -1740.8871    14221.896 
   36080    283.84312    5.8575941    58.278477   -162.17312   -661.04687    14221.896 
   36090    270.15458    8.4129589    61.875354   -163.21919   -1015.8235    14221.896 
36100        0.97850454338639691887 10.167375908787690264 1 69 -291.43491688672185091
   36100    280.48206    9.3601581    61.184749   -164.35323    1510.6619    14221.896 
   36110    285.13214    7.0766971    57.481559   -164.98308   -581.61237    14221.896 
   36120    269.02284    8.0083639    56.880097   -165.68274   -2253.1578    14221.896 
   36130    268.62869    9.7207959    55.442041   -165.66416   -1176.5584    14221.896 
   36140    260.92745    11.029427    57.003127   -164.43277     3404.394    14221.896 
   36150    279.91718    7.6457201    57.304079   -162.09298    3621.9089    14221.896 
   36160    296.09556    6.6972658    54.378011   -159.07132    2180.2854    14221.896 
   36170    291.08777    6.5928609    59.760378   -155.37317   -3094.6947    14221.896 
   36180    311.17795    5.4982471    57.720562    -151.1104    866.98747    14221.896 
   36190    298.73509    5.8998969    63.556033   -147.26236   -444.86457    14221.896 
36200        0.97691113881230851046 10.159799464124375845 1 70 -284.8054431672637179
   36200    310.67253    7.8122919    60.512177   -144.04496   -60.901091    14221.896 
   36210    303.13596     7.093539    62.002509   -141.07552      -2530.8    14221.896 
   36220    314.77446    6.4798054     58.62667   -139.23187   -1092.9923    14221.896 
   36230    301.22526    3.6243224    72.449759   -138.18509    2380.3907    14221.896 
   36240    337.08575    4.2174133    54.457887   -138.42526     1947.751    14221.896 
   36250    297.65237    6.3194998     69.94075   -139.13919    1326.4885    14221.896 
   36260    314.02061    7.5306963    55.126936   -140.18115    -1493.372    14221.896 
   36270    289.34101    8.7738355     62.11182   -141.77911   -504.78663    14221.896 
   36280     317.8303    9.1457671    59.945467   -143.05315    585.09201    14221.896 
   36290    293.51794    9.8665519     64.02702   -145.34365   -224.16483    14221.896 
36300        0.97211460108227154553 10.175623544560885136 1 72 -278.7431365918072288
   36300    288.10254     8.931451    64.350363   -148.20874    320.34188    14221.896 
   36310     258.2722    9.8036992    69.633401   -151.45294   -1258.8049    14221.896 
   36320      262.702    9.5141876    67.608008   -154.81441   -1532.4102    14221.896 
   36330    285.85028    9.1443384    59.286266   -159.18544    -2279.256    14221.896 
   36340    274.71748    8.2694906    62.543216   -163.79566   -1720.4836    14221.896 
   36350    294.48018    7.3192829    47.292485   -169.37577    430.27357    14221.896 
   36360    264.58848    6.4786567    55.170519      -174.23    2635.1704    14221.896 
   36370    287.51593    6.6276744     50.16285   -177.53929    2441.9445    14221.896 
   36380    269.61646    7.0601233    61.466117   -179.61283    2746.9627    14221.896 
   36390    285.59826    7.3713198    54.189245   -180.72093    30.224845    14221.896 
36400        0.96978633045834572446 10.172835838782010143 1 69 -293.14723867394923218
   36400    247.62191    8.2156611    61.308387   -180.95393   -831.84413    14221.896 
   36410    281.80034    7.0647418    49.625983   -180.48627   -3091.0347    14221.896 
   36420     282.7114    6.7180024    50.820445   -179.30263   -1508.6141    14221.896 
   36430    289.04922    5.0157139    58.150293   -177.77247    276.34822    14221.896 
   36440    285.87753    5.9141281    53.327017   -176.11689    2374.4329    14221.896 
   36450    275.93099    6.1696207    58.403947   -174.35546    1136.9199    14221.896 
   36460    276.94846    5.3180606    56.249344   -172.26321   -2251.6429    14221.896 
   36470     263.0061    6.0446525    53.058201    -170.2061    9.3223645    14221.896 
   36480    277.56634    6.6587369    51.251363   -167.68299     408.5584    14221.896 
   36490    289.11307    5.8427511    51.957869   -165.14497    1508.4255    14221.896 
36500        0.9732160293029240572 10.168717875985828769 1 71 -292.6290559473360986
   36500    287.48573    5.5123036    57.332642   -162.37412   -200.89248    14221.896 
   36510    280.57105    6.2407856     61.75127   -159.70327   -1223.6969    14221.896 
   36520    276.45574    5.9500653    62.016388   -157.51609   -1055.8672    14221.896 
   36530    278.49435    5.6331533    61.718373    -155.7681   -862.74189    14221.896 
   36540    290.53299    5.6232638    59.029711   -153.48692   -2276.9545    14221.896 
   36550    284.55338    5.6966582    61.961309   -151.63139   -438.07578    14221.896 
   36560    289.80101    5.5603175    62.406907    -149.9211    2272.1973    14221.896 
   36570    279.45565     5.751728    67.328276   -147.46921    3923.1386    14221.896 
   36580    313.45083    6.0037759     51.41354   -145.31174    266.25778    14221.896 
   36590    298.97405     6.696941    59.022535   -143.54152   -292.20115    14221.896 
36600        0.97636143937862363007 10.172025979962723952 1 68 -291.93219145229869582
   36600    330.64063    5.8469586    55.948497    -142.1245   -1589.9214    14221.896 
   36610    295.48039    6.0905618    62.489585   -142.04816   -595.92008    14221.896 
   36620    328.17615    2.4688986    55.894705     -142.031    -1002.457    14221.896 
   36630    316.62486     3.411534    63.198777    -143.0056    232.54826    14221.896 
   36640    322.55208    5.1647519    57.182623   -144.94681   -1803.6786    14221.896 
   36650    289.49284    7.9959281    64.469383   -147.60661    1940.1244    14221.896 
   36660    290.96555     10.22117    62.418902   -150.64898    2.7020212    14221.896 
   36670    283.09085    8.6709856    61.730187   -153.71421    2360.5829    14221.896 
   36680    305.05548    5.9646146     52.73476   -156.71704   -1203.8853    14221.896 
   36690     300.7537    4.7330237    60.343944   -160.57303   -1369.7467    14221.896 
36700        0.9816734228357347769 10.153667163997866396 1 69 -294.58992104681294677
   36700    285.95968    5.8686107     56.06929   -165.02641   -1152.3646    14221.896 
   36710    277.29855    6.5721875    58.824528   -169.88461   -580.92665    14221.896 
   36720    274.92584    7.7675972    63.155384   -173.98298     991.2598    14221.896 
   36730    276.40587    7.2867456    57.879621   -176.94725    665.68543    14221.896 
   36740    263.92996    10.181657      60.6441   -179.27828    576.92919    14221.896 
   36750    268.66066    10.541867    52.386314   -180.13975    959.16947    14221.896 
   36760    277.03519    8.9677141    58.837952   -180.09023   -908.39659    14221.896 
   36770    282.06793    8.4455947    48.533753   -179.42024     -1448.97    14221.896 
   36780     279.4026    7.6225827    53.317483   -178.23247    -1008.044    14221.896 
   36790    288.78409    8.5386797    48.778117   -176.63525    1888.7533    14221.896 
36800        0.98446743811695902604 10.119977584326985465 1 65 -309.29827642064918791
   36800    296.39689     7.418689    54.634699   -175.00585    2698.3221    14221.896 
   36810    293.40234    6.9362392      56.8616   -173.84844   -1560.3975    14221.896 
   36820    289.66195     5.436403    56.518303   -172.75846   -1506.1189    14221.896 
   36830    281.18209     7.743867     51.57163   -171.54159   -684.21239    14221.896 
   36840    273.45881    9.3953212    57.743738   -170.21526   -933.14274    14221.896 
   36850     271.2993    9.9800533    60.532332   -168.26578    2038.9991    14221.896 
   36860    276.91924    9.1557469    62.322052   -165.93191   -551.18775    14221.896 
   36870     279.5958    9.0637317    67.526705   -163.61859    322.07716    14221.896 
   36880    296.80501    10.406576    58.713297   -161.18015   -1525.2611    14221.896 
   36890    285.27466    12.355577    60.825157   -159.28067   -583.44234    14221.896 
36900        0.98518678120478930804 10.098922189280331807 1 66 -296.24651938441343191
   36900    306.19142    12.027686    54.827203   -157.51635    2207.6715    14221.896 
   36910    310.65357    9.4139448    60.167715   -155.05357    2054.0024    14221.896 
   36920    298.93578     7.653705    59.422767   -153.37798    1032.5377    14221.896 
   36930    279.93512     9.663264    62.484991   -151.79974   -1223.2111    14221.896 
   36940    288.47569    12.513979    66.341705   -149.53618    501.32001    14221.896 
   36950    307.10926    10.485527    56.848372   -147.27437   -491.85686    14221.896 
   36960    303.65782    8.1756966      66.7585   -145.25079    -1331.232    14221.896 
   36970     309.3398    7.6479144    66.284405    -142.8383   -144.22285    14221.896 
   36980    331.49361    8.2162937    58.834308   -141.44992   -110.63328    14221.896 
   36990    323.58791    4.1954807    64.872863   -141.42947    1627.0587    14221.896 
37000        0.9865137109061454801 10.10249226566819658 1 67 -283.3652313802672893
   37000    310.24657    5.5971144    59.566386   -142.79775    1619.6338    14221.896 
   37010    297.51947    7.7838067    58.396879   -144.77168   -1011.8482    14221.896 
   37020    310.14801    5.4361541    56.908795    -145.9655    146.71375    14221.896 
   37030    305.32753    4.0124468     65.52823   -147.60239   -582.51827    14221.896 
   37040    311.14251    3.9562898    56.843571   -150.70432    741.18065    14221.896 
   37050     298.5961    6.2251904    57.756976   -157.12631    -205.6212    14221.896 
   37060    306.23443     6.409555    54.978165   -164.17588    -651.9149    14221.896 
   37070    288.67422    9.1658394    60.032538   -170.08391   -900.83813    14221.896 
   37080    301.85785     10.48703    53.609608   -174.26114   -1782.3706    14221.896 
   37090     281.7666    10.857543    56.345611   -177.58865   -2484.1102    14221.896 
37100        0.98967940406579024692 10.099527605924482287 1 68 -298.20802737397593773
   37100    262.25734    8.8251358    58.333027   -179.38365   -1431.4827    14221.896 
   37110    296.32155    7.2958135    48.495249   -180.13648    45.614825    14221.896 
   37120    271.27659    8.2143454    57.100084   -179.85198    3014.5645    14221.896 
   37130      271.718    7.8983478    54.268182   -178.42868     2059.892    14221.896 
   37140    238.82827    9.2568026    66.300102   -176.04614    2209.7228    14221.896 
   37150    288.18635    9.8084625    55.650736   -172.55471    54.270199    14221.896 
   37160    288.92332    9.2614673    66.122055   -169.08967    485.75249    14221.896 
   37170     291.9889    8.5423786    62.007009   -165.27102   -3455.9548    14221.896 
   37180    289.09515    10.781422     58.48456   -161.73297   -1874.0956    14221.896 
   37190    281.52267    8.7763233    63.318888   -159.16794   -1277.6346    14221.896 
37200        0.98618850168778138254 10.101028654655051398 1 68 -278.52839282342426941
   37200    269.98986    6.5064527    64.430199   -156.20054    2367.0476    14221.896 
   37210    272.70382    5.3701968    63.185898   -153.89051   -174.94681    14221.896 
   37220    292.47011     5.217735    63.164788   -151.29215      3628.03    14221.896 
   37230    313.73667    5.7764586    63.327591   -148.96935    2528.1036    14221.896 
   37240    308.52826    6.1786343    61.479867   -146.87415    2584.6889    14221.896 
   37250    309.43075    7.2382286    64.128335   -145.79933   -3085.4764    14221.896 
   37260    302.18907    6.9827594    65.954832   -144.85524   -3402.9059    14221.896 
   37270    289.34004    7.3910389    71.707697   -144.74934   -3252.7922    14221.896 
   37280    313.28935    8.6125954    65.673712   -145.02548    1407.9114    14221.896 
   37290     315.2906    10.755528     62.16023   -145.64492    4042.1228    14221.896 
37300        0.98278059022902475306 10.136128000408803018 1 67 -286.27157773456360701
   37300    307.54825      9.28014    61.274663   -146.92665    1925.7387    14221.896 
   37310    293.06965    7.7089885    63.720348   -147.81321   -1094.6957    14221.896 
   37320     306.4427    6.0584984    55.523989   -148.48811   -1737.6455    14221.896 
   37330    306.84309     6.774609    64.066762   -149.54207   -89.283324    14221.896 
   37340    304.68966    6.1321728    54.999016   -150.66355    -1052.289    14221.896 
   37350    284.70913    8.6076618    61.574699   -152.27799   -3689.0252    14221.896 
   37360     306.0615     7.954637    59.535285   -153.85216   -1394.4822    14221.896 
   37370    297.39397    9.3616039    64.151711   -157.01224    3146.7165    14221.896 
   37380    303.27653    9.3855252    55.645571   -160.95794    541.89801    14221.896 
   37390    281.77169    9.1727261    58.405688   -165.97498    232.63866    14221.896 
37400        0.9786452621733082724 10.158848492692021281 1 73 -300.28271886766560783
   37400    285.53706    9.7624899    52.326581    -170.9107   -1487.7873    14221.896 
   37410    262.55159    10.566465    59.327688   -175.45111    1667.4572    14221.896 
   37420    285.10704    10.373745    52.891515   -178.32354    17.886751    14221.896 
   37430    289.12575    9.9481109    44.204003   -180.29066   -1289.1589    14221.896 
   37440    284.51212    11.141447     50.92401   -181.24994    1322.1849    14221.896 
   37450    273.07198    12.635797     51.87793   -181.66764    1448.4539    14221.896 
   37460    276.08713    9.2070359     55.54682   -180.60297    3020.2398    14221.896 
   37470    266.20463    7.3057453    56.835639   -178.86599    1387.6997    14221.896 
   37480    290.02083    5.4888419    52.390743   -176.29296     400.2711    14221.896 
   37490    282.27783    6.5393072    57.343974   -173.01559   -1663.0834    14221.896 
37500        0.98222971273503056899 10.156835960607224933 1 69 -297.09086200295081426
   37500    282.46782    7.4092328    56.183079   -169.10946   -4039.2515    14221.896 
   37510    283.79603    7.7319977    59.708926   -165.20218   -155.56094    14221.896 
   37520    309.28615    10.016569    59.555799   -160.75707   -1244.4788    14221.896 
   37530    347.75901    10.289609    52.096318   -157.89504    161.56899    14221.896 
   37540    327.05965    7.2925091    62.557935   -156.24259    374.97658    14221.896 
   37550    309.15117    6.4236632    66.217404   -155.70802    1087.6532    14221.896 
   37560    314.74452    6.4341939    53.685004   -156.18237    680.99594    14221.896 
   37570     304.4348    5.2457925    53.418931    -156.9503   -1370.0638    14221.896 
   37580    300.43728    4.9951017    58.499282   -157.43345   -459.76148    14221.896 
   37590    295.17708    5.8397713    58.063119   -157.36707    274.70244    14221.896 
37600        0.97622050515071534527 10.171607398733820915 1 73 -292.27615666431563568
   37600    298.88267    8.0134036    53.168568   -156.85746   -798.70996    14221.896 
   37610    283.37199    5.4330182    57.696754   -156.45418    1740.9357    14221.896 
   37620    306.11409     3.535537    57.613354   -156.24616    685.80173    14221.896 
   37630    317.95457    5.0383337    60.601288   -155.31749   -761.72634    14221.896 
   37640    300.19776    6.7226728    53.496461   -155.68628   -1103.8158    14221.896 
   37650    295.13679    6.7271258    57.012775   -156.38594   -97.948102    14221.896 
   37660    299.29144    4.9633408    61.804745   -156.34117    601.46183    14221.896 
   37670    313.56333    5.9845795    55.475972   -155.71145   -696.83936    14221.896 
   37680    278.94854    5.1381417    68.104721   -155.77706    472.35774    14221.896 
   37690     282.5944    3.9394283    64.054586   -155.98987     2400.726    14221.896 
37700        0.9682371547030705905 10.199293472208573519 0.99735449735449732689 72 -282.17528654932539212
   37700    278.73076    6.2529377    64.109516   -155.88708    2595.1132    14221.896 
   37710    307.12837    6.2623015    54.988749   -155.13901   -802.21939    14221.896 
   37720    276.85101    7.8476482    64.548201   -153.44667   -2915.5629    14221.896 
   37730    299.08432    6.8308507    67.241589   -150.92559   -2241.5813    14221.896 
   37740    310.66675    6.6330293    69.795542   -147.73604   -581.53032    14221.896 
   37750    338.34938    5.3233876    58.591281   -144.69627    2380.9253    14221.896 
   37760     326.7492    5.5196289    59.892241   -141.89031   -1119.9448    14221.896 
   37770    323.52655    5.8327008    61.635068   -140.01495    1075.8763    14221.896 
   37780     314.8138    5.2864049    60.964222   -138.52837    1520.1409    14221.896 
   37790    324.11095    4.2713284     67.88501   -138.46452    1578.5218    14221.896 
37800        0.97010038799393427666 10.184485239944516266 1 72 -293.19834495087604864
   37800    339.20151    4.2403937    64.389712   -139.51186   -1836.3127    14221.896 
   37810    318.60459    7.2800966    61.201487   -142.00977   -1235.6753    14221.896 
   37820    286.58814    8.1075144     60.75002   -144.54623    -1333.908    14221.896 
   37830    279.54572    5.8788983    66.340392   -147.17033    124.04771    14221.896 
   37840    291.64359    5.1593505    56.896913   -149.13695   -991.11726    14221.896 
   37850    307.08294    7.5747049     61.45107   -151.01211    2191.4344    14221.896 
   37860    295.85467    9.5900573    63.733862   -153.34606    223.35607    14221.896 
   37870    281.32262     8.076712    60.791291   -155.80097    1955.6068    14221.896 
   37880    264.19103    7.6981044    68.701862   -158.33622   -1413.1753    14221.896 
   37890    280.70179    6.2840142    63.279118   -159.86762     271.1829    14221.896 
37900        0.9659778184714338245 10.184253476123517501 1 71 -290.68538249030621046
   37900    286.08183    5.2048836    63.290447   -161.06653   -264.05979    14221.896 
   37910    296.26127    4.8132819    59.494581   -162.16782    460.52203    14221.896 
   37920    297.23347    7.1214552    59.022972   -163.23684   -2790.3297    14221.896 
   37930    301.07639    11.991507    55.681323   -164.89361   -352.18401    14221.896 
   37940    298.06132    13.437083    57.319555   -166.63729    2552.2948    14221.896 
   37950    269.05972    10.815471    59.471156   -168.61461    1382.2026    14221.896 
   37960    264.99439    8.2350337    56.231167    -169.7992   -1005.7049    14221.896 
   37970    273.16952    6.9619393    54.734273   -170.99661   -3816.8062    14221.896 
   37980    274.41151    6.5680233    54.448552   -171.03024    249.55693    14221.896 
   37990    283.13656    6.9829465    58.862035   -170.32665    339.20536    14221.896 
38000        0.96958606021261584118 10.183295916892589617 0.99735449735449732689 67 -298.71539401494561616
   38000    287.02897    6.4807136    63.764175   -168.66741    2560.0133    14221.896 
   38010    291.85292    7.5907312    56.982222   -166.48507   -880.29238    14221.896 
   38020     290.5013    8.3128816    55.247998   -163.35919     1067.568    14221.896 
   38030    314.00514    4.6976302    58.207432   -160.27223    1892.3466    14221.896 
   38040    316.52351    3.0223394    55.883862   -156.44771    1542.0416    14221.896 
   38050    307.61985    2.8166373    55.963539   -152.93624   -2000.2809    14221.896 
   38060    299.19058    4.7576015    51.747024   -149.95248    -3436.354    14221.896 
   38070    328.14863    6.5888226     53.31405   -146.76416    713.88693    14221.896 
   38080     301.9781    6.7761458    60.189475   -143.79274    3808.1334    14221.896 
   38090    301.13666    7.5556819    62.992187   -141.81006   -882.44693    14221.896 
38100        0.96520090315045203866 10.211384750563514245 1 68 -280.50043144293459818
   38100    310.64757    8.7474871    60.956153   -139.75126   -2633.1384    14221.896 
   38110    310.71346    7.4293295    59.276495   -137.64496    1637.2213    14221.896 
   38120    290.56853    5.6388869     65.43814   -136.09842    2719.9644    14221.896 
   38130    327.37409    5.3010824    58.717088   -134.44191    2366.7417    14221.896 
   38140     307.4931    4.3900119    67.234748   -132.79651   -3587.1534    14221.896 
   38150    332.57369    4.4602265    61.515089   -131.97356   -992.92949    14221.896 
   38160    306.85925      3.87497    69.035507   -131.97343   -545.40102    14221.896 
   38170    325.15524    4.9115116    63.280127   -132.35001   -1636.6134    14221.896 
   38180    302.43651    5.2722807    70.225963   -134.57608   -1695.2667    14221.896 
   38190    303.88942    5.6345399    61.103765   -138.18102   -2294.9769    14221.896 
38200        0.96035058170229692376 10.222160006609318117 1 68 -276.20300846675058892
   38200    292.54168    4.6713915     65.68776   -143.65731    1153.4245    14221.896 
   38210    312.75662    4.8070975    55.101772   -150.26523    3340.3112    14221.896 
   38220    270.92104    4.5064946    57.358622   -156.91938    1196.4407    14221.896 
   38230    267.41189    4.1142138    60.918572   -161.11346   -428.78548    14221.896 
   38240    262.39185    3.6236244    58.873431   -163.65639    395.05741    14221.896 
   38250    271.81637      3.33781    61.286793   -164.71242    1098.9111    14221.896 
   38260    280.96934    5.6882371    56.880191   -164.91658    518.83206    14221.896 
   38270    298.13116    7.7856145    52.507501   -164.55163   -2584.3909    14221.896 
   38280    301.52952    5.7842955    54.656965   -163.47503   -2836.6661    14221.896 
   38290    300.21666     4.556438    48.219099   -162.91656    33.082766    14221.896 
38300        0.96487305768877540402 10.207432766840044636 1 65 -287.62304403942346198
   38300    278.13102    7.1748195    52.840402   -161.60657    2841.9704    14221.896 
   38310    281.79142    5.1769496    55.218085   -159.85086   -204.55167    14221.896 
   38320    265.64547    4.2060729    62.137315   -157.45599    -1788.687    14221.896 
   38330    306.53396    3.6273985    62.066111     -154.469   -1755.7147    14221.896 
   38340    323.31041    4.6099689    59.651642    -151.4406   -1760.3964    14221.896 
   38350    336.53745    5.4407769    51.994042   -149.27643    834.04962    14221.896 
   38360    312.55467    6.4449528    62.383588   -147.03387    1550.9408    14221.896 
   38370    325.21902    7.9992836    58.842467   -145.74789    1555.8001    14221.896 
   38380    328.04287    8.2980659    52.096286   -145.09575     596.7923    14221.896 
   38390    293.38418    10.443587    56.294313   -144.91318   -1202.3275    14221.896 
38400        0.97028335570382606701 10.178633275594144436 0.99735449735449732689 65 -281.5145839276060542
   38400    300.73417    11.081636    54.192631   -145.25701   -299.42122    14221.896 
   38410    293.70747    10.260216    65.335253   -144.51773    -71.62519    14221.896 
   38420    319.31138    9.9704451    55.590507   -144.59639   -1143.5207    14221.896 
   38430    324.97267    7.7509718    62.231872   -144.40365    1057.6398    14221.896 
   38440    334.94171     6.512287    59.230065   -145.32471    523.60885    14221.896 
   38450     298.6127    10.463691    67.092749   -147.26115    973.56585    14221.896 
   38460    290.90378    9.2762409    56.176629   -149.61419   -231.32868    14221.896 
   38470    276.30015    8.1506452    58.020844   -152.02161    297.93302    14221.896 
   38480    292.89808    7.2148632    55.140321   -153.93736   -741.97733    14221.896 
   38490    290.12332    7.1259614    53.044272   -155.73694   -1296.8148    14221.896 
38500        0.97747727904842351965 10.142888449352289726 1 65 -288.94101327087088293
   38500    289.99448    6.9804273    56.609113   -157.54941   -2818.9626    14221.896 
   38510    280.27128    7.8970817    58.706987   -158.26085   -590.43089    14221.896 
   38520    269.11989    9.1554574    58.266681    -159.2392    747.02907    14221.896 
   38530    270.20947    9.1172533    59.601816   -159.40957    1911.4937    14221.896 
   38540    299.12013    8.7770151    57.164532   -158.85085     2760.017    14221.896 
   38550    327.30872    7.8756984    54.394199   -158.20495    720.65356    14221.896 
   38560     316.8235    7.5274333    50.746717   -157.92595   -7.5544122    14221.896 
   38570    300.88396    8.4095488    58.370448   -158.34318   -1654.9909    14221.896 
   38580      287.673    10.255083     55.65492   -158.40924    852.54028    14221.896 
   38590    281.79365    10.767928    56.149996   -158.98054    1194.2986    14221.896 
38600        0.98486080702081701954 10.133556038204144301 1 68 -295.1276095312034613
   38600     299.3165    10.338756    54.659688   -159.51236   -346.31854    14221.896 
   38610     308.0284     10.18043    51.618123   -159.58084   -1089.0018    14221.896 
   38620    310.61023    7.1143848    49.284653   -159.17722   -714.26135    14221.896 
   38630    283.94422    6.7134728    60.194369   -159.26655    336.63906    14221.896 
   38640    271.23234    6.3736582    55.982859   -158.46263    -414.3309    14221.896 
   38650    267.24941    9.3056093    62.347646    -156.6471   -110.43827    14221.896 
   38660    288.27234    10.067304    61.546141   -153.79829   -1185.9279    14221.896 
   38670    306.73517     9.738044    57.367519   -149.60844   -2625.6624    14221.896 
   38680    333.62233    9.7061789    52.012292    -145.7845    -798.5362    14221.896 
   38690    319.98026    9.3354107    56.228667   -141.98117    4659.6083    14221.896 
38700        0.98856793862375391679 10.092567472337929502 1 69 -270.31353747741366078
   38700    289.35291     7.408989    54.522909   -139.21262    3361.8689    14221.896 
   38710    315.13127    8.2982974    55.184474   -136.59987    1846.5045    14221.896 
   38720    343.13904    6.2025015    55.044124   -133.56757   -1492.1849    14221.896 
   38730    350.88026    4.7905768    57.435933   -131.60523    337.95666    14221.896 
   38740    363.58906     2.842387    59.178276   -131.52121     200.0148    14221.896 
   38750    340.70466    3.6345156    55.259765   -134.28653    468.66439    14221.896 
   38760    310.04838    4.3423152    55.157327   -137.42409    -2925.658    14221.896 
   38770    311.82159    4.7603534    58.335245   -140.55766    1150.8889    14221.896 
   38780    314.26635    7.4418986    57.027336   -144.82874   -1657.2459    14221.896 
   38790    295.69473    11.309781    59.109715   -149.93998   -307.55352    14221.896 
38800        0.9874114111107650249 10.111774529442614678 1 68 -295.03878509826989784
   38800     311.3812    13.298316    52.634432   -153.95722   -1002.9872    14221.896 
   38810    293.03446    12.562965    59.184966   -157.28165    1376.5102    14221.896 
   38820    296.63678    11.013181    53.763765   -159.89175    1440.2696    14221.896 
   38830    273.53901    10.257722    64.419312   -161.32405   -100.63013    14221.896 
   38840    293.63523    8.1667904    56.087406   -161.79387    465.16804    14221.896 
   38850    278.87231    7.2234618    54.597247   -162.01579   -1087.1955    14221.896 
   38860    289.37494    7.1416702    44.816887   -161.53445   -719.57052    14221.896 
   38870    289.89313    6.6617508    54.859292    -160.4075    997.93921    14221.896 
   38880    307.08433    7.9450229    53.889873    -158.7338    542.69482    14221.896 
   38890    301.28343    9.4586098    53.558154   -157.91813   -126.56228    14221.896 
38900        0.98262484619208456671 10.128119568831792208 1 69 -282.80119606659201281
   38900    277.64607    9.4135851    55.158103   -157.00445   -1255.5088    14221.896 
   38910     293.3833    8.0752915    52.440327   -155.84507    527.39384    14221.896 
   38920    288.04732    5.6877388     56.44874   -153.94952    68.884858    14221.896 
   38930    318.18274    7.5716189    49.152818   -151.76455    346.93574    14221.896 
   38940     321.5735    9.6734309    50.830386   -149.76658   -500.85656    14221.896 
   38950    302.81945    10.271109    63.412472   -148.13971    310.26451    14221.896 
   38960    300.05081    8.5738525    60.230517   -146.42996   -287.27073    14221.896 
   38970    301.36449    8.5118643    67.507216   -144.73419    915.08655    14221.896 
   38980    329.01406    7.7555482    65.779149   -143.34033    497.84647    14221.896 
   38990    311.96892    7.5139089    61.551082   -143.14147   -383.44258    14221.896 
39000        0.98111903552049162247 10.139072769593960643 1 65 -285.35881054384992694
   39000    312.33547     7.444765     60.73189   -143.84488   -399.98298    14221.896 
   39010    299.29506    7.4235768    57.231147    -144.9973    406.07655    14221.896 
   39020    299.46973    6.5684918    60.192046   -146.54141   -778.34108    14221.896 
   39030     292.7837    7.8455585    55.709798   -149.46246   -1855.0696    14221.896 
   39040    279.42025    8.7678412    59.164841   -152.93455    148.14582    14221.896 
   39050    276.37883    11.168568    58.124427   -156.45584    1820.8653    14221.896 
   39060    275.33083    11.228156     61.27857   -159.46266    2235.2541    14221.896 
   39070    268.24422    9.5053988    53.962026   -162.16742   -619.68427    14221.896 
   39080    265.40117    5.6287113    59.334548    -164.5235    29.104587    14221.896 
   39090    268.39915    6.5470285    56.298797   -166.74591   -1582.9271    14221.896 
39100        0.97927882878801797428 10.147102489620714039 1 68 -296.19375306344591081
   39100    283.69365     8.928816    54.372608   -167.65695   -306.52702    14221.896 
   39110    290.03212     7.889298    55.515475   -168.80909   -3067.5211    14221.896 
   39120    311.33492    6.4453976    50.648054   -169.06203   -1652.8194    14221.896 
   39130    288.10493     7.012278    51.031889   -169.88432    2137.4739    14221.896 
   39140    267.07506    6.5273156    57.899553   -170.09619     1288.673    14221.896 
   39150    276.61726    7.0022434    53.029554   -170.16814     2996.838    14221.896 
   39160    289.88881    6.9869936    56.698264   -168.33321   -528.78036    14221.896 
   39170    300.40158    7.1578519    50.783374   -166.40534    -1363.482    14221.896 
   39180    304.69059     6.338076    54.251574   -163.40288   -1209.8989    14221.896 
   39190    296.77742    9.3038422    53.650047   -159.43785   -1294.3779    14221.896 
39200        0.98606661567826658921 10.112344936630005776 1 66 -284.12374276098677228
   39200    286.33189    10.653067    61.909612   -154.39159    226.82846    14221.896 
   39210    309.18043    13.294592    54.096755   -149.23152   -845.97647    14221.896 
   39220    309.35103    13.963307    50.964939   -144.66277    134.49817    14221.896 
   39230    304.92894    10.345823    62.183104   -141.14849    2314.4072    14221.896 
   39240    312.89117    8.9807924    60.113449   -138.97772   -880.39664    14221.896 
   39250    301.38664    5.7114959    66.902903   -137.12583   -1822.8523    14221.896 
   39260    305.62529     5.003308    62.453821   -136.75155   -2800.5595    14221.896 
   39270    325.38982    5.5041953    62.921442   -136.78354   -620.66423    14221.896 
   39280    332.69016    6.1271101    60.479316   -137.80186    3438.4265    14221.896 
   39290    315.48233    7.0589379    63.975472   -139.39238    1514.8159    14221.896 
39300        0.98926183064859507521 10.079237899486980012 1 65 -275.74529771040607784
   39300    295.20517    9.7946704    62.141838   -141.99282    2514.6421    14221.896 
   39310    308.19425     12.77031    53.369003   -144.61209    864.59567    14221.896 
   39320      292.262     13.27025    56.677655    -146.7097    365.51955    14221.896 
   39330    316.02935    9.2419391    53.212674   -148.51185    2949.7095    14221.896 
   39340    303.48554    6.2955217    53.979254   -150.54557   -1788.1348    14221.896 
   39350     300.8272    5.1387993    61.825882   -152.15618   -1132.7234    14221.896 
   39360    299.28898    5.3050642    54.999334   -153.43508   -2010.5874    14221.896 
   39370    293.37382    3.9374632    59.560463   -154.67105    481.74942    14221.896 
   39380    294.46735     5.138099    60.575937   -155.87371    2381.7577    14221.896 
   39390    282.16631    8.7841494    51.823344   -156.68922    -414.7487    14221.896 
39400        0.98500854635437007367 10.089984429867371318 1 70 -289.96990479732670565
   39400    293.15809    10.510708    53.304706   -157.14492    704.70976    14221.896 
   39410    310.71373    13.162349    47.546768   -157.40752    3080.2416    14221.896 
   39420    283.79074    11.716442     52.79627   -157.53074    617.21401    14221.896 
   39430    292.93868    10.848956    48.797439   -157.23655   -1741.3024    14221.896 
   39440    291.98799    9.7738291    47.314232   -155.55764   -5167.0404    14221.896 
   39450    290.47096    9.3499178     57.30514   -151.97225   -1920.9216    14221.896 
   39460    310.88909    10.728628     52.10728   -147.12751   -850.24618    14221.896 
   39470    314.79778    9.2739998    58.101628   -142.02736    1416.3452    14221.896 
   39480    315.47947     8.042987    57.110311   -137.71198    2874.5892    14221.896 
   39490    340.87644    6.3310028    53.353813   -133.61481   -92.947111    14221.896 
39500        0.98503009541462915877 10.126301276224522141 1 73 -289.53514382918746151
   39500    349.15961    5.4359232    57.384768   -131.33681    1777.0959    14221.896 
   39510    312.95127    5.8619144    65.931852   -129.95452    227.68442    14221.896 
   39520    328.83119     6.791694    56.269509   -129.36543   -1282.9919    14221.896 
   39530    343.51674    5.7608017    59.727776   -129.82622   -1994.7382    14221.896 
   39540    350.22431    5.6626458    52.063398   -131.72416    -929.3769    14221.896 
   39550    327.15341    7.7553102    60.114875   -134.84466    3180.5002    14221.896 
   39560    310.33016    9.2872846    53.566535   -138.59621    1668.1275    14221.896 
   39570    287.31575    8.6789388    55.524253   -141.68944   -909.17835    14221.896 
   39580    332.74489    7.3941858    51.082404   -144.04952   -2560.7224    14221.896 
   39590    297.03862    8.0566873    60.233907   -147.29914   -422.85056    14221.896 
39600        0.98275735979101364048 10.136147706579352601 1 67 -281.01037187179252896
   39600    288.46245    7.8256724    58.570509    -150.3129   -349.12738    14221.896 
   39610    284.84212    6.6108485    61.320904   -152.84964     551.7052    14221.896 
   39620    314.48476    7.0694827    58.715535   -155.26414   -1219.3253    14221.896 
   39630    322.84252    6.8542345    48.271082   -157.97137    179.65314    14221.896 
   39640    290.17367    6.2909791    55.513847   -160.83652    3789.8995    14221.896 
   39650     277.9244    8.0484486    51.926964   -162.95972    2429.1788    14221.896 
   39660    250.72236     9.127985    57.318009   -163.72546    1166.0631    14221.896 
   39670    286.28013    9.9394273    50.417481    -164.0863    -1250.834    14221.896 
   39680     283.2532    8.5089425    54.844665   -163.26352    -1039.545    14221.896 
   39690    288.68054    7.7576253    51.837088   -162.32648   -2735.4535    14221.896 
39700        0.97814117244291898245 10.161681945388801651 1 70 -284.93886278654844091
   39700    275.22213    7.5013081    52.578182   -160.24036   -194.60074    14221.896 
   39710    288.19405    6.6037959    54.171262    -157.6949   -1157.3655    14221.896 
   39720    275.82389    6.9971099    64.607172   -153.97972    679.89359    14221.896 
   39730    309.96687    8.9659889     59.38784   -149.80341     388.6985    14221.896 
   39740    312.06255    12.562016    55.377138   -145.71988    1278.4791    14221.896 
   39750    294.26711    11.184579    63.331527   -142.27265   -442.04833    14221.896 
   39760    294.31146    8.3169118    64.110153   -139.63777   -1154.4738    14221.896 
   39770    301.08702    6.8844949    69.516482    -137.1991    428.11389    14221.896 
   39780    306.52624    6.2189336    61.138416   -135.49296   -288.00774    14221.896 
   39790    310.33129     6.739352    61.696766   -134.55696     539.6977    14221.896 
39800        0.97228229359932505371 10.195580086973990319 1 69 -272.42169287475644524
   39800      304.093    7.5242597    74.272065   -134.64229   -1467.3573    14221.896 
   39810    310.52044    7.5399752    64.656408   -135.35699   -1685.6376    14221.896 
   39820     290.2699    6.4961129    70.690984   -136.23633   -23.072923    14221.896 
   39830    302.68538    5.7335882    63.500498   -136.95492    1678.0581    14221.896 
   39840    294.37769    6.1310964    69.238886   -137.57306   -1193.0114    14221.896 
   39850    313.49484    8.7284615    54.391316    -138.2255   -2237.1893    14221.896 
   39860    288.56718    9.2287015    61.022481   -139.63261    156.29696    14221.896 
   39870    308.73167    7.4345949    53.548727   -140.62587    2284.5576    14221.896 
   39880     302.6853    8.7378162    63.289016   -141.11316   -457.67148    14221.896 
   39890    345.86618    6.8882867    56.453942   -142.50167    1433.5249    14221.896 
39900        0.97259792628202790254 10.186013515439574562 1 72 -293.16963380333902478
   39900    324.61921    5.6493924    60.238769   -146.09015     1304.497    14221.896 
   39910    306.98847    3.4124412    56.550354   -150.06134   -750.64822    14221.896 
   39920    293.92737    3.8194769    54.778026   -153.83334   -2053.0787    14221.896 
   39930    285.91997    4.5961242    64.690008   -157.23383   -1306.3993    14221.896 
   39940    288.59478    6.0810479    60.174537     -159.811    691.79274    14221.896 
   39950    281.94274    8.0116128    52.726193   -162.03519    1441.0767    14221.896 
   39960    284.51382    10.134105     56.14648   -163.55441    2194.7021    14221.896 
   39970    270.93257    12.795631    58.411313   -164.36663    1911.4109    14221.896 
   39980    281.47979    11.573125    50.470159   -164.12497   -452.55572    14221.896 
   39990    256.60311    10.703056    60.752663   -162.82773   -281.74633    14221.896 
40000        0.97071470766802447905 10.212477095748056399 0.99735449735449732689 74 -285.86368215687463135
   40000    275.58166    10.053023    56.504873   -161.00228   -1501.4398    14221.896 
   40010    276.68243    9.0896169    62.291316   -157.88512   -2422.0741    14221.896 
   40020    306.54762    9.0080249    57.847054   -153.91563    508.22609    14221.896 
   40030    319.65427    9.5730864    49.365345   -149.88105    455.54611    14221.896 
   40040    317.52184     7.610367    52.186116   -146.87788    876.74838    14221.896 
   40050     303.5094    6.1056274    65.456629   -144.44172    1137.1114    14221.896 
   40060    337.76438    5.7193466     52.02992   -142.48638   -1077.2174    14221.896 
   40070    302.02277    5.8825268    62.570114   -141.64614   -1543.8962    14221.896 
   40080    311.77602    4.2209957    55.109704   -141.01016   -268.02561    14221.896 
   40090    285.89883    3.4769762    56.543862   -141.16143   -881.49237    14221.896 
40100        0.97010333110440627458 10.210173496621475664 1 72 -275.40371601059905515
   40100    297.03704    6.1597943    50.143805   -140.82124   -250.28494    14221.896 
   40110    297.79572     5.937083    63.292622   -140.51139    1048.6169    14221.896 
   40120    299.42061    5.9857448    66.442398   -139.95338    3109.3979    14221.896 
   40130    333.72893    6.1204083    52.127054    -140.5872   -1340.1891    14221.896 
   40140    301.82077    8.9238186    58.691809   -141.43695   -2973.4798    14221.896 
   40150     311.5186    8.4597752    49.400828   -142.28192    682.24715    14221.896 
   40160    286.08631    5.7709011    53.408627   -142.67274    2215.0864    14221.896 
   40170    324.02609    5.6188163    54.969414   -142.44053    567.58722    14221.896 
   40180    315.28165    4.2794715    53.698991   -142.59162   -3425.3849    14221.896 
   40190    329.61503    4.2040665    49.670628   -142.63734   -2292.1183    14221.896 
40200        0.98177227209453954426 10.151419566189479937 1 69 -281.39549170428682601
   40200    304.33153    4.4234191    67.515247   -143.50801    1347.2055    14221.896 
   40210    318.64652    7.3456795    53.035298   -145.10247    1168.5846    14221.896 
   40220    320.15577    11.454611    56.037849   -147.73262    1714.0269    14221.896 
   40230    313.55334    11.782693     56.36364    -150.5716    1014.6391    14221.896 
   40240    295.38331    10.152145    52.172079   -154.23917   -233.92025    14221.896 
   40250    287.26905    7.0082016    61.737315   -158.20477    1908.3203    14221.896 
   40260     288.4886    6.5235582    59.563739   -162.82225   -918.83672    14221.896 
   40270    283.97715    6.6736327    55.966645    -167.5146   -1528.9806    14221.896 
   40280    293.05228    8.2771997    47.555327   -171.93413   -1123.9129    14221.896 
   40290    278.90323    10.475305    53.585359   -174.98257    1968.5672    14221.896 
40300        0.97939833545273313753 10.13817472875742709 1 68 -303.45344616559845008
   40300    278.76945    10.989039    51.972421   -177.14771    3760.9942    14221.896 
   40310    256.54175     9.226676    57.042165   -178.02779    -2383.033    14221.896 
   40320    269.20115    7.0779429    47.211301   -177.98868   -2763.5338    14221.896 
   40330    261.50981    4.6560771    50.222451   -176.95127   -1690.9008    14221.896 
   40340    253.67723    6.9888954    52.149304   -174.99045    1000.7409    14221.896 
   40350    245.34092    10.387906    54.236741    -172.4371    463.89932    14221.896 
   40360    251.87591    11.247756    57.458199   -170.03053    907.69294    14221.896 
   40370     278.8318    9.7499794     51.95438   -166.74328    2212.6572    14221.896 
   40380    293.26191    7.3544349    46.525989   -163.25613    1101.7546    14221.896 
   40390     290.0481    4.9497868    47.805813   -159.74044   -2013.2433    14221.896 
40400        0.97264574160068073549 10.166433099259119643 1 67 -283.67677407392875466
   40400     280.9157    2.6004174    53.820154   -156.39861   -386.95198    14221.896 
   40410    279.60219    3.3822698    59.570257   -153.38306   -528.02067    14221.896 
   40420    291.50461    5.8803446    53.950984   -149.71292     314.1711    14221.896 
   40430    296.21108    7.9569493    60.676945   -146.17546    432.23828    14221.896 
   40440    312.81627    9.1076471    51.249269   -143.00279   -828.06472    14221.896 
   40450    296.16114     8.388427    57.140495   -140.42395    561.69574    14221.896 
   40460    325.94593    9.7374529    52.598318   -137.88146    2294.8467    14221.896 
   40470    305.31758    11.317824    59.557338   -136.33804    2007.0719    14221.896 
   40480    308.28866    13.926699    57.494736    -135.0431     1149.057    14221.896 
   40490    285.85366    11.741153    63.869029   -133.32694   -3347.3188    14221.896 
40500        0.97126782729410798822 10.190959872860940294 1 66 -271.21936187991980205
   40500    307.63188    8.0862105    58.041546   -131.83655   -3077.1467    14221.896 
   40510    333.91249    6.0349243    54.339072   -130.59043   -3018.6618    14221.896 
   40520    330.84079    7.3999709    57.594024   -129.59755   -1399.2329    14221.896 
   40530    295.15652    10.479989    61.617634   -129.35205    1752.8158    14221.896 
   40540    289.25443    11.074819    62.652586     -129.508    1930.4211    14221.896 
   40550    319.29507    7.2561191    61.207747   -128.97672    3425.5922    14221.896 
   40560    342.04039    6.2622584    61.970851    -128.9793   -483.52566    14221.896 
   40570    345.19836    5.9507272    61.691306   -130.77233   -154.71362    14221.896 
   40580    306.77964    7.1037449    66.305479   -133.99153    72.879833    14221.896 
   40590     303.1761    7.4184056    59.616605   -140.11326   -2093.5261    14221.896 
40600        0.9676213555741125516 10.18031473171321899 1 66 -275.48816380988887431
   40600    285.76501    7.7498977     62.99894   -146.01286    -384.5127    14221.896 
   40610    282.97052    6.4191817    63.033568   -151.67522   -388.08366    14221.896 
   40620     263.0969    6.1132699    72.579257   -155.50185    480.92253    14221.896 
   40630    284.35428    7.8218088    53.712858   -157.45423    494.96997    14221.896 
   40640    275.67859    7.7315904     59.79187   -158.68753    40.454075    14221.896 
   40650    272.09739     5.401929    61.434801   -159.12009    965.93296    14221.896 
   40660    278.70714     4.419519    57.608386   -158.10269   -1469.3549    14221.896 
   40670    255.15042    7.1423967    62.508016   -158.15214    -243.4998    14221.896 
   40680    279.10179    4.8323663    57.210903   -156.85819   -1669.4227    14221.896 
   40690    292.26185    3.0703061    60.399067   -155.00444   -466.39613    14221.896 
40700        0.96834933566289493889 10.187236868044690752 1 69 -295.37784044607258238
   40700    315.17981    2.9051622    58.242262   -152.57519    -1198.134    14221.896 
   40710    320.84559      5.94471    55.010225   -151.24756    652.31498    14221.896 
   40720    280.55446    7.1472684    64.345411   -150.28886    1385.5924    14221.896 
   40730    305.51898     7.222728    52.324641   -148.91467    1367.0383    14221.896 
   40740    291.69869    6.6500539    65.335368   -146.65682    276.57396    14221.896 
   40750    308.54254    5.7644891    63.460109   -145.14535    8.2296225    14221.896 
   40760      298.434    6.2757042    55.543283   -143.25716   -1072.5626    14221.896 
   40770    323.88373    6.8323077    53.596083   -141.75434   -675.77212    14221.896 
   40780    323.76992     5.209536    59.146432   -138.93255     495.1086    14221.896 
   40790    326.76835    3.0598278    60.925451   -135.54923    251.86903    14221.896 
40800        0.9705588357961812962 10.177529830805957189 1 66 -275.56538954040399858
   40800    315.90899    5.7560944    61.963105   -132.43235   -734.65056    14221.896 
   40810    324.34162    7.2919624    63.661109   -129.08627   -1887.5759    14221.896 
   40820    335.89231    8.5083279    60.782101     -125.353   -20.383779    14221.896 
   40830    320.46542    6.7786892     65.22592   -122.18023   -1341.1623    14221.896 
   40840    332.83383    6.9170882    63.688786   -119.08324   -324.87878    14221.896 
   40850    330.81311    5.9111585    62.968281   -117.14372      1144.83    14221.896 
   40860    346.11273    3.3629723    63.752026   -117.15507    1518.9883    14221.896 
   40870    326.35974    3.0665941    67.963337   -119.17221    1722.4771    14221.896 
   40880    319.18928    4.5411266     59.57959   -122.59501   -2516.2991    14221.896 
   40890    334.06309    6.3368467    55.172788   -127.25069    427.60926    14221.896 
40900        0.97928544221158198013 10.11072402762092004 1 69 -272.05331356481798366
   40900    307.15315    7.6321004    64.002446    -132.8874    2694.4799    14221.896 
   40910    305.24149    7.5723089    54.819415   -138.40718    1182.7961    14221.896 
   40920    281.71128     9.576176     66.91547   -142.65444   -244.00181    14221.896 
   40930    304.87034     11.56636     54.14156   -146.05672   -1013.7861    14221.896 
   40940    286.89714    11.083676    53.340025   -147.93898   -974.36958    14221.896 
   40950    294.29111    9.1321929    55.968503   -149.11005   -1150.3583    14221.896 
   40960     290.5171    8.8158529    62.285826   -149.68489   -61.929248    14221.896 
   40970    319.20906    10.256335    56.713209   -150.13725    1540.9587    14221.896 
   40980    324.23495    9.6578529    53.830467   -151.26541     338.2756    14221.896 
   40990    309.75591    9.7659614    56.552897    -152.3614     -142.794    14221.896 
41000        0.98692723313900199145 10.094242293614138717 1 65 -297.38089982744457984
   41000    315.05614     10.27304    57.545988   -154.63428    1148.4649    14221.896 
   41010    291.32189    9.8913613    54.020616   -157.57353   -837.75494    14221.896 
   41020    292.64989    11.084878    55.467084   -159.30225   -2644.0648    14221.896 
   41030    275.42575    13.078689    56.291521   -161.06933   -742.10748    14221.896 
   41040    284.50208    10.869079    59.643956   -162.39164   -2596.2818    14221.896 
   41050    307.79689     11.01381    50.248216   -163.37729    2276.2895    14221.896 
   41060    310.50029    10.699293    50.416215   -164.94003    389.88258    14221.896 
   41070    274.47282    10.850937    61.645816   -165.77392    3628.9987    14221.896 
   41080     280.6059    9.3977833    55.008442   -167.31154   -497.02887    14221.896 
   41090    256.67175     8.507854    60.145579   -168.41014    1273.8108    14221.896 
41100        0.9875097336790018554 10.093882006994622458 1 72 -296.68147946873193632
   41100     280.1588     8.756882     54.70766   -169.74625    2038.7434    14221.896 
   41110    280.68612    10.122099    48.782101   -170.09785    1422.5998    14221.896 
   41120    282.24286    11.611882    51.595989   -169.72538   -1433.9358    14221.896 
   41130     288.0669    8.6682102    57.778574   -167.96749   -1375.4105    14221.896 
   41140    297.47195    5.6522282    59.521526   -165.86611     274.1406    14221.896 
   41150    316.66083    6.7252871     52.80311   -163.63118    599.97635    14221.896 
   41160    298.01335     10.86788    49.241537   -161.32645   -2074.1052    14221.896 
   41170    292.25109    11.548457    53.287131   -158.91599    1839.0116    14221.896 
   41180    301.34931    8.4305239    57.648692   -155.23867    3800.6985    14221.896 
   41190    317.80525    8.1416963    53.270668    -151.8888    576.59046    14221.896 
41200        0.98027916171014917168 10.160757030685973135 1 68 -295.18870936554202444
   41200     323.2112    7.1372845    50.386753   -148.74717   -3374.1185    14221.896 
   41210    324.67758     6.416845    53.171784   -146.33813   -3415.5625    14221.896 
   41220    329.29224    4.6108328    61.252301   -144.15064   -1530.6904    14221.896 
   41230    314.38519    5.8720693    63.560098   -142.61592   -747.74626    14221.896 
   41240    321.25372     7.119122    56.029778    -142.3023    161.08651    14221.896 
   41250     310.9244    6.7932756     65.19754   -142.34464    1602.1715    14221.896 
   41260    345.70576    7.9810167    51.933766   -143.57448     -185.097    14221.896 
   41270     324.0378    12.403269    58.485703   -146.64128     894.3033    14221.896 
   41280    303.74063    13.338239    52.688595   -150.63786    1991.5204    14221.896 
   41290    281.80466    13.053757    56.183057   -154.65107    1069.4465    14221.896 
41300        0.97181595182249103093 10.177857628498887976 0.99735449735449732689 67 -292.13318534353987843
   41300    295.43344     10.19398    52.217914   -158.27728   -419.43279    14221.896 
   41310    288.30808    9.0095003     52.61376   -161.48669   -2215.2981    14221.896 
   41320    275.53353    7.8068967    54.420724   -163.76058    1157.3474    14221.896 
   41330    257.14374    6.7485275    59.569819   -165.00976   -1834.7116    14221.896 
   41340     265.0263    6.2648926    52.277475   -165.37043   -669.72781    14221.896 
   41350    283.19187    5.5437915    58.840036   -165.16035    599.52783    14221.896 
   41360    298.58097    5.8565578    51.858333   -163.91743    1499.9989    14221.896 
   41370    288.32848    6.3060108    52.400672   -162.40122   -558.89672    14221.896 
   41380    268.20567    7.7274572    54.738527   -160.35637   -3915.9159    14221.896 
   41390     294.5598    6.3987195     56.32866   -157.09301   -580.03009    14221.896 
41400        0.9669855106264816369 10.193601309252970921 0.99470899470899465378 66 -299.11433345551421326
   41400    319.55387    6.0320461    47.388469   -154.32986    1350.8923    14221.896 
   41410    314.39153     4.589452    54.583342   -152.04345    2361.9023    14221.896 
   41420    305.75255    4.4503903    52.250935   -149.77473    1615.5492    14221.896 
   41430    288.33286    5.3063607    60.775953   -147.90028   -489.71864    14221.896 
   41440    308.26607    5.2738176    61.919076   -146.62887    -1217.313    14221.896 
   41450    301.40116     7.113727    56.513799   -145.56631   -856.97793    14221.896 
   41460    316.81236    3.5225539    57.516147   -145.43821   -193.72527    14221.896 
   41470    285.25565    4.7842029    71.510243   -145.40311    1830.3762    14221.896 
   41480    293.01217    5.7222185    56.534782   -144.96856    -1888.387    14221.896 
   41490    285.14903    7.6692267    62.017491   -144.47788   -2456.2523    14221.896 
41500        0.97178705552623712016 10.186609161292050629 0.99735449735449732689 67 -271.34812238437120868
   41500    281.83442     6.942961    68.478038    -143.6537   -1176.3139    14221.896 
   41510    300.30555    7.3650195     64.86675   -143.05689    1798.1829    14221.896 
   41520    308.81922    7.3879105    60.928242   -142.72064    292.55326    14221.896 
   41530    310.17157    8.8855901    63.881651   -142.89451   -2421.3358    14221.896 
   41540    326.47109    8.2981878    58.221345   -143.60876    1020.8296    14221.896 
   41550    322.56247    9.3512493    60.362548    -146.0995    1110.3782    14221.896 
   41560    293.53008    10.696989    59.120943   -149.07552    1051.4164    14221.896 
   41570    277.84342    11.433405    61.734657   -151.93751   -1491.2297    14221.896 
   41580    283.88982    9.1493501    59.847872   -154.94046    1002.0952    14221.896 
   41590    300.46159    6.4440113    52.408232   -158.33013    265.77686    14221.896 
41600        0.98038290956221829653 10.140145849783182896 1 65 -284.94247438981403775
   41600    273.83109    7.7370979    56.917151   -160.87423    168.67011    14221.896 
   41610    289.89089    9.3141456    50.950918   -162.26629   -2231.4342    14221.896 
   41620    294.00836    9.4327107    51.841493    -163.3726   -504.91959    14221.896 
   41630    307.09464    6.0999493    57.076799    -164.5146    2556.5312    14221.896 
   41640     309.2027     4.301818    54.497675   -165.60545    1161.8575    14221.896 
   41650    290.33131    4.9041357    59.522306   -166.91513    1393.2642    14221.896 
   41660    295.06561    6.8292788    53.040752   -168.06353   -3549.9971    14221.896 
   41670    279.64923    6.3867683     58.74609   -168.82759    -1741.513    14221.896 
   41680    294.82944    5.0856504    56.329045   -169.84589    718.89523    14221.896 
   41690    273.14119    5.3470043    56.165412    -170.8341    1623.7004    14221.896 
41700        0.98571647653498661867 10.075516416620800442 1 67 -297.68769422867546837
   41700    279.37022    8.1230343    55.779844   -171.10976    812.85515    14221.896 
   41710    273.97931    10.536479    54.647953   -170.86798    651.63919    14221.896 
   41720    281.56567    10.701516    59.352849    -169.3317    2131.9224    14221.896 
   41730    312.13072    13.622845    47.100131    -165.9348   -1148.5518    14221.896 
   41740    296.15458     14.91443    55.164235   -161.45845   -1702.5271    14221.896 
   41750    303.24888    16.173244     55.63772   -157.55905   -714.32596    14221.896 
   41760    275.50614    15.758739    63.301202   -153.11807    196.33966    14221.896 
   41770    289.57668    14.760071    56.223731   -148.48136   -651.57883    14221.896 
   41780    305.81372    12.939199    53.628488   -144.36587   -844.51794    14221.896 
   41790    323.37676    7.8811035    69.421396   -140.94018    1169.3947    14221.896 
41800        0.98553438666538373258 10.063325302239249481 1 73 -279.53806834534037762
   41800    310.84422    7.9870367    64.733113   -138.69979    3752.2216    14221.896 
   41810    295.89738    7.0967369    68.463981    -137.5619    553.70236    14221.896 
   41820    305.82515    7.8226414    58.334161   -137.23913    136.96609    14221.896 
   41830    316.31153    10.503242    54.993744   -136.83432   -1507.4644    14221.896 
   41840    310.63645    9.8348433    61.488763   -137.22679   -179.12126    14221.896 
   41850    317.52234     11.18441    60.687255   -137.82813   -410.77629    14221.896 
   41860    304.46988     12.53793    67.109101   -139.12133   -302.43461    14221.896 
   41870    305.66705    15.417182    58.634018   -141.50514    1968.3395    14221.896 
   41880    292.89401    11.052622    60.917156   -144.10789    1486.0327    14221.896 
   41890    271.92533    8.8156224    66.213043   -146.98702   -255.09158    14221.896 
41900        0.98777658367235365855 10.115239536924560682 1 71 -272.67955469639827015
   41900    271.98262    9.0276915    59.420214   -149.44882   -1322.3049    14221.896 
   41910    268.69483    10.950141    66.283765   -151.96437   -160.50285    14221.896 
   41920     295.8709    8.4025625    55.357178   -153.82136    580.07817    14221.896 
   41930    278.73076    8.0786569    64.039645   -155.92987    1756.3686    14221.896 
   41940    296.24298    8.7735481    56.154745   -158.21657   -1323.9322    14221.896 
   41950    272.29347    11.728574    57.286677   -161.15915   -1421.2271    14221.896 
   41960    292.92266    10.643498     52.68433   -164.19516   -1493.5591    14221.896 
   41970    299.28365    9.5027872    54.777879   -168.02956   -677.50701    14221.896 
   41980    306.24497    7.9428921    57.577896   -172.63578   -174.45124    14221.896 
   41990    296.86112    8.8196427    52.108421   -178.29787    763.60063    14221.896 
42000        0.98692443347291658462 10.11924825175307241 1 69 -304.59919085438281172
   42000    267.06828    7.7769863    53.784318   -183.59506    1606.1014    14221.896 
   42010    257.92378      7.65255    48.931931   -186.95711    1664.9074    14221.896 
   42020    251.78989    7.6821725    51.587157   -188.30095    -939.1302    14221.896 
   42030    272.15301     7.780729    52.128573   -188.17411   -330.69416    14221.896 
   42040    264.10388    9.6696014    56.749601    -187.2851   -755.84824    14221.896 
   42050    285.03865      10.0327    53.240424   -185.83375    2406.3968    14221.896 
   42060    277.22746    13.281158    55.563975   -184.38163   -570.17627    14221.896 
   42070    262.09517    13.050479    51.779118   -182.43755   -911.87509    14221.896 
   42080     263.1711    11.530152    55.665755   -179.63201   -1388.3281    14221.896 
   42090    286.26605      10.2053     46.86547   -176.38883    1682.7202    14221.896 
42100        0.97641724927318296334 10.167893597578030906 1 67 -310.4348373420579037
   42100    303.67307    9.4455683    51.007279   -172.84569    2910.2895    14221.896 
   42110    286.83453    8.9581372    54.445484   -169.78692   -1294.2085    14221.896 
   42120    288.17418    6.7007898    54.445704   -167.72092   -2888.0599    14221.896 
   42130    309.43796    6.0336658    52.388582   -165.63062   -415.49227    14221.896 
   42140    297.68094    6.3755567    57.230301   -163.48762   -829.03489    14221.896 
   42150    298.81023    7.7728084    50.747525   -162.04267    1461.8485    14221.896 
   42160    287.67411     8.747872    62.432268   -160.76638   -758.89399    14221.896 
   42170    297.48556    11.427075    50.915419   -159.40481    1643.3377    14221.896 
   42180    282.68227    11.256935    55.123566   -158.25626    406.51166    14221.896 
   42190    272.25635    11.082211    62.299824   -156.06625    146.56476    14221.896 
42200        0.96547532722855378129 10.19799044939856536 0.99735449735449732689 70 -286.351093749201425
   42200     293.4583    10.769746      58.4401   -153.39009    1951.7171    14221.896 
   42210    307.89132      9.06241    58.396884   -150.39195   -2747.6024    14221.896 
   42220     302.3002      7.16386    60.491511   -148.03101   -75.765447    14221.896 
   42230    289.92658    7.5839302    62.263369   -146.04229   -140.71558    14221.896 
   42240    302.45448    7.6772701    60.858312   -144.16943    3125.5546    14221.896 
   42250    338.93661    5.3138279    63.656501   -141.58747   -1405.5957    14221.896 
   42260    330.84521    6.7885404    57.031303   -141.81679   -2906.7738    14221.896 
   42270    315.48254    6.3952011    67.219527   -142.80232   -1528.4551    14221.896 
   42280    305.51028    5.8516249    58.068158   -144.73235    1078.0318    14221.896 
   42290    305.82364    5.7973328    58.835128   -147.24443    927.86683    14221.896 
42300        0.9527884705932468945 10.253549788511717722 0.99735449735449732689 67 -291.87179446185820098
   42300    313.33875    7.1859204    55.324247   -149.90329   -262.14643    14221.896 
   42310    287.00281    7.8189985     57.91061   -153.28135   -954.87918    14221.896 
   42320    274.41865    8.5413795    59.658169    -156.6266    2200.3544    14221.896 
   42330    269.83949    4.9786587    60.144828    -160.2845    733.88759    14221.896 
   42340    264.53593    4.6994183    58.385927   -164.29128    418.60065    14221.896 
   42350    253.54374    6.3037968    59.448567   -168.54875   -1205.6927    14221.896 
   42360      258.627    6.6944887    57.530219   -172.07222   -265.33741    14221.896 
   42370    253.83483    4.8696304    63.923031   -176.01193    1878.6038    14221.896 
   42380     260.5261    4.2504496     56.55631   -179.59977   -1331.4894    14221.896 
   42390    237.21443    4.9434235    58.169234    -183.0847   -1445.6822    14221.896 
42400        0.95104724671606211128 10.253493469686540962 1 65 -294.5201694670565189
   42400    239.50325    5.8844155    47.246109   -186.00529   -1100.6246    14221.896 
   42410    230.35535    6.7612925    54.448072   -187.71929    1329.8588    14221.896 
   42420    257.23721    7.4487374    47.205527   -188.09388      3046.35    14221.896 
   42430    247.26964    6.7684163    47.992013   -186.84191     1430.202    14221.896 
   42440    270.49134    6.2348323    46.818052   -183.07095    708.57933    14221.896 
   42450    259.84776    6.1281755    53.381831    -176.4817    -3397.127    14221.896 
   42460    257.84839    7.3897235    56.340929   -169.48359   -2064.9789    14221.896 
   42470    280.53346    5.9427969    56.702133   -163.25255   -2200.6237    14221.896 
   42480    297.17629    6.8537291    52.320617   -158.52842   -1024.3576    14221.896 
   42490    309.84428    7.0816289    50.112129   -154.75756    -216.0232    14221.896 
42500        0.95125549393340547155 10.257479071537108695 1 69 -285.18361562207439874
   42500    294.25361    7.4534514    56.684357   -151.86227    903.47526    14221.896 
   42510    315.86466    7.3862803    54.872708   -149.55502    173.76668    14221.896 
   42520    308.73386    6.7805737    56.497091   -147.72508   -905.90996    14221.896 
   42530    309.92465    7.0253881    58.067317   -146.84159   -162.31671    14221.896 
   42540    290.81186    7.3844106    61.576353     -145.896   -1162.3347    14221.896 
   42550    289.82525    7.6868984    62.965782   -145.30014   -1164.5561    14221.896 
   42560      292.226    5.5694018    66.234487   -144.23151    1589.3216    14221.896 
   42570    312.58094    5.2672195    54.191304   -142.80638    866.34208    14221.896 
   42580    305.54695    4.5317004    56.969278   -141.86384   -1384.1824    14221.896 
   42590    309.93266    5.3697322    58.339952   -141.08037   -1861.6119    14221.896 
42600        0.95991558941422150397 10.205574985691894696 0.99735449735449732689 67 -274.52380360454662878
   42600    295.53753    7.4318988    68.205672   -140.62073     1397.447    14221.896 
   42610    341.15212    6.6535623    51.470144   -140.25595    2333.1932    14221.896 
   42620    276.70089    10.261537    63.356869    -140.5768     2199.735    14221.896 
   42630    292.08673    11.798855    53.304385   -140.90598   -363.13455    14221.896 
   42640    285.51649    10.204398    66.707748   -141.12644   -213.80241    14221.896 
   42650    327.74261    10.285098    58.023289   -141.53803    902.61772    14221.896 
   42660    299.39004    7.9871839    59.766623   -142.91872    1136.6754    14221.896 
   42670     279.1578    8.0372471    54.459707   -144.71356   -1808.4042    14221.896 
   42680    286.18447    5.4449442    51.390813   -145.71863   -1405.5889    14221.896 
   42690    254.64632    4.9384056    65.967429   -145.49672   -2055.0371    14221.896 
42700        0.96968994678579634172 10.177059906526562116 1 68 -277.13405439875623415
   42700    291.88666    5.6367449    53.362316   -144.88513    470.65406    14221.896 
   42710    282.70175    5.0466643    61.257054   -143.07091   -1229.1916    14221.896 
   42720    331.79708    5.0210568    51.128698   -140.38449    80.816915    14221.896 
   42730    316.53915    8.1532311    62.961234   -138.04783    2345.0331    14221.896 
   42740    324.43357    6.0253307    54.494002   -136.12868    533.94288    14221.896 
   42750    315.57821    6.1958646    61.069343   -135.03794   -313.54911    14221.896 
   42760    335.17313    4.8413092    60.301316   -135.64407   -878.43067    14221.896 
   42770    328.26204    5.5509759    54.363338   -137.01736    116.26864    14221.896 
   42780    311.28507    5.9569377      58.3073   -140.30237    3433.1469    14221.896 
   42790    302.78719    4.7118008     58.24814   -145.07039   -18.867851    14221.896 
42800        0.97681579087553671581 10.152631423905493335 1 70 -288.21993139966770059
   42800    304.91847    4.0980135    54.855005   -150.06652   -2057.9504    14221.896 
   42810     284.3385    4.4597724    59.291098   -155.24219   -1905.0916    14221.896 
   42820     295.5479    4.5564913    51.246483   -159.21315   -1145.3176    14221.896 
   42830    289.39803    7.6072885    49.227631   -162.08876    2026.4538    14221.896 
   42840     302.3285     8.818284    48.157373    -164.0586    1418.9162    14221.896 
   42850    292.62318    8.0229419    51.100714   -165.30682    1814.9883    14221.896 
   42860    281.67013    8.8987285    51.925136    -166.3008    1008.4761    14221.896 
   42870    277.87905    7.7396589    43.922193   -165.96849   -1218.2293    14221.896 
   42880    269.41416    5.7480279    52.324235   -164.75594   -1229.2617    14221.896 
   42890    303.50736    5.7949314    49.985304   -162.89879    -1920.199    14221.896 
42900        0.97786160886373441059 10.148975170260630563 1 66 -284.26072350517108589
   42900    272.35823    5.6194962    63.615244   -160.85981   -406.82604    14221.896 
   42910    307.44299    6.8116374    44.936563   -158.63242   -826.61939    14221.896 
   42920    268.88442    7.4551474    61.563542   -156.39019    65.629126    14221.896 
   42930    287.13702    9.3173381    55.683144    -153.9123    3217.1974    14221.896 
   42940    287.92519    8.9457224    55.285051   -151.09929    734.98714    14221.896 
   42950    301.90889    9.1267499    52.530786   -148.25042    1826.9782    14221.896 
   42960    296.43286    6.5891769     55.59736   -145.31837    85.399312    14221.896 
   42970    307.16041    5.3755895    59.368668   -142.85132   -285.24663    14221.896 
   42980     327.2499    4.3547655    57.998793   -141.56831   -733.77411    14221.896 
   42990    337.05166    3.2324206    53.326472   -141.50992   -3960.1143    14221.896 
43000        0.9779032772722204836 10.151417006404891197 1 70 -287.84129343754966612
   43000    320.94009    3.9797321    57.074382   -142.42875    1086.7714    14221.896 
   43010    310.35519    3.1715001    58.608388   -143.76043    1742.6214    14221.896 
   43020    298.26514    3.2749506    60.836644   -144.82091    2092.2842    14221.896 
   43030    305.92551    3.6791494    61.528808   -145.85567   -728.83279    14221.896 
   43040    295.91431    5.4995363    58.562982   -147.31465   -1602.6244    14221.896 
   43050    280.55055    6.0853861    55.295941   -148.21992   -2650.8973    14221.896 
   43060    265.85781    7.4714667    59.000706   -149.07354   -1292.2796    14221.896 
   43070    290.87107    8.4709524    56.396039   -148.53156   -1847.7299    14221.896 
   43080    320.62435    7.3446488    57.351424   -148.33641    2388.0836    14221.896 
   43090    323.89551     8.182245    51.279749   -148.73118    758.35561    14221.896 
43100        0.97624304097477165865 10.134424593845595908 1 69 -288.17366107622643767
   43100    305.90269    9.1689082    51.234552   -149.57431    1449.2809    14221.896 
   43110    276.25563    10.943056    60.556785   -150.72878    116.87175    14221.896 
   43120    287.02164    8.6385627    55.635926   -150.72254   -598.70543    14221.896 
   43130    290.83191    7.4915382    56.247916   -150.69272    393.09068    14221.896 
   43140    300.03449    6.9330659    53.506449   -150.07243    987.52646    14221.896 
   43150    309.39748    7.1820376    57.043145   -149.33391    884.92123    14221.896 
   43160    315.17969    7.9579444    53.078211   -148.02939    484.35808    14221.896 
   43170    314.95591    8.3496392    51.937409   -146.71762   -1150.9004    14221.896 
   43180    300.95857    8.7424694    54.798937   -145.79119    678.49743    14221.896 
   43190    298.96273    7.2194234    56.626856   -144.21964   -1117.2925    14221.896 
43200        0.97641089378814260868 10.169935083380945429 1 69 -277.19384796964084217
   43200    298.35397    7.4601074     61.03346    -142.0147   -2424.6765    14221.896 
   43210    313.33996    6.2525677    59.551041   -139.48524   -3101.2283    14221.896 
   43220    293.57777    4.6947395    57.200291   -137.85473   -1819.1717    14221.896 
   43230    316.88449    4.8202217    58.163534   -136.63316    1081.2553    14221.896 
   43240    305.62695    6.7206282    58.249854   -134.59137    2678.5296    14221.896 
   43250    303.53271     7.520218    59.907329   -132.67098    1726.0879    14221.896 
   43260    301.46936    5.3605918    63.845003   -130.75286    2426.3952    14221.896 
   43270    309.29796    4.2576618    62.784739   -129.35586     1154.632    14221.896 
   43280    311.97722    4.4260615    56.693208   -128.05799   -1463.5763    14221.896 
   43290    271.66794    4.9340616    64.167144   -126.88062   -3812.9508    14221.896 
43300        0.98094683708177554671 10.139986927790152649 1 66 -269.91871118266755047
   43300    319.66502    3.5154966    57.836854   -125.08388   -1783.2829    14221.896 
   43310    323.50443    4.8651735    62.601567   -122.75913    1321.8418    14221.896 
   43320    324.25816    6.7958953    63.508053   -120.81269    0.4152521    14221.896 
   43330    329.87894     7.939859    66.069963   -119.80921    179.39339    14221.896 
   43340    333.53354    8.1557455    55.966756    -120.7046    632.21488    14221.896 
   43350    367.44729    8.9911119    52.696613   -123.00311    84.420695    14221.896 
   43360    334.86903    10.410026    62.180483   -127.76811    2998.7876    14221.896 
   43370    295.43941    10.509686    60.596387   -134.05707    361.79742    14221.896 
   43380    291.68701    8.2700758    58.771603   -139.86388     438.3114    14221.896 
   43390    295.21462    8.3528411    58.390315   -144.79818   -743.86697    14221.896 
43400        0.98581786727823739191 10.108334357474404896 1 69 -287.67530596589045899
   43400    308.31763    11.231698    50.006298   -147.98179     453.6233    14221.896 
   43410    289.81609    12.645143     55.28954   -150.78835    820.31738    14221.896 
   43420     281.6753    11.834154    53.855561   -152.44583   -742.18523    14221.896 
   43430    294.97593    9.4502413    58.265497   -153.24842   -628.97503    14221.896 
   43440    282.08375    7.8046606    58.347661   -153.52145   -1976.4379    14221.896 
   43450    306.78292    5.8456717    55.733169   -153.73794   -1122.1531    14221.896 
   43460    323.26949    6.3235285    51.021356   -153.92411    675.66064    14221.896 
   43470    318.96871    5.8405097    46.130968   -153.92968    1524.3411    14221.896 
   43480    287.75782     4.872231    58.855292   -155.14733    3729.0068    14221.896 
   43490    281.76316    3.3683478    57.177952   -155.63123    1202.3503    14221.896 
43500        0.98780331689316025479 10.108577738512973809 1 66 -297.54026007729640924
   43500    313.23416    3.2582792     47.65309   -155.61915   -1218.5644    14221.896 
   43510    306.79086    3.2955429    63.728235   -155.52216   -1363.8562    14221.896 
   43520    320.74645    4.3695747    51.722346     -156.187   -1041.4827    14221.896 
   43530    307.51304    6.8160698    52.720789   -156.74562   -164.37456    14221.896 
   43540      297.457    10.689548     48.53549   -157.74028   -692.17351    14221.896 
   43550    281.87895    11.688058    51.340429   -158.55805   -1689.6512    14221.896 
   43560    299.86848    8.0355713    56.537463   -159.45736    1460.5712    14221.896 
   43570    305.47348    4.9742131    52.654421   -159.79695    929.90548    14221.896 
   43580    303.61655    4.3128903    52.288266   -161.03687   -1624.9329    14221.896 
   43590    299.73413     5.520305    50.808392   -162.35414    848.30638    14221.896 
43600        0.98660630129176063452 10.121350695228509053 1 67 -295.45524706913408863
   43600     292.1523    6.8774295    49.861655   -163.08597   -488.89392    14221.896 
   43610    306.01882    11.276542    50.850382   -163.55721    1156.9441    14221.896 
   43620    293.72742    13.940477    60.168763   -164.28517   -294.08554    14221.896 
   43630    291.47719    12.821416    50.034333   -165.28528    1562.4779    14221.896 
   43640    268.40203    11.358321    60.484614   -166.01219    650.69673    14221.896 
   43650    286.48019    9.1550109    48.656068   -165.38225    1710.9785    14221.896 
   43660    260.57038    4.6218729    57.147083   -164.43301   -861.65286    14221.896 
   43670    272.20126    3.6914344    57.983392   -162.25171   -360.81389    14221.896 
   43680    264.70544    4.5160583    61.827627   -158.39452   -854.38861    14221.896 
   43690    294.33898    5.0630097     58.33415   -153.84202   -2129.2808    14221.896 
43700        0.98518869740172143601 10.124930926877441451 1 67 -286.2587441474456682
   43700    303.57427    7.8197016    59.449029   -148.71437   -256.20733    14221.896 
   43710    310.38259    9.0593251    56.208027   -144.11199    1562.8143    14221.896 
   43720    321.16416    9.4410374    54.876139   -141.24515   -628.24906    14221.896 
   43730    309.76342    6.1274489    57.706398   -139.84518   -2051.5564    14221.896 
   43740    297.07571    6.3761561    61.083483   -138.23016   -2217.7324    14221.896 
   43750    289.32944    10.367525     62.42553   -136.70458    72.128051    14221.896 
   43760    301.51723    11.382777     64.71447   -135.76717   -2434.2156    14221.896 
   43770    304.77491    10.766867    61.439807    -135.3996    936.01536    14221.896 
   43780    316.82863    10.653957    60.842047   -135.15761    2856.4766    14221.896 
   43790    305.81547    7.6429502    54.274891   -135.23669     3165.546    14221.896 
43800        0.98432620453322516862 10.1113090462137869 1 68 -267.36775293587675151
   43800    291.75279    8.2302007    67.369609   -135.17949   -511.15429    14221.896 
   43810    303.29492    6.9421629    64.950855   -135.62143   -143.28298    14221.896 
   43820    316.04794    8.8311923    64.897489   -136.74695     280.3773    14221.896 
   43830    305.94324    11.523661    61.668788   -139.22831    980.11102    14221.896 
   43840    299.22318    9.7549558    65.921042   -142.38914    -3287.362    14221.896 
   43850    275.05526    9.1792101    61.242317   -146.46832    857.04315    14221.896 
   43860    285.47658     8.951964    60.743674   -150.34381    1087.2209    14221.896 
   43870    273.37788    9.5527934    59.049988    -154.4213     1746.675    14221.896 
   43880     270.6435    10.616882    51.731044   -158.00348   -1527.8753    14221.896 
   43890    273.71123    9.8393836    59.640855   -160.76128   -455.20423    14221.896 
43900        0.98282852993510372297 10.134464567017500869 1 65 -290.04221862517204045
   43900    279.19938    7.1658847    59.739196   -163.54169   -37.389705    14221.896 
   43910    292.54971    9.6431386    50.573456   -164.84718     2149.689    14221.896 
   43920    293.12899    13.349709    56.445752   -165.76014    900.66313    14221.896 
   43930    317.59226    13.103353    50.950153   -166.54323    -1393.523    14221.896 
   43940    296.77835    10.149065    61.519711   -167.72326   -1241.7694    14221.896 
   43950    309.95431    8.8019906    46.412511   -169.82747    215.38159    14221.896 
   43960    263.54241    8.7048383    61.205814    -172.4572    1948.9817    14221.896 
   43970    274.64303    8.8424917     50.21424   -174.85073    1104.1491    14221.896 
   43980    260.07956     11.16724    56.097248   -176.84606    295.18145    14221.896 
   43990     285.3217    9.2890101    50.457777   -178.67498    141.53304    14221.896 
44000        0.98254721996730387534 10.147783772000462221 1 68 -305.585727144913335
   44000    275.60837    9.0766932    48.065232   -180.71222    107.56356    14221.896 
   44010    268.65122    6.5345193    49.951835   -183.08674   -234.86402    14221.896 
   44020    238.69866     5.616541    54.628869   -184.46224   -3105.9021    14221.896 
   44030    257.41088       4.8005    50.313034   -184.24216   -1067.1545    14221.896 
   44040    261.43676    4.5956835     52.20393   -182.68961      378.566    14221.896 
   44050     259.0161    5.2021599    51.833408   -179.66552    1505.3248    14221.896 
   44060    284.64534    8.0656125    49.816469   -175.08735    75.594535    14221.896 
   44070    291.66407    9.5153199    49.925125   -169.64636   -433.87977    14221.896 
   44080    289.41632     6.687571    56.972766   -165.07155   -692.49464    14221.896 
   44090    302.13548    5.7166505    56.717761   -160.98703    357.03582    14221.896 
44100        0.97903746271932812206 10.16258542025966527 1 70 -299.40111323021199041
   44100    313.11023    6.4546269    60.461522   -157.53615   -640.30165    14221.896 
   44110    314.08615    7.4485748    55.411314   -155.47609    240.63909    14221.896 
   44120    313.90931    9.2979726    57.629512   -153.93206   -952.51217    14221.896 
   44130     318.5349    10.602956    55.503065   -153.74789    1929.4541    14221.896 
   44140    326.39778    9.0379848    58.216001   -153.64195    1697.0364    14221.896 
   44150     319.3561    8.5972445     50.76127   -154.55085   -1417.0966    14221.896 
   44160    275.49418    8.7581571    59.270368   -155.80154   -1004.2617    14221.896 
   44170    284.42901    7.0407606    52.003537   -156.62375    -1592.633    14221.896 
   44180    273.09343    7.3366033    58.117424   -156.85733    1545.5983    14221.896 
   44190    295.76954    6.7441247    51.848723   -156.25517    639.87972    14221.896 
44200        0.97449395730258847603 10.178595865890644134 1 70 -287.90554001058205813
   44200    295.00738    5.5556747    53.330537   -154.24267   -1743.1007    14221.896 
   44210    313.58806    4.4307369     53.36617   -152.22195   -1219.4103    14221.896 
   44220    327.89453    3.5953429    48.069148   -150.57006     543.2444    14221.896 
   44230    298.34721    4.5531094    57.883592   -148.64548    258.21927    14221.896 
   44240    302.01876    4.9853787    59.869457    -146.0632    1982.0554    14221.896 
   44250    302.40555    4.4940031    60.776673   -143.16169     274.3228    14221.896 
   44260    312.42787    4.8208545     55.13253   -140.22086    555.38171    14221.896 
   44270    326.79801    5.8889601     47.83016   -136.51277    156.52091    14221.896 
   44280    302.43785    6.4257976    64.445477   -132.93095    897.25724    14221.896 
   44290    292.89611    7.7529218    57.944753   -128.74767    982.70787    14221.896 
44300        0.97048899871545291074 10.19025487590606005 1 69 -261.92382511423892311
   44300    304.35572    10.010894    55.324759   -124.02538   -1636.4969    14221.896 
   44310    314.76147    10.030414      65.1933   -120.08926   -1267.5433    14221.896 
   44320     325.0225    6.6825796    58.840435   -116.96782   -1802.8915    14221.896 
   44330    308.11198    8.6830166     65.44609   -115.17387    17.445668    14221.896 
   44340    336.30628    7.5220228    64.827869   -114.45731   -3758.3526    14221.896 
   44350    340.81455    11.284342    58.648632   -114.29439   -3026.2399    14221.896 
   44360    323.61461    11.280257    69.121131    -115.7208   -1292.3647    14221.896 
   44370    313.32969     10.31355    68.538714   -117.91177     2694.603    14221.896 
   44380     305.3285    7.7256318    72.875757   -120.63869    2908.9232    14221.896 
   44390    338.96835    6.3292302    52.788476   -123.21293    1157.9045    14221.896 
44400        0.97207449043652915943 10.160090449499609377 1 70 -269.32706797579709246
   44400    316.47771    5.1869144    71.338869   -125.93636   -1769.6426    14221.896 
   44410     323.0792    9.5392103    61.322424   -129.25696    1156.0181    14221.896 
   44420    276.78525    11.038518    73.720985   -132.18207    658.60494    14221.896 
   44430    309.49137    8.7490711    57.308394   -133.87394    2673.2123    14221.896 
   44440    293.71596    8.6379309    64.139102    -135.4864    1613.8859    14221.896 
   44450    319.29875    8.6444194    53.842092   -136.60566   -2162.4769    14221.896 
   44460    316.25018    7.1094356    59.817457   -137.80597    622.57171    14221.896 
   44470    311.21288    3.6087101    64.617101   -139.22667    905.85192    14221.896 
   44480    308.90848    3.7441623    62.352544   -141.18423    704.32482    14221.896 
   44490    292.16954    4.7446952    62.875244   -143.23636   -3353.9382    14221.896 
44500        0.97589200690915967051 10.156472901190438662 0.99735449735449732689 69 -279.55266998430437297
   44500    296.16043    5.5315028    60.543627   -145.36737   -563.51556    14221.896 
   44510    288.07191     5.550966    65.671961   -146.83655    1010.4632    14221.896 
   44520    316.43981    6.0004993     51.85339    -148.0459    810.94392    14221.896 
   44530     269.2914    7.0745066    62.143165    -149.7959    -1391.845    14221.896 
   44540    271.20167    8.9725486    59.557642   -150.72575    885.07403    14221.896 
   44550     286.2749    7.6314531    61.495734   -150.74492    3121.9737    14221.896 
   44560     304.9344    6.1580976    55.139947   -150.95456    1247.3561    14221.896 
   44570    305.54155    7.1024651    56.194812   -151.00762   -1865.1387    14221.896 
   44580    308.21178    6.3561557    58.062903   -150.49927    -3278.825    14221.896 
   44590     297.8338    6.4658314    63.243867   -151.42223   -996.45652    14221.896 
44600        0.97818412994169456898 10.157847530779687162 1 67 -288.86488987907455339
   44600    300.50195    5.9844121    59.592258   -152.71253    1546.4333    14221.896 
   44610    286.92181    5.6235446    60.897268   -154.64259     949.2924    14221.896 
   44620    298.66343     4.037148    55.590471    -156.6752    631.16186    14221.896 
   44630    286.73923    2.9714819    54.632511   -159.00824     -51.5092    14221.896 
   44640    278.88201    3.9002008    54.146892   -161.17789     79.35659    14221.896 
   44650    268.02664    5.0920672    62.154297   -162.97457   -387.25649    14221.896 
   44660    257.95705    9.5007279    58.183668   -163.60986   -25.469795    14221.896 
   44670    306.88638    11.663288    45.799053   -163.77744   -839.63087    14221.896 
   44680    305.64414    11.629635    50.924311   -163.04809   -1678.1334    14221.896 
   44690    318.19363    9.9797005    45.167569   -161.46486   -410.96026    14221.896 
44700        0.97410680008480032832 10.183748680956883348 1 69 -295.37249801052126941
   44700    297.57653    7.5856095    56.798288   -160.54559    200.89306    14221.896 
   44710    287.96547    7.1841134    63.823864   -159.23038   -603.31001    14221.896 
   44720    295.88384    6.0592891    60.558263   -157.73061    531.38616    14221.896 
   44730    319.45823    6.1374918    48.480031   -155.83001    460.86311    14221.896 
   44740    302.10756    4.8574942    59.903202   -153.76119    1221.3079    14221.896 
   44750     289.2991    5.0716033    62.837933    -151.2787    204.80285    14221.896 
   44760     290.6047    4.9587462     62.95561   -148.43333   -1289.3514    14221.896 
   44770    297.94968    5.2271137    63.206606   -145.21976   -645.22443    14221.896 
   44780    310.34976    6.1547809    61.552529   -141.80204    1371.4853    14221.896 
   44790    314.91533    7.6031724    61.790078   -138.85462    1528.5039    14221.896 
44800        0.96400038732768222882 10.212307550085750307 1 71 -276.80823015319816705
   44800    311.21697     6.085556    62.756515   -135.80107   -1391.0868    14221.896 
   44810    307.46798    5.9594111    63.005436   -133.57535   -2444.6046    14221.896 
   44820    293.48653    4.4324288    70.033712   -131.53974    1192.4824    14221.896 
   44830    298.84043     4.133641    67.125867   -129.27774    273.13938    14221.896 
   44840    297.59572     6.782605    75.753032   -127.53753    813.40088    14221.896 
   44850    335.52971    7.7416679    61.210628   -125.36223   -247.81024    14221.896 
   44860    316.04979    7.9252826    62.395925   -123.83808   -1236.6069    14221.896 
   44870     301.8892    7.9760795     73.90104   -123.27011    1767.9531    14221.896 
   44880    321.71433    7.3189538    67.619352   -123.13662    696.88829    14221.896 
   44890    341.11945    4.7439854    60.555312   -124.04708   -2648.9554    14221.896 
44900        0.96469842068414735081 10.199009693458958026 1 71 -285.4879071356351119
   44900    349.68619    3.0413158    55.248108   -127.05099   -185.29824    14221.896 
   44910    285.41448    2.9768001    68.977552    -132.2079   -742.03815    14221.896 
   44920    300.13739    3.3401052    65.901088   -137.90116    2891.9218    14221.896 
   44930    310.25928    3.8190638     60.16519   -144.28409   -1173.2439    14221.896 
   44940    315.00251    6.1392843    51.384142   -149.09044     1209.361    14221.896 
   44950    288.21662    6.5449823    61.622991    -153.0414     269.9473    14221.896 
   44960     290.1303    8.3688273    55.622754   -155.26653    1515.1117    14221.896 
   44970    300.20488    8.0518768    61.202628   -156.86563   -1427.3194    14221.896 
   44980    311.71291    5.4632662    51.002911    -158.3854   -3299.3623    14221.896 
   44990    317.51166    2.5549669    52.144425    -160.0619   -251.91565    14221.896 
45000        0.96645337118605201265 10.207205186562154253 1 70 -296.06482893845083026
   45000    295.85722    3.6353885    53.494031   -162.01692    1320.9986    14221.896 
   45010    307.29538    4.0333786    44.656312   -163.35453   -564.54552    14221.896 
   45020    282.62859    6.1321267    57.641206   -164.23435    767.61361    14221.896 
   45030    292.32997     9.915166     55.40578   -164.74254   -2226.2556    14221.896 
   45040     282.1837    10.816518    56.052669   -165.28015    -1049.054    14221.896 
   45050    318.72224    7.9054275    52.073159   -165.55482    280.36565    14221.896 
   45060     301.7368    6.1841398    50.500986   -166.03141    1917.7253    14221.896 
   45070    282.38995    6.5525825    55.067588   -166.48731    279.14977    14221.896 
   45080    279.19143    7.4153201    50.465022   -166.56207   -538.22088    14221.896 
   45090      271.151    10.629445    56.902019   -165.46305    1451.1913    14221.896 
45100        0.97510587489137767747 10.168074163143556277 1 73 -292.71067847875571033
   45100    285.72462    11.479441    52.431643   -163.25368    2476.7902    14221.896 
   45110    280.90366    10.200023    57.644713   -159.65079    351.66233    14221.896 
   45120    311.84665    11.038397     55.98196   -155.15719    -433.8845    14221.896 
   45130    309.89964     9.553838     55.61557   -149.48885    -760.9602    14221.896 
   45140    325.75378    10.291938    61.749804   -144.25322    887.08878    14221.896 
   45150    327.49988    7.3775839     61.03208   -140.48923   -1815.1065    14221.896 
   45160    320.40335    5.1055097     60.71364   -138.36507   -1340.0852    14221.896 
   45170    311.48793     6.924453    60.383485   -137.43794   -45.067184    14221.896 
   45180    310.56814     8.986565    59.257996   -137.04125    -1847.514    14221.896 
   45190    319.98143    10.061378      61.4375   -137.24459   -77.304803    14221.896 
45200        0.97873454678104365723 10.164442009665409117 1 69 -285.67493399740976656
   45200    326.80531    11.621806    62.488012   -137.60496   -190.03284    14221.896 
   45210    329.66818     9.741293    55.827793   -139.12697    3504.3529    14221.896 
   45220    338.39575    7.8165873    53.788513   -141.52306    2934.1987    14221.896 
   45230    322.81764    5.8486435    51.775348   -144.35957    613.47458    14221.896 
   45240    292.44723    7.0048919    64.751541   -147.83261    -3124.381    14221.896 
   45250    306.56412    5.9327581    53.498352   -151.13212   -2938.6739    14221.896 
   45260    302.07034    5.4431924    58.393085   -154.49731    372.84729    14221.896 
   45270    306.14227     6.771306    54.918526   -157.48969    159.94672    14221.896 
   45280    271.71012    9.4145763     69.19557   -160.09399    1088.9611    14221.896 
   45290     282.1287    11.800526    51.935135    -161.7216    583.19843    14221.896 
45300        0.97692705772161292366 10.159492307950094059 1 71 -288.30208873927085733
   45300    278.12477    9.4756732    52.578026   -162.28845    2340.3864    14221.896 
   45310    291.53952    7.4656436    52.932157   -162.10958    4126.0241    14221.896 
   45320    282.66868    5.6811427    52.299873    -161.3524   -1150.1419    14221.896 
   45330    289.52655    5.2095474    58.228014   -160.67015   -1082.1229    14221.896 
   45340    317.54705     3.811377    51.314269   -160.09131    151.45058    14221.896 
   45350    297.23113    3.7010745    55.249788   -159.49962   -63.934645    14221.896 
   45360     302.5088    3.9649807    53.962993   -159.49291   -3066.3311    14221.896 
   45370     276.1567    3.3838131    59.753675    -158.9751   -3970.2512    14221.896 
   45380    265.65008    3.7862305    55.111857   -158.20226   -1031.8011    14221.896 
   45390    265.90569    4.2916489    55.772033   -156.33058    1690.6781    14221.896 
45400        0.97046884203687078241 10.163935271382054992 0.99470899470899465378 65 -276.16738369489326033
   45400    269.85531    4.2443979    57.552559    -153.9005    49.636393    14221.896 
   45410    284.26788    4.9200106    53.456852   -150.90481   -54.890925    14221.896 
   45420    291.24342    5.9370811    50.689177   -147.85235    1306.6152    14221.896 
   45430    278.39776    6.1026972    52.384801   -144.00571    1722.4605    14221.896 
   45440    306.86341    4.5093276    52.672388   -140.61557     433.9835    14221.896 
   45450      302.169    3.5245898    66.616058   -137.08855   -1576.9019    14221.896 
   45460    322.34844    4.9219241    60.767628   -135.42977    364.49037    14221.896 
   45470    293.53146    6.0249089    64.685612   -135.05374    393.40069    14221.896 
   45480    298.29051    5.8273766    60.439723   -134.58703    981.06858    14221.896 
   45490    310.30643    4.2012256    59.960921   -134.94858    -1283.179    14221.896 
45500        0.97809352683277728246 10.12642857876418212 0.99470899470899465378 70 -279.87332151391933621
   45500    319.76505    4.2211686    57.489133   -134.99317   -1194.5761    14221.896 
   45510    300.64934    5.5509788    66.844333   -136.00224    2010.6296    14221.896 
   45520     282.5422    5.7679865    57.987305   -137.68387    847.32844    14221.896 
   45530    281.50075    3.4332216    61.419225   -139.16716   -843.83923    14221.896 
   45540    276.18239     3.900144    64.296175   -140.11085   -1361.7216    13694.814 
   45550    292.82882    5.4740626    58.351774   -140.39907    248.11313    13694.814 
   45560    320.78959    6.2665692    52.954519   -140.83865    2590.1246    13694.814 
   45570    332.14145    7.3445709    50.899279   -141.80044    -3159.352    13694.814 
   45580    314.99599     6.954157    53.206055   -143.39676   -4396.8796    13694.814 
   45590    293.03569    4.9780949    56.391079   -146.22793   -705.20961    13694.814 
45600        0.98451070111367766646 10.085130498528439347 0.99470899470899465378 72 -275.55876380650408919
   45600    276.50375     5.008689    60.867553   -150.27958     2833.472    13694.814 
   45610    267.58656    8.2669208    53.594541   -153.73124    4330.9589    13694.814 
   45620    275.87848    8.2832356    52.977962   -157.35381   -1197.0737    13694.814 
   45630    288.55352    8.5954879    53.288867   -160.22287   -746.38818    13694.814 
   45640    294.95476     9.307114    56.280963   -163.34888   -577.84365    13694.814 
   45650    288.17557    10.314415     59.42254   -167.06273    1883.1764    13694.814 
   45660    284.63852    9.0934014    53.767322   -170.24805    1534.6544    13694.814 
   45670    278.23237    7.1111644     52.13004   -173.43252   -2126.1558    13694.814 
   45680    287.78775    5.4462925    51.587581   -175.16845   -1042.3187    13694.814 
   45690    283.17623    6.5828743    47.306678    -176.5393    1445.1961    13694.814 
45700        0.99029310175073381739 10.075789259704189149 0.99735449735449732689 70 -302.77008092233234038
   45700    276.40821    6.1180115    53.148909   -177.53418    930.12934    13694.814 
   45710    262.43247    6.6994954    53.643273   -177.41783    660.94682    13694.814 
   45720    257.50186    7.9295723    59.936863   -175.71277   -2631.9972    13694.814 
   45730    279.52708    8.5249693    51.847492   -173.43688    482.48652    13694.814 
   45740    274.58172    10.983183    61.524777   -169.49078   -976.47993    13694.814 
   45750    296.76498    13.309292    50.043369   -164.41945   -916.06003    13694.814 
   45760    296.58211    13.074935    60.649528   -158.22021    603.35446    13694.814 
   45770    290.15233     13.85201    56.599984   -152.21874    2933.3155    13694.814 
   45780    324.01437    10.971159    59.301858   -147.61135    3750.7036    13694.814 
   45790    345.27932    6.1238578    61.023739   -145.20406     1945.062    13694.814 
45800        0.99137106921372430968 10.086899274174344399 1 71 -296.60810329652429118
   45800    334.34307    3.5287002    62.760924    -145.1229   -1291.8808    13694.814 
   45810    295.22997    5.2451905    62.798827   -146.39442    446.06283    13694.814 
   45820    302.49722    6.5286192    50.997526   -147.05159   -3484.0858    13694.814 
   45830    315.77989    5.4326547    51.839384   -147.35969   -300.92952    13694.814 
   45840    312.46656    9.1423068     54.01123   -147.18539   -101.62449    13694.814 
   45850    286.09098    9.7535056    55.631865   -146.84561   -237.49268    13694.814 
   45860    253.97314    8.6229419    62.753418   -145.70813    -204.7832    13694.814 
   45870    281.80606    3.6745156    61.701423   -144.25281   -712.08139    13694.814 
   45880    304.00719     3.646834    67.899305   -142.31668    193.27504    13694.814 
   45890    316.83284    6.0697958    61.419008   -140.27275   -2960.8027    13694.814 
45900        0.98918439649902323296 10.114168449550806628 1 72 -283.7128294673605069
   45900    318.24059    9.5430041    57.650837   -139.52339   -2037.1162    13694.814 
   45910    313.88016    10.523631    54.827876   -138.42553     783.0448    13694.814 
   45920    299.31651    10.383084    61.270684   -138.15317    516.32769    13694.814 
   45930    322.52444     9.392232    57.647915   -138.27269    3618.4604    13694.814 
   45940    300.19388    9.5635934    66.725372   -139.71988    902.60463    13694.814 
   45950    323.59748    7.9516913    54.134128   -141.81254    1623.5486    13694.814 
   45960    292.50735    8.7669413    71.489965   -145.26588   -430.62494    13694.814 
   45970    313.91258    9.4501919    54.620857   -150.44724   -2225.4205    13694.814 
   45980    262.94988    7.9750804    63.419518   -156.33296    -2437.279    13694.814 
   45990    267.13829    11.803465    54.125312   -160.76922   -421.23973    13694.814 
46000        0.98267833813291038947 10.150058082340738252 1 71 -288.32380040251536002
   46000    275.57678    13.674555    51.839253   -163.46461    864.15835    13694.814 
   46010    292.86382    16.221626    54.364047   -165.75048    1949.1754    13694.814 
   46020    283.34568    16.045579    48.452202   -166.91325    1866.0266    13694.814 
   46030    276.61236    12.038267    55.796077   -167.92367    4026.4668    13694.814 
   46040     294.8876    9.9443438    44.135635    -167.5966      1826.31    13694.814 
   46050    279.03491    7.3320766    51.532857   -166.79933   -1039.1054    13694.814 
   46060    294.03404    6.6980119    48.322792   -164.91954   -3191.4737    13694.814 
   46070    300.68339    5.8537863    48.477232    -162.7681   -3790.2646    13694.814 
   46080    314.50517    3.6800226    51.591965   -159.85586   -3199.7748    13694.814 
   46090    297.41175    2.9521621    61.471804   -156.89959    818.94526    13694.814 
46100        0.97628680834267422828 10.160821041239966434 1 68 -283.83671073687685293
   46100    285.32076    3.7432288    61.097883   -154.56269   -213.90094    13694.814 
   46110    274.43788    6.7150171    59.302558   -151.58803    4868.5326    13694.814 
   46120    282.39288    5.0980393    57.905271   -147.44538    1370.4084    13694.814 
   46130    300.92577    4.9627699    58.460943   -143.26804    822.80756    13694.814 
   46140    291.82827     4.918597    63.910481   -139.37878   -3159.7973    13694.814 
   46150    306.99221    2.7179155     57.55114   -136.86674     -2765.14    13694.814 
   46160    295.83801    2.9874819     59.32034   -135.45055    78.830549    13694.814 
   46170    310.44841    3.2415623    52.628125   -134.69063   -1378.7765    13694.814 
   46180     285.6524    3.3169707     65.77737   -134.12931   -871.78691    13694.814 
   46190    303.24972    3.0694182    65.867832   -133.95159   -183.55521    13694.814 
46200        0.9694627938858783045 10.184533927930186081 1 66 -266.56440070818581489
   46200    293.09647    3.8380358    68.976372   -133.76733     827.1095    13694.814 
   46210    290.67674    6.4424636    65.786233   -133.98041    1633.1479    13694.814 
   46220    296.02041    6.8183388    63.134683   -133.78456    679.43181    13694.814 
   46230    307.40756    7.6681639     67.93253   -133.71972   -728.17479    13694.814 
   46240    346.23919     8.914206    55.782184   -134.34077   -546.40963    13694.814 
   46250    308.36852     10.21818    65.734348   -136.30149    966.71102    13694.814 
   46260    327.29725    7.1927166    59.991036   -139.19131    1518.6029    13694.814 
   46270    293.43488    6.1937009    58.425253   -142.66975    -470.0336    13694.814 
   46280    306.93929    6.2348145    53.226312   -146.14276   -2544.2171    13694.814 
   46290    291.72913    8.3138813    57.471172   -149.39446   -589.63609    13694.814 
46300        0.97089163115532539639 10.182419969092769918 1 68 -281.49133707648178415
   46300    284.58216    10.344927    58.067441   -152.55196    1613.4911    13694.814 
   46310    311.24879     9.447649     49.84089   -154.71601    748.85428    13694.814 
   46320    303.86462    7.4235854    54.565529   -156.27414    717.50533    13694.814 
   46330    308.92808     8.383202    53.665964   -157.80308     185.5025    13694.814 
   46340       291.11    8.3581448    58.605412   -159.39798    1014.0359    13694.814 
   46350     293.3782    5.3993864    59.877848   -161.15911   -2869.8333    13694.814 
   46360    289.68212    4.4926272    57.144224   -161.84329   -1974.9892    13694.814 
   46370    290.84514    4.0624417    57.217658   -162.56807   -329.73848    13694.814 
   46380    285.88967    4.5071322    54.835729   -162.85915     973.0121    13694.814 
   46390    288.65017    5.3314183    55.900498   -162.47346   -89.941474    13694.814 
46400        0.97109297137493788554 10.199817563091304606 1 68 -297.75546278199516337
   46400    299.37722    9.1799563    53.616338    -162.1127   -898.52676    13694.814 
   46410    297.20861     10.14359    54.583618   -160.61816   -942.11341    13694.814 
   46420    305.20428    9.4211783    60.371646   -157.18108    637.57711    13694.814 
   46430    310.20553    6.9396427    62.595228   -151.99178   -1642.2908    13694.814 
   46440    311.94933    6.0019415    60.898729    -145.8679    981.04621    13694.814 
   46450    330.21891    5.0260785    60.250715   -140.13056   -6.0446824    13694.814 
   46460    337.90609    4.7785339    57.963268   -135.80707    2427.6726    13694.814 
   46470     352.3974    6.4451733    56.115958   -133.15405    316.70324    13694.814 
   46480    323.71166    7.9536096    58.689201   -131.63185   -1864.1562    13694.814 
   46490    306.49132    6.6996785    68.583222   -131.13395   -2461.8211    13694.814 
46500        0.97763326551812335108 10.144499047228368482 1 68 -269.97175166967605264
   46500    306.45118     8.002362    61.441627   -131.12389   -1713.4077    13694.814 
   46510    316.95988    8.9530279    66.940904   -131.83053    244.43042    13694.814 
   46520    305.19333    8.6631874    72.978578   -133.83981    2709.0263    13694.814 
   46530    309.66563    9.2095549    58.012671   -136.66089    630.03346    13694.814 
   46540    312.75622    9.7455597    59.917852   -139.43551    3420.4863    13694.814 
   46550    317.24838    11.314773    58.334717   -142.60027     3026.634    13694.814 
   46560    318.12749    17.678796    56.233202   -146.53871   -190.22542    13694.814 
   46570    279.45385    19.226497    63.277799   -150.60677   -2351.7234    13694.814 
   46580    268.86692    16.744076    64.407893   -153.89929   -636.34444    13694.814 
   46590    270.72262    11.222792    70.895626   -156.06766    647.11857    13694.814 
46600        0.98300068049980371399 10.111063473615063302 1 70 -288.68709981940730813
   46600    288.86677    10.522335    59.538085   -157.80644   -222.91785    13694.814 
   46610     281.4781    7.3068584    64.199444   -159.16581   -1800.3218    13694.814 
   46620    278.65876    7.5489044    57.230321   -159.82724    1140.8272    13694.814 
   46630    301.90111    5.3696043     52.51151   -160.07429    1119.3271    13694.814 
   46640    296.35548    7.2865832    52.607421   -160.00387    2723.3138    13694.814 
   46650    298.41622    7.4447712    53.350028   -159.46803    942.70455    13694.814 
   46660    304.47107    7.0219086    56.652494   -158.71588   -1077.0048    13694.814 
   46670    304.16518    7.7156477    53.257708   -157.92613   -2467.2833    13694.814 
   46680     316.6432    6.5043429    58.817486    -157.3373     49.91578    13694.814 
   46690    291.13511    6.8916482    58.292111   -156.49606   -231.40453    13694.814 
46700        0.97192979992589356719 10.180656916472422324 1 65 -286.39254906043760229
   46700    289.79369    8.1838362    61.886955   -155.09192   -1313.9331    13694.814 
   46710    283.14439     7.731569     61.63592   -153.32801   -1030.5281    13694.814 
   46720     301.0773    6.6039525    55.082536   -150.92244    1324.1146    13694.814 
   46730    288.15647    6.0584113    64.087585   -146.13046    1557.7172    13694.814 
   46740    311.58197    5.4420863    64.403953   -138.19365    1548.2625    13694.814 
   46750    337.24105    4.2575357     60.94343    -128.7727   -449.23291    13694.814 
   46760    360.70201    3.0168482    60.462091   -122.41201    1385.5341    13694.814 
   46770    338.45952    2.4270476    65.201787   -119.03712   -1130.9998    13694.814 
   46780    312.00195     5.901043    76.516625   -117.52474     1337.529    13694.814 
   46790    311.92768    9.0593285    71.242319   -117.70569   -3196.5581    13694.814 
46800        0.96208262878549943853 10.196371657332694127 1 64 -258.30227431098717261
   46800     307.0694    9.8457185    74.258303   -119.17431    863.56306    13694.814 
   46810    325.65981    10.946735    68.368687   -121.85732    553.44358    13694.814 
   46820    312.95597    11.340684    70.796596   -125.64882    2381.5721    13694.814 
   46830    312.79327    11.516871    63.686946   -130.16041    1417.6119    13694.814 
   46840    300.96504    8.6939787    67.878717   -134.23396    335.47132    13694.814 
   46850    325.12493    6.2898391    61.700713   -138.61749   -3120.2214    13694.814 
   46860    286.46087    6.2385911    71.580194   -142.63691   -2092.4234    13694.814 
   46870    313.23821    5.2465882    53.116889   -146.12508   -2571.0686    13694.814 
   46880    286.49539    5.1941095    66.069334   -148.88935    1329.1304    13694.814 
   46890     292.2503    6.5227426    58.162019   -150.86776    827.58947    13694.814 
46900        0.94620242257733178093 10.24533772816366195 0.99735449735449732689 67 -276.94809091185811667
   46900     275.2267    6.9613765    67.522397   -152.24752    1049.9704    13694.814 
   46910     288.6549     6.165608     60.94599   -153.07073    1924.5346    13694.814 
   46920    297.60197    4.8025853    59.179492   -153.67972    1167.2082    13694.814 
   46930    293.95236    4.5569164     62.57163   -154.30035    251.97509    13694.814 
   46940    297.81092    6.4579863    52.277941   -154.67856   -2621.6222    13694.814 
   46950    266.23279    6.5903169    63.212748   -154.60448   -1222.8563    13694.814 
   46960    279.79248    5.9223478    62.300356   -153.63959   -672.84421    13694.814 
   46970    302.53472    3.2391768    57.316822   -151.71541    -2900.187    13694.814 
   46980    304.10795    2.8854367    62.969946     -149.877    2022.4004    13694.814 
   46990    305.74912    4.6787659    60.904186   -148.07892    -852.0257    13694.814 
47000        0.94599802996918780362 10.271001911178432309 1 62 -285.87046572707720316
   47000    307.96507    6.7684327    62.980148   -146.33669    803.50215    13694.814 
   47010    313.25897    4.6162812    66.715619   -144.22018    1187.7294    13694.814 
   47020    297.07197    5.0111849    69.058564   -141.47983    107.37454    13694.814 
   47030     305.9593    5.4914291    68.021588   -138.46324   -1390.9485    13694.814 
   47040    275.75357    7.7585225    69.878933   -134.91837   -1457.0599    13694.814 
   47050    320.14422    7.2319463    60.929642   -130.45113   -1471.6967    13694.814 
   47060    332.44771    5.7345413    68.763829   -125.83603    1796.2993    13694.814 
   47070      342.328    4.5078784    63.537588   -122.01171   -2742.4553    13694.814 
   47080    348.43963    4.1831278    60.790132   -120.15292   -35.126562    13694.814 
   47090    339.53677    4.3364417    66.502301   -119.85507    984.19516    13694.814 
47100        0.95254758838775233087 10.251323288055971261 1 63 -264.80747590206516406
   47100    317.95328    5.6236932    60.336779   -120.74821   -725.15739    13694.814 
   47110    336.53896    6.1238063    65.374379   -122.54424    2792.2277    13694.814 
   47120    343.54111    7.1839271    66.990603   -125.67324    2533.7621    13694.814 
   47130     339.7415    10.760316    55.353856   -130.90487    2265.3853    13694.814 
   47140    298.56913     12.99817    63.405798   -136.36513   -2296.4402    13694.814 
   47150     297.9448    13.747958    56.760257   -140.72789   -1242.6907    13694.814 
   47160    310.17786    16.565759    54.194947   -144.00495    429.76307    13694.814 
   47170    291.01528    14.030071    56.533368   -146.12249   -3516.2407    13694.814 
   47180    306.35846    9.2464511    59.250991   -147.07123     1221.157    13694.814 
   47190    282.85462    8.3914924    66.957274   -147.55741    451.43216    13694.814 
47200        0.96355374124736636876 10.219273046833743379 1 66 -294.03597825610961536
   47200    323.16705    11.378574    49.734724   -147.61444   -364.77093    13694.814 
   47210    297.63001    9.9166917    70.333327   -147.95514    617.71021    13694.814 
   47220    314.13485    6.1595457    55.092098   -149.19304   -1823.8131    13694.814 
   47230    286.57728    3.3795198    60.867472   -149.42134   -1231.8937    13694.814 
   47240    313.00899    2.8410409    57.424818    -150.3508   -3284.7131    13694.814 
   47250    289.76124    1.9071459    70.876442   -151.22621   -1337.5384    13694.814 
   47260    293.03404    4.2229319     68.94443   -152.60168    1769.1136    13694.814 
   47270    278.23226    7.8883972    60.788868   -153.93317     1620.242    13694.814 
   47280     317.0581    8.4212951    54.714342   -154.76564    2342.9846    13694.814 
   47290    328.16307    7.7615541    56.551808   -155.97893    4588.2454    13694.814 
47300        0.97197266797929593451 10.165038627008803118 1 66 -298.68349525976304903
   47300    310.00108     9.943582    59.450591   -158.22724   -1675.1109    13694.814 
   47310    286.93144    10.226225    61.740683   -161.48958    400.61197    13694.814 
   47320    319.19694    6.0465447    57.127568   -164.91738   -895.98215    13694.814 
   47330    306.73143    6.5666317    53.028143    -169.7763   -358.23688    13694.814 
   47340    316.42197    9.3997782    41.415686   -175.48446   -1470.9954    13694.814 
   47350    252.75614     9.032807    60.808489   -180.85929    693.94067    13694.814 
   47360    289.88396    7.7422203    51.178035   -183.99661    1990.9078    13694.814 
   47370    277.33406    8.3659044    52.339483   -185.74772    1731.9756    13694.814 
   47380    278.07283    10.073923    49.209798   -186.06125   -2327.7141    13694.814 
   47390    238.24342     7.938474    54.459068   -185.87542   -1981.4233    13694.814 
47400        0.9811421664839935497 10.149165774633683412 1 69 -301.62755343815922515
   47400    258.40857    6.1438477    56.655887   -184.54699   -140.12782    13694.814 
   47410    283.62964    6.5586427    55.885525   -182.18652    973.94766    13694.814 
   47420    271.51233    8.1428274    55.191742   -179.44728   -1123.8731    13694.814 
   47430    286.07863    9.8013253    53.969922   -177.60042   -630.72171    13694.814 
   47440    271.64954    12.599999    60.588268   -174.79828    1688.7904    13694.814 
   47450     281.6242    11.164768    51.394572   -172.56517     2474.183    13694.814 
   47460    261.54895    8.8563728     64.55282   -169.50211   -368.79579    13694.814 
   47470    271.11009    6.4441809    53.451275   -166.67538   -2683.1811    13694.814 
   47480    280.08084    5.3955566    63.365149   -163.24825   -2289.7354    13694.814 
   47490    309.49194    5.9328261    61.947877   -159.67348    863.63688    13694.814 
47500        0.9874046071404345426 10.13253804375280076 1 69 -298.24922126881534723
   47500    311.66048    8.3815683    63.124734   -157.04112    538.17764    13694.814 
   47510    285.51291    14.469592    63.001068   -155.42083    1847.1918    13694.814 
   47520    290.19716    14.295109    66.438125    -154.3694   -636.53416    13694.814 
   47530    306.15931    10.085817    61.533749   -152.87894   -197.52139    13694.814 
   47540    322.57284    6.2479076    59.938865   -152.09812   -291.50981    13694.814 
   47550    269.10032    8.1320771    70.479292   -151.61224    1462.8736    13694.814 
   47560    292.24636    9.2958031     63.01707   -150.94836   -1961.8409    13694.814 
   47570    284.98605    7.4136419    73.020378    -150.0535    667.61056    13694.814 
   47580    315.51873    7.9845136    65.543177   -149.13849    938.43733    13694.814 
   47590    324.74404    8.8197452    63.412063   -148.51651      4049.55    13694.814 
47600        0.9905630089328198995 10.111867506537254968 1 67 -295.92100019648432863
   47600    325.74096    9.9324954    62.129923   -148.33327   -2969.0235    13694.814 
   47610    304.40884    10.079122    68.779885   -149.67595   -418.25479    13694.814 
   47620     280.6952    11.863032    65.497749   -151.98863   -726.74468    13694.814 
   47630     303.5017    9.8733518    61.144991   -155.10202    462.00454    13694.814 
   47640    313.25658    8.3094155    55.108309    -159.4078    33.183167    13694.814 
   47650    289.04075    7.0837605    54.475174   -164.31046    1581.4116    13694.814 
   47660    276.45092    7.5747237    61.262441   -168.26356     1813.309    13694.814 
   47670    280.97711     7.331017    58.444659   -172.52543   -432.01756    13694.814 
   47680    297.74084    9.2794332    50.763142    -175.5481   -1562.2975    13694.814 
   47690    280.65986    8.6236088     55.07786   -177.94587   -582.52381    13694.814 
47700        0.99025838334426152798 10.11609383234996784 1 68 -301.27347351366387329
   47700    270.05341    11.783623    51.902193   -178.91683   -279.45817    13694.814 
   47710     287.5864    13.502806    48.366534   -178.59165    116.44501    13694.814 
   47720    268.24235    12.875642    60.459432   -177.50641   -1286.2045    13694.814 
   47730    262.76441    12.661592    53.083062   -175.55004    7.3446253    13694.814 
   47740    265.85351    9.9747416    56.860914   -172.50847   -980.77247    13694.814 
   47750    293.97985    7.0409017    54.802879   -168.15825   -60.131927    13694.814 
   47760    292.63201    5.3643403    62.232614   -164.41379   -1550.8631    13694.814 
   47770    292.31066    9.0286573    56.301537   -161.81933    987.64671    13694.814 
   47780    281.41835    9.0409348    72.988809   -159.83269    1414.6077    13694.814 
   47790    312.19002    7.4368157     62.31618   -158.04266    1461.8105    13694.814 
47800        0.98582780250991530746 10.121392462014792812 1 65 -302.74892155000543426
   47800    319.94578     5.884279      62.1033   -157.78689   -309.87412    13694.814 
   47810    312.98108    6.2598323    62.353261    -157.7632   -1318.3883    13694.814 
   47820    289.95172    6.3091652    55.199646   -158.24796   -1256.1524    13694.814 
   47830    289.94429    5.6386793    61.783262   -158.66031    364.23788    13694.814 
   47840    281.84128    6.4011393    62.860899   -158.36748    1125.7815    13694.814 
   47850    289.49472    8.1900066    57.891532   -157.59672    86.134871    13694.814 
   47860    269.57618    13.691779    60.042855   -155.94227     626.8383    13694.814 
   47870    284.98145    13.457429    64.255143   -153.70084    1456.4391    13694.814 
   47880    291.15295    10.776119    65.144248    -151.0774    3337.7312    13694.814 
   47890    301.92599    10.346747    59.300801   -148.20405   -1178.1592    13694.814 
47900        0.97853099164779644425 10.143059051139250215 0.99735449735449732689 68 -277.74932255796647951
   47900    292.85961    9.2715471    62.914957   -145.05957    -3091.948    13694.814 
   47910    303.51582    6.5039982    68.821833   -141.71407   -3119.4773    13694.814 
   47920    321.52148    6.3014419    64.639233   -138.58986    -321.4569    13694.814 
   47930    327.46315    8.9643742    62.619215   -136.20665    166.92462    13694.814 
   47940     327.6771    8.6883168    58.111546   -135.25264   -468.48912    13694.814 
   47950    324.47038    8.0591998    67.630391   -134.46541    1570.7314    13694.814 
   47960    336.80906    9.7187902     65.89883   -134.98443    1832.5285    13694.814 
   47970    311.82344    11.101012    68.688516   -136.72436    1145.0094    13694.814 
   47980     314.5445    10.050075    61.238508   -138.80032   -1188.5934    13694.814 
   47990    304.79346    10.243408    67.869034   -141.65116   -1693.0599    13694.814 
48000        0.98136417238609252589 10.135938675052091895 1 70 -277.29193845119755224
   48000    291.24012     9.391607    62.635417   -145.33595   -1192.9538    13694.814 
   48010    269.49298    7.9224747    72.542448   -149.06562    22.808434    13694.814 
   48020    297.44789    4.0025298     57.21668   -154.64977    -597.9419    13694.814 
   48030    301.89876    2.6710453      58.8215   -160.48536    550.19592    13694.814 
   48040    300.19232     3.722581    49.925004   -167.15942   -310.41755    13694.814 
   48050    273.06741    4.9088819    53.785078   -172.72675    2435.5873    13694.814 
   48060    267.62721    5.7580037     51.10647   -175.47036    1685.3227    13694.814 
   48070    289.39776    6.1101428    47.891109   -176.14348   -1034.9189    13694.814 
   48080     281.0557    7.4757726    55.406202   -175.70877   -621.63355    13694.814 
   48090    262.74685    6.2244661    59.186006   -174.85084    -1683.988    13694.814 
48100        0.98683041489461775786 10.108748307182990445 1 72 -291.63130462154492761
   48100    260.81678    6.8120667    59.403574   -173.45962    1715.6648    13694.814 
   48110    277.41962    6.7360836    61.439368   -171.43555    -612.7871    13694.814 
   48120    306.99816    8.6309187    51.093311   -168.85111    -1441.485    13694.814 
   48130     299.8723    9.0638721     57.86849    -166.4132    922.70028    13694.814 
   48140    302.89798    12.355425    57.754098   -163.49106   -379.75207    13694.814 
   48150    287.82895    14.696596    63.673832   -161.29017    740.17043    13694.814 
   48160    300.33944    15.389118    62.917876   -159.90668    2033.5781    13694.814 
   48170    305.31772    12.613637    57.347756   -157.68896   -774.23189    13694.814 
   48180    306.00278    10.184192    58.488915   -155.13418    72.817563    13694.814 
   48190    293.84908    8.0371959    61.236909   -153.00286    -322.1007    13694.814 
48200        0.98925046090936596954 10.078743722016369588 1 71 -281.44761875026699727
   48200    289.12622     8.687554    72.771616   -150.44941    1573.7204    13694.814 
   48210    275.62514    13.649639    66.784617   -148.22671    789.12067    13694.814 
   48220    271.44572     13.40344    71.662571   -145.78257   -1861.7493    13694.814 
   48230    301.50011    15.294092    64.159855   -142.66429    245.01586    13694.814 
   48240    318.39052    13.538517    65.880852   -139.63911   -529.25374    13694.814 
   48250    303.32607    12.254545      67.4706   -137.06561   -1592.2715    13694.814 
   48260    302.22562    9.1632345    69.657204   -135.17462    439.01667    13694.814 
   48270    307.84297    6.2190684    66.787382   -133.74707    1067.2474    13694.814 
   48280    315.11697    5.6924642     69.41757   -132.25873    1227.6747    13694.814 
   48290    325.18789    5.4277692    69.092172     -131.127     289.4629    13694.814 
48300        0.98959908638504601175 10.067414874476824593 1 67 -269.74551582654567028
   48300    307.25887    7.5439373    71.681945   -130.53171   -924.06045    13694.814 
   48310    326.88586    9.7170317    65.401854   -130.77397    122.99163    13694.814 
   48320    311.83011    11.499552    73.827274   -132.07394    1435.3644    13694.814 
   48330    308.92216    10.532524    78.640201   -134.65885    3150.6584    13694.814 
   48340     305.7318       8.5297    66.284402   -140.96247    1388.6231    13694.814 
   48350    281.50755     5.558229    70.384536   -149.21864   -2377.0484    13694.814 
   48360    290.14943     7.993956    57.752654   -157.17511   -3310.1883    13694.814 
   48370    268.21313    7.6226243    65.855332   -162.64612   -2659.8525    13694.814 
   48380    290.03021    8.5649764    55.649538   -165.29668    1485.1874    13694.814 
   48390    276.68588    7.7099938    58.646277   -166.88934   -1239.1543    13694.814 
48400        0.99023435483726673922 10.089426103286736947 1 70 -292.54227543131730727
   48400    275.76219    7.1102337    59.192516   -167.59908    6.1979527    13694.814 
   48410    288.38955    6.6171904    58.128076   -167.18479     2635.128    13694.814 
   48420    298.09811     5.911811    58.974788   -166.84997    1955.3406    13694.814 
   48430    298.34784    6.2278656    60.831096   -166.00239    2717.8256    13694.814 
   48440    310.74039    7.2122684    53.081768   -165.22217   -476.50282    13694.814 
   48450    299.64483    7.4474454    59.754432   -164.42868    1058.1287    13694.814 
   48460    301.62593    7.7254703    55.389372   -163.21663   -779.57868    13694.814 
   48470    309.61499    8.0403683    53.567261    -161.9095   -699.27588    13694.814 
   48480    297.46261    9.3679121    62.550738   -160.40081   -1370.3369    13694.814 
   48490    291.57972    12.979445    58.963491   -158.92681    1459.5861    13694.814 
48500        0.98462080465594947754 10.13710811809363932 1 66 -290.36853382618295427
   48500    294.45521     11.14169    62.608782   -156.95585    1757.0406    13694.814 
   48510    330.65977    5.8541667    60.844324   -154.48145    3511.2303    13694.814 
   48520    332.50018    5.0576719    61.120768   -152.01668   -2264.4296    13694.814 
   48530    330.90487    6.1901151    60.239411   -150.60308   -2171.1895    13694.814 
   48540    311.38526    6.0746862    61.154311   -149.42729   -1369.9112    13694.814 
   48550    315.64209    5.9402898    65.215292   -148.65579     1104.196    13694.814 
   48560    328.17964    4.2593573    60.791328   -148.60722    1012.8161    13694.814 
   48570    307.73083    5.2359265     61.39767   -149.05303   -3199.0322    13694.814 
   48580    283.97285    7.1836934    70.235569   -149.71247   -96.890025    13694.814 
   48590    287.76895    5.0409217    70.471238    -149.9799    1560.6039    13694.814 
48600        0.97101529456489577008 10.202073397513942155 1 62 -276.54098573965461583
   48600     279.9403    5.8766499    68.589302   -149.70476    1293.1818    13694.814 
   48610    298.51912    4.9754109    63.720459    -148.8662   -3335.9995    13694.814 
   48620    288.30032    5.5362949    70.639351   -148.24669   -2516.7342    13694.814 
   48630    312.55733      5.49565    69.599211   -147.83033   -1385.2579    13694.814 
   48640    307.92458    6.1997555     68.84062   -146.57791   -561.15056    13694.814 
   48650    314.45942    7.2959576       68.058   -147.19338   -296.98932    13694.814 
   48660    296.02449    6.8616018    66.548208   -147.75418    3425.3221    13694.814 
   48670     314.3386     5.030942    59.127218   -148.98357   -1487.4053    13694.814 
   48680    285.96792    7.3597697    66.266638   -150.03824   -969.11102    13694.814 
   48690    305.42156     8.301703    57.722153   -151.09453   -3136.5754    13694.814 
48700        0.96394808902779582915 10.199494122882688529 0.99735449735449732689 63 -290.58732893689170851
   48700    306.26755    8.4198586    64.247534   -151.82267    1271.7649    13694.814 
   48710    313.03725    7.2581335    54.002238   -153.61556    2205.3286    13694.814 
   48720    296.44092     8.428286    62.328587   -154.72848    1812.2322    13694.814 
   48730    285.28429    9.1521203    66.981905   -156.01227    1057.2315    13694.814 
   48740    280.68318    6.9681664     65.00712   -157.15505   -835.33703    13694.814 
   48750    271.03213    4.6543068     69.43527   -158.32152   -2938.0969    13694.814 
   48760    290.83097    4.3900029    61.781797    -158.8916    166.91028    13694.814 
   48770    279.78444    6.6945159     66.07462   -159.15004    535.87959    13694.814 
   48780    275.80303    9.0492263    67.962507   -158.50061    1756.3875    13694.814 
   48790    287.41755    10.178172     67.00128   -157.26691   -1776.7313    13694.814 
48800        0.96205199283086317852 10.199519157401518044 1 65 -286.24652288347942886
   48800    288.71517    8.4533136    64.515281   -155.43455    3027.1566    13694.814 
   48810    295.13982     4.669758    68.768941   -153.34187   -1817.4548    13694.814 
   48820    301.62706    4.5813786    68.421556    -150.6514   -1670.5943    13694.814 
   48830    314.97855      3.77318    62.185308   -147.78008   -2549.9266    13694.814 
   48840    325.22289    3.2787489    67.693872    -144.9144    2091.2305    13694.814 
   48850    308.76288    4.8798259    74.705988   -142.43315    1747.9099    13694.814 
   48860     313.4231    5.2450251    71.302942    -140.6173    1424.2678    13694.814 
   48870    309.91241    5.9644181    82.104653    -139.2967   -633.43535    13694.814 
   48880    320.44389    8.0214594    74.565312   -138.93983    1744.7941    13694.814 
   48890    304.84931    6.5558321    72.563216    -139.4032   -1956.5451    13694.814 
48900        0.96360800102266153111 10.221001085132130015 0.99735449735449732689 66 -281.94922270771542117
   48900    312.37648    7.3997033    67.413213   -140.41671   -140.06195    13694.814 
   48910    284.77009    7.3834802    75.948848   -142.23463   -1525.6344    13694.814 
   48920    313.99688    6.0737338    62.854891   -144.91865   -831.09936    13694.814 
   48930    290.08093    4.6443052    72.044352   -148.59724   -994.90408    13694.814 
   48940    299.20934    5.5653956    64.120756   -152.51501    867.44284    13694.814 
   48950     276.7927    9.0421848    61.452678   -156.87193    413.57662    13694.814 
   48960    268.44728    7.3196096    63.165517   -160.51701    130.30892    13694.814 
   48970    279.40394     5.473677    63.838638   -162.89466    535.80473    13694.814 
   48980    273.27111    4.8638777    64.469708   -164.61677    1619.9723    13694.814 
   48990    300.03955    4.1538123    59.348656   -165.55107   -102.82953    13694.814 
49000        0.97159255981167036431 10.184235442074044187 1 67 -297.7274707956875659
   49000    290.82455    3.5903806     58.45559   -165.95978   -552.89095    13694.814 
   49010    289.58264    2.3770598    60.920593   -165.76216    719.20545    13694.814 
   49020    281.82872    1.8249285     58.56244   -164.58962    1191.1434    13694.814 
   49030     270.7071    2.6133798    62.483495   -162.81993    -1013.178    13694.814 
   49040     286.0199    4.4464196    53.431348   -159.81048   -1136.0682    13694.814 
   49050    327.03498     4.239826    55.974714   -154.41865    1239.1798    13694.814 
   49060    334.17359    4.6560604     59.83534   -148.14337    320.58398    13694.814 
   49070    330.68565    5.0517827    65.386013   -142.42731    -3660.272    13694.814 
   49080    328.95501    6.8809412    64.296844   -138.15385   -611.37096    13694.814 
   49090    310.37584     7.164475    75.101917   -136.10508   -693.92781    13694.814 
49100        0.97175511717255225186 10.189466812545644459 1 67 -285.87342355577709441
   49100    333.81327    8.6422064    57.999794   -134.62826    1209.4501    13694.814 
   49110    314.61705    9.3145289    65.840596   -134.32329   -322.77683    13694.814 
   49120    359.33438    9.5855596    57.226582    -134.7746    2799.5849    13694.814 
   49130      342.065    10.147374      55.6372   -135.77193    1969.9653    13694.814 
   49140    334.53211    10.540489     55.38961   -136.53599   -243.32172    13694.814 
   49150    303.95463    9.6381842     64.51611   -137.69101   -2186.7995    13694.814 
   49160    319.71273    12.427335    62.767116   -138.72349   -941.78941    13694.814 
   49170    352.63616    9.9155156    58.071988   -139.72687     588.9387    13694.814 
   49180    340.46705    8.4530354    63.986702   -141.48772   -2183.6545    13694.814 
   49190     322.5136    7.8674055     63.46372   -144.55468   -576.72735    13694.814 
49200        0.97045653676769705331 10.178551594353590914 0.99735449735449732689 68 -282.91153207183981522
   49200    296.17568    5.7994982     78.00396   -148.71933   -2334.3373    13694.814 
   49210    323.44966     4.252464    61.731288   -152.38857    4543.1707    13694.814 
   49220    302.98727    5.2817988    61.224383   -156.21708    2181.0781    13694.814 
   49230    282.84075    7.0885349    64.291536   -158.86948    2103.8712    13694.814 
   49240    279.69506    4.4233727    62.152841   -160.10923   -1723.4527    13694.814 
   49250    282.43449    5.2600169    57.431343    -160.7224   -1885.7748    13694.814 
   49260    271.41754    3.9572058     67.16813   -160.33325    -150.8358    13694.814 
   49270     286.4864    4.5530296    60.672748   -159.40812     1058.984    13694.814 
   49280    297.36143    2.8353296     56.49631   -158.17243    238.30299    13694.814 
   49290     297.2162    4.0603208    60.855334   -156.39621    1544.1396    13694.814 
49300        0.96376829574607458806 10.198447130390800197 1 69 -283.80944123982419569
   49300    285.10743    5.2249308    64.551995   -154.63208   -1134.7954    13694.814 
   49310    288.75437    6.8630549    74.127602   -152.17528     360.7797    13694.814 
   49320    309.25061    8.2952969     57.71504   -150.11608   -2252.9406    13694.814 
   49330    319.23028    8.2063223    62.719828   -148.61102   -198.05575    13694.814 
   49340    306.82876    8.6529222    68.398249   -147.07149    264.57943    13694.814 
   49350     308.2057    9.7056054    64.595072   -146.66682    446.93216    13694.814 
   49360    292.35724    10.940967    67.663011   -146.39939   -1657.7322    13694.814 
   49370    311.95817    11.085305    59.047996    -146.1998   -1477.3012    13694.814 
   49380    295.49105    7.8939367    72.772102   -145.85962    950.51656    13694.814 
   49390    294.62538    8.2173461    66.828244   -146.09002   -171.51274    13694.814 
49400        0.96486698282282368222 10.184886404379847491 1 67 -285.7116891100625935
   49400    306.95365    8.6327158    75.484176   -146.63617    1591.5168    13694.814 
   49410    330.26169    8.2285351    59.884438   -147.60969    2015.8793    13694.814 
   49420    313.38077    4.4040172    61.891778   -149.32886   -1355.0775    13694.814 
   49430    274.45718    3.2817874     76.12741   -151.38249    552.79802    13694.814 
   49440    303.62277    5.2979545    56.888365   -155.08173   -2182.7106    13694.814 
   49450    267.36287     7.003805    61.304823   -160.35068    1934.6915    13694.814 
   49460    275.70551    3.7911633    54.177726   -166.62068    197.79865    13694.814 
   49470    257.98048    3.3419881    59.949874   -171.40188   -391.74664    13694.814 
   49480    296.80711     4.472241    51.558562   -176.10079   -22.906878    13694.814 
   49490    272.10017    6.7755605    62.830925   -178.56059    3487.6281    13694.814 
49500        0.96783891239081265567 10.18772728116220172 1 69 -321.96184794169022325
   49500     314.8382    4.9675808    44.959607   -179.31397   -690.83662    13694.814 
   49510    280.39411    3.9753462      59.0473   -180.99074    1162.4972    13694.814 
   49520    305.46393    4.4844531    56.124011   -180.80577    476.32788    13694.814 
   49530    285.74862    4.9677576    52.138194   -181.46578   -1839.9355    13694.814 
   49540    264.53647    3.3697387    59.779078   -181.13093   -3514.0462    13694.814 
   49550    273.72327    3.4870261    52.898352   -178.71931   -4686.9422    13694.814 
   49560    266.07573    5.6920848    54.784454   -176.32552    1060.5992    13694.814 
   49570    280.84433    6.5659541    56.449385   -173.28278     3011.586    13694.814 
   49580    280.34937     7.862543    54.119939   -170.15189     763.6007    13694.814 
   49590    293.73626    5.0634095    54.852528   -166.87142    552.42363    13694.814 
49600        0.97046689634943505975 10.186995438651818446 1 69 -289.85649130452407007
   49600    278.53635    5.2941823    60.420236   -163.65637   -60.415834    13694.814 
   49610    285.42871    7.3058521    58.138932     -161.025   -1672.8534    13694.814 
   49620    315.20305    9.4933916    50.585804   -159.19444   -1361.8361    13694.814 
   49630    296.90967    8.0016359    66.086363   -157.04715    2796.3268    13694.814 
   49640    298.88795    5.6005321    60.117221   -156.04719   -383.97824    13694.814 
   49650    294.14868    6.4331104    62.313486   -155.14661   -1743.2149    13694.814 
   49660    296.53299    4.8324968    65.959525   -154.53489    791.47514    13694.814 
   49670    290.16571    4.6081686    61.624286   -153.83002    2522.6559    13694.814 
   49680     288.8811    3.6747499    63.603323   -153.15751     1201.031    13694.814 
   49690    291.09744    3.9965246    67.550388   -152.41975   -1127.8892    13694.814 
49700        0.97473664322783204472 10.182533902847653806 1 70 -293.14384945837730356
   49700    312.10389    4.1339034    67.260767   -151.73484   -1115.1849    13694.814 
   49710    291.63755    5.0409686    64.822502   -150.94823   -428.12526    13694.814 
   49720    294.25978    5.7726445     56.96339    -150.0873   -4394.7846    13694.814 
   49730     295.3159     7.878849    74.653126   -148.87479    1302.6296    13694.814 
   49740    297.06216    8.9540504    69.211864   -148.03716    1497.4155    13694.814 
   49750     315.5911    6.1605239    59.079593   -148.10911    -250.4521    13694.814 
   49760    312.72886    6.7252952    55.852602   -148.26906    1118.4133    13694.814 
   49770    312.75504    5.9316253    63.218978   -148.97026    985.09143    13694.814 
   49780    276.30751    6.2963801    74.763537   -150.05625    4282.2151    13694.814 
   49790    299.22024    8.8477353    63.340033   -151.95823   -3836.2629    13694.814 
49800        0.98263316117815346917 10.146684396599559008 1 67 -289.35498887180904148
   49800    296.54331    11.473392     57.30442   -154.99622   -2403.2309    13694.814 
   49810    274.18337    13.429969    63.118774   -158.05506   -1843.9539    13694.814 
   49820    278.87135    9.7132283    56.774184   -161.36004    1432.6206    13694.814 
   49830    281.38297    8.6404793    56.786954   -164.08338     2343.144    13694.814 
   49840    282.06916    8.2532356    56.374319   -166.27845    870.62337    13694.814 
   49850    293.48239    7.9004741    51.126174   -167.79227   -934.11341    13694.814 
   49860    284.21804    9.1564907    55.797226   -168.65178   -3017.2082    13694.814 
   49870    300.20136    7.9621588    56.803793   -169.78128   -256.04842    13694.814 
   49880    268.20445    6.9851592    68.641531   -170.85647    2053.4929    13694.814 
   49890    310.13807     7.667365    46.948266   -171.91189    2014.7813    13694.814 
49900        0.9913144698967814028 10.104469797027649136 1 67 -298.77757154557559716
   49900    277.49321    9.2036212    64.170799   -173.05008    1087.1295    13694.814 
   49910    302.58482     8.954097    57.042522   -173.78293    3252.3451    13694.814 
   49920    272.63525    9.7470414    63.537223   -174.83086   -1978.3085    13694.814 
   49930    262.02224    10.747454    56.767771   -175.10674   -2655.2585    13694.814 
   49940    251.52559    11.148124    58.522584   -175.11625   -1551.0228    13694.814 
   49950    281.25028    12.019217    53.459317   -173.79127    1480.1016    13694.814 
   49960    293.81986    11.517382    51.092093   -170.70435    1460.3247    13694.814 
   49970    294.97346    9.8041889    51.780973   -166.43789   -1198.8219    13694.814 
   49980    281.47467    9.5610898    61.016517   -161.12537    1958.5579    13694.814 
   49990    298.42642    9.2129583    67.707261   -155.40591   -461.32631    13694.814 
50000        0.99219592096638442591 10.096618382604304998 1 65 -288.42776931168015153
   50000    304.75039    9.2073971    63.445834   -150.35051   -834.91242    13694.814 
Loop time of 204.868 on 1 procs for 50000 steps with 153 atoms

Pair  time (%) = 8.7797 (4.28555)
Bond  time (%) = 0.678434 (0.331157)
Neigh time (%) = 0.00672889 (0.0032845)
Comm  time (%) = 0.0769799 (0.0375754)
Outpt time (%) = 0.690535 (0.337064)
Other time (%) = 194.635 (95.0054)

Nlocal:    153 ave 153 max 153 min
Histogram: 1 0 0 0 0 0 0 0 0 0
Nghost:    0 ave 0 max 0 min
Histogram: 1 0 0 0 0 0 0 0 0 0
Neighs:    6058 ave 6058 max 6058 min
Histogram: 1 0 0 0 0 0 0 0 0 0
FullNghs:  12116 ave 12116 max 12116 min
Histogram: 1 0 0 0 0 0 0 0 0 0

Total # of neighbors = 12116
Ave neighs/atom = 79.1895
Ave special neighs/atom = 2.64052
Neighbor list builds = 9
Dangerous builds = 0
