LAMMPS (9 Oct 2012)
# 3d protein simulation

units real

timestep 2

dimension	3

boundary s s s
#boundary p p p

neighbor	10 bin
neigh_modify	delay 5

atom_modify sort 0 0.0

special_bonds fene

atom_style	peptide

bond_style harmonic

pair_style vexcluded 2 3.5 3.5

read_data data.testeo
  3 = max bonds/atom
  orthogonal box = (-200 -200 -200) to (200 200 200)
  1 by 1 by 1 MPI processor grid
  153 atoms
  202 bonds
  5 = max # of 1-2 neighbors
  5 = max # of special neighbors

pair_coeff * * 0.0
pair_coeff 1 1 20.0 3.5 4.5
pair_coeff 1 4 20.0 3.5 4.5
pair_coeff 4 4 20.0 3.5 4.5
pair_coeff 3 3 20.0 3.5 3.5


velocity	all create 300.0 1582686

group		alpha_carbons id 1 4 7 10 13 16 19 22 25 28 31 34 37 40 43 46 49 52 55 58 61 64 67 70 73 76 79 82 85 88 91 94 97 100 103 106 109 112 115 118 121 124 127 130 133 136 139 142 145 148 151
51 atoms in group alpha_carbons

group		beta_atoms id 3 6 9 12 15 18 21 24 27 30 33 36 39 42 45 48 51 54 57 60 63 66 69 72 75 78 81 84 87 90 93 96 99 102 105 108 111 114 117 120 123 126 129 132 135 138 141 144 147 150 153
51 atoms in group beta_atoms

group		oxygens id 2 5 8 11 14 17 20 23 26 29 32 35 38 41 44 47 50 53 56 59 62 65 68 71 74 77 80 83 86 89 92 95 98 101 104 107 110 113 116 119 122 125 128 131 134 137 140 143 146 149 152
51 atoms in group oxygens


fix		  1 all nvt temp 300.0 300.0 100.0
fix		  2 alpha_carbons backbone beta_atoms oxygens fix_backbone_coeff.data testeo.seq
Chain flag on
Chi flag on
Rama flag on
Rama_P flag on
SSWeight flag on
ABC flag on
Dssp_Hdrgn flag on
P_AP flag on
Water flag on
Burial flag on
Helix flag on
Fragment_Memory_Table flag on
DebyeHuckel on

Reading fragments...
Computing FM table...

variable      biasinge equal f_qbias
# output wham.dat, a file with collective variables that can be used to compute pmfs
compute     qw alpha_carbons qwolynes rnative.dat 2 0.15
variable    qw equal c_qw
compute     rg alpha_carbons gyration
variable    rg equal c_rg
compute     qo alpha_carbons qonuchic cutoff 12.0 nativecoords.dat 1.2
variable    qo equal c_qo
compute     tc beta_atoms totalcontacts 6.5 2
variable    tc equal c_tc
variable    step equal step
variable    E_P equal pe

fix         wham all print 100 "${step}        ${qw} ${rg} ${qo} ${tc} ${E_P}"

thermo		10
dump		1 all atom 50 dump.lammpstrjPH


dump_modify	1 sort id

reset_timestep	0
run		50000
Memory usage per processor = 0.857471 Mbytes
Step Temp E_pair E_mol TotEng Press Volume 
       0          300    54.408864    955.49334    706.11014    -33253.58    10890.368 
      10    1278.8842    61.929735     297.0332    647.00211    9218.2241    10890.368 
      20    722.68076    27.098725    508.29052    557.95986    6547.8368    10890.368 
      30    998.10766     13.91838    360.16024     484.6311    30641.305    10890.368 
      40     782.0168     8.707248    352.91067    392.00126    -31712.61    10890.368 
      50    740.59164    7.0581286    281.23944    322.59525   -3255.3464    10890.368 
      60     757.7703    4.7072181    236.01393    251.97845   -6316.7967    10890.368 
      70     630.5112    7.5853249    244.92078    193.38286    23141.605    10890.368 
      80    618.24974     15.53466    180.29115    144.19248   -1146.1104    10890.368 
      90    469.35334    15.271191    192.35721    100.05822    -15952.32    10890.368 
100        0.99288178120689452033 10.052522297751412594 1 69 -169.07878991608737351
     100    506.55434    7.8600051    175.28694    60.432436    1175.3645    10890.368 
     110    470.29477    3.2796001    162.21992    24.752384    7997.9302    10890.368 
     120    456.30672    3.9475932    143.16677   -7.4049417     408.3856    10890.368 
     130    432.34005    3.6750157    120.74992   -33.284784   -5015.3669    10890.368 
     140    401.82133     6.095109    121.80956   -57.944672   -5100.9359    10890.368 
     150    392.93042    7.4812178     113.1898   -80.275433     11141.77    10890.368 
     160    402.84776    11.141265    94.603749   -100.16975    3433.1634    10890.368 
     170    390.50499    10.237324    88.241643   -118.32761    1051.7486    10890.368 
     180    348.46332    6.8692048    98.823304   -134.95461    -4847.605    10890.368 
     190    309.06986    6.3242284    96.862665   -149.62171   -3235.1667    10890.368 
200        0.9917233600390853443 10.108953706707987763 1 69 -290.5222336110268202
     200     280.9784    4.8872551    101.36257   -163.21566   -424.40181    10890.368 
     210    274.84265     6.317341    96.155073   -174.14004   -59.710635    10890.368 
     220    274.12873    7.0789192    87.641147   -184.05978   -5544.5485    10890.368 
     230    245.51744    9.8259522    84.875459   -191.66287    2748.7276    10890.368 
     240    285.38296      12.3655    64.989837    -197.7778    931.67489    10890.368 
     250    241.22761    11.271963    79.790709   -202.50092    4245.4674    10890.368 
     260     261.9071    10.958199    72.682283   -205.40426   -639.38374    10890.368 
     270    259.73491    8.7834526    68.688304   -207.08322     -2384.13    10890.368 
     280    241.41378    9.3958197    78.187515   -207.21918    -251.6053    10890.368 
     290    280.05592    6.8188027    65.967684    -205.7305   -2024.8524    10890.368 
300        0.99012047666939639878 10.105399722079855707 1 68 -314.0402087239436355
     300    244.85538    5.1964388    82.218798   -203.10037    4357.9897    10890.368 
     310    260.07214    5.5477881    76.277104   -199.25389    393.89305    10890.368 
     320    251.64137     8.087087     75.86994   -194.35999   -2780.4131    10890.368 
     330    269.27375    7.6025832    75.076216   -188.76618   -3258.8831    10890.368 
     340    309.36057    8.1744849    68.266401   -181.33583    1186.3759    10890.368 
     350    261.03999    6.1619839    98.282358   -174.06592    5695.2564    10890.368 
     360    308.45406    8.4852692    74.244659   -165.81766   -967.48977    10890.368 
     370    291.89783    7.8489387    88.756033   -158.12192   -1930.0298    10890.368 
     380    348.59054     9.464543    72.419076   -150.39022   -2144.6685    10890.368 
     390    327.26844    9.0250687    87.065683   -142.70731    1278.0856    10890.368 
400        0.98908677964281443984 10.112387444229428368 1 68 -285.37478038639187616
     400    329.71507    5.6582057    92.493326   -135.98645    750.99828    10890.368 
     410     331.4985    8.1917873    98.892352   -129.63539    469.49065    10890.368 
     420    325.11967    5.8930747     99.95185   -125.44911    484.70772    10890.368 
     430    341.71024    6.2240556    98.220444   -122.67194    4212.7478    10890.368 
     440    327.65712    6.6875762    115.69285   -122.08357     1597.186    10890.368 
     450    359.17492    9.1470155    89.607459   -123.20207   -2355.9301    10890.368 
     460    313.16482    9.8852831    97.508518    -126.5516   -9224.1082    10890.368 
     470     329.1216    10.688686    96.846253   -130.63241    2516.4387    10890.368 
     480    310.80481     9.312846    99.103028    -136.1227    2848.2714    10890.368 
     490     309.1923    7.8029233    92.429477   -142.21528    5209.2827    10890.368 
500        0.98571795371175174871 10.142570986562850166 1 69 -298.25186559055646285
     500    329.76695     8.069589    89.223755   -148.84003   -1195.7182    10890.368 
     510     275.5486    4.3641836    102.59325   -155.97701   -3547.1031    10890.368 
     520    298.49286    4.0145614    86.707614   -162.33901    1792.3623    10890.368 
     530    282.43646    5.1503873    93.650239   -169.54569   -3901.5274    10890.368 
     540    286.26004    9.2036375    82.816816   -175.04133    1289.9421    10890.368 
     550    301.69888    9.7249098     73.76074   -180.33703   -3052.6448    10890.368 
     560    249.14121    7.5424397    90.234579   -184.38952    944.26949    10890.368 
     570    288.43458    7.4605063    71.273539   -187.93639     873.2201    10890.368 
     580    242.63898    5.5051989    84.058748   -190.43971    1320.7515    10890.368 
     590    286.97433     5.091672    69.833116    -191.7313   -882.59212    10890.368 
600        0.98473746638508630191 10.137019373367515129 1 68 -302.56399233670691729
     600    243.58507     4.393418    78.190089   -192.19971   -471.84463    10890.368 
     610     255.9886    4.5919192    77.992805   -191.35575   -683.34908    10890.368 
     620    267.75526    6.7655282    78.084134   -189.20797    914.27952    10890.368 
     630    274.71254     6.221062    74.754289   -186.30494   -841.59242    10890.368 
     640     286.5516    5.3564036    77.610247   -182.46511    1621.4194    10890.368 
     650    278.28636     7.713565     78.23827   -178.19621   -2176.1696    10890.368 
     660    276.99542     7.919089    85.949955   -173.20541    945.91004    10890.368 
     670    283.09441    8.5186481    88.667011   -167.76023     2100.931    10890.368 
     680    288.84442     8.576051    86.937541   -162.31064    1129.9473    10890.368 
     690    321.47083    8.3594235     78.04331   -157.15295   -1937.3391    10890.368 
700        0.98371781067191466086 10.138414639290107999 1 67 -288.15706646005389757
     700    300.51365    10.814565    82.806817    -151.9994   -1423.1198    10890.368 
     710    313.07068    10.157858    89.099053   -147.02075   -1749.0766    10890.368 
     720    316.36608    11.614836    90.417708   -142.41776    4601.1553    10890.368 
     730    319.27973     8.082891    91.838708   -139.12963   -1554.9363    10890.368 
     740    324.29257    9.7145639      89.1144   -136.65939    1746.2497    10890.368 
     750    321.52661     9.881985    95.599049   -135.12244   -1737.8545    10890.368 
     760    325.98944    10.201569    96.579951    -134.6034    5530.1393    10890.368 
     770    323.82107    8.2306576    92.667841   -135.35746   -497.62557    10890.368 
     780    331.46513    8.8795675    85.938209   -137.03402   -175.77981    10890.368 
     790    305.06069     7.584938    96.775549   -139.77289   -5099.0932    10890.368 
800        0.97824934649116002117 10.1617695500399563 1 70 -273.14528401688085069
     800      287.653    6.8264435    93.528184   -142.81457    503.41609    10890.368 
     810    291.52062    4.7483372    95.092948   -146.37826   -1941.2954    10890.368 
     820    284.06182    4.3053246    96.877832   -149.88077    2011.9187    10890.368 
     830    295.51772     5.517892    84.061999   -153.38052   -455.72151    10890.368 
     840    285.23098    5.3700761    86.074418   -156.91247    1934.2502    10890.368 
     850    296.23021    5.8097339     87.75285   -160.17482    1959.7687    10890.368 
     860     282.8443    5.2505473    84.497496   -163.34697    296.91552    10890.368 
     870    299.14942    5.9561283    78.813078   -166.08483   -2631.5587    10890.368 
     880    282.06598    4.8603824    79.990797   -168.39423   -907.02661    10890.368 
     890    309.08281    4.9308461    74.058268   -170.35187    -1495.704    10890.368 
900        0.97402269468443980482 10.175587043100376761 1 68 -307.4144833598426203
     900    298.77694    6.0271533    75.775715   -172.04369    239.15376    10890.368 
     910    292.60442    6.3875299    76.008406   -173.52475    -2420.974    10890.368 
     920    283.61407    7.6742374    80.247919   -174.82192    3300.5802    10890.368 
     930    287.45823    9.1479794    74.190261   -175.57527    2002.3126    10890.368 
     940    295.16705     9.972704    73.583804   -175.66216     3040.355    10890.368 
     950    277.90956    6.9249858    86.996994   -175.05091   -308.97325    10890.368 
     960    291.71017    7.7251139    76.235052    -173.8659   -760.94047    10890.368 
     970    271.84284    7.0279627    85.062845   -172.44891   -534.80271    10890.368 
     980    298.93681    10.848164    75.567852      -170.46   -3282.3754    10890.368 
     990    304.14738    8.1795321    75.681429   -168.01876    -757.4694    10890.368 
1000        0.97179290247279703774 10.180973200360133646 1 64 -301.03345342591353528
    1000    299.25586    7.5752584    90.244902   -165.44567     1017.708    10890.368 
    1010    289.62543    5.8660844    82.627172    -162.9084   -2151.6429    10890.368 
    1020    270.12561    3.4905006    91.664022   -160.61851    2860.0452    10890.368 
    1030    273.17371    5.2921591    86.257044   -158.02093   -1384.4716    10890.368 
    1040    303.47047    4.6076408    86.676188   -155.03195    3205.3718    10890.368 
    1050    295.09078    4.8162219    88.016243   -152.10698    1036.4753    10890.368 
    1060    315.58358    5.3093264     88.55104   -149.16663   -839.93449    10890.368 
    1070    297.14431    6.8063781     91.19837   -146.81552   -3401.5199    10890.368 
    1080     315.2932    8.0576739    83.501786   -144.94245   -5017.0558    10890.368 
    1090     312.8635    6.0389457    88.388188   -143.65586    1647.9321    10890.368 
1100        0.97165184486939948361 10.181516857318692715 1 63 -279.42066232611978194
    1100    301.34316    7.3299723    86.055039   -142.88716    2146.0186    10890.368 
    1110    319.41209    5.7492942    77.715254    -142.3186   -2327.6479    10890.368 
    1120    300.57211    4.7952041    87.247601   -142.14039    2847.7315    10890.368 
    1130    342.12347    3.7847442     80.58294   -142.33418   -759.62494    10890.368 
    1140    293.39116    4.7916098    94.866863   -143.25394     6.924444    10890.368 
    1150    340.23095    5.3129275     76.08702   -144.71147   -3208.9786    10890.368 
    1160    308.09607    6.1467364    90.493647   -147.17153    1462.0339    10890.368 
    1170    328.51783    6.5915531    79.187058   -150.11945    2592.7405    10890.368 
    1180    320.39207    7.8287823    77.975023   -153.53484   -444.84542    10890.368 
    1190     326.7496    6.7778933     77.55814   -157.11631    545.73718    10890.368 
1200        0.97578055022886567293 10.176708478391010004 1 65 -302.49901306063384254
    1200    312.69524     6.123899    79.160875   -160.82207   -2901.8539    10890.368 
    1210    301.99565     5.512351    73.154905   -164.57348   -319.03176    10890.368 
    1220    275.54174    6.8676763    86.044912   -168.10607   -1724.4036    10890.368 
    1230    276.31916    8.8412012    83.882886   -171.24628    4567.9744    10890.368 
    1240    276.04872     8.710331    85.292698   -173.98338   -691.22766    10890.368 
    1250    269.85749    7.4226226    76.836529   -175.84846   -2179.8779    10890.368 
    1260    295.22063     7.576572    72.988574   -177.18806    714.03634    10890.368 
    1270    274.98441    7.0666103     75.61976   -177.93908    2689.0818    10890.368 
    1280    293.92713     7.259146     71.01582   -177.98599   -3474.1393    10890.368 
    1290    232.24171    7.0285626    88.090897   -177.16832   -2304.6691    10890.368 
1300        0.98399729905907262761 10.145028879008020084 1 62 -296.13280669673309831
    1300    267.15302    8.1068915    81.858524   -175.09028    -265.0327    10890.368 
    1310    252.26314    7.8865568    91.098819   -172.35129    3427.4566    10890.368 
    1320    290.13834    8.8671735    83.514037   -168.95307    2992.0315    10890.368 
    1330    278.92493    10.757568    83.842188   -165.22012    1083.5337    10890.368 
    1340    308.85186    10.328594    76.801674   -161.12469    3673.1465    10890.368 
    1350    305.48911    8.4908468    86.712569    -156.9757   -3748.9828    10890.368 
    1360    336.69792    9.7770181    73.349149   -153.38278   -4039.3982    10890.368 
    1370    304.78668    9.0147928    86.380961   -150.46231   -596.02449    10890.368 
    1380    310.51099    10.016861    78.799046   -147.95732    731.89288    10890.368 
    1390    303.95603    9.0592695     93.16284   -145.68347    500.16071    10890.368 
1400        0.98775633050959077419 10.126761977730687647 1 65 -277.24966017169077759
    1400    293.36523    12.526709    90.625902   -144.33083   -583.21388    10890.368 
    1410    310.34822     9.905932    88.847051    -143.9184   -1304.7773    10890.368 
    1420    301.64867    8.4296648    83.977194   -143.99561    3089.8819    10890.368 
    1430    294.80547    7.1753163    90.046892   -144.12248    970.26859    10890.368 
    1440    290.88554    8.4224018    88.136401   -144.37681    1755.1118    10890.368 
    1450    313.63327    5.2371322    81.977914   -145.19189   -4156.6017    10890.368 
    1460    293.06387     4.097907    93.164415   -146.71565   -1501.1406    10890.368 
    1470    316.12794    6.5537412     73.37311   -148.36793    1802.5332    10890.368 
    1480    283.77798    8.3535957    82.116376   -149.84965   -380.72848    10890.368 
    1490     288.5542    8.5237248    87.960731   -150.97297    274.38804    10890.368 
1500        0.98699962862754830883 10.109016206574647612 1 63 -294.05971721687785703
    1500    312.93349    8.6629239    81.461334   -152.27483   -2820.6705    10890.368 
    1510    282.54137    8.5309167    94.803402   -154.46291     3392.686    10890.368 
    1520    304.45571    9.6526202    76.646387   -156.93372   -456.48784    10890.368 
    1530    278.07555    6.5802985    88.984765   -159.46245    54.625033    10890.368 
    1540    306.57073    9.2939226    79.085831   -161.55226   -561.47512    10890.368 
    1550    297.53273    8.0175339    78.593744   -163.89909    2091.9767    10890.368 
    1560    276.34723     8.998771    78.512943   -166.21911   -252.81014    10890.368 
    1570    272.25459    8.4824548    72.279063   -168.02282   -2243.6564    10890.368 
    1580    280.74222    6.5506211    74.511208   -168.92697    1933.8899    10890.368 
    1590    286.28939    4.8727221    80.385866   -169.21195   -1034.2982    10890.368 
1600        0.98814457292852297954 10.120624988160951574 1 64 -294.88038892892370768
    1600      276.877    5.3050329    83.210177   -169.43209    -1138.238    10890.368 
    1610    279.03606    4.6337152    82.320149   -169.63699    968.26293    10890.368 
    1620    282.17108    4.6132792    74.075641    -169.3208   -1760.6894    10890.368 
    1630    303.28154    5.4932555     67.31006   -168.22239    82.922672    10890.368 
    1640    314.41302    6.4388231    71.231114   -166.65308    497.19254    10890.368 
    1650    303.72851    7.0103943    70.286695    -164.8971    6094.7888    10890.368 
    1660    296.62157    5.4156409    74.376548    -162.9487   -492.25658    10890.368 
    1670    300.74884    5.3190479    74.734795   -160.54928    -3278.289    10890.368 
    1680    304.56391    6.4520408     78.56874   -158.17001   -1763.0958    10890.368 
    1690    299.59916    9.5799883     69.73457   -155.86942   -510.05053    10890.368 
1700        0.98973407526801560063 10.105671972770068123 1 69 -281.40467776051696092
    1700    282.87305    11.944836    79.563146   -153.23967   -1700.3645    10890.368 
    1710     284.5741    8.2006963    87.089281    -149.9832    2305.7967    10890.368 
    1720    289.12677    5.0727094    90.009189   -146.89492      705.419    10890.368 
    1730    294.21333    6.8045378    88.159031    -144.6684    768.40618    10890.368 
    1740    319.63156    7.5030291    81.350597   -142.91802   -2958.2727    10890.368 
    1750    325.87127    7.2755171    81.601409   -141.59876   -541.67639    10890.368 
    1760    319.93917    6.4018797    84.712641   -140.95239    203.40011    10890.368 
    1770    311.46403    8.0348118    82.878201   -141.18268   -672.75886    10890.368 
    1780    316.50639    8.3688347    80.113093   -141.99171    737.23527    10890.368 
    1790    317.11906    8.5086284    77.337069   -143.12203     1323.063    10890.368 
1800        0.9879601301222009635 10.084487279807953897 1 69 -272.70032193225188166
    1800    283.24236    7.5687567     89.47383   -144.36799    1991.4448    10890.368 
    1810    309.81384    7.0906005    82.722395    -145.9452   -1055.0737    10890.368 
    1820    293.91695    6.5062177    87.611276   -148.27247    685.56909    10890.368 
    1830    330.68851    5.2217528    73.348466   -151.11474   -102.51881    10890.368 
    1840    305.28594    6.1381481    81.573182   -154.22233    730.96123    10890.368 
    1850    301.45539    5.5852521    72.143819   -157.08407   -2266.5611    10890.368 
    1860    277.55622    7.5704365    81.019557   -159.57399    1641.0814    10890.368 
    1870    286.84009    7.5810524    77.509068   -162.06057    157.49674    10890.368 
    1880    267.71197    8.5780421    83.252432   -164.34261    1962.0367    10890.368 
    1890    317.01731    7.5400932    65.580748   -166.17365    749.26656    10890.368 
1900        0.98924227714413714985 10.111178573900822641 1 70 -302.77993434151272822
    1900    297.62183    8.5916781    69.738828    -167.9325   -2213.1788    10890.368 
    1910    298.59489    8.5684546    69.087741   -169.51282   -2363.1233    10890.368 
    1920    292.46358    8.3277282    69.782752   -170.68355   -130.74314    10890.368 
    1930    293.59275    8.0247278    76.919484   -171.15323    1329.7065    10890.368 
    1940    307.94782    9.7394633    70.683114   -171.07577    723.26023    10890.368 
    1950    293.90061    8.6461229    77.183314   -170.94594    -1907.268    10890.368 
    1960    286.60911    7.9871517    72.494334   -170.69439   -405.48929    10890.368 
    1970    277.22515       5.5665    79.302711   -170.18542    1971.6197    10890.368 
    1980    266.11339    6.3251436    80.515588   -169.22368    664.88471    10890.368 
    1990    296.57681    6.1974364    69.402318   -167.27108   -775.11075    10890.368 
2000        0.98761251339068645283 10.124497031838089356 1 69 -297.60228644061089653
    2000    293.99052    6.7625965    75.831853   -164.40014    2518.2551    10890.368 
    2010    295.51567    7.9634574    77.114663    -160.9394   -1350.8459    10890.368 
    2020    281.89899    8.7992243     82.30111   -157.37332    3089.7667    10890.368 
    2030    284.31687    8.0637091    84.714772   -153.63789   -3170.2842    10890.368 
    2040    326.15693    7.5533775    74.660278   -149.84202   -502.38409    10890.368 
    2050    310.85158    6.7896077    82.790841   -146.94041   -1268.5784    10890.368 
    2060    313.76685    7.6106102    77.227403   -144.95943    72.967548    10890.368 
    2070    308.22215    6.6634477    84.003221    -143.3622   -4103.2493    10890.368 
    2080    308.91867    6.4134447    74.875298   -142.17616    925.60023    10890.368 
    2090    321.82652    6.4082524    81.568732    -141.2943    638.32494    10890.368 
2100        0.9869319146682913324 10.121592486791705312 1 71 -283.6838717920126669
    2100    314.86757    6.5938977     78.37757   -141.02269     4202.649    10890.368 
    2110    310.03835    6.4674079    85.315701   -141.51509   -2190.1092    10890.368 
    2120    308.03871    8.8590155    81.992068   -142.73349    4631.6627    10890.368 
    2130    314.67266    8.5690439    77.421819   -144.74054   -1363.9097    10890.368 
    2140    319.53145    7.0736592    71.245497   -147.69437    -2063.312    10890.368 
    2150    334.86903    5.5303373    70.562638   -151.94582   -3907.8082    10890.368 
    2160    281.86526    4.5250529    82.788293   -157.73879    224.53638    10890.368 
    2170     281.5841    5.6769472     78.52564   -163.86106    3151.9332    10890.368 
    2180    283.95537    6.3425142    74.372683   -169.47148     3182.185    10890.368 
    2190    283.82582    6.1405228    77.623135   -173.37336   -1859.7457    10890.368 
2200        0.98523140934236008714 10.128326931735669447 1 70 -315.21906206312149834
    2200    307.44842    5.5980223     62.79371   -175.91937    904.47013    10890.368 
    2210    275.36638    8.2664158    69.079282   -177.27894   -5949.1527    10890.368 
    2220     286.2051    10.538488    71.984442   -177.63437    412.03886    10890.368 
    2230    284.59475    10.116098    68.783734   -177.32507    401.19656    10890.368 
    2240     270.0347    8.2095509    75.026379    -176.4776    866.62315    10890.368 
    2250    266.04693    8.7464383    72.405052   -175.04743    4155.0875    10890.368 
    2260    273.87046    10.454492    78.425421   -173.03542    1737.5791    10890.368 
    2270    297.09489    9.0841974    70.642986   -170.64555    2661.7076    10890.368 
    2280    294.38689    6.2425279    69.418477   -167.92908   -3590.8371    10890.368 
    2290    313.75725    7.3663466     66.76076   -164.76411   -3838.0963    10890.368 
2300        0.98483160008265713259 10.140370412418551638 1 71 -304.90201616237453663
    2300    315.50245    6.2753041    77.754985   -161.95318   -494.16524    10890.368 
    2310    303.38179    8.3703389     70.92736   -159.53926   -3569.5202    10890.368 
    2320    308.36267    5.6761481    72.999311   -157.42014    4953.9564    10890.368 
    2330    294.53285    5.6432689    82.219421   -155.54529    4372.9948    10890.368 
    2340    302.86521    6.7733046     79.90552   -153.91584    3175.2565    10890.368 
    2350     288.7193    9.3984228    81.902276    -152.4862   -3005.9026    10890.368 
    2360      298.725    8.1621396    76.600879   -151.18675   -6783.9473    10890.368 
    2370    304.72052    7.2519997    79.742572   -149.72212    1002.1957    10890.368 
    2380    305.65585     11.94051    77.676291   -148.34857     1978.741    10890.368 
    2390    308.72053    17.441955    81.347895   -147.16962    3890.1977    10890.368 
2400        0.98367936594316707222 10.139146411115183 1 70 -293.1268139583090715
    2400    324.15617    14.461198     80.39234   -146.25712    -513.2853    10890.368 
    2410    334.27929    10.332701    79.850339    -146.5097   -3079.4946    10890.368 
    2420    334.51701    5.5106148    70.306137   -148.30761   -2469.8847    10890.368 
    2430    319.55752    5.1100324    74.038305   -152.34039   -2492.8229    10890.368 
    2440    319.83509    4.6631972    69.723399   -158.62379    1478.4177    10890.368 
    2450    278.02962     5.710603    75.658964    -166.0471    1864.5854    10890.368 
    2460    271.89139    6.8061776     68.82177   -171.77352    3795.6637    10890.368 
    2470    259.29183    8.5835103    73.452557   -175.34432     1111.958    10890.368 
    2480    264.89329      8.13821    76.483824   -176.89327   -990.57391    10890.368 
    2490    272.94767    7.7786119    73.498037   -177.41082   -1219.6456    10890.368 
2500        0.97707460503160314946 10.168478290894146454 1 68 -295.867499381063908
    2500    261.76048    5.8225035    81.566511   -177.26824   -1628.4114    10890.368 
    2510    274.81547    5.1534595    80.279374   -176.63849   -1596.2385    10890.368 
    2520    273.54621    4.9429563    73.588334   -175.76496    298.24079    10890.368 
    2530    283.63433    5.0522927    68.198116     -174.375   -804.27824    10890.368 
    2540    266.12748    4.9452134     72.42634   -172.50516    432.23135    10890.368 
    2550    271.35211    7.4245031    72.063451   -169.82233    2379.8599    10890.368 
    2560    269.57178    9.6738694    74.420935   -166.22129    1830.8803    10890.368 
    2570    303.02118    9.7003993    71.670192   -162.07768   -2612.1293    10890.368 
    2580    297.70359    5.4240352     73.81209    -158.2736   -4156.9714    10890.368 
    2590     298.5099    4.7155997    77.438965   -155.42268   -760.83939    10890.368 
2600        0.97664257754710559478 10.16107204015398402 1 71 -287.88405714902006594
    2600    297.35018    6.2146607     77.84333   -153.15971    2411.0346    10890.368 
    2610    305.66843    7.1245791    77.845897   -151.53549    3137.7846    10890.368 
    2620    293.91737    7.4213923    77.616668   -150.47059    2638.3126    10890.368 
    2630    298.25469     8.792721     81.44015   -149.75198    3186.1983    10890.368 
    2640    281.36132    7.1730324    80.158365   -149.26299    -1939.487    10890.368 
    2650    310.82276     6.181849    79.717253   -148.86197   -469.34297    10890.368 
    2660    303.99159    3.4982457    85.583573    -149.0754   -2880.5469    10890.368 
    2670    306.47623    5.4643599    76.933198    -149.8946   -384.60568    10890.368 
    2680    284.40792    6.9904216    81.435041   -151.14142   -796.73939    10890.368 
    2690    289.95052    5.8550598    84.817179   -152.32589    1646.7951    10890.368 
2700        0.97115757942310676487 10.191594368836534912 1 66 -285.84222858198563699
    2700    292.48319    4.5341229    72.697995   -153.32303   -1446.1763    10890.368 
    2710     307.8678    5.2837015     78.26811   -154.32384     -78.3779    10890.368 
    2720    292.25928    4.2640891    79.026597   -155.74475   -535.17377    10890.368 
    2730    285.55405    3.0831212    83.369116   -157.17079    1655.8354    10890.368 
    2740    291.92341    3.6489832    78.486759   -158.48722   -1821.7664    10890.368 
    2750    289.57904    4.8481166    69.346731   -159.91417    -3677.515    10890.368 
    2760    291.58639    5.2730469    83.438418    -161.8634   -288.14424    10890.368 
    2770    283.00664    5.5566382    73.987103   -164.63475   -267.28932    10890.368 
    2780    288.07912    5.9831963    69.210472   -168.60462    288.90829    10890.368 
    2790    279.25628    4.8850412      67.5962   -173.98042    3310.7632    10890.368 
2800        0.9719595906557517706 10.178074158744189859 1 69 -309.01726807418788212
    2800    285.07052    4.1192588    67.007343   -179.85663    2549.6146    10890.368 
    2810    263.89937    6.1735188    64.436962    -185.1173   -1229.5475    10890.368 
    2820     270.8755      4.73455     62.42903   -188.29924    -4155.947    10890.368 
    2830    268.41845    5.7381063    64.331565   -190.03818    2737.8044    10890.368 
    2840    261.11715    7.4383167    64.496758   -190.47364    -294.3041    10890.368 
    2850     290.8811    8.1016055    60.540997   -189.78428    97.599526    10890.368 
    2860    286.47909    6.7432562    58.391865   -188.33463   -1438.9141    10890.368 
    2870    271.58785    10.167302    68.280233   -185.94015   -468.03664    10890.368 
    2880    255.86019    10.048029     70.56222   -182.33675    775.54457    10890.368 
    2890    253.10781    12.693056    70.390657   -178.23253    -1160.927    10890.368 
2900        0.97882129002393791772 10.157041303751126904 1 69 -296.64984419561665163
    2900    271.38884    10.114486    78.959813   -173.68814    5055.9868    10890.368 
    2910    305.28959    9.0994306    70.631126   -169.83047    2741.5364    10890.368 
    2920    313.91672     7.213737    68.855079   -166.85112   -3152.7536    10890.368 
    2930    307.18658    6.3393977    76.154812   -165.15678   -1400.7597    10890.368 
    2940    287.72658    6.7298986    73.699911    -163.9978   -93.889258    10890.368 
    2950    274.63833    7.9324637    74.637118   -163.05687   -1641.8346    10890.368 
    2960    279.54298    8.7546362    74.813291   -161.77512   -1372.9444    10890.368 
    2970    316.24868    8.4799143    69.645605   -160.00817   -1297.8229    10890.368 
    2980     307.8675    7.9412544    71.680107   -158.37162    3550.7372    10890.368 
    2990    300.44745     6.131425    71.638678   -156.77486   -1287.5164    10890.368 
3000        0.98090918868084642224 10.157046086070415924 1 68 -296.05829833348877855
    3000    310.96691    4.5083935    67.002402   -155.16444    381.69631    10890.368 
    3010    301.05417    3.8001998    81.445938   -153.51875    3983.5049    10890.368 
    3020    340.15299    3.3038718    60.968653   -151.93097    -388.6341    10890.368 
    3030    304.97341    3.9874925     70.99285   -150.66185   -2296.3332    10890.368 
    3040    320.00673    5.9675568    65.510322   -149.41671   -1827.1888    10890.368 
    3050    288.36239    7.3795984    84.180457   -147.98235   -1101.2139    10890.368 
    3060    326.71573    6.8796851     69.02252   -146.28574    2206.2634    10890.368 
    3070    309.82755    6.1429769    78.241848    -144.6814    1185.0504    10890.368 
    3080    352.66564    7.2599215    64.510434   -142.94747    3275.0262    10890.368 
    3090    327.04969    5.9264392     73.35474   -141.39128   -1747.1934    10890.368 
3100        0.98177020541221371452 10.151292840215743851 1 64 -274.10729865311702724
    3100    295.77135    5.2983601    88.104607   -140.09829   -3233.2464    10890.368 
    3110    303.01582    4.6788826    83.173748   -138.92609   -1197.2183    10890.368 
    3120    311.21779    7.2498805    78.064081   -138.32849    1103.6272    10890.368 
    3130    331.22013    8.3785825    77.027028   -138.13546    1168.4077    10890.368 
    3140    323.86027    7.6137058    81.745622   -138.83262    598.75882    10890.368 
    3150    303.98389    6.3056679    87.480655    -140.7869   -619.00704    10890.368 
    3160    332.99359    4.3436099     74.60504   -144.26972   -1098.9815    10890.368 
    3170    300.47489    5.4476201    76.871527   -148.98435    -1192.904    10890.368 
    3180    309.62838    7.8276835    76.780803   -154.18223    969.92774    10890.368 
    3190    272.75951    8.4486504    83.729832   -158.78698    4235.1316    10890.368 
3200        0.98222324725991949634 10.140804060882649296 1 64 -300.46250885718166046
    3200    304.48244    7.8945877    65.059642   -162.50665   -3799.0906    10890.368 
    3210    290.18966    5.5305676    71.135089   -165.35585   -787.99142    10890.368 
    3220    313.27224    5.1355739    63.972167   -167.42079   -1870.1599    10890.368 
    3230    312.37014    5.0059291    62.205335   -169.08711    1373.5327    10890.368 
    3240    300.03465     4.208652    57.544248   -169.94604    3296.5655    10890.368 
    3250    283.12227    4.5006455    70.753165   -170.16972    -2152.654    10890.368 
    3260    267.52775    3.8174111    76.571023   -169.60282    1430.9641    10890.368 
    3270    280.79674    5.6190927    70.030719   -168.28241   -5834.7828    10890.368 
    3280    303.49113    5.6932147    62.094533    -166.4755    2253.7516    10890.368 
    3290    314.20434    6.5006526    67.894196   -163.85762    951.86376    10890.368 
3300        0.98123630244165715997 10.14200587872507775 1 66 -290.78490379906662611
    3300    286.05346    7.3328213    77.654758   -161.17891    3346.3532    10890.368 
    3310    292.64433    6.8251393    77.215207   -157.86934   -2654.1546    10890.368 
    3320    295.74425    6.8355648    76.874224   -154.30839   -1337.3506    10890.368 
    3330     290.5743    5.7641259    88.405445   -150.71841   -2223.7541    10890.368 
    3340    301.22558    5.4639786    75.495069   -147.06347    1151.9966    10890.368 
    3350    285.97103     7.830697    79.370081   -143.52947     162.9848    10890.368 
    3360    277.75152    6.7761684    90.353568   -139.99367    5656.4023    10890.368 
    3370    298.39181    6.1600301    85.146045   -137.06021   -1431.0298    10890.368 
    3380    292.72328    4.5297096    87.041504   -135.14984   -593.29735    10890.368 
    3390    315.31919    8.1559092     79.88419    -134.1661   -3119.1144    10890.368 
3400        0.98357616710422124395 10.129059740592293082 1 66 -279.91190201160372908
    3400    322.59625    8.8515657    77.140962   -133.74899    1465.1923    10890.368 
    3410    324.21201    9.0231206    71.709592   -133.88542    -1784.578    10890.368 
    3420    323.34432    8.1512996    72.427556   -134.42325    1795.0348    10890.368 
    3430    334.38807    8.4912038    77.402299   -135.60029    4691.1189    10890.368 
    3440    327.15754    8.3233413    76.171284   -137.24144    2290.8352    10890.368 
    3450    343.08372    7.4025539    74.689535   -139.43767   -2423.9821    10890.368 
    3460    337.04999    6.9991614    72.218924   -142.37674   -278.64379    10890.368 
    3470    308.34675    6.5275631    76.585931   -145.45632    207.88231    10890.368 
    3480    323.49956    3.4856766    76.673723   -148.32787   -96.821131    10890.368 
    3490    305.20879    7.3587015    76.959335   -151.03337   -2332.9021    10890.368 
3500        0.98676528037769983825 10.136099621508154911 1 65 -300.99794159332861909
    3500    324.81979    8.7252177    71.007724   -153.82758   -1258.1999    10890.368 
    3510    318.68381    10.682766    72.848748   -157.05983    1122.9282    10890.368 
    3520    289.11711    13.364094    72.124703   -159.99137   -1865.1133    10890.368 
    3530    300.72247    11.663175    67.491408   -162.19214   -1021.9159    10890.368 
    3540    285.61096    9.9680281    76.324981   -163.55104   -517.57754    10890.368 
    3550    299.09424      7.77752    66.702483   -164.49408    -47.70193    10890.368 
    3560    276.81008    6.1350179    73.054856   -165.10579   -924.74257    10890.368 
    3570    285.31145    5.4677445    77.090835   -165.38149    2443.5555    10890.368 
    3580     297.2199    5.2484269    70.007013   -165.29049    3750.8912    10890.368 
    3590    274.00518    5.1132211    67.779123   -164.66081   -2072.9827    10890.368 
3600        0.98555958672851184943 10.145429643860930824 1 71 -297.30908565584093139
    3600    295.57711    4.5984194    70.765735   -163.38808   -1299.9435    10890.368 
    3610     278.0491    4.1922458    77.209702    -161.3065   -3420.0297    10890.368 
    3620     310.0492    3.5583614    69.500929   -158.25089   -3794.9969    10890.368 
    3630    308.44921    4.4938905    66.282246   -154.28214   -4381.0965    10890.368 
    3640    341.06718    5.5773945    66.727873    -149.4424    2430.3243    10890.368 
    3650    313.52881    7.5136753    78.729232   -144.69702    5307.3762    10890.368 
    3660    349.18595    9.7425539    64.146989   -140.03374     2607.075    10890.368 
    3670    321.47012    9.3002548    78.334866   -136.30433    4715.1346    10890.368 
    3680    317.27539     7.594703    71.710632   -133.76572   -1894.1661    10890.368 
    3690    333.87761    5.9618958    71.057295   -131.76551    -1575.029    10890.368 
3700        0.98694240736728766628 10.114866331973157543 1 71 -287.86399303068111521
    3700    347.28515    6.5901493    74.165303   -130.51495   -2518.7495    10890.368 
    3710    359.28407     9.304221    71.541258   -130.49384    436.35557    10890.368 
    3720    337.56559    8.8040841    79.594806   -131.90591    4721.6205    10890.368 
    3730    332.02934    8.2736049    75.009319   -135.11336   -792.47059    10890.368 
    3740    309.94408    9.0074877    78.944156   -139.06822    -2836.311    10890.368 
    3750    324.02008    6.1198724    67.806184   -143.06109    82.378635    10890.368 
    3760    321.34749    6.4761759    72.433594   -146.22429   -1639.4135    10890.368 
    3770    313.11964    6.4964201    72.287532   -148.60633    2538.0542    10890.368 
    3780    301.35181    7.5391266    77.097751   -150.33767   -1037.0973    10890.368 
    3790     278.1262    7.8586781     81.26812   -151.45459    2424.7696    10890.368 
3800        0.98813213498979712845 10.093887243298190981 1 75 -281.76283850277786769
    3800    286.49022    8.4514697    78.850536   -151.95895     2006.269    10890.368 
    3810     307.3552    8.5184532    71.844834   -152.09349    2847.5859    10890.368 
    3820     318.9644    6.0136429    67.295577   -152.38689   -2190.0848    10890.368 
    3830    304.75179    6.0464484    64.665867   -152.96776   -3548.7036    10890.368 
    3840    311.24799     4.930885    74.687497   -153.70442   -2624.8744    10890.368 
    3850    315.14557    4.6785979     74.42013   -154.84477    2103.2724    10890.368 
    3860    303.14609    6.3530875    69.303885   -156.55556    -806.2669    10890.368 
    3870    293.05547    8.3116429    74.839332   -158.32215    1740.0047    10890.368 
    3880     295.1964    12.019517    69.628462   -159.98588    2356.6833    10890.368 
    3890    289.26571    11.362734    72.974809   -161.73962    1690.1038    10890.368 
3900        0.99050962809523446229 10.100389559712560583 1 70 -285.24217057679845766
    3900    269.06913    8.4213871    77.953967   -163.33149   -2090.4724    10890.368 
    3910    260.68174    6.2866819    74.945037   -164.59353   -2899.8634    10890.368 
    3920    274.13696    5.6586448     71.16043   -165.36997   -823.64983    10890.368 
    3930    283.70074    5.5352399    75.096721   -165.66121    1220.9592    10890.368 
    3940    282.21891     6.378735    75.494911   -165.31424    731.90345    10890.368 
    3950    276.58959    7.1963666    69.970121   -164.26921    1893.3026    10890.368 
    3960    294.73199    6.7209138    71.704383   -162.80898   -1004.9339    10890.368 
    3970     309.9349    7.5796646    69.047138    -160.7921    2826.7802    10890.368 
    3980    306.35329    10.231974    66.240364   -158.09629   -37.837026    10890.368 
    3990    299.21845    11.090857    71.653405   -154.65406     797.5612    10890.368 
4000        0.98902985043746305394 10.105084170981671221 1 69 -278.91715379145131237
    4000    283.29034    10.132964    77.552494   -150.56308    379.36104    10890.368 
    4010    338.93572     8.039893    69.185647   -146.06818    2109.1933    10890.368 
    4020    331.92714     9.655126    73.005029   -142.16281    264.58613    10890.368 
    4030    337.41221    11.571694    70.209522   -139.53014   -4266.2152    10890.368 
    4040       285.87    10.792098    83.869894   -137.96284    -1721.519    10890.368 
    4050    312.65716    7.8707781    73.401073   -136.83309    1395.7456    10890.368 
    4060    291.08678    10.139041    87.022469   -135.97768    590.46675    10890.368 
    4070    317.66515    12.180234    76.930934   -135.52279      2405.91    10890.368 
    4080    336.06521    8.3216182    71.602732   -135.59627    1286.9658    10890.368 
    4090    331.31832    10.968259    63.129372   -136.55175    2258.9185    10890.368 
4100        0.98635217223376714379 10.119320415252238021 1 68 -278.86242565684892725
    4100    310.53877    10.322233    74.960082   -138.16255    115.84013    10890.368 
    4110    321.63406    10.459014    73.216851   -141.14445   -3893.9329    10890.368 
    4120    317.80719    6.6170216    79.228083   -146.93172   -2806.5509    10890.368 
    4130    317.48875      6.06328    72.555896   -155.35716   -559.04864    10890.368 
    4140    302.74956    7.4600571    62.800532   -162.64106    712.69905    10890.368 
    4150    305.23249     6.420123    58.178688   -167.45994     3986.921    10890.368 
    4160    290.67974    7.2654915    65.175398   -170.15989    1541.0438    10890.368 
    4170    299.79317    6.6983937    66.271793    -171.7007   -74.105831    10890.368 
    4180    288.73059    5.6604562    70.654566   -172.87779   -1014.0799    10890.368 
    4190    276.53589    4.0911316    70.343233    -173.6638   -3518.6733    10890.368 
4200        0.9777707599208401712 10.168020606042272647 1 71 -296.56741687095211546
    4200    270.43305    4.5535067    67.617452   -174.03876   -842.35766    10890.368 
    4210    259.17478      5.99554    71.878279   -173.82787   -1648.3394    10890.368 
    4220    266.38477    4.2866579    72.815065   -172.78226    2941.4515    10890.368 
    4230    287.10988    5.3007947    55.532002   -170.87451    366.22304    10890.368 
    4240    278.35181    6.0827366    71.241526   -168.03741   -45.431211    10890.368 
    4250    285.68745    5.6645621    66.894932   -164.42238   -1007.5514    10890.368 
    4260    292.97597    5.0780998    68.669537   -160.12584   -1848.2021    10890.368 
    4270    312.65005    3.1759007     70.06308   -155.84176    667.55478    10890.368 
    4280    308.21874    3.9753981    68.703996   -152.24542    2799.1472    10890.368 
    4290    316.75407    4.6147161    70.070497   -149.41357    1708.5253    10890.368 
4300        0.9753317395824584457 10.178792629424670224 0.99470899470899465378 68 -291.80677655254373803
    4300     319.1233    7.0756452    61.611493    -147.2174   -3894.0745    10890.368 
    4310    323.14468    9.5853558    70.318907    -145.5628   -1101.9071    10890.368 
    4320    302.36829    9.5599219    78.918422   -144.56471    4322.3435    10890.368 
    4330    295.62233    9.1143036    79.021751   -143.84562   -922.95859    10890.368 
    4340    315.64689    7.1302181    75.191823   -143.54519   -3067.0993    10890.368 
    4350     291.1986    6.0168202    80.312581   -144.15375   -2910.1073    10890.368 
    4360    313.11029    4.0049823    73.682591   -145.19502    2387.0458    10890.368 
    4370    308.69241    3.1798748    65.704267    -146.7632    2599.0418    10890.368 
    4380    304.43988    4.6324286    63.520235   -148.18784    -2072.745    10890.368 
    4390     306.3616    4.3516437    66.606905   -149.24833    32.092631    10890.368 
4400        0.97158068731512792215 10.18239187605824192 1 69 -289.85313098090568928
    4400    308.47979    4.8289373     68.36198   -150.08614   -519.07004    10890.368 
    4410    318.47379    6.9922724    70.129117   -151.24361    1467.4071    10890.368 
    4420    288.44444    8.3055123    72.338246   -153.00046   -1158.6399    10890.368 
    4430    306.40109    8.6018822    60.477716   -155.39684    1139.5238    10890.368 
    4440    271.04905    6.8252641    74.773152   -158.31914   -786.35528    10890.368 
    4450    306.96947    7.1825208    60.579722   -161.81922   -159.59776    10890.368 
    4460    276.93675    8.3659113     75.20631   -165.88593    1095.4135    10890.368 
    4470    282.78161    6.2486678    73.432269   -170.38845    1471.9341    10890.368 
    4480    277.25942    7.7609431    69.742385   -175.17018    366.37481    10890.368 
    4490    266.16516    7.4507822    67.794301   -179.25836   -672.31739    10890.368 
4500        0.97708434965844648268 10.160206819347235907 1 67 -309.81502290804854738
    4500    282.28418    7.4094619    62.351486   -181.91682    1295.7943    10890.368 
    4510    288.33679    7.6158381    63.627465   -183.29658    748.52008    10890.368 
    4520    300.72363    6.6460142    58.794951   -183.82625   -3075.5496    10890.368 
    4530    281.55837    8.1417738    67.828887   -184.04284   -2946.2443    10890.368 
    4540    252.14229    7.1042574    69.149517   -183.82309    1142.9239    10890.368 
    4550    278.28808    7.9726218    63.349035   -182.51096     2460.304    10890.368 
    4560    268.94816    9.0862013     62.55871   -179.90273     1932.868    10890.368 
    4570    292.32585    7.5786112    64.893556   -176.10955    670.82674    10890.368 
    4580    271.59028    9.6026999    70.954851   -171.48612   -1511.9617    10890.368 
    4590    294.81302    9.0577517    65.529442   -167.20733   -3996.9205    10890.368 
4600        0.97689460949047435268 10.168147081203679605 1 68 -280.51242839153684372
    4600    258.54319    10.391964    73.526242   -163.37087    1452.6002    10890.368 
    4610    289.05191    10.523454    67.934055    -160.0379   -1530.2505    10890.368 
    4620    285.82828    11.427575    75.517261   -157.16568    724.37424    10890.368 
    4630    314.33226    10.037769    60.954483   -154.98039   -3798.6768    10890.368 
    4640    294.72287    8.3827112    67.654632   -153.05798    5491.3353    10890.368 
    4650    303.35354    8.7934032    77.727021   -151.25769    3553.0189    10890.368 
    4660    287.45273    9.4462465    76.153132   -149.73996   -984.19637    10890.368 
    4670    300.56563    9.8777837    78.693978   -148.75832   -5054.3177    10890.368 
    4680    303.44222    7.4450825    78.562999   -148.23934    2601.9179    10890.368 
    4690    299.91776    4.4367533    79.175696   -148.37823   -370.60648    10890.368 
4700        0.98270672560907856852 10.136437732295426883 1 66 -289.04549986714818033
    4700    308.22165    2.9255389    79.877521   -149.39547    439.07209    10890.368 
    4710    285.80821     3.156487    71.939795   -151.20166   -4287.6839    10890.368 
    4720    292.51119    4.6414471    69.145765   -152.76266   -1266.0104    10890.368 
    4730    280.31052    5.3181537    74.334593    -153.9347    2100.7522    10890.368 
    4740    291.27632    5.7711911    69.951432    -154.9091      1238.74    10890.368 
    4750    297.38655    6.2361212    63.351821   -155.70483   -16.058936    10890.368 
    4760    320.07248    7.2200179    60.718848    -156.3285   -1808.4619    10890.368 
    4770    308.86724    8.1421689    65.542816   -157.21051    3164.2499    10890.368 
    4780    277.65039    9.3056166    72.188624   -158.31111    2110.8626    10890.368 
    4790    296.32981     7.662329    67.298567    -159.1789   -261.88184    10890.368 
4800        0.9797853776281079119 10.1442757010103346 1 66 -295.04399591255992163
    4800    297.75811    6.2007413    69.567808   -160.13482   -3875.0415    10890.368 
    4810    284.59313    6.5818258    75.219582   -161.44996   -742.53827    10890.368 
    4820    288.92242    7.3520425    66.030398     -162.887    3834.1541    10890.368 
    4830    293.40705    7.8441923    64.736133   -164.12353   -824.03489    10890.368 
    4840     299.9406    9.7200622     65.60267   -165.10018   -1435.8265    10890.368 
    4850    305.21598    8.8780809     63.58851   -166.31377    2957.9382    10890.368 
    4860     300.3378    10.601803    63.200834   -167.78365    -273.5569    10890.368 
    4870     302.4211     9.318296    63.823851   -169.37051   -136.94922    10890.368 
    4880    282.58841    9.5261272    65.711482   -170.80518   -3406.9634    10890.368 
    4890    280.19117    10.053043    71.900647   -172.02528     2043.969    10890.368 
4900        0.97915856413897328636 10.168446391410354224 1 66 -297.59633581601758578
    4900    275.46025    11.213605     67.21697   -172.78995   -1368.0123    10890.368 
    4910    271.66963    10.132154    63.429905   -172.85487   -328.95591    10890.368 
    4920    297.57856    8.3963774    67.809632   -171.97418    3793.7191    10890.368 
    4930    298.08708    7.0259635    63.979678   -170.28552    1496.1631    10890.368 
    4940     284.7808    6.3729586     64.90007   -168.08997   -2986.9097    10890.368 
    4950    301.70302    6.2171463    67.979716   -165.08804   -4033.3061    10890.368 
    4960    303.33959    7.7465243    70.272016   -161.48502   -2186.3171    10890.368 
    4970    294.88586    7.2805459    75.978604   -157.92731    36.280268    10890.368 
    4980    278.95721    10.418671     71.09318    -154.4423     -838.002    10890.368 
    4990    291.23679    7.1150978     76.37493   -150.79872    5119.7049    10890.368 
5000        0.98227955791949095321 10.146687390488624558 1 69 -291.29720040790289204
    5000    318.52884    6.7521918    73.104523   -146.97716    2566.7612    10890.368 
    5010    291.52091    4.1286361    78.722731   -143.69238   -545.49155    10890.368 
    5020    293.87147    4.6424295    74.667459   -141.06408   -1145.8323    10890.368 
    5030    275.26334    8.3769086    82.213984   -138.85652   -91.664133    10890.368 
    5040    345.94435    9.9353449    64.670391   -136.76554   -1148.3113    10890.368 
    5050    354.95873    10.228737    70.927109   -135.45664    37.147916    10890.368 
    5060    344.52066    9.8488699    73.162285   -135.75116    3264.6329    10890.368 
    5070    334.66517    10.933738    71.392391   -137.49888    4299.7181    10890.368 
    5080    331.99276    8.4297416    64.703036     -139.975   -5068.5288    10890.368 
    5090    338.08812    5.7721468    66.276029   -142.94134   -3850.9855    10890.368 
5100        0.97497375863733648504 10.176252717572705109 1 61 -280.61880820551448323
    5100    297.33686    9.1843916    70.706036   -145.90049   -2469.7753    10890.368 
    5110    275.83757    8.9849985    73.407858   -147.69093    521.35142    10890.368 
    5120     284.3218    8.1914427    73.407386    -148.4674    3045.3071    10890.368 
    5130    306.69755    7.5766889    69.922123   -148.95045    964.45792    10890.368 
    5140    305.86319    6.2271959     72.82729   -149.42641    279.12545    10890.368 
    5150    302.45529     6.570342    75.081384   -149.68333     2810.162    10890.368 
    5160    303.41915    5.4273436    69.912543   -150.02463   -2898.1765    10890.368 
    5170    308.19807    4.9349336    74.674126   -151.05826   -379.09441    10890.368 
    5180    298.97087    7.5520259    66.864214   -152.21614   -8007.8169    10890.368 
    5190    309.66121    5.4120834    60.033382    -152.9671    485.99262    10890.368 
5200        0.97720605206882360516 10.158614576537775775 1 65 -283.4939214540526109
    5200    287.05429    3.3542264    75.180011   -153.43447    2824.7113    10890.368 
    5210    286.76051    4.1137898    72.596245   -153.79449    3170.8541    10890.368 
    5220    307.59099    5.3128495    70.498669   -154.31697    1405.1445    10890.368 
    5230    324.80397     6.978523    64.063111   -155.10632    3183.2714    10890.368 
    5240    305.28367    5.1861934    74.706996   -156.38577    1495.7417    10890.368 
    5250    297.61318    6.9267258    74.153017   -158.18943   -106.52919    10890.368 
    5260    283.17961    7.2392231    68.538982   -160.62774   -6882.7243    10890.368 
    5270    279.38458    9.6943491    69.424407   -163.28727   -3234.2395    10890.368 
    5280    299.07662    9.8084888    63.513116   -166.12659    704.82533    10890.368 
    5290    293.96455    8.0131865    63.749476   -169.68827    2582.3323    10890.368 
5300        0.97782949100314342505 10.16801364104284211 1 67 -288.17147923721745428
    5300    252.49517     6.897284    71.388153   -173.77018   -2119.5457    10890.368 
    5310    257.92828      7.00907    62.129355   -177.31517   -2994.6386    10890.368 
    5320    274.91908     8.021343    64.901742   -180.32378      1839.35    10890.368 
    5330    267.67475     5.886586     65.48141   -182.81741    4441.3962    10890.368 
    5340    260.00411    6.1580157    63.305468   -184.35157     1241.373    10890.368 
    5350    262.43485    6.5693109    66.028689   -184.68028    1329.4175    10890.368 
    5360    293.66802    6.0500953    60.925389   -184.03144   -1589.8708    10890.368 
    5370    283.67758    7.1791165    60.455028   -182.58153    433.17451    10890.368 
    5380    283.12406    6.8145763    65.135701    -179.7639   -1304.2997    10890.368 
    5390    280.85859    6.0182287    63.563226    -175.2211   -1349.4868    10890.368 
5400        0.97973820655868859575 10.164353641273102369 1 63 -300.84984232231511214
    5400    290.26048    6.4168292    68.347088   -169.33772   -1282.3788    10890.368 
    5410    299.22376    8.3675526    63.158549   -163.58109    138.86322    10890.368 
    5420    295.79108    9.0695711    68.193402   -158.81697    213.00392    10890.368 
    5430    304.57515    8.4116771    68.301297   -155.15792     2996.169    10890.368 
    5440    307.43161     8.621984    74.050448   -152.79761   -1387.6889    10890.368 
    5450    306.23756    11.072371    63.999466   -151.26071   -1515.7297    10890.368 
    5460    323.19646    9.6923407      62.7066   -150.16469   -623.28608    10890.368 
    5470    313.31001    7.0344405    69.080719   -149.11737    707.07599    10890.368 
    5480    309.15746    7.1028746    69.077678   -148.08607    1800.6312    10890.368 
    5490    298.09334    7.4621776    72.412139   -147.29684   -2242.8073    10890.368 
5500        0.9853522601416193627 10.125736287170823857 1 70 -279.6004602045462093
    5500    293.34364    7.7851882    78.979562   -146.69141    108.98228    10890.368 
    5510     305.1196    7.4235061     69.46292   -146.45268   -3350.7207    10890.368 
    5520    311.13395    9.4578595    65.700862   -146.51565   -728.79799    10890.368 
    5530    302.43079    7.8092066    73.747983    -147.0876    23.617318    10890.368 
    5540    290.36947    8.3302894    73.058037   -147.82858    4547.2498    10890.368 
    5550    288.42995    7.7725202    76.254109   -148.57925    3214.3742    10890.368 
    5560    299.48922      5.92854     67.23414   -149.51258    5033.1572    10890.368 
    5570    277.31089    5.0701717    72.906514   -150.55109    -3093.399    10890.368 
    5580    276.30991    3.9304058    72.108391   -151.56378   -1387.2138    10890.368 
    5590    301.30984    5.1340144    69.124736   -152.49024   -3470.7555    10890.368 
5600        0.98781242621197806741 10.123159494908382072 1 69 -295.2048285020377989
    5600     311.9871     7.438767    64.446511   -153.84874    2420.4496    10890.368 
    5610    283.76728    8.5785281    71.003577   -155.72069    1835.8734    10890.368 
    5620    296.06665    9.7135417    69.664084   -157.87777    1186.0096    10890.368 
    5630    298.08742    6.9406901    65.093482   -160.64754   -1685.9418    10890.368 
    5640     292.7269    7.5775537    65.254812   -163.74697   -2973.4509    10890.368 
    5650    280.54538    7.4214619    63.739853   -166.57635   -955.57556    10890.368 
    5660    291.78467    8.9910473    65.411796   -169.09472    1678.0341    10890.368 
    5670    284.55876    8.9243984    64.189734    -171.4214    458.29102    10890.368 
    5680    296.47584    9.9580605    60.100407   -173.63164   -26.759858    10890.368 
    5690    290.09357    9.7374959    62.269698    -175.4559   -3787.0311    10890.368 
5700        0.98926660857466475196 10.104591347077509056 1 69 -311.74618309776792557
    5700      297.626    8.8702611    60.406106   -176.89686    3342.2953    10890.368 
    5710    275.98871    7.0793158    63.444355   -177.85294    3783.1256    10890.368 
    5720    279.83194    8.6412904    61.831079   -178.27075    646.33911    10890.368 
    5730    271.27581    9.3657036    60.361556   -177.96513   -697.29044    10890.368 
    5740    287.28381    9.9318948    58.060439   -176.33811    173.65038    10890.368 
    5750    299.55234    7.9633155    64.453179   -173.23069   -973.30335    10890.368 
    5760    308.85752    8.2643943    61.257212   -169.18597   -1461.8507    10890.368 
    5770    277.54976    7.5230497    61.861041   -164.52331   -4258.9296    10890.368 
    5780    289.92967    7.9904789    68.794133   -159.38158    3696.2586    10890.368 
    5790    297.90943    6.4629707      65.8018      -153.95    332.30714    10890.368 
5800        0.98566867181049699909 10.138068258278215339 1 70 -298.42421526907583029
    5800    328.44767    5.6942296    67.552361   -149.61012    1500.8376    10890.368 
    5810    305.43839    5.2656925    66.919493   -146.95039   -4296.9327    10890.368 
    5820     317.5845     9.867919    64.168166    -145.6397   -2146.2179    10890.368 
    5830    281.68962    7.6201033     69.27873   -144.76227    2534.0123    10890.368 
    5840    288.18525    9.3518948    68.074765   -143.81379     1481.519    10890.368 
    5850    303.21501    7.0983535    67.713708   -142.81092    647.64343    10890.368 
    5860     334.3354    7.5655908    59.362241   -142.01948    256.21684    10890.368 
    5870    307.12941    5.2910664    68.014286   -141.70066   -1097.8877    10890.368 
    5880     297.4286    5.4112863    67.045474    -141.2909    2771.6805    10890.368 
    5890    287.65569    5.2460231    64.397066   -140.31864   -1208.0054    10890.368 
5900        0.98357442479447920736 10.133979445649789142 1 73 -280.14011948645321581
    5900    311.98741    5.5598277    66.370603   -138.78389    536.55738    10890.368 
    5910    330.13753    6.7399042    62.506759   -137.30641    4076.0718    10890.368 
    5920    320.49064    7.1817343    62.886581   -136.45319    2643.3048    10890.368 
    5930    328.36001     8.062467    61.487809   -135.54426    715.18107    10890.368 
    5940    306.88527    8.9156181    79.370723   -134.73785   -1309.6858    10890.368 
    5950    305.57699     7.346366    73.414448   -134.55521    -2705.963    10890.368 
    5960    319.98956    8.3237607    72.756652   -135.32367   -1131.0709    10890.368 
    5970     344.7525    9.8961427    61.259856   -137.35342   -1954.0145    10890.368 
    5980    320.18743    10.724051    61.931681   -140.71161   -4188.6387    10890.368 
    5990     308.7736    9.1259695    68.130163   -145.55863   -1797.6304    10890.368 
6000        0.98501585528947888104 10.14276020086012231 1 72 -283.09402717283938955
    6000    291.12811    11.212936    68.330718   -151.18879    5157.4974    10890.368 
    6010     293.4546    12.078316    62.973401   -156.42142    989.83785    10890.368 
    6020    297.78998    11.248345    58.581219    -160.5896    1467.5969    10890.368 
    6030    290.02817    9.2610659    57.836024   -163.34125   -3749.5999    10890.368 
    6040    291.93817    6.8626796    59.497688   -165.16511    857.57192    10890.368 
    6050    288.39774    7.2723914    62.071281   -166.41227   -819.33835    10890.368 
    6060    282.45614    7.4390827    62.830467    -167.1376   -624.49655    10890.368 
    6070    272.09859    5.7903626    58.548788   -167.10635   -1454.4345    10890.368 
    6080    289.73663    4.6883033    63.964615   -166.18698    1403.9581    10890.368 
    6090    299.33198    4.3275073    67.482767   -164.80533    895.79494    10890.368 
6100        0.98326035429603320104 10.130162569745690959 1 69 -282.25238230425753727
    6100    262.36098    5.2073194    72.830819   -163.38105   -917.59983    10890.368 
    6110    288.35149    5.4765973    62.121885   -161.70003   -2941.2859    10890.368 
    6120    280.21189    5.5222057    71.765764   -159.62239    714.01685    10890.368 
    6130    333.02394    6.2142378    53.697478   -156.82711    -81.90861    10890.368 
    6140    296.96839    5.9989456    68.038289   -153.82085    2619.0568    10890.368 
    6150    297.16193    6.9053194    65.081085   -150.58791   -2126.3923    10890.368 
    6160    292.48808    6.9315868    63.509207   -146.64089   -1270.1317    10890.368 
    6170    304.24933    7.8137476    66.401859   -142.39649    4345.3021    10890.368 
    6180    338.42951    8.8000604    62.327969    -137.5583    2021.6157    10890.368 
    6190    329.60956    7.4657632    71.807938   -133.75048    70.585244    10890.368 
6200        0.98581699049699900161 10.114057581681203501 1 73 -283.09559634821954432
    6200    335.77305    7.6413458    67.261094   -130.96249   -769.66279    10890.368 
    6210    309.20919    6.3783942    73.538388   -129.51296   -301.97631    10890.368 
    6220    325.44158    7.9570108    75.393305    -129.0455    1102.1819    10890.368 
    6230    314.24745    11.540431    77.897001   -129.81777   -2045.2635    10890.368 
    6240    321.39166    12.967675    71.442622   -131.87158    -1800.793    10890.368 
    6250    273.32945    12.753249    79.480198    -134.2344    1687.3692    10890.368 
    6260    294.68962     14.19146       71.973   -136.09582    3039.7384    10890.368 
    6270    302.06313    11.156677    75.168345   -137.58261    3204.7068    10890.368 
    6280    325.58746    8.7199626    62.789504   -139.07045   -745.31687    10890.368 
    6290    317.18838     5.781316     63.41817   -140.73256   -2030.0529    10890.368 
6300        0.98809619840244378164 10.117626751635556914 1 72 -279.24241466013359059
    6300    302.51933    4.8747712    74.062406   -142.17601   -2093.5883    10890.368 
    6310    294.61361    6.2139666    61.645694   -143.08498   -2722.6989    10890.368 
    6320    305.53836    9.1627269    59.292961   -143.27609   -1105.9622    10890.368 
    6330    328.54937    5.8440278    63.916682   -143.38692   -956.63886    10890.368 
    6340    335.98301    6.0541498    61.058288   -144.41541    1448.0594    10890.368 
    6350    312.38775    7.8593581    58.009653   -146.20931    856.08658    10890.368 
    6360    306.88433    10.566136    62.343066   -147.98804    329.41582    10890.368 
    6370     298.4765    11.440624     63.14795   -149.56628    2522.1414    10890.368 
    6380    307.03216    8.6017929    64.945909   -151.28389    505.99883    10890.368 
    6390    318.54338    6.4730803    57.703353   -153.53616   -238.97179    10890.368 
6400        0.98945034897270189855 10.097641466684326161 1 71 -284.71322433971204191
    6400    283.92922    6.4574961    69.532989   -156.06968   -1395.9407    10890.368 
    6410    276.40343    4.6617907    61.922732   -158.03376    -1275.875    10890.368 
    6420    280.83952    4.1737252    59.247765   -159.20397     3167.254    10890.368 
    6430    277.42111    4.6125738    66.843779   -159.89854  -0.38946948    10890.368 
    6440    290.77462    6.5396329    64.699622   -160.24169   -768.11669    10890.368 
    6450    289.06115    9.5353577    59.553817   -160.38314   -1168.0258    10890.368 
    6460    292.73427    11.419575    64.347072   -160.21814    245.85353    10890.368 
    6470    285.11631     13.84214    65.858147   -159.72821    2846.8751    10890.368 
    6480    273.73788    13.745218    61.001601   -158.75319    1466.8785    10890.368 
    6490    297.46978    10.452354    59.902505   -156.52277    -1076.831    10890.368 
6500        0.98767896862799475777 10.102803335936199502 1 70 -288.49097139222510577
    6500    299.19115    8.5533998    62.446764   -152.93251      787.981    10890.368 
    6510    324.83771    6.7014278    67.833798   -148.33946   -1323.8597    10890.368 
    6520     301.6241    6.4308679    71.164273   -144.03143   -2923.4762    10890.368 
    6530    325.55474     8.358783    59.777458   -140.49955   -2137.9257    10890.368 
    6540    332.98277     8.628928    66.343218   -137.07186    939.00968    10890.368 
    6550    330.54414    9.5401445    66.584835   -134.56038    4147.8156    10890.368 
    6560     333.5315    10.386169    62.635383   -133.36337   -1118.7647    10890.368 
    6570     317.8804    12.318959    66.756315   -133.30527    1882.7955    10890.368 
    6580    320.60513    10.462972    58.702224   -133.68523   -822.21246    10890.368 
    6590      324.579    8.7580886    66.407229   -134.60088    2245.5772    10890.368 
6600        0.9823956708086711842 10.146572383934911343 1 68 -286.3576677793307681
    6600    330.66734    8.4522225    64.082292   -136.53787   -481.70937    10890.368 
    6610     326.5369    6.8043812    62.218181   -139.58658   -3075.1485    10890.368 
    6620    328.20159    5.2769554    58.300659   -144.06606   -3390.8904    10890.368 
    6630    314.74457    4.3971309    58.529785   -149.54758    -572.7813    10890.368 
    6640     317.0963     4.626676    58.368565   -155.14176    2475.0042    10890.368 
    6650    295.04561    4.5978017     61.57513   -159.81566    2321.6776    10890.368 
    6660    273.72493    4.0675901    62.246856   -162.87114    1265.8385    10890.368 
    6670    300.10546    3.5709291    52.868518   -164.65711    2618.6891    10890.368 
    6680    284.03923    5.1450547    62.216819   -165.69249    501.49175    10890.368 
    6690    292.46439    5.2122256    60.530963   -166.16769   -1649.2422    10890.368 
6700        0.97107330313789808063 10.199712449816665583 1 67 -290.12028985291874505
    6700    273.25205    6.4647496    63.483883    -166.3144   -4305.5041    10890.368 
    6710    289.89189    5.8612984    54.907665   -165.92952   -2496.2961    10890.368 
    6720     310.5531    7.4034402    56.928862    -165.1048    942.02372    10890.368 
    6730    305.97173    8.4785362    61.015164   -164.17745    2173.9438    10890.368 
    6740    309.22167    6.4769881    64.286996   -163.51805     3853.158    10890.368 
    6750    282.24857     6.612237    58.803327   -163.35739   -376.96957    10890.368 
    6760    290.94669    4.0545991    55.157164   -162.79342    -2383.713    10890.368 
    6770    287.63893    4.6837154    52.468013   -161.16644   -740.16313    10890.368 
    6780     278.7981    6.1316875    62.857683   -158.34792   -720.31554    10890.368 
    6790     312.5167    5.9277254    59.765783   -154.18202   -277.70463    10890.368 
6800        0.96364009151991703028 10.235262785349704018 1 69 -287.1389272208220973
    6800    302.94453    9.0633267    67.411018   -149.87987   -2190.0502    10890.368 
    6810    310.16989    9.6795251    63.120506   -145.97763    2171.6787    10890.368 
    6820    293.83524    8.1881665    66.564961   -142.26184    2540.4096    10890.368 
    6830     296.5584    6.3094875    61.315832   -138.92941    28.104905    10890.368 
    6840    304.40078    4.2679217    65.900292   -136.02945   -4333.1377    10890.368 
    6850     320.7226    3.1589765    66.681875   -134.02151   -5175.0613    10890.368 
    6860     324.7103    2.8027296    68.942887   -132.88982    211.55904    10890.368 
    6870    312.22771    2.0426162     68.30611   -132.65938     174.0021    10890.368 
    6880    317.44911     2.046628    63.067484   -132.75032    2036.2497    10890.368 
    6890    309.09727     4.300874    68.023473   -132.99253    1228.1539    10890.368 
6900        0.96134271950456506861 10.208091784815948699 1 65 -290.45393413776344005
    6900    346.26642    5.4233071     58.68933   -133.56646    2663.5269    10890.368 
    6910    316.92996    6.2495314    64.617007   -134.97968    2109.5618    10890.368 
    6920     335.9277    5.2857126    54.991164   -136.58054   -821.18085    10890.368 
    6930     326.7902     5.331992    68.594442   -138.54476   -2664.5442    10890.368 
    6940    319.82753    5.8966044     63.71356   -141.19255   -1157.9678    10890.368 
    6950    294.65287    6.5673376     67.34559   -144.37623   -3584.8657    10890.368 
    6960    318.59265    6.7332104      56.8326   -147.27369   -452.78763    10890.368 
    6970     296.2024     6.729432    60.368351   -149.82063     89.29175    10890.368 
    6980    297.58666    4.5142509    62.654425   -151.46478     1619.688    10890.368 
    6990    287.84779    5.1490503    67.915994   -152.56268    2251.3998    10890.368 
7000        0.96212832295232864066 10.199398170115303586 1 67 -284.22881201441015264
    7000     288.8209    6.5192211    63.513972   -153.36894   -1110.3703    10890.368 
    7010    293.18379    8.7644827    65.310073   -153.80071    1318.4979    10890.368 
    7020    323.49279    8.5134055    55.042607   -154.10141    1282.7783    10890.368 
    7030    309.53917    7.5098198    62.713698   -154.76405   -448.89504    10890.368 
    7040    290.87153    6.1780651    61.198612   -155.60118   -1846.2095    10890.368 
    7050    261.73922     6.212916    70.094284   -155.86444   -755.74683    10890.368 
    7060    278.75226    5.0451413      68.4785    -155.4032    1716.9116    10890.368 
    7070    293.77296    4.5957201    67.820075   -154.35134    3170.4417    10890.368 
    7080    335.90899    5.4761357    52.509608   -152.93667   -2725.2552    10890.368 
    7090     298.5134    9.3823918    60.149461   -151.76945   -1628.9193    10890.368 
7100        0.9694746914006828753 10.192171405942213269 1 68 -284.53577620542489512
    7100    297.26347    8.3664809    70.717276   -149.85071   -2531.2427    10890.368 
    7110    296.11858    11.759031    69.215343   -146.43316    1444.4121    10890.368 
    7120    332.62203    10.093246    63.447846   -140.93931   -150.96105    10890.368 
    7130    332.67338    8.8635602    68.191226   -134.23368   -41.675831    10890.368 
    7140     344.6899     5.529796    58.348538   -128.37822    924.17712    10890.368 
    7150     317.2549    4.2730146    76.490736    -124.2509    4103.7601    10890.368 
    7160    340.10886    7.3381458    66.026181   -121.31996    4237.4276    10890.368 
    7170    335.55942    11.477373    65.675246   -119.40259   -2803.1355    10890.368 
    7180    318.00444     13.28017    73.830618   -118.64668   -2449.5323    10890.368 
    7190    330.64218    9.0131893    78.099353   -119.12828   -2411.0964    10890.368 
7200        0.9774492481457907056 10.173903831033177525 1 64 -268.36432680490230496
    7200    324.64358    6.6311474    77.413212    -121.2738    1915.0034    10890.368 
    7210    348.46424    6.7720919    64.935888   -125.28949   -2950.0967    10890.368 
    7220    312.83759     6.470687     74.18508    -130.9121    1547.6702    10890.368 
    7230    320.23401    4.9992227    66.816163   -136.30679   -857.01745    10890.368 
    7240    291.94126    4.3339499    74.536367   -141.23441    3209.1067    10890.368 
    7250    287.84812    5.0656345    72.215849   -144.66627   -2183.0641    10890.368 
    7260    287.55882    6.7058246    67.107108   -147.10812   -953.93395    10890.368 
    7270    298.28153    6.3839332    64.123302   -148.73378    381.40048    10890.368 
    7280     287.3046    7.0107963    70.387156   -149.73222    3585.1672    10890.368 
    7290    285.65916    7.5893673    74.007674   -150.22382    4778.8905    10890.368 
7300        0.97706274724979425006 10.174191581133724682 1 65 -283.22350915897379764
    7300    292.53083    7.6322103    69.099506   -150.68272   -3216.7052    10890.368 
    7310    277.20166    6.1402952    71.722992   -151.35474   -3682.7321    10890.368 
    7320    295.16823    7.0170818    66.390316   -151.85084   -2812.7346    10890.368 
    7330    304.60096    7.0030241    69.779769   -152.19494    870.58759    10890.368 
    7340    305.50694    6.8171978    67.270001   -152.78586    2619.4786    10890.368 
    7350    298.90582    8.4295886    67.955073    -153.8449   -3480.8035    10890.368 
    7360    299.82833     9.517048    68.904112   -155.48734    1266.9894    10890.368 
    7370    292.38559    10.967128    73.802259   -157.79793    1067.7003    10890.368 
    7380    295.09463     10.48118     64.76565   -160.96409    1175.7506    10890.368 
    7390    284.39602    9.1762846    67.388841   -164.39275   -2189.5817    10890.368 
7400        0.97784250178819498434 10.153323656175290424 1 69 -306.17575356258521424
    7400    305.58615    8.4097237    58.440197   -167.71983    162.99719    10890.368 
    7410    274.34567    7.1225086     71.49955   -171.37645     2204.735    10890.368 
    7420    265.30398    8.6976893    60.540413   -174.69864   -681.00675    10890.368 
    7430    227.86662    10.822939    69.459029   -177.07616   -2168.1599    10890.368 
    7440    248.77009    11.003253    60.077498   -177.83896   -1169.5475    10890.368 
    7450    258.58244    7.6668549    60.776171   -177.16848   -1252.0395    10890.368 
    7460    288.78105     6.592242    56.457035   -175.10074    622.25303    10890.368 
    7470    298.19931    6.3030852    59.468857   -171.38233    1491.1833    10890.368 
    7480    291.11809    6.1127491    67.360685   -166.60635    2583.9843    10890.368 
    7490    279.14086    6.4748423    66.262728   -160.83994   -2623.2476    10890.368 
7500        0.98186424491738277798 10.133025522726205381 1 67 -291.63620855362466955
    7500    301.88998    6.2506128    65.781227   -154.85495    419.50333    10890.368 
    7510    312.46177    6.2928263    60.895988   -149.56575     2227.984    10890.368 
    7520     319.1018    6.1559702    67.968268   -146.36542    -695.2134    10890.368 
    7530    332.61775    8.4988533    57.654022   -144.96673    1235.0091    10890.368 
    7540    317.63072    9.2085046    63.442104   -144.77266   -3992.1096    10890.368 
    7550     316.5978    8.7054052    64.721814   -145.02674    2208.5386    10890.368 
    7560    289.60567    7.4462764    78.287727   -145.51864   -162.92164    10890.368 
    7570    300.72738    9.2778184    63.919314   -145.89917     5233.466    10890.368 
    7580     310.9451    10.047021    63.445973   -146.21857    947.91552    10890.368 
    7590    324.53855    9.0031839    57.203899   -146.70281   -543.06616    10890.368 
7600        0.9831847705209767474 10.108341962020336524 1 69 -289.32054407822278108
    7600    313.12311    7.9820957    61.368667   -147.44975    -302.8539    10890.368 
    7610    308.11305    9.6022757    60.404918   -148.14746    471.74995    10890.368 
    7620    299.69203     9.431728    64.424362   -148.78686    681.61672    10890.368 
    7630    311.07222    7.7602876    66.304009   -149.63255   -1602.9522    10890.368 
    7640    299.98227    6.1690914    58.323847   -150.96994   -3226.3823    10890.368 
    7650    294.65296    6.3195001    60.565113   -152.27493   -13.392783    10890.368 
    7660     308.2899    7.6511132    61.744442   -153.54875    881.96232    10890.368 
    7670     312.4837    7.4638367     56.63027   -155.24118   -156.29327    10890.368 
    7680    317.61615    6.6299059    57.930825   -157.85828    1448.8457    10890.368 
    7690    272.43664    6.5494522    65.247498   -161.38105    1844.4947    10890.368 
7700        0.98261610745590433069 10.134296972186579211 1 72 -293.32822927936729229
    7700    283.21792    4.7114558     58.90431   -165.00697    250.34453    10890.368 
    7710    279.65111    4.4802624    62.920504   -168.47348   -1737.4684    10890.368 
    7720    283.45577    5.5753576    62.519452   -171.85354   -1162.0314    10890.368 
    7730    278.37147    8.0408574    62.880963   -175.22704    799.41534    10890.368 
    7740    265.70983    7.7850298    63.205806   -178.42652   -519.91453    10890.368 
    7750    276.96084    10.259079    60.715655   -180.91899    147.92193    10890.368 
    7760    277.26477    8.6987673    60.531128   -182.75981   -1131.9439    10890.368 
    7770    279.25167    8.2600019    57.369212   -183.72033   -1534.6659    10890.368 
    7780    267.12908    5.8974657    58.382543   -183.99942   -1234.1388    10890.368 
    7790    250.00389    4.7004067    65.587661   -183.63738    638.96881    10890.368 
7800        0.97947188720059841227 10.172891373342499932 1 71 -305.17818685079919305
    7800    271.65333    6.1011665    54.073355   -182.09665    1391.0519    10890.368 
    7810    257.77446     6.334372    59.014378   -178.84932     2673.561    10890.368 
    7820    271.36756    7.0128702    52.616131   -173.05962   -2311.4901    10890.368 
    7830    260.33734    10.895748    66.947578   -165.41377    1058.2055    10890.368 
    7840    264.28818    11.043196    67.411383   -158.82849   -580.34162    10890.368 
    7850    297.61162    9.8585168    65.069503   -154.63777    315.91701    10890.368 
    7860    306.86041    8.8471891    67.669279   -152.17659    887.27029    10890.368 
    7870    319.93302    10.632752    57.274599   -150.64253   -4379.8375    10890.368 
    7880    336.31549    9.1534986    62.071935   -149.85976    -917.6724    10890.368 
    7890    327.09625    8.0726424    64.606851   -150.17688    1214.8372    10890.368 
7900        0.98138110935240319144 10.168885512333272203 1 70 -281.40775322925111368
    7900    287.14694    6.3986146    71.458923   -151.30632   -271.10716    10890.368 
    7910    287.83442    4.6798082    67.736904   -152.70559    1740.7584    10890.368 
    7920     292.3782    5.7113298    66.882538   -154.05147   -2226.8133    10890.368 
    7930    321.43924    6.8275994    59.977765   -155.58988    4075.1411    10890.368 
    7940    294.18777    7.1838994    57.962618   -157.01685    1511.3367    10890.368 
    7950    285.30623    7.1847581    63.130535   -157.89774    -2549.796    10890.368 
    7960    289.54991    8.4696426    60.936065   -158.07601   -4710.5493    10890.368 
    7970    289.62046    8.8396835    61.323793   -157.80991   -252.41791    10890.368 
    7980    282.71723    11.327058    62.998326   -157.22492    3451.1324    10890.368 
    7990    298.43293    10.095205    60.839778   -156.01143    1135.9468    10890.368 
8000        0.98486298019112017421 10.128383297525221707 1 69 -289.50988629181006218
    8000    298.36918    7.9549971    54.170024   -154.32384   -119.90877    10890.368 
    8010    297.29626    6.1029356    62.728216   -152.13361   -1438.3152    10890.368 
    8020    301.31004    6.2961942    61.927478     -149.186   -1834.0963    10890.368 
    8030    289.90657    6.5254951    65.464018   -145.84115    3870.7867    10890.368 
    8040    278.59681    8.3089427    74.836308   -142.43447   -1063.1498    10890.368 
    8050    328.55652    9.8952144    59.872153   -138.68511   -1367.6915    10890.368 
    8060    340.58378    8.5422306    64.421544   -135.43595   -1210.5215    10890.368 
    8070    327.13583    7.3628831    63.931656   -133.52157    482.44181    10890.368 
    8080     290.0706    7.0577724     72.41899   -132.47286    1237.7071    10890.368 
    8090     335.8202    6.8313255    56.186814   -131.58157   -2446.9183    10890.368 
8100        0.98801577470130685921 10.115457145184542753 1 69 -273.59262791551844884
    8100     314.1037    7.8209702    76.045559   -131.27754    1433.0277    10890.368 
    8110    351.03935    10.036522    55.049744    -131.8448    1417.8539    10890.368 
    8120    309.68146    9.1459392     71.58757   -133.60242    587.62878    10890.368 
    8130    326.25881    6.4945725    65.344356   -136.33588   -1259.2353    10890.368 
    8140    297.75889    5.3429517    67.717519   -140.36647   -2576.4852    10890.368 
    8150    317.26597     7.903132    59.540954   -145.58374    1607.3073    10890.368 
    8160    298.93822    6.7266902    69.523397   -152.20292    121.08719    10890.368 
    8170    289.28706    7.8341813    61.245956   -158.70634    3576.7487    10890.368 
    8180    294.07468    9.6369141    60.657966   -163.39391    1044.3151    10890.368 
    8190    292.91678    12.624403    55.342398   -166.27544   -400.73052    10890.368 
8200        0.98608478154256395953 10.110585206357859178 1 67 -289.32146264751008857
    8200    268.51511    11.460915     62.42627    -167.6618    419.09602    10890.368 
    8210    279.12027    10.536661    61.509059    -167.9766   -996.30189    10890.368 
    8220    261.33315    9.9625816    64.671551   -167.75661    542.36672    10890.368 
    8230     281.0047    8.8255971    57.296068   -166.82522    1900.7772    10890.368 
    8240    273.10581    7.8590973     63.76389     -165.179   -2359.9347    10890.368 
    8250    297.59707    7.3635707    57.805606    -163.1568   -744.19577    10890.368 
    8260    294.58073    7.6067671     55.56182    -160.7524   -3527.8607    10890.368 
    8270    282.43014    7.7532938    62.557356    -158.1551    2727.8193    10890.368 
    8280    274.44859    8.5294103    71.218108   -155.22949    2073.5148    10890.368 
    8290     304.7282    8.7988481    56.901193   -151.90335    3110.5511    10890.368 
8300        0.98297757807343466574 10.108283078655507126 0.99735449735449732689 66 -293.86911771761691625
    8300    320.57902     9.732577    60.916929   -148.62017   -35.864831    10890.368 
    8310    324.67252    9.1935077    61.839085    -145.9383    776.10462    10890.368 
    8320    310.03343    7.1300252    65.060085   -143.78481   -2113.7718    10890.368 
    8330    306.63704    6.8763342     65.98241   -141.94826    252.49155    10890.368 
    8340    292.39659    7.3916789    67.518337   -140.54722   -2378.4408    10890.368 
    8350    311.15698      8.96716     59.27711   -139.34487    451.37019    10890.368 
    8360    307.17835    8.0690131    69.689253   -138.46901    841.14489    10890.368 
    8370    320.39883    7.7257542    63.119298   -137.68124    2367.2343    10890.368 
    8380    287.82439    7.5149872    68.451607    -137.2477   -3203.0409    10890.368 
    8390    302.72931    9.5199706    63.111449   -136.89693   -683.26802    10890.368 
8400        0.98090179642733477117 10.144641547016901129 0.99735449735449732689 68 -273.12012223213810103
    8400    300.94907    9.0869408    75.184534   -136.76518   -942.92791    10890.368 
    8410    322.62578    6.5632645    67.457338   -137.33155     3369.412    10890.368 
    8420    302.96524    5.6413376    70.587473    -139.0572    179.82403    10890.368 
    8430    307.55615     6.678579    61.169073   -141.74367    735.17975    10890.368 
    8440    283.33302    5.9270588    66.795282   -145.91727   -726.15955    10890.368 
    8450    276.43881    5.2380163    68.938435    -150.5712   -991.20385    10890.368 
    8460    286.55988    6.4218256    58.962334    -155.2261   -2579.8694    10890.368 
    8470    287.61903    5.4752836    58.232216   -159.51712   -2831.7975    10890.368 
    8480    274.66629    5.8618076    59.932485   -163.16965      473.091    10890.368 
    8490    271.84245    4.6390314    58.742514   -165.37471    5536.5461    10890.368 
8500        0.97746013308051860058 10.180335332559739214 1 69 -293.3099317682249989
    8500    279.86569    6.6027128    57.229421   -166.50751    1808.8552    10890.368 
    8510    299.02961    6.7732921    51.924938    -166.8496     1130.451    10890.368 
    8520    293.62818    7.8269511    58.067453   -166.83573   -5517.5714    10890.368 
    8530     290.1113    7.7505936    60.486407   -166.59681    -1547.379    10890.368 
    8540    289.27161    7.4234926    58.681074   -166.20397   -2351.4054    10890.368 
    8550    271.58933     5.954576    65.613301    -165.4223     1632.361    10890.368 
    8560    293.51917    4.5177421    61.064782    -163.6316     1331.722    10890.368 
    8570    302.29388    5.4313085    58.963121   -161.18166     101.9988    10890.368 
    8580    306.51631    8.8872515    62.560564   -158.14992   -1877.2075    10890.368 
    8590    284.16016     8.833947    66.052764   -154.89999    -510.7355    10890.368 
8600        0.97732306369782007138 10.168569859546888523 1 65 -292.64731180626921514
    8600     313.2574    7.9160232    62.854239   -150.71567    3760.7614    10890.368 
    8610    316.29138    7.4838538    62.198155   -146.17976    2038.2405    10890.368 
    8620     318.6264    8.6656811     61.64696   -142.05908   -1818.3653    10890.368 
    8630    322.13235    8.8688061    59.526653   -138.29836   -505.05997    10890.368 
    8640    303.88628    7.1615395     69.49034   -135.15569   -4468.6236    10890.368 
    8650    333.87998     5.580762    63.205914   -132.41282   -3409.8689    10890.368 
    8660    303.27902    6.7660722    73.853912    -130.5954   -1111.7387    10890.368 
    8670    327.17245    8.2013495    66.089511   -129.48198    671.59699    10890.368 
    8680    332.80523    6.7338531    68.934722   -129.36948    5069.3988    10890.368 
    8690    331.21724    5.9506561    64.071631   -130.51634    945.17415    10890.368 
8700        0.98380380725598115532 10.11315685424288624 1 68 -279.25084406195719566
    8700    323.69809    5.4157677     66.04069    -132.5887    2391.0278    10890.368 
    8710    320.70425    6.5036692    68.928133    -135.1577   -670.36728    10890.368 
    8720     303.8123    5.7012923    66.520463   -137.72274   -4638.1964    10890.368 
    8730    306.92097    5.9415177    66.391942   -139.70858   -1181.4645    10890.368 
    8740    320.70126    4.9339006    65.829258   -141.50904     2373.448    10890.368 
    8750    325.87779    5.8376326    60.433836   -143.13229     838.6073    10890.368 
    8760    277.41686    6.8950495    66.607533   -144.50685    853.84143    10890.368 
    8770    290.19812    7.2459809    64.229598     -145.149   -1070.4787    10890.368 
    8780    290.37013    6.0087071    67.457874   -145.25493    3717.1862    10890.368 
    8790    282.00507    5.1357315    71.020975   -145.25086    204.16639    10890.368 
8800        0.98695040542508172265 10.094362933071883148 1 67 -279.95358637394735979
    8800    297.49397    4.6870302    61.101765   -145.16409   -380.48038    10890.368 
    8810    282.74301    5.5347531    70.635123   -145.09647   -3548.6224    10890.368 
    8820     306.2827    6.6681174    60.842324   -145.06594     2062.285    10890.368 
    8830    286.31858     5.269312    72.091462   -145.12379   -758.41157    10890.368 
    8840    310.34678    4.5629393     63.63935   -145.28992    3565.7455    10890.368 
    8850     303.2514    5.2882223    69.292806   -145.78924   -1782.5541    10890.368 
    8860    307.46944    4.9158588     64.25108   -146.67174    172.02595    10890.368 
    8870    302.89646    5.6637734    57.926346    -148.0983   -97.502442    10890.368 
    8880    260.39546    5.6011226    73.613926   -149.54195    491.26464    10890.368 
    8890    269.58872     8.064627    62.134013   -150.60102    479.30526    10890.368 
8900        0.98349675671509328989 10.143065319921806378 1 68 -281.35445025152000653
    8900    286.98238    7.2302621    64.356335   -151.32758   -2889.2834    10890.368 
    8910    320.33159    5.0791531    56.065623   -152.31619   -52.006392    10890.368 
    8920     304.8497    5.4036723      56.6839   -153.89174   -2091.4474    10890.368 
    8930    277.19905    7.0958173    63.271267    -155.6157    -689.3787    10890.368 
    8940     283.8645    7.5662912    64.670113   -157.12267   -429.24001    10890.368 
    8950     309.3189    5.5561226    57.573888    -158.7784    829.12954    10890.368 
    8960    298.46461    5.9018699    55.697247   -161.02355    3108.4487    10890.368 
    8970    266.92312    8.0588671    58.380754   -163.10194   -249.26095    10890.368 
    8980    287.15694      6.51592    50.838807   -164.45976   -957.39465    10890.368 
    8990      303.621    5.2429186     53.56371   -165.36214    584.60461    10890.368 
9000        0.97380215776218359558 10.170598493460900613 0.99735449735449732689 65 -304.30009818936139254
    9000    304.43763    4.3368306    56.542303   -166.36455   -1607.3867    10890.368 
    9010    274.30804    5.6218129    60.130546   -167.36826   -229.69209    10890.368 
    9020    255.62193    6.3074893    57.882395   -167.85121   -169.19959    10890.368 
    9030    278.32287    5.5309511     56.17619   -167.25946    1760.3758    10890.368 
    9040    298.60839    4.3668907    52.497087   -165.42277    3051.1579    10890.368 
    9050    313.78501    4.8955639    51.351104   -162.69149   -247.51182    10890.368 
    9060    293.53682      6.76986    60.084523   -159.15061   -1634.7509    10890.368 
    9070    293.37793    9.6192044    58.632095   -155.21151    263.86303    10890.368 
    9080    290.13543    9.1986436    60.329473   -150.89028    1310.7478    10890.368 
    9090    307.00899    9.8868575    60.661721    -146.5662    179.55793    10890.368 
9100        0.97027855864215295512 10.163768525373033214 1 65 -296.82729173303840753
    9100    340.82883    9.7034434    53.279982    -142.4035    242.85339    10890.368 
    9110    318.39912    7.0893318    68.410714   -139.36814    705.74621    10890.368 
    9120    325.68442    6.9810935    64.501514   -137.55443    1348.7635    10890.368 
    9130    313.32134     4.998264    63.465913   -136.79534   -1854.9827    10890.368 
    9140    319.81003    5.3479869    60.581653   -137.06189   -3915.9747    10890.368 
    9150    307.59521     4.669855    65.077443   -137.99516   -665.25283    10890.368 
    9160    310.06396    5.0762939    59.209801   -139.06469     2332.084    10890.368 
    9170    307.26583    5.1505159    63.057581    -140.1072    1283.1873    10890.368 
    9180     301.0462    6.1467961     66.61763   -141.35835   -203.27818    10890.368 
    9190    314.92915    5.5042415    66.125451   -143.12187   -2708.7385    10890.368 
9200        0.96546709097895999641 10.201806403694037684 1 69 -285.41569638671626308
    9200    308.56579    5.1907196    71.383001   -145.60974   -374.12266    10890.368 
    9210    301.77795    7.9122054    59.083182    -148.4328    563.17284    10890.368 
    9220    282.12569    8.9599277    58.876893   -151.00435   -777.90282    10890.368 
    9230    292.39017    8.2174769    55.628236   -153.15241    158.86786    10890.368 
    9240     264.0024    6.0587008    63.568354   -154.91577    66.861982    10890.368 
    9250    270.77591    5.9685557    61.441605   -156.17711    1497.4985    10890.368 
    9260    280.69844    5.2277834    63.872106   -157.09982    2322.0466    10890.368 
    9270    283.55832    5.9931067    53.797973   -157.69574   -438.45298    10890.368 
    9280     302.7593    4.6293939    55.414188    -157.6351   -630.85516    10890.368 
    9290    283.07154     3.857577    60.778361   -156.90655   -1741.6004    10890.368 
9300        0.96900061229535894292 10.18453369438385181 0.99735449735449732689 68 -282.58555264825605491
    9300    280.33859      1.77597    62.841425   -155.56887   -1063.9641    10890.368 
    9310    277.14027    4.1033542    61.696387   -153.37365    1191.7989    10890.368 
    9320    311.89864    4.4112994    62.585216   -150.44488    445.57518    10890.368 
    9330    306.94832    8.5480045    56.039683   -147.63487    1016.8365    10890.368 
    9340    314.09573    10.093051    63.840893   -145.00761   -2954.9801    10890.368 
    9350     319.2522    13.448158    54.980715   -142.49633     1405.395    10890.368 
    9360    308.17433    9.8128025    64.672419   -140.55581   -2415.4111    10890.368 
    9370    296.84973    7.7342891     61.78945   -138.99589   -1751.4211    10890.368 
    9380    309.47938    6.6833549    62.701734   -137.50594    -159.6464    10890.368 
    9390    333.06425    5.4525477    62.303226   -136.40308    3328.8229    10890.368 
9400        0.97358471238257970892 10.181605083129708689 1 70 -284.23879774393299158
    9400    327.12293    5.2475268    58.296404   -136.02492    2433.5755    10890.368 
    9410     318.5151    8.0194927    52.692597   -136.04025   -789.47846    10890.368 
    9420    324.98306    9.4765729    63.453456      -136.29   -1789.0706    10890.368 
    9430    317.88827    6.7715283    68.843312   -137.39528    898.84527    10890.368 
    9440    298.25371     4.232516    64.039773   -139.43591    1096.8872    10890.368 
    9450    287.84798    6.5404461    64.361514   -142.04683    -2032.737    10890.368 
    9460    274.22198    6.7990889      61.3459    -144.4692    654.25114    10890.368 
    9470    295.91939    4.8845159    60.231957   -146.74258   -520.41444    10890.368 
    9480    291.27898    4.9068516    61.178248   -149.03602    1041.2033    10890.368 
    9490    301.42862    2.2856324    58.709016   -151.54742     -1628.17    10890.368 
9500        0.97590155956893842593 10.184523565584290949 1 69 -290.44969117339479681
    9500    300.37388    3.8040587    57.283694   -154.35535   -405.53733    10890.368 
    9510    295.92466     5.100346    56.348571   -157.37969    411.72899    10890.368 
    9520    290.99269     5.505573    57.439163    -160.4508    1890.6044    10890.368 
    9530    296.37003    3.8657977    57.590494   -163.71071   -1027.0085    10890.368 
    9540    287.28118     4.019185    55.016876   -166.85573    2163.3539    10890.368 
    9550    291.50939    4.1663681    49.200786   -169.59621   -2665.4482    10890.368 
    9560    265.40924    5.0485368    58.904565   -171.50754      2603.85    10890.368 
    9570    265.68299    4.7764429    52.273086   -172.52615   -3286.6074    10890.368 
    9580    238.24171    5.6816468    59.398044   -172.52035   -2707.2899    10890.368 
    9590    270.02338    7.2590807      51.8066   -170.94201   -3768.5649    10890.368 
9600        0.97682916065013214446 10.175107261727541541 1 73 -290.46874128663023384
    9600    271.77586    7.3998488    58.350414   -167.33168    2449.6303    10890.368 
    9610    284.06583    6.7921527     62.75801   -161.36456    4115.7809    10890.368 
    9620    298.61992    8.1328487    61.902545   -153.69647   -29.732043    10890.368 
    9630    320.32756    9.6333205    63.581997   -147.29285   -3390.9789    10890.368 
    9640    337.33392    12.921279    56.829906   -143.56977   -829.72355    10890.368 
    9650    337.67538    14.011236    62.079722   -142.06942   -220.79068    10890.368 
    9660    310.39857    15.175502    69.611796   -141.99321    5536.0384    10890.368 
    9670     287.8268    11.139531    69.222759   -142.29949    -1507.618    10890.368 
    9680    307.62948    9.5429476     53.79208   -142.75373    2805.3623    10890.368 
    9690    317.43248    8.2679472    62.544109   -143.58947    -1789.935    10890.368 
9700        0.98389585545544777645 10.119688211822751356 1 70 -296.67107041090736175
    9700    334.46278    6.1130282    52.698079   -145.13163    2815.3277    10890.368 
    9710    307.76054    4.6242259    58.787323    -147.1683   -176.28661    10890.368 
    9720    301.59168    5.7160557    64.264429   -149.38105   -24.382351    10890.368 
    9730    294.39053    6.8349322    68.331314   -151.92027   -650.50096    10890.368 
    9740    286.59785     8.223138    56.205015   -154.61989   -262.40338    10890.368 
    9750    286.31356    8.5846886    58.067531   -157.15978   -2228.0637    10890.368 
    9760    274.55576    7.3011357      61.4399   -159.03448    2932.8257    10890.368 
    9770    299.13878    7.6576901    52.580065   -160.21828   -293.25435    10890.368 
    9780    286.51244    6.8643968     56.94918   -161.11035    2479.4242    10890.368 
    9790    266.81752    5.6565277     66.68661   -161.78646    643.67991    10890.368 
9800        0.98265960551730235917 10.110651544308652205 1 71 -284.43859677970471012
    9800    270.20878    3.9015478    64.134458   -162.01156   -2244.2127    10890.368 
    9810    269.00647    5.0199221    57.777592   -161.70208   -2612.9963    10890.368 
    9820    276.17307    8.0798466    55.630512   -160.44991   -2045.5957    10890.368 
    9830    294.68488     10.02928    58.464942   -157.63695    2802.4924    10890.368 
    9840    314.96726    10.797612    54.697715   -153.34463    3370.8023    10890.368 
    9850    300.36984    9.0948963    64.789832    -148.0673    3133.0574    10890.368 
    9860     290.5505    6.0678664    62.177659    -142.5758   -482.75485    10890.368 
    9870    310.63787    3.9473979    62.733666   -137.18333    -1254.376    10890.368 
    9880     325.0281    4.7895664    61.347799   -132.98224   -3573.6236    10890.368 
    9890     284.0554    6.5026659    69.231424    -130.8273   -1617.2505    10890.368 
9900        0.98225802425686969954 10.127344135597896368 1 69 -268.48741523635550266
    9900    307.02092    10.391663    67.458591   -129.38142    295.71527    10890.368 
    9910    332.48774    8.3116968    58.333599   -128.30401     1318.053    10890.368 
    9920     322.4038    6.1413178    63.815131   -128.31543   -2794.9048    10890.368 
    9930    283.99533    7.4483441    76.409579   -129.14575    1517.2049    10890.368 
    9940    310.42323    6.6152835    68.509164   -130.21192   -974.91772    10890.368 
    9950    319.58197    5.6496993    64.461229   -131.96163    -34.82766    10890.368 
    9960     319.4176     7.088661    59.295153   -134.22613   -944.07758    10890.368 
    9970    317.59787    9.2523819    59.657414    -136.8975    3976.8888    10890.368 
    9980    323.70863    7.2553514    57.457609   -140.02737    323.57749    10890.368 
    9990    315.47974    7.3450999    55.232912   -143.49148    2246.8925    10890.368 
10000        0.98212933515400258067 10.133099468058283321 1 67 -275.10724110056253267
   10000    283.55729    7.4350551    61.959836   -146.63222    591.41611    10890.368 
   10010    304.36554    4.8437213    60.384082   -149.02778    797.43244    10890.368 
   10020    291.40833    3.9630482     63.50528   -151.11702     -2891.01    10890.368 
   10030    293.58795    7.3980664    58.449877   -152.81318   -135.62175    10890.368 
   10040    271.92721    9.9496945    61.913391   -153.73991   -3192.8353    10890.368 
   10050    298.99153    10.494692    51.782171   -153.94707   -2789.1487    10890.368 
   10060    289.11276    9.7572391     56.90573   -153.86461   -1595.1575    10890.368 
   10070    304.28157    8.3863784     59.43919   -153.76613    4118.1721    10890.368 
   10080    282.99813    6.4933193    62.021986   -153.82583     3542.091    10890.368 
   10090    305.14099    5.1194801    51.702646    -153.6462    431.64335    10890.368 
10100        0.98251720000386821852 10.161190240909556692 1 69 -284.31674681220238199
   10100    288.65462    5.2159134    62.719347   -153.53221   -3625.2908    10890.368 
   10110    294.21528    4.4510614     53.68356   -153.28215   -1493.3335    10890.368 
   10120    299.20082    4.3063858    62.533668   -152.80291    70.820121    10890.368 
   10130    305.71334    3.3461613    56.508928   -152.33028    -402.9066    10890.368 
   10140    291.20057    4.3402188     64.46701   -151.90758    576.15619    10890.368 
   10150    303.66535    5.1855266    61.865155   -151.63749    2434.3227    10890.368 
   10160    283.11428    6.6455537    67.990802   -151.60628    184.53101    10890.368 
   10170    294.97188    10.878495    57.602461   -151.48042   -377.54156    10890.368 
   10180    301.04805    11.642257    62.314193    -151.0498    147.69052    10890.368 
   10190    298.54464    11.963361    56.977004   -150.46253   -2332.2758    10890.368 
10200        0.98088890551390095496 10.165472266051477135 1 67 -289.35890397538901198
   10200    308.73344    10.487793    56.266642   -149.47699   -232.73588    10890.368 
   10210    310.29107    8.2267781    67.359017   -148.41459    2427.7051    10890.368 
   10220    310.68897    6.5739619    53.271699   -147.51596    1807.5281    10890.368 
   10230    279.96382     6.985098    63.622319   -146.63722   -1641.6007    10890.368 
   10240    325.33678    9.3730048    61.288686   -145.35542   -312.21052    10890.368 
   10250    305.32597    5.8993458    64.754997   -144.40983    2517.9066    10890.368 
   10260    329.86621    4.8268668    60.641912   -144.26412   -2505.6348    10890.368 
   10270    293.08664    5.1299945    68.341087   -144.87996   -4741.0063    10890.368 
   10280    322.38439    5.4611413    53.124854   -145.80942    -2728.199    10890.368 
   10290    298.64453    7.8164999    65.420116   -147.40458    1410.3345    10890.368 
10300        0.98098142566531987274 10.160545621303056052 1 69 -287.55402858817552669
   10300    304.56555    8.6354094    58.025515   -149.56052    3551.5581    10890.368 
   10310    284.25439    12.096897    54.443135   -152.01808    3542.7889    10890.368 
   10320    300.32786     9.444265      61.7333    -154.2191    2229.2522    10890.368 
   10330    321.63343     7.785074    50.957614   -156.72635    -2518.736    10890.368 
   10340    306.85893    5.6281063    52.543909   -159.62606    -2801.473    10890.368 
   10350    267.44763    6.3913738     59.06075   -162.10689   -1590.6662    10890.368 
   10360    282.55933    6.8972085    57.557141    -163.7517   -4662.7336    10890.368 
   10370    293.87467    6.6327924    52.820552    -165.0097   -2745.5791    10890.368 
   10380    283.51139    6.8172516    50.191229   -166.06565    517.87098    10890.368 
   10390    282.59744    8.2889927    48.713287   -166.48737    5649.9032    10890.368 
10400        0.98268396760247089805 10.140217428856733051 1 68 -293.71560729147552138
   10400    282.27075    7.9437379    52.361401   -165.82349    2427.8505    10890.368 
   10410    273.59379    6.2674061    57.105979   -163.97233   -1961.5424    10890.368 
   10420     265.0271    5.9414414    62.705396   -160.97945    -4342.723    10890.368 
   10430    311.06719     6.575937    54.682035   -156.27813    554.55747    10890.368 
   10440     322.2949    5.5017672    59.748031   -150.75812    2760.1111    10890.368 
   10450    316.87014     6.841744      53.9567   -145.70945    889.68971    10890.368 
   10460    278.29191     5.469542    65.596514   -141.67105     925.6433    10890.368 
   10470    297.67571    6.3873386     66.30763   -138.22482    6119.9405    10890.368 
   10480    320.39542    8.8846768     61.48909   -135.39538     133.9766    10890.368 
   10490    332.56667    9.8589905    60.826877   -134.27616   -435.02438    10890.368 
10500        0.98471582679278490957 10.147702451760617137 1 70 -276.84595814276383408
   10500    314.77843    9.7065399    61.966189   -134.22516    -7317.358    10890.368 
   10510    310.72035    10.396278    63.655685   -134.58039   -3204.6327    10890.368 
   10520      305.837    10.545294    67.292497    -135.1423   -71.833633    10890.368 
   10530    304.73242    11.629365    64.222628   -136.34321    3680.7657    10890.368 
   10540     307.2686    9.8504762    65.528009   -137.73268    2701.6844    10890.368 
   10550    317.86709    9.3340804     60.47673   -139.34045    2677.6786    10890.368 
   10560    311.12194    7.9590728     61.60535   -141.31173   -2688.8653    10890.368 
   10570    311.47535    8.9716915    60.304646   -143.56633    2060.1216    10890.368 
   10580    301.72849    9.5603017    60.737364   -145.76968   -419.99285    10890.368 
   10590    307.32712    10.089591    58.286219   -147.93866   -2552.6132    10890.368 
10600        0.98642938631784826686 10.141567491141437074 1 69 -275.3708485965509567
   10600     276.8809    12.481284    66.568907   -149.92078   -2360.5399    10890.368 
   10610    313.98918    14.246384    48.684525   -151.17504    121.92802    10890.368 
   10620    306.34917    11.074601    60.499842    -151.9787    1523.2413    10890.368 
   10630    333.46508    9.5771434    58.766645   -152.91673     578.1494    10890.368 
   10640    307.10022    9.1450291    56.538856   -154.58024    577.78046    10890.368 
   10650    298.53687    8.7713743    58.709218   -156.39105    -750.8326    10890.368 
   10660    311.02937    7.7181542    59.678504   -157.90155    -939.9313    10890.368 
   10670     317.4514    4.4917797    53.451663   -159.56897   -2472.1433    10890.368 
   10680    306.69722    6.2186998    51.431496   -161.18305    649.64789    10890.368 
   10690    282.95538    8.4424178    59.526527   -162.14775    1814.2258    10890.368 
10700        0.98777097713448314131 10.120051299899527564 1 68 -289.845629024522907
   10700    281.53441    10.142662    59.265574   -162.28714    3638.9998    10890.368 
   10710    282.51101    11.642828    60.702664   -162.01555    1097.3897    10890.368 
   10720    286.69087    12.564893    56.996608   -161.80043    2709.2558    10890.368 
   10730    291.11506    7.9515781    51.552096   -161.41904   -5381.3219    10890.368 
   10740    315.37169    6.7675441    44.530155   -160.73924   -1407.4762    10890.368 
   10750    284.30879    6.5336611    63.358429   -160.01628   -604.94733    10890.368 
   10760    301.09324    6.4386077    56.442902   -159.28145    3876.5165    10890.368 
   10770    289.28942    4.4692214    59.060614   -158.79289   -2239.5457    10890.368 
   10780     304.3098    3.4621773    49.225954   -158.27647   -231.30649    10890.368 
   10790    283.98219    4.0537801    52.895526    -157.5022    1883.4582    10890.368 
10800        0.98583108872720570659 10.115353873580700039 1 68 -278.68302570911561133
   10800    270.69148    3.4629385    60.978798   -156.03728     562.8124    10890.368 
   10810    286.05018    5.8994225    60.309003   -153.44303   -243.76616    10890.368 
   10820    311.33082    9.1769803    64.377124   -150.32754   -2030.6733    10890.368 
   10830    313.30138    10.948163    62.611384   -147.59718     168.5842    10890.368 
   10840    330.03389    8.3197903    54.615057   -145.63052    -1537.892    10890.368 
   10850    311.84704    7.1242971    61.008169   -144.11628   -955.46084    10890.368 
   10860      308.706    9.4579703    66.098963   -142.75935     203.3357    10890.368 
   10870    305.17077     11.55471     59.92455   -141.56292    1513.8551    10890.368 
   10880     294.0869    12.019151    67.982964   -140.73393    3376.4378    10890.368 
   10890    325.76882    11.932331    56.432439   -139.97732   -278.07723    10890.368 
10900        0.98765707850881123697 10.088509469531704354 1 72 -276.47493858704399372
   10900    302.04023     11.65651    61.817365   -139.62561   -1993.4519    10890.368 
   10910    307.60559    9.2233881    66.673998    -139.4706    -2729.935    10890.368 
   10920     336.6921    8.1721364    62.374835   -139.77924    2761.4754    10890.368 
   10930     309.9651    11.140637    66.580531   -141.91471     3589.096    10890.368 
   10940    293.78085     10.39725    58.243681   -145.11533    -1054.526    10890.368 
   10950    294.79287    7.3610447    57.306473   -148.90097   -2721.8753    10890.368 
   10960    299.70534    5.0790612    51.769678   -152.85832   -641.99773    10890.368 
   10970    300.69849      8.19832    57.488042   -156.93289    2656.8891    10890.368 
   10980    300.83809    7.4120113    52.379623   -160.52331    2367.9845    10890.368 
   10990     314.4475    6.5872948    53.502975   -163.71551   -1410.3999    10890.368 
11000        0.98262777866855077757 10.130208961570509985 1 71 -306.77122555848535512
   11000    308.72035    7.0426043    58.865855   -166.89524   -80.899636    10890.368 
   11010    282.56026     7.497737    62.205313   -170.09403   -2079.8009    10890.368 
   11020    278.73909    6.1511458    52.339177   -172.59041    -1544.839    10890.368 
   11030    290.49201    4.2466103    54.214501   -174.54778    507.27917    10890.368 
   11040    271.34784    4.5881125    55.524294   -175.72581    273.39021    10890.368 
   11050    282.69294    4.7406836    51.793904   -175.92492    1274.6398    10890.368 
   11060    261.66674    7.0310571    60.187656   -175.47306    3886.8537    10890.368 
   11070    266.34335    6.9162039    53.351956   -174.28487    1553.3728    10890.368 
   11080    275.11061    7.8176774    55.932985    -172.1137   -3568.6513    10890.368 
   11090    282.56266    9.0121026    52.485338   -168.94106   -2484.6145    10890.368 
11100        0.97941768591129341193 10.142186410756425019 1 68 -294.53901660856394074
   11100    286.52769    6.5432693    65.153382   -164.71816   -3102.4016    10890.368 
   11110    307.90899    6.2746277    66.072223    -159.8622    2761.3117    10890.368 
   11120    322.35797    5.2582803    56.865407   -155.62487   -1950.8349    10890.368 
   11130    316.58008    5.3487246    51.110842   -152.97769    1486.3544    10890.368 
   11140     274.4758    5.6483427    64.165907   -151.37926   -678.91146    10890.368 
   11150    297.54624    7.3459735    49.067271   -149.75857    2408.0887    10890.368 
   11160     306.1161    6.8902371    57.510044   -148.03637     1476.118    10890.368 
   11170    308.62514     7.787367    55.602483   -146.65747   -2362.8528    10890.368 
   11180    308.86399    9.7087561    64.511337    -145.5141    25.792379    10890.368 
   11190    300.91396    10.049051    55.344345   -144.82799    -1501.954    10890.368 
11200        0.97617235750387554294 10.145257006338527006 1 70 -279.94854243900181245
   11200     299.5809    7.0447296    62.587463   -144.21349   -946.10588    10890.368 
   11210    293.62166    6.8520274    66.117334   -143.62484   -1585.5939    10890.368 
   11220    293.04576     8.417103    61.814667   -142.68043   -2873.2608    10890.368 
   11230    318.06705    11.703581     65.12948   -141.53927    1650.9548    10890.368 
   11240    314.68737    12.215477    60.684715   -140.89076    3829.8963    10890.368 
   11250    296.86504     10.64817    66.841261    -140.7169    2842.5422    10890.368 
   11260    324.09916    11.317212    61.806291   -140.81754    1171.1602    10890.368 
   11270    295.02337    14.102024    63.634576   -141.51237   -3429.4951    10890.368 
   11280    323.32807    10.607951    55.322547   -142.80882    1272.8093    10890.368 
   11290     282.7666    5.8457846    62.916969   -144.92707    913.99822    10890.368 
11300        0.97964215368238749537 10.140565096268396417 1 65 -285.63827001677071848
   11300    304.90188     4.953657    59.512231   -147.49237   -1146.1385    10890.368 
   11310    301.56721    6.0582535    56.552447   -150.96153   -551.60132    10890.368 
   11320    276.11887    7.3618188    64.393287   -155.16129   -706.82524    10890.368 
   11330    285.38098    7.1154532    55.237087   -159.59613    2274.1341    10890.368 
   11340    260.98922     6.197107    61.644053   -163.83775   -312.06463    10890.368 
   11350    277.71155    6.6564341    57.865229   -166.94766    112.96426    10890.368 
   11360    296.58746    7.6560023    49.843755   -169.28814   -952.66887    10890.368 
   11370    282.46122    8.3278898     48.79648   -171.03523   -2510.3782    10890.368 
   11380    286.87593    9.8486241     46.96837   -171.92846    -284.8637    10890.368 
   11390    282.09656    9.3270323    52.843101   -172.01192    2476.8001    10890.368 
11400        0.98492561404509748613 10.136515267983403632 1 65 -313.12599004694521909
   11400    312.65167    7.4377333    50.645161    -171.4688    1445.8216    10890.368 
   11410    283.52859    6.2799049    49.813936   -170.61471   -1015.1728    10890.368 
   11420    278.57283    6.7268564    50.570966   -168.98349    680.73872    10890.368 
   11430    273.87993    8.1226109    62.010435   -165.65277    1461.5096    10890.368 
   11440    309.25285    11.805546    48.327434   -160.07983    658.07135    10890.368 
   11450    289.87208     13.31804    57.514188   -153.53278   -3813.4478    10890.368 
   11460    331.46583    11.646755     55.47102   -147.20383   -3984.2264    10890.368 
   11470    342.28157    11.191191    58.497933   -142.50103    1217.6056    10890.368 
   11480    338.78566     12.76897    57.783659   -140.45793   -942.90387    10890.368 
   11490    329.00137     11.67887    57.790896   -140.06372    4171.8665    10890.368 
11500        0.98256065986879370655 10.12413273535298508 1 62 -286.34273966946801693
   11500    321.88792    9.9987034    60.232433   -140.50075    2608.2699    10890.368 
   11510    328.65617    7.5999258    53.961456   -141.62934    1176.5163    10890.368 
   11520    311.33692    5.5650872    60.957222   -143.10414   -977.84925    10890.368 
   11530    330.20476    4.3995928    54.771416    -144.6897   -299.22106    10890.368 
   11540    298.85868    3.8363707      57.5003   -146.69033   -1826.3814    10890.368 
   11550    296.71134    5.7830038    56.866907   -148.53019    -3313.841    10890.368 
   11560    289.36489    8.8460033    62.205584     -150.158   -266.60554    10890.368 
   11570    295.41062    10.704112    60.541964   -151.74489    3284.8328    10890.368 
   11580    281.13184    10.907609    57.230091   -153.12266   -1492.4985    10890.368 
   11590    275.04478    8.0801899    53.616653   -153.87491   -1124.7513    10890.368 
11600        0.98017878518231060792 10.146402585204567615 1 66 -279.08184994488999564
   11600    276.79489     5.857001    59.475555   -153.67075    386.12297    10890.368 
   11610    300.44288    5.8531043    52.229288   -152.49176    5269.2982    10890.368 
   11620    302.81001    6.2586352    53.107393   -150.72773    1881.8172    10890.368 
   11630    321.15021     4.619192     50.80287   -148.40535   -1805.0124    10890.368 
   11640    324.37163    4.9195834    55.588683   -145.66322   -1018.1134    10890.368 
   11650     302.0108    9.3861959    57.247946   -143.31078   -1206.7134    10890.368 
   11660    297.42826    12.311778    56.267069   -140.52234   -946.03977    10890.368 
   11670    331.40925    12.875201    55.805692   -136.59683    963.24428    10890.368 
   11680    346.88261    10.728624    59.022221   -132.21632   -560.32737    10890.368 
   11690    347.19416    8.8606229    59.797623   -128.91327   -305.73786    10890.368 
11700        0.97791986187877222303 10.161844705049478677 1 67 -272.93576404508360156
   11700    321.74143    8.7847073    70.785916   -127.16015    1512.0311    10890.368 
   11710    344.12467    8.8938947    63.391967   -126.61463    1563.9966    10890.368 
   11720    341.60381    7.1286143    58.380937    -127.8618   -1013.1464    10890.368 
   11730    321.46449    7.0614141    64.058123   -131.38138   -3918.9631    10890.368 
   11740    292.85154    8.9190544    55.840077   -136.35588   -827.44453    10890.368 
   11750    295.15916    8.8099002    64.708913   -141.95287      3343.03    10890.368 
   11760    300.87027    7.4901969    58.573849   -147.26278    3217.8222    10890.368 
   11770    309.32113    7.1982929    54.351285   -151.55919   -109.24568    10890.368 
   11780    289.87706    7.0826758    59.907436   -155.03461    602.84321    10890.368 
   11790    301.59423    7.4260595    52.549391   -157.25154   -1799.8384    10890.368 
11800        0.97086920824235212191 10.187251494522676865 1 66 -291.24342033087276604
   11800    292.21276    6.9868978    57.792828   -158.84675   -1022.7195    10890.368 
   11810    308.62852    7.8148992     56.69742    -159.9493   -2265.4062    10890.368 
   11820    305.90604    6.9449426     49.88498   -160.94912    67.629218    10890.368 
   11830    297.37923     5.621675    51.673913   -161.80884    46.820249    10890.368 
   11840    300.33721    6.5146356    49.884655   -162.20259   -476.85799    10890.368 
   11850    287.10482    7.1774355    60.396087   -162.23894    1608.2861    10890.368 
   11860    292.01617    6.9004742    54.383709   -161.92497   -1127.4198    10890.368 
   11870    283.20822    7.4177501    55.328965   -161.25355   -2384.2932    10890.368 
   11880    289.22092    6.9801853    50.773581    -160.1316   -1130.2849    10890.368 
   11890    284.41313    10.678048    50.627365   -158.16111    2806.5572    10890.368 
11900        0.96567423394576445972 10.200357161988565124 1 68 -291.44498959071927402
   11900    300.81042    11.583843    50.797697   -155.15287    1214.8814    10890.368 
   11910    325.67966    10.910274    45.325787    -151.4503   -217.23968    10890.368 
   11920    333.86852    9.0058288    50.287085    -147.5865    275.52483    10890.368 
   11930    311.20218    5.7507692    56.632387   -144.39249    2410.3096    10890.368 
   11940    297.75689    5.6226873    59.936155   -141.27647     188.3812    10890.368 
   11950    307.20339    6.8114024    58.275413   -138.00356   -1430.2538    10890.368 
   11960     312.1157    5.9086078    64.738188   -134.97193    589.17616    10890.368 
   11970    312.13602    6.6464882    66.107401   -132.87841   -446.20102    10890.368 
   11980    297.67879    6.8225307    67.645345   -131.68477   -1141.2186    10890.368 
   11990    322.69698    3.9696085    58.809086   -130.96551    -992.5846    10890.368 
12000        0.9672616409476921806 10.194034520646559017 1 68 -272.66264347891944908
   12000    313.67564    3.3605796    61.759222    -130.5415   -508.48426    10890.368 
   12010    325.80627    3.6802166    56.518112   -130.82203   -2663.4784    10890.368 
   12020    299.45521    5.2845373    67.043861   -132.35246    1200.9012    10890.368 
   12030    300.02526    5.9711658    64.737281   -135.69229    2274.4991    10890.368 
   12040    278.55503    6.5851151    70.508774   -141.36556   -159.82972    10890.368 
   12050    287.49129    7.6457308    56.821303    -147.9362     2952.771    10890.368 
   12060    260.46351    7.5140132     63.56537   -153.54161    1958.1945    10890.368 
   12070    289.25264    5.3871394    53.871979    -157.3408    -1245.971    10890.368 
   12080     283.2353    3.4521626    54.203797   -159.90971   -4960.9391    10890.368 
   12090    297.93493    3.1748452    51.066719   -161.83954   -3572.3122    10890.368 
12100        0.97473460318963445204 10.171572940735758905 1 69 -286.81032955221962766
   12100    272.25631    4.1003256    67.838595   -163.45559    3023.5857    10890.368 
   12110    294.97984    7.7078625    51.226138   -164.69716     3325.325    10890.368 
   12120    286.06886    10.825126    57.864679   -165.95137    1518.0926    10890.368 
   12130    301.99348    11.785207    50.457694   -167.18674    745.48538    10890.368 
   12140    279.69241    9.7619693    56.958293   -168.17969   -3165.2935    10890.368 
   12150    310.10964    7.7062076    50.133658   -168.77618    472.43114    10890.368 
   12160    296.33638    6.2381032    54.947717   -169.30136   -2898.8236    10890.368 
   12170    286.75159      4.81211    53.571364   -169.81804   -1429.9684    10890.368 
   12180    284.98572    4.6232812     53.49795   -170.11369    346.83999    10890.368 
   12190    252.94682    5.2386958    51.813578   -169.69961    1045.9058    10890.368 
12200        0.97978985915869920564 10.150135925996183417 1 70 -294.97153816638740409
   12200    280.73678    4.4006796    47.956422   -167.77444    2856.6479    10890.368 
   12210    292.77486    5.4237015    50.484117   -164.08629    2489.0349    10890.368 
   12220    306.91501    7.6670504    51.225901   -159.34722   -794.76863    10890.368 
   12230    294.11849     8.927623    53.617125   -154.37452   -3476.0483    10890.368 
   12240    310.00523    6.4698278    54.901921   -149.87665   -2918.1684    10890.368 
   12250     308.1096     3.574145    56.151063   -146.01313   -749.39716    10890.368 
   12260    331.88345    4.6846524    52.219214   -143.29968    289.23069    10890.368 
   12270    313.56824    5.9361485    55.752679   -142.81552      3811.64    10890.368 
   12280    309.66718    6.1935198    60.414985   -142.02616     5811.021    10890.368 
   12290    303.09756    8.1414049    58.777273   -141.62617    1864.5834    10890.368 
12300        0.97817509818258219223 10.115455400254209195 0.99735449735449732689 67 -284.04068391496468848
   12300    314.92696    10.384516    54.406802   -141.35259   -2331.0061    10890.368 
   12310    298.05894    11.156659    53.428279   -141.01425    -3870.322    10890.368 
   12320    302.78349     9.348794    55.531288   -140.58857   -3277.8909    10890.368 
   12330    292.13397    8.5384172    58.741571   -140.01179   -1315.9251    10890.368 
   12340    302.04806    7.0270452    53.535712   -139.34139   -1142.5496    10890.368 
   12350    291.83692    9.3906334    56.380692    -138.4725    2357.7626    10890.368 
   12360    310.66935    7.8023733    55.843659   -136.13363   -71.579737    10890.368 
   12370    309.23881    8.9253621    63.017188   -134.59384    1064.7972    10890.368 
   12380    316.40321    8.6959941    56.501781     -133.196   -3134.7643    10890.368 
   12390    320.45998    9.8354892    58.144254   -132.07883    1844.3705    11381.128 
12400        0.97965541367896280534 10.092478983456084407 0.99470899470899465378 68 -275.13858042804855586
   12400    318.10297    6.8639555    62.721124   -131.01149    1657.7415    11381.128 
   12410    326.99475    5.4566452    53.110858   -130.35503   -1028.8834    11381.128 
   12420    302.88323    3.7802419    60.769504   -130.35809   -562.40494    11381.128 
   12430    296.33546    4.0181803    53.988277   -130.80026    1035.9781    11381.128 
   12440    281.31161    3.9150215    63.947291   -131.12999    549.24835    11381.128 
   12450    283.79911    3.0099181    67.257659   -131.03799    552.51033    11381.128 
   12460    302.71816    3.9415046    64.801197   -130.78751   -1549.7199    11381.128 
   12470    314.67654    5.0375127    59.685766   -131.05299   -1143.9931    11381.128 
   12480    295.63039    7.2257179    66.894128   -132.07329    862.69646    11381.128 
   12490    322.88049    6.4871972    53.542286   -133.43863    2533.8222    11381.128 
12500        0.98296190001269467817 10.097487219906605915 0.99470899470899465378 70 -271.15478646153172804
   12500    299.52211    7.2692333    59.188006   -135.44637    3088.6904    11381.128 
   12510    276.77455    8.3807627    65.054437   -137.50531   -859.23177    11381.128 
   12520    312.62015     6.864182     57.68996   -139.47298   -1690.5124    11381.128 
   12530    346.00444     7.423766    54.272451   -142.41509   -256.22781    11381.128 
   12540    349.17935    7.7973127    50.012805   -147.23688    1139.8699    11381.128 
   12550    335.06724    9.5539625    52.454543   -153.28206   -243.32545    11381.128 
   12560    310.43859    10.259298    51.296944   -159.24833    405.06472    11381.128 
   12570    293.54787    12.096708    53.623095   -163.93717     1596.359    11381.128 
   12580    255.89372    12.391342    62.619603   -166.85139    773.78052    11381.128 
   12590     284.8047    10.378043    51.802105   -168.05124    1968.0966    11381.128 
12600        0.98281989137117353739 10.136658164850375741 0.99735449735449732689 70 -292.85082410476542236
   12600    274.29867    9.5891985     55.61693   -168.57072    -2248.684    11381.128 
   12610    270.64275    8.7232484    56.936045   -168.48143   -3152.8129    11381.128 
   12620    262.63112    8.6806925    56.283354   -167.54942   -2254.0984    11381.128 
   12630    284.69422    9.9201781     48.84701   -165.84596    1123.3076    11381.128 
   12640    302.54917    8.7802936     57.16603   -163.36113    1508.9743    11381.128 
   12650    319.37401    9.3140434    48.257598   -160.69511    388.60003    11381.128 
   12660    287.38109    9.2181594    56.656535   -158.32132    1427.5906    11381.128 
   12670    277.40069     9.133827    61.445197   -155.90028    908.04793    11381.128 
   12680    306.62932    7.8873782    53.419221   -153.07188    1553.1991    11381.128 
   12690    321.32202    6.2709947    53.998567    -150.2735   -3324.1422    11381.128 
12700        0.98279135973081455102 10.155504755056728783 1 69 -302.34798713220402533
   12700    340.65118     8.345225    50.284621   -148.00469   -1498.1719    11381.128 
   12710     320.5278    7.5994148    55.999609   -146.72364    93.876466    11381.128 
   12720    326.21043    7.8964491    57.257053   -146.42941    2627.5822    11381.128 
   12730    287.37005    9.1279065    60.294932   -146.94399    153.34486    11381.128 
   12740    285.28422    8.7864231     55.51738   -147.43551   -1386.5339    11381.128 
   12750    290.81227    5.3637758    57.852213   -147.50365    75.765581    11381.128 
   12760    294.38092    3.6954321    62.005188   -147.45525    1042.3723    11381.128 
   12770    300.46563    2.9378007    59.434844   -147.34835   -1505.8827    11381.128 
   12780    317.85425     4.375842    53.526534   -147.62374    -2284.159    11381.128 
   12790    305.98612    7.2014963    58.757487   -148.75555   -2181.6039    11381.128 
12800        0.97780648626437316473 10.172105312068500993 1 68 -293.27471007767115907
   12800    315.03903    7.4569403    54.599558   -150.53584    1855.9317    11381.128 
   12810    297.18407    8.0696507    55.427435   -153.05267    2792.1627    11381.128 
   12820    301.93281    7.8954442     57.42051   -155.87601     2611.804    11381.128 
   12830    289.59461    9.2416903    52.597347   -159.06176   -853.17639    11381.128 
   12840     270.5482    7.6479179    55.633954   -162.12557    507.45513    11381.128 
   12850    268.59874    7.5540221     57.12015   -164.25143   -1531.6918    11381.128 
   12860    281.87942    6.7788238    51.573288   -165.52997   -4105.6476    11381.128 
   12870    294.74627    8.8949445    53.348551   -166.18412   -408.35034    11381.128 
   12880    295.75386    10.096434    48.282055   -166.55838     1999.136    11381.128 
   12890    291.11905    8.9249138    50.273012   -166.64691    4450.1381    11381.128 
12900        0.97694791417350013152 10.156804221604330607 1 68 -300.71374230460759236
   12900    296.66296     8.673821    50.768297   -166.30076    352.62394    11381.128 
   12910    283.60046     8.857548    54.465363   -165.57939   -1680.1272    11381.128 
   12920    273.42413    7.6489612     64.07779   -164.20738   -2172.6968    11381.128 
   12930    282.13413    6.2825906    53.150255   -161.92224   -1247.7346    11381.128 
   12940    289.98627    4.2265639     52.42441   -158.71199    1578.9323    11381.128 
   12950     294.9122    6.0745797    56.828448   -154.80012    1384.3517    11381.128 
   12960    302.67858    7.8639939    51.004243   -150.36162   -246.36271    11381.128 
   12970    290.93548    7.8218021     58.85862    -145.7838    748.05146    11381.128 
   12980    308.12657    10.082107    58.103485   -141.50326   -189.64125    11381.128 
   12990    307.23913    7.8161632     70.12234   -138.27278    1934.3849    11381.128 
13000        0.97601224653753182459 10.158496734241241555 1 68 -280.48553667160751957
   13000    317.64038    6.9018607    60.014583   -136.56804   -3849.6669    11381.128 
   13010    304.04794    5.5896533    60.515616   -136.12684    -2131.653    11381.128 
   13020     297.4523    6.5973234    65.847775    -136.3387   -2428.6534    11381.128 
   13030    314.75001    7.5459031    55.082595   -136.95542    315.75351    11381.128 
   13040    295.80261    8.2954298    68.601018   -137.81733    863.30536    11381.128 
   13050    319.22129    10.006942    54.510281   -138.66376    2141.9139    11892.982 
   13060    316.98235    9.9089808    60.846777   -140.02835    1561.8676    11892.982 
   13070      299.241    7.7494441     58.56083   -142.15795   -3304.0421    11892.982 
   13080    301.41238    6.4251893    53.824151   -144.50965   -4432.0587    11892.982 
   13090    310.85534    5.6430803    50.342537   -146.76115   -1709.5649    11892.982 
13100        0.98277640680468936196 10.112784775395887493 1 67 -292.31177538841825481
   13100     316.1061    7.4649434    57.046138   -149.08944    1179.8672    11892.982 
   13110    309.60777    8.5864486    48.590053   -151.66595    2685.5144    11892.982 
   13120    279.28694    9.3937887    54.657088   -153.83631    657.43971    11892.982 
   13130    297.70558    8.8541421    51.613123   -155.35895    3142.2967    11892.982 
   13140    297.08714    8.7735669    50.084386   -156.21661    4164.0533    11892.982 
   13150    289.91162    7.9916661     51.60432   -156.53268   -110.24222    11892.982 
   13160    285.69621    10.052571    55.454877   -156.46595   -2097.2396    11892.982 
   13170    285.59675    9.3196497    60.350463   -156.31431   -6485.7576    11892.982 
   13180    310.00161    8.7931392    51.942779   -156.33953    195.17009    11892.982 
   13190    283.41872     8.418563    55.900478   -156.43934   -163.03821    11892.982 
13200        0.98638722659621802524 10.102095119470032358 1 66 -286.61060887226216209
   13200    288.09144    8.9937637    55.712863   -156.08124    3042.0369    11892.982 
   13210     289.2147    8.9264842    60.505279   -155.12534   -3007.1421    11892.982 
   13220     302.3315    7.3075747    58.117644   -153.85065    719.58124    11892.982 
   13230    301.20379    6.2579487    59.042049   -151.82997    405.82282    11892.982 
   13240    327.45711    4.3956312    47.970648   -147.77299    1243.0793    11892.982 
   13250    343.17115    6.0516685    48.375823   -141.81391   -869.71284    11892.982 
   13260    313.51755    8.5162975    53.221731   -135.48198    317.91435    11892.982 
   13270    322.12036    6.2608071    56.664577   -130.23567    1641.0258    11892.982 
   13280    314.38815    6.6724577    69.124346   -126.20537    619.50135    11892.982 
   13290    347.40341    6.8270014    54.194741   -123.57203   -1413.9419    11892.982 
13300        0.98337498461286398932 10.081681970193409725 1 64 -265.87119796419301565
   13300    316.60644    8.2469183    56.480227   -122.42216   -2684.2393    11892.982 
   13310    303.27009    7.4225141    57.442545    -121.6916   -401.00538    11892.982 
   13320    286.63583     6.803264    56.521454   -120.87824    2876.3887    11892.982 
   13330    294.02231     5.536223    64.416449   -119.58395    4305.1741    11892.982 
   13340    334.85405    4.8010034    58.920387   -117.83363   -562.46462    11892.982 
   13350    330.62133    5.1082021     56.80573   -116.50706   -2976.1284    11892.982 
   13360    324.95072    4.9765387    54.912265   -116.10172   -2020.4197    11892.982 
   13370      297.136     5.917866    63.820405   -116.60981    936.59266    11892.982 
   13380     310.9522     6.937022    60.555755   -117.60302    711.18853    11892.982 
   13390    326.83318    7.1065789    57.483679   -119.37456    1226.9646    11892.982 
13400        0.98341432665690931003 10.085889903689064795 1 69 -282.47502769892463448
   13400    352.54529    6.7130695    54.036287    -122.7427    557.07411    11892.982 
   13410    326.33982    6.3284689    70.040794      -128.07    3113.8206    11892.982 
   13420    334.94743    7.4913109    53.315107   -134.78705    1016.7102    11892.982 
   13430    307.81138    8.7824951    57.198064   -140.94552   -2222.3373    11892.982 
   13440    319.31659    10.284368    47.780765   -145.74428    840.60906    11892.982 
   13450    286.62988    10.680126    59.315925   -149.08252   -1011.1029    11892.982 
   13460    279.70939    9.8039409    60.166542    -151.2137    1208.0666    11892.982 
   13470    287.84788    8.0931296    58.757528    -152.7707   -2608.4542    11892.982 
   13480    323.98601    7.7438968    44.163247   -154.18468    1588.6645    11892.982 
   13490    318.58646    8.2121518    49.473107   -155.89144    1407.1381    11892.982 
13500        0.97925395435131334931 10.143417251608429552 1 70 -292.82850704199091751
   13500    298.56117    6.8664567    47.919406   -157.55548    337.01892    11892.982 
   13510    306.19957    3.1518754    53.373582   -159.26809   -3.9952977    11892.982 
   13520    285.46733    2.3989995    54.450817   -161.29381     472.6362    11892.982 
   13530    299.88129    3.8772203    46.927984   -163.06866   -2013.9296    11892.982 
   13540    289.71278     5.075302    47.689779   -164.27778    -1021.029    11892.982 
   13550    295.61951    3.9041754    45.393965   -164.98499   -2661.3872    11892.982 
   13560     281.2176     5.641258      50.0065   -165.07667   -982.98313    11892.982 
   13570    313.04355    7.7183909    43.506038   -164.46214   -2248.6467    11892.982 
   13580     305.7045    7.0073821    44.927174   -163.69642    1269.9382    11892.982 
   13590    298.23183    7.1345611    49.979991   -162.99193    3856.7346    11892.982 
13600        0.97594859532110800338 10.145839667290822206 1 70 -295.95458864611032368
   13600    295.43584    6.0925799    48.659663   -162.09759    3741.0878    11892.982 
   13610     306.6449    5.2653648    45.854376   -160.54326   -944.58987    11892.982 
   13620    335.83726    6.1322625    43.881809   -158.08968    911.17341    11892.982 
   13630    311.92135     6.329518    54.396821   -155.64393   -2916.0547    11892.982 
   13640    311.34631    6.6322367    49.927343    -153.3796    1400.1061    11892.982 
   13650    280.23867    5.5148782    59.327269   -150.81461   -1495.3089    11892.982 
   13660    297.03112    7.9263447    51.003342   -147.65816    139.64965    11892.982 
   13670    283.57258    8.6978316    57.394854    -143.8872    -2160.662    11552.765 
   13680     329.8566    8.6852184    45.589682   -139.39673    102.01276    11552.765 
   13690    318.85729    8.5322439     60.64219   -135.18015      1375.62    11552.765 
13700        0.97097427786971401975 10.175792134027020097 1 73 -277.87067837978094076
   13700    321.60754    8.4867165    62.090663   -132.15573    3055.2003    11552.765 
   13710    309.86693     7.824699    66.028742   -130.55619   -666.41129    11552.765 
   13720    345.16771    8.1086434       50.962   -129.68572     1805.609    11552.765 
   13730    331.41705    7.4821736    64.844152   -130.08861   -4734.5069    11552.765 
   13740    329.07372    7.8828017    57.600988   -132.14501   -1584.5092    11552.765 
   13750    330.93972    7.5347066    52.833539   -135.50327   -3529.8972    11552.765 
   13760    323.19158    8.2371229    54.818552   -139.96777    2383.2292    11552.765 
   13770    319.79917    8.5035332    53.264996   -145.18724    1374.0446    11552.765 
   13780    313.76031    7.2102916    49.795424    -150.5082    1590.6394    11552.765 
   13790    287.49611    6.2862412    56.429629   -154.38022    2074.4019    11552.765 
13800        0.96282524453967399669 10.187739761769952551 1 66 -287.19526052073064193
   13800    288.38163    5.2642049    47.716774   -156.53441   -1177.0342    11552.765 
   13810    287.40137    5.1477484    47.785738   -157.37436   -1407.0947    11552.765 
   13820    279.95084    7.0506193    55.709267   -157.30184    998.61936    11552.765 
   13830    268.20306    7.4051163      53.9678   -156.63424   -408.34239    11552.765 
   13840    273.08534     6.906907    55.668772   -155.43543    3093.9894    11552.765 
   13850    283.05604    5.3241706    56.819599   -153.63223    916.86334    11552.765 
   13860    293.89621    4.8676531    53.523586   -151.30101    223.97609    11552.765 
   13870    312.36056     3.696686    54.622858   -148.83592   -1866.5655    11552.765 
   13880    305.73011    3.8826401    58.835961   -146.82925   -1464.7611    11552.765 
   13890    320.36383    4.9130545    59.900681   -145.56089   -1213.9449    11552.765 
13900        0.95939069651929231863 10.181208854339411474 1 63 -286.75878782655502164
   13900    312.07997    5.6154032    59.544187   -145.36062    2165.6888    11552.765 
   13910    288.63699    7.1469166     65.76946   -145.90807   -2119.5315    11552.765 
   13920    318.92984     5.770179    51.969018   -147.00562    999.01585    11552.765 
   13930    297.87445    6.3594758    57.659424   -148.96852    1116.1666    11552.765 
   13940    311.42926    6.6431425    54.636234   -151.66166    2814.5419    11552.765 
   13950    301.04383    10.084365    54.066188   -155.04402   -2104.9623    11552.765 
   13960    292.26732    12.410077    53.243631    -158.9012   -3596.0405    11552.765 
   13970    271.54144    13.217293    57.660531   -162.65902   -161.48146    11552.765 
   13980    277.83621     11.56361    45.955035   -166.03126   -510.08308    11552.765 
   13990    265.50819    10.221842    54.886006   -168.54438    909.13758    11552.765 
14000        0.96502119802974495322 10.182965179305465853 1 65 -295.86362333300922955
   14000    276.71531    7.1797412     52.96673   -170.48859    2748.9321    11552.765 
   14010    259.37753    6.8133845    54.854953   -171.88341    286.37769    11552.765 
   14020    261.88491    6.8194065    50.863799   -172.14614   -1816.3409    11552.765 
   14030    278.04359    4.6022713    49.328984   -171.13258   -2272.2754    11552.765 
   14040     276.1973    4.0872681    49.513439   -168.62513   -613.30071    11552.765 
   14050    290.60386     3.606205    56.416448   -163.72409    72.266758    11552.765 
   14060    303.96366     4.244684    54.678948   -156.80215   -852.23552    11552.765 
   14070    304.76259    4.6899995    53.309201   -149.02809    946.73493    11552.765 
   14080    312.31975    4.8279723    57.328258   -143.29676    1568.4597    11552.765 
   14090    301.00408    6.4117872    62.489584   -139.18777    2003.0207    11552.765 
14100        0.97118119803551694602 10.198086140900720409 1 65 -283.68393414505578676
   14100    324.38448    8.1320217    54.040564    -136.7108   -736.09069    11552.765 
   14110    313.04796    7.4737755     57.94419   -135.60807   -572.13727    11552.765 
   14120    331.50025    6.3144078    50.406559    -135.5743    -2349.857    11552.765 
   14130    339.61016    6.0665714    51.899182   -136.14973    -1140.569    11594.206 
   14140    315.62524    5.3019712    57.317892   -137.52941    46.842576    11594.206 
   14150    320.24681    4.9100902    56.987976   -139.38264    576.23344    11594.206 
   14160    314.49214    5.5933144     61.75696   -142.15494    889.75745    11594.206 
   14170    312.57881    5.6510008     56.20792   -145.76856   -1039.0207    11594.206 
   14180    306.40646    5.1949455    46.409014   -149.49725   -887.55432    11594.206 
   14190    317.33494    6.5769828    52.231596   -152.96178   -2324.4818    11594.206 
14200        0.97362704776768405068 10.179512956876626717 1 66 -300.62167852635428744
   14200    318.94908    9.1502822    52.730961   -156.11123    451.81034    11594.206 
   14210    294.50918    11.173265    48.614573   -159.25615   -300.04523    11594.206 
   14220    249.91446    11.009464    55.350866   -161.14898   -207.47424    11594.206 
   14230    283.94476    10.877797    49.462818   -161.58591    78.678336    11594.206 
   14240    302.22824     8.023131    52.095372   -161.21422    2889.0947    11594.206 
   14250    319.37399     4.979336    48.261062   -160.67623    300.24536    11594.206 
   14260    298.05589    4.3418833    53.190182   -160.26217    1210.8374    11594.206 
   14270    293.69013    4.2993337    49.573107   -159.44496   -2485.4273    11594.206 
   14280    292.32945    6.4362609    50.695667   -158.01201   -34.349188    11594.206 
   14290    305.06961     8.101347    43.993626   -155.95767    480.18074    11594.206 
14300        0.97730398967669673826 10.140039227707644542 1 70 -290.98502702313771806
   14300    304.17354    8.4299948    57.151963   -153.16913    4384.0551    11594.206 
   14310    319.99457    10.295367    52.283817   -149.91703    1600.0583    11594.206 
   14320    301.04678    11.318911    58.485586   -146.15757   -1333.8622    11594.206 
   14330    324.89214    10.666663    53.020141   -141.79974   -3684.2362    11594.206 
   14340    320.74257    9.6718845    55.133467   -136.66725   -2066.3444    11594.206 
   14350    336.64916    8.2640674    59.414906   -131.46664    968.06386    11594.206 
   14360    354.59225    10.066482    51.845569   -126.44408    3321.7661    11594.206 
   14370    334.02512    10.212333    62.874845   -122.90118    3685.1594    11594.206 
   14380    331.42171    10.462727    64.291858   -120.98415    1036.1229    11594.206 
   14390    285.92653    10.571788    70.938834    -120.4949   -1109.2745    11594.206 
14400        0.97696200144493750006 10.141947136295147658 1 70 -266.00419962248480488
   14400    321.37549    8.6593584    58.626735   -120.39439   -3533.6637    11594.206 
   14410    329.47222     6.020688    64.800274   -120.96172    30.110236    11594.206 
   14420    333.45526    5.9387502    64.876952   -123.53145   -1571.0949    11594.206 
   14430    288.09769    5.8541975    69.480702   -129.67299    705.52116    11594.206 
   14440      261.486    6.2724248    71.086081   -137.89501    47.351135    11594.206 
   14450    283.79686    6.3481287    56.136332    -145.4617    968.09993    11594.206 
   14460    285.97997    6.4882843    60.442917   -150.38161    231.77336    11594.206 
   14470    310.99909    7.4432336    47.930819   -153.69454    1015.6522    11594.206 
   14480    273.90975    9.6059257    62.479111   -155.85792    1113.3192    11594.206 
   14490    288.18686    6.5581678    56.186583   -157.37522    3583.2244    11594.206 
14500        0.9792562688733932319 10.136967578574697768 1 71 -282.02035601942867515
   14500    272.24128    4.6923566      61.1551   -158.67243   -1704.2879    11594.206 
   14510    288.52378    5.0308418    53.353762   -159.63621   -2168.5048    11594.206 
   14520    298.78495    6.6661971    52.391568   -160.21271   -696.47656    11594.206 
   14530      284.026    7.2955936    57.135903   -160.34066   -1097.0592    11594.206 
   14540    280.98476    7.4349698    56.482756    -160.1034    731.85171    11594.206 
   14550    283.27385    5.5131106    57.389119   -159.62365   -1639.5836    11594.206 
   14560    301.66324    5.9169702    52.726889   -159.18272    1726.1462    11594.206 
   14570    290.41044    7.6350118      50.7417   -158.79575    806.79063    11594.206 
   14580    301.44143    7.7643805    48.736844   -158.09849    720.49446    11594.206 
   14590     281.3331    5.5741854    62.067786   -157.18309    528.28091    11594.206 
14600        0.97630255447489178167 10.181719984682688462 0.99735449735449732689 69 -289.4644218605592414
   14600    294.98296    6.6206493    51.373644   -155.81262   -1613.8075    11594.206 
   14610    314.06697    7.0938458    48.187465   -154.08735   -1606.1297    11594.206 
   14620    291.37718    5.9281948     51.63261   -152.20003   -102.42357    11594.206 
   14630    288.71608    6.1633976    55.386982   -149.64649   -1237.7905    11594.206 
   14640    288.65964    6.9137245    54.689728   -145.99132     1136.624    11594.206 
   14650    327.58693    6.0679884    53.969504   -141.26402   -789.54694    11594.206 
   14660    328.54742    6.6571255    53.770892   -136.69746   -1067.5726    11594.206 
   14670    319.19009    7.9883614    60.427404   -132.79896   -2415.8648    11594.206 
   14680    318.66875    10.384966    57.372581   -129.70536   -2411.2028    11594.206 
   14690    322.50417    7.1540348    57.276955   -127.79734    2370.1376    11594.206 
14700        0.97673789114788378551 10.145129585748764001 1 71 -269.41713776226788468
   14700    313.91833    6.2603977    64.552348   -127.18604    2374.5255    11594.206 
   14710    338.22462    7.7963821    55.791562   -127.33606    4418.7044    11594.206 
   14720    333.53988    9.8339917    53.516844   -128.53485    1328.4752    11594.206 
   14730    306.34036    7.2953693    61.979039   -130.82993   -2270.7496    11594.206 
   14740    282.48663     5.649738    65.660632   -133.43669    102.32803    11594.206 
   14750    302.71432     6.326306    57.073267   -136.02284    1102.2181    11594.206 
   14760    295.50569    6.2793244    61.638879   -138.47457   -567.13132    11594.206 
   14770     286.9354    6.9417371    56.834515   -140.64286    409.90879    11594.206 
   14780    290.00679    6.0514031    58.347103   -142.23407   -3639.9375    11594.206 
   14790    313.08696    4.5727797    56.352056   -143.68507    1819.6088    11594.206 
14800        0.97755555785287306936 10.163968470162011215 1 69 -291.9654466616155446
   14800    323.18859    5.1956379    51.370085   -145.53415   -1858.0433    11594.206 
   14810    313.98741    5.1922345    58.592524   -147.84979    165.99716    11594.206 
   14820    308.79629    5.7165801    57.057756   -150.57044     1378.314    11594.206 
   14830    306.03149      9.55522    51.841029   -153.10124    3567.9866    11594.206 
   14840    292.66182    11.520609    59.467018   -155.04917    1192.3811    11594.206 
   14850    314.49773    12.705885    54.124688   -156.14332   -1664.3169    11594.206 
   14860    314.36031      10.8133    56.282115   -157.07248   -4940.2743    11594.206 
   14870    292.69382    9.9175827    60.974753    -158.0343   -335.34894    11594.206 
   14880    296.32686    8.0795237    59.818649   -158.71877    619.53396    11594.206 
   14890    299.04706    8.1574966    56.767055   -159.37977    2767.2478    11594.206 
14900        0.97895158398088999441 10.172188810232745126 1 63 -302.00500437548015498
   14900    312.85626    9.7355052    50.467659   -160.25511   -1734.0451    11594.206 
   14910    267.88214    9.8514249    51.561134   -160.97473   -1832.4796    11594.206 
   14920    295.48002    10.100379    51.307144   -160.93395     871.3802    11594.206 
   14930    291.79498    10.703039    56.507594   -160.48018    2336.0647    11594.206 
   14940    295.10339    8.7699222    49.587398   -159.96725   -440.92601    11594.206 
   14950    292.03665    6.5849066    55.900305   -159.13463   -3250.4438    11594.206 
   14960    310.69996    7.0392278    47.700415   -157.81103   -2020.4569    11594.206 
   14970    305.08275    6.8459289    57.724821   -156.10477    425.06602    11594.206 
   14980    310.10686    6.2744164    53.807572   -154.14241    1318.2837    11594.206 
   14990    284.98478     6.374104     63.79074    -152.3181    837.91353    11594.206 
15000        0.97692464789084743071 10.155671180981210355 1 64 -284.13730789451676628
   15000    295.84898    6.0288789    59.483419   -150.09313    1504.0634    11594.206 
   15010    302.46755    7.2382214    54.506383   -147.50617    117.20302    11594.206 
   15020     307.4085    8.3997944    56.750346   -144.55185    -236.6861    11594.206 
   15030    305.46283    6.3342181    59.231395   -141.28976    525.61939    11594.206 
   15040    304.22921    5.3358133    60.639373    -138.2197   -538.19786    11594.206 
   15050    292.21013     4.661043    65.548955   -135.41529    962.48188    11594.206 
   15060    315.14507    7.3090982    62.429558   -132.69437   -128.32842    11594.206 
   15070     323.2819    7.5185878    54.581362   -129.80266   -515.92284    11594.206 
   15080    326.06254    5.1129883    54.987041   -127.32826   -3218.6766    11594.206 
   15090    325.01676     6.030714    57.503915   -125.17551   -892.79233    11594.206 
15100        0.97132526560921317316 10.15759686529479211 1 65 -268.63924958671594823
   15100    320.23991    10.472692    59.972411   -123.54395    4333.6922    11594.206 
   15110    321.21266    14.266254    59.557519   -121.92744    3088.7136    11594.206 
   15120    328.19631    10.683472    57.405068    -120.4392    1689.2522    11594.206 
   15130    316.97953    8.8808739    55.930914   -119.59534   -3199.5684    11594.206 
   15140    338.10288    7.4297925    53.016139   -118.81552    -2150.954    11594.206 
   15150    324.06775    7.1371353    60.597328   -118.26283   -1517.5028    11594.206 
   15160    315.92702    8.6074553     59.22907   -118.27627      699.496    11594.206 
   15170    310.09678    8.0758008    59.088344   -118.94402    2328.5807    11594.206 
   15180    335.54286    5.3715187     48.73417   -120.23939    3657.2956    11594.206 
   15190    308.85968    4.5081905    55.513933   -122.51022   -1401.5113    11594.206 
15200        0.96408527962752688101 10.174025080933708054 0.99735449735449732689 66 -255.80730371984077465
   15200    288.75652    5.2294137    59.723032    -124.9766   -1034.0592    11594.206 
   15210    278.51095    5.4676248    55.854545   -127.30369   -1595.2021    11594.206 
   15220    268.88039    4.8591839    62.595279   -129.16863    1516.6859    11594.206 
   15230    278.83157    4.9531149    61.593139   -130.31492   -638.83601    11594.206 
   15240    307.71409    6.4104298    53.031797   -131.04287    -2224.342    11594.206 
   15250    316.53935    8.7055127    51.316339   -131.92841   -3188.2335    11594.206 
   15260    311.48224    6.6267874    52.412288   -133.30615   -1906.9717    11594.206 
   15270      322.487    4.9881418    51.218657   -135.41989    1623.3211    11594.206 
   15280     290.6451    5.4675405    63.753727   -138.48321    5047.0557    11594.206 
   15290    307.62329    5.8412529    56.901577   -141.98031    298.60922    11594.206 
15300        0.96838474387255479847 10.207779698857986972 1 67 -275.00694153030360667
   15300    284.86357     5.666585    61.335417   -145.94006   -1103.8814    11594.206 
   15310    280.45526    6.8546639    52.049096   -149.49369   -3612.4415    11594.206 
   15320    290.87291    7.0234571    57.258346   -152.48929    404.27986    11594.206 
   15330    276.89892    6.8865983    59.036348   -155.06716    1119.3604    11594.206 
   15340    275.67634    8.0818296    49.865711   -156.85451    769.22397    11594.206 
   15350    267.19545    8.1538624    54.758029   -157.69199   -433.96861    11594.206 
   15360    255.72824    7.9590561    55.451763   -157.49367    1964.5632    11594.206 
   15370    272.49773    6.6747205    55.220814   -156.22599   -1228.3603    11594.206 
   15380    283.19237    5.3200313    60.076125   -154.26336    787.72782    11594.206 
   15390    281.30199    4.7084918    55.735701    -151.9282   -1097.4276    11594.206 
15400        0.97271194660532411813 10.187433931977448509 1 68 -275.56511748204212608
   15400    279.73469    4.2103357    52.617438   -148.82205    416.42141    11594.206 
   15410    298.51492    5.2710733    59.586637   -144.80614   -2748.1445    11594.206 
   15420    303.36265    3.5245468    56.593203   -140.52548    -1562.932    11594.206 
   15430    314.22126    3.5971852    56.341112    -136.8017   -984.08422    11594.206 
   15440     290.4445    4.1749116    56.447482    -134.4512    2798.7839    11594.206 
   15450    306.48445     6.013608    57.797573   -132.70636   -663.57224    11594.206 
   15460    285.75356    9.0307626    59.670047   -131.51577    1270.6889    11594.206 
   15470    308.39137    9.6231625    54.364749     -130.543   -936.64882    11594.206 
   15480    277.45676    12.483187    60.291615    -129.8846   -871.23054    11594.206 
   15490     317.6552     9.022534     60.42046   -129.02198   -2581.8181    11594.206 
15500        0.9805444151361434324 10.139346303501193702 1 69 -269.56688713042160543
   15500     311.0165    7.0759218    59.741342   -128.65056   -2257.9239    11594.206 
   15510    303.73825    6.4461895    56.551681   -128.86185     3.052073    11594.206 
   15520    296.41046     6.416314    59.004104   -129.08025    4027.0961    11594.206 
   15530    307.72198    5.0519494    56.226785   -129.33596    3292.8024    11594.206 
   15540    308.26042    7.0787177    61.149681   -129.60851    4278.4006    11594.206 
   15550    325.19429    10.071377    55.919357   -130.48187   -2285.9253    11594.206 
   15560    308.20217    9.8617588    61.970562   -132.07857   -1256.5914    11594.206 
   15570    336.23498    7.6740721    49.336843   -134.75518   -2967.9807    11594.206 
   15580    305.21816     9.684624    61.359978   -138.71034   -2045.6399    11594.206 
   15590    303.00118    11.696138    54.640444    -143.0771   -271.26251    11594.206 
15600        0.98462989867557360046 10.10605733133177786 1 67 -275.93659828779965437
   15600    284.50635    9.8192727    55.890129   -147.03157   -1279.5005    11594.206 
   15610    315.14164    5.2809819    50.666788   -150.36898    2395.2245    11594.206 
   15620    298.14472    6.2364399    46.585607   -153.64484    1050.5429    11594.206 
   15630    283.24098    7.1898545    47.887355   -155.87779   -124.20728    11594.206 
   15640    277.23285     6.235377    55.428886   -157.05295   -864.45632    11594.206 
   15650    284.25782    7.8014846    54.800269   -157.35541   -1806.0794    11594.206 
   15660    294.16732     7.629253    55.811361   -157.30864    2289.5458    11594.206 
   15670    297.92828    9.2087289    49.478931   -157.09767    2372.2043    11594.206 
   15680    298.02463    8.2186875    50.644802   -156.43706     2439.764    11594.206 
   15690    298.56656    7.5870987    52.640593   -155.46179    1947.9182    11594.206 
15700        0.98558197208407061218 10.061973152998955783 1 68 -285.0364647318510265
   15700    288.51365    8.0908881    49.859978    -154.3158   -410.81734    11594.206 
   15710    277.38934    8.1402341    52.853038   -152.86302   -1605.1576    11594.206 
   15720    270.80509    8.3473149    61.544125   -150.71116   -4035.3882    11594.206 
   15730    288.69136    7.8358209    56.023028   -147.92412   -306.69033    11594.206 
   15740    297.21091    4.5074344    66.111566   -145.12551    2350.1466    11594.206 
   15750    312.90598     3.960207    60.269948   -142.93015    515.14121    11594.206 
   15760    307.53342    5.1239868     56.86985   -141.69311   -1649.5077    11594.206 
   15770    291.49185    5.6771904    64.710462   -141.09675    1938.1823    11594.206 
   15780    315.59282    7.2129828     54.74192   -140.71963    2730.5462    11594.206 
   15790    287.81939     10.09977     60.64692   -140.60787    3842.4456    11594.206 
15800        0.98402316403672340783 10.080161274532935423 1 69 -278.75181999787190534
   15800    305.41234      10.8202    54.114283   -140.37464   -3449.4134    11594.206 
   15810    285.27973    10.349215    59.153383   -140.05904   -770.46575    11594.206 
   15820    281.41732    8.9377019    64.264899   -139.65345   -1352.6471    11594.206 
   15830    280.54506    7.4055833     56.39916   -138.92672    2229.3024    11594.206 
   15840     290.7238    4.4615365    65.386605   -137.55208    189.40113    11594.206 
   15850    314.13755    1.7195174     59.38599   -135.97151    232.57475    11594.206 
   15860    297.14587    3.4413708    66.889677   -134.89324   -3414.3899    11594.206 
   15870    317.38383    4.5963502    55.407572   -134.08919    729.26634    11594.206 
   15880    295.62889    6.1038554    71.110649   -133.59803    502.71683    11594.206 
   15890    307.06282    5.6876956    55.920232   -133.36448      618.718    11594.206 
15900        0.98050702805947576035 10.095681472853472727 1 72 -263.37178070843862088
   15900    286.88739    7.2930343    67.351913   -133.38794   -1344.9444    11594.206 
   15910    303.99165    6.7679492    58.668627   -133.17281    553.97748    11594.206 
   15920     294.4371     4.904532    60.801105   -132.71325    2868.4149    11594.206 
   15930     313.9599    3.4087777    61.067152   -131.98883   -511.28959    11594.206 
   15940    314.96165    3.8624093    62.936202   -131.43361   -3663.1045    11594.206 
   15950    349.79063    4.6797138    56.341343   -131.44138    -2587.596    11594.206 
   15960    313.35149    7.1164362      62.3367   -132.78075     713.0896    11594.206 
   15970     313.4426    8.2422452    60.118999   -135.25493    1388.9716    11594.206 
   15980    287.80687    8.4643198    65.011286   -138.42453    2721.6147    11594.206 
   15990    315.39447    8.2173062    63.605308   -142.27118    5005.7833    11594.206 
16000        0.97918685610420630461 10.13267673273119307 1 72 -286.93160125444410369
   16000     309.2072    8.3589967    55.927058   -146.83504    2700.0011    11594.206 
   16010    299.81854    6.2988165    52.929504   -151.30124   -5189.0581    11594.206 
   16020    296.36806      4.29915    58.178622   -155.29595   -4141.1713    11594.206 
   16030     321.7025    5.1019186    49.410254   -158.66215   -3782.5708    11594.206 
   16040    294.32334     9.108778    51.738949     -161.873    1492.6628    11594.206 
   16050    284.30071    8.2062614    55.928612   -164.22961    5019.7552    11594.206 
   16060    272.24796    6.7712297    54.588505   -165.71089    2842.1708    11594.206 
   16070      284.599    6.0675504     55.36085   -166.44037    294.47467    11594.206 
   16080    294.45375    5.7836965    51.127009   -166.56165   -2239.4925    11594.206 
   16090    289.02809    5.0743681    51.127652   -166.19559    1113.4949    11594.206 
16100        0.97725447704053336473 10.172971977004525712 1 74 -298.54944457068836527
   16100    294.19347     5.223973    53.652949   -165.25535   -2127.0144    11594.206 
   16110    301.23938    6.8628028    58.615279   -164.03373   -2804.1109    11594.206 
   16120    315.01823    8.1448525    55.026821   -162.87112   -2345.6716    11594.206 
   16130    295.82536    8.4208131    58.657624   -162.10659    2200.5027    11594.206 
   16140    277.23543    9.5369598    56.050069   -161.54518    2646.8578    11594.206 
   16150     287.6281    10.672568     53.12213   -160.26116    1167.9804    11594.206 
   16160    293.48923    8.6978877    56.686604   -157.94684   -1634.0647    11594.206 
   16170    296.99563    5.9660431    56.380709   -154.42299   -1173.9976    11594.206 
   16180    297.16476    5.5629886    55.510589   -149.57969   -914.38942    11594.206 
   16190    316.85374    4.7908178    55.955696   -143.96678    191.03619    11594.206 
16200        0.98258828961489197429 10.131726288866913066 1 70 -277.1621440722262264
   16200    305.66438    5.8340149    59.452205   -138.67077     1008.106    11594.206 
   16210    315.91878    6.4846622    55.218302   -134.13941   -1002.2688    11594.206 
   16220    314.85752    5.8088808    63.110751   -130.49796    1112.5997    11594.206 
   16230    316.43115    5.2242297    64.282411   -128.32378   -1437.3494    11594.206 
   16240    323.33323    5.0529786    65.221158   -127.41114   -1414.5276    11594.206 
   16250    297.52746    7.8916493    64.956802   -127.50743   -3816.8239    11594.206 
   16260    308.69551    9.4024294    58.459746   -127.84208   -1296.3938    11594.206 
   16270    295.44026     8.076824    60.923112   -128.12897    4137.3585    11594.206 
   16280     287.8915    8.9892542    69.069949   -128.32652    3664.2496    11594.206 
   16290    305.98644     8.370631    64.466844   -128.65259    5414.3357    11594.206 
16300        0.98168079728020429808 10.140768162237920436 1 70 -269.69101219351387044
   16300    309.46826    9.8561571    61.227293   -129.47616    941.41098    11594.206 
   16310    320.97018    9.6753212    61.024694   -131.02396    34.634607    11594.206 
   16320    322.60217    7.7216627    61.261916   -133.93728   -1075.4722    11594.206 
   16330    338.27811    6.8048835    48.192293   -138.17745   -5487.7227    11594.206 
   16340    296.96705    10.206657    58.684026   -143.46755   -3195.9332    11594.206 
   16350    300.02431    11.015066    54.463874   -148.64571   -529.99022    11594.206 
   16360    293.32137    11.139786    53.960098   -152.80245    2276.0986    11594.206 
   16370    277.60729     10.98974    58.196328   -155.46916    264.31329    11594.206 
   16380    284.57495    9.6477438    51.649777   -156.50609    490.93062    11594.206 
   16390    283.39134    7.1827083    57.842909   -156.58138   -1084.2458    11594.206 
16400        0.98274088394038261463 10.146339784563425113 1 70 -292.29066329032093563
   16400    299.67825    6.0229734    56.509639   -156.51151   -1123.4377    11594.206 
   16410       295.07    5.9915383    57.112654   -156.53779   -3870.6646    11594.206 
   16420    303.99908    6.1121465    53.726092   -156.55469   -193.87223    11594.206 
   16430    292.37427    5.0825823    53.584219   -156.45165    851.70083    11594.206 
   16440    256.30032    5.7939261    61.754044   -156.10425    2965.1428    11594.206 
   16450    256.65177    8.5302826    61.346476   -154.97981    1820.0569    11594.206 
   16460    273.51698     8.664978    59.237091   -152.69309    3379.0444    11594.206 
   16470    303.92181    7.1533201    55.105075   -149.76547    632.34109    11594.206 
   16480    284.34803    4.5452958    60.110525   -146.54231    1091.6673    11594.206 
   16490    319.51481    4.2394242    60.549611    -143.1749   -1012.5395    11594.206 
16500        0.98484374329784651891 10.103476398220349708 1 70 -278.83073405380650911
   16500    305.73217    5.2120984    62.459744   -140.30864     930.9391    11594.206 
   16510    315.14651    7.9347259    58.881063   -138.52211   -3654.3398    11594.206 
   16520    275.19442    11.582454    67.597807     -137.352   -403.65526    11594.206 
   16530    299.19299    10.087607    61.056228    -135.9999    642.75738    11594.206 
   16540    324.12421    10.388259    56.490602   -134.59621    2758.0613    11594.206 
   16550    325.22801    10.235424    56.715538   -133.77915   -3359.6749    11594.206 
   16560     329.7537    7.9496264    57.327159   -133.77081   -1617.4399    11594.206 
   16570    319.11803    5.6762398    65.480513   -134.66035   -164.20547    11594.206 
   16580     320.6548    8.3904191    58.327608   -136.23241    1332.2058    11594.206 
   16590      315.668    12.792987    54.332428   -138.11413    818.34351    11594.206 
16600        0.98598088432886721311 10.116089409947916167 1 69 -281.87162001708207981
   16600    313.31334     15.51365    55.757213   -139.91463    2590.1983    11594.206 
   16610    324.92358    14.153139    49.046207   -141.74282    2161.7789    11594.206 
   16620    309.39863    12.653526    56.058031   -143.90692   -2187.6754    11594.206 
   16630    336.93992    10.800482    48.962707   -146.46743   -2584.1627    11594.206 
   16640    300.06263    8.3163418    59.840068   -149.84075    1495.3171    11594.206 
   16650    310.65934    8.1799207    52.408824   -153.58223    2874.1822    11594.206 
   16660    282.35573    9.1231479    54.220775   -158.42355   -2106.6316    11594.206 
   16670    280.77878    8.7995405    52.083294   -164.24531   -986.33573    11594.206 
   16680    276.38253     6.852569    53.964002   -171.15803   -1194.0614    11594.206 
   16690    271.62474    6.1390274    50.600548   -177.05085   -305.95524    11594.206 
16700        0.98434351893316895943 10.151463088715765082 1 68 -308.52697845090830242
   16700    281.18037    4.9746157    47.251129    -181.1289    699.18795    11594.206 
   16710    254.66985    4.9224995    53.333254   -182.91957    2133.1639    11594.206 
   16720    265.35836    5.9550029     54.39811   -183.01518   -1569.7873    11594.206 
   16730     258.9214    5.7196201    57.163636   -182.19342   -778.92185    11594.206 
   16740    279.67306    7.2426196    50.217762   -180.73824    161.60338    11594.206 
   16750    261.96448    8.2476212    53.845384   -178.73284    1157.1985    11594.206 
   16760    283.18102     8.166868    54.604309    -176.1502   -1650.7844    11594.206 
   16770     278.1837      9.72936    60.651683   -173.28034    1217.7698    11594.206 
   16780    298.37622    9.9008099     56.60712   -170.29447     2053.564    11594.206 
   16790    261.12836    11.512035    57.183086   -167.44407   -503.76554    11594.206 
16800        0.97789661735134558729 10.184547797973468874 1 67 -290.62266205564503707
   16800    279.21531    11.751034    56.036953   -164.11492   -6185.5111    11594.206 
   16810    274.65802    10.821085    59.330735   -160.31988   -1380.4743    11594.206 
   16820     284.2231     12.15644    61.294271   -156.57081    2063.3525    11594.206 
   16830    295.97248    12.989402    55.930528   -152.85572    2825.1146    11594.206 
   16840     318.1992    8.3370545    62.853768   -149.93318      40.8013    11594.206 
   16850    308.71654    6.7476748     64.44882   -148.17353   -822.34874    11594.206 
   16860    293.76308    7.7665775    66.455026   -147.51294   -986.06903    11594.206 
   16870    294.00709    10.134843    60.676316   -147.07891   -1485.5186    11594.206 
   16880     291.0219    10.087519    55.369877    -146.5651     267.2026    11594.206 
   16890      293.911    9.3689448    60.601471    -145.8419    3378.0649    11594.206 
16900        0.96694149002959328687 10.212223212347687706 1 65 -279.57560965444241674
   16900    297.28458    9.7935397    54.036993   -144.88098   -59.968259    11594.206 
   16910    280.92377     9.035735    57.227043   -143.62246   -344.95651    11594.206 
   16920    307.49838    5.1431821    56.763001   -141.85403    1211.4114    11594.206 
   16930    319.95537    3.9595381     59.46939   -139.68144   -893.84484    11594.206 
   16940    317.23079    2.4176126    58.080699   -137.48555    -1702.712    11594.206 
   16950     301.1205    3.3551029    61.578564   -135.47962   -93.589629    11594.206 
   16960    295.55285    5.6194043    65.768038   -133.05104    1919.6419    11594.206 
   16970    310.62048    6.0001956    57.425864   -130.10269   -655.67121    11594.206 
   16980    306.16675    5.8403124    64.930509   -126.25548   -2723.5772    11594.206 
   16990    314.49732    5.2410413    63.157398   -122.18038    1214.0065    11594.206 
17000        0.95956238724572628929 10.201474290937797562 0.99735449735449732689 68 -262.19600202547871959
   17000    318.22835      4.35418    66.645735    -118.0121    1192.9111    11594.206 
   17010    314.04164    3.5788256    74.473205   -114.22398     1955.984    11594.206 
   17020    358.90579     4.327876    54.851455   -111.19874   -4178.2069    11594.206 
   17030    347.40175     4.724527    68.679317   -109.76174   -2191.9853    11594.206 
   17040     347.0802    5.6694549    60.282103   -110.44579   -1981.6669    11594.206 
   17050    324.34762    6.2186756    65.699103   -112.99452    669.70604    11594.206 
   17060    335.42264    5.8965963    62.274963   -117.73116     3138.419    11594.206 
   17070    298.16487    6.1075233    66.843845   -124.27716    2002.8252    11594.206 
   17080    310.79212     7.389009    54.480255   -130.75735   -245.35362    11594.206 
   17090    300.91023    8.5204165    59.566876   -135.80037    230.69148    11594.206 
17100        0.95658982911097578672 10.207262108355806163 1 71 -279.47317038819369373
   17100    309.26205    6.7359039    51.876245   -139.35175   -4.2759382    11594.206 
   17110    280.19597    5.3236316     62.48385   -141.52598    2892.7399    11594.206 
   17120    302.25914    4.7869924    59.539593   -142.78645   -609.45657    11594.206 
   17130    306.22474    2.6653025    58.854182   -143.89998   -75.540589    11594.206 
   17140    310.96735    2.5288036    55.990716   -145.29506    1204.6554    11594.206 
   17150    317.94679    3.0196314    55.974183   -146.99407   -2581.9275    11594.206 
   17160    307.06146    5.4916368    55.577668   -149.06078   -3956.5659    11594.206 
   17170    288.74384    9.4991396    55.924192   -151.23003    -4388.743    11594.206 
   17180    271.73151    9.4535614    57.902202   -152.75883    1208.2985    11594.206 
   17190    277.26698    7.1631071    60.439916   -153.46126    1394.1236    11594.206 
17200        0.95797518544173754229 10.208274088187740958 0.99206349206349198067 66 -285.08173509371994214
   17200    290.10555    5.6314866    60.357237   -153.63981    1915.8619    11594.206 
   17210    285.51376    6.0517052    58.389114   -153.70413    157.34741    11594.206 
   17220    287.28937    5.2695362    54.059583    -153.6141    3091.7954    11594.206 
   17230    264.02215    3.2359581    58.489527    -152.9177    970.17268    11594.206 
   17240    287.04503    4.6403755    54.415351   -151.19039    1399.8074    11594.206 
   17250    273.52473    5.9467249    63.475766   -148.31965   -697.85973    11594.206 
   17260    270.49716    7.0126071    62.448757   -144.11013   -1176.4572    11594.206 
   17270    281.71697    6.5637018    59.993106   -138.57959   -110.16904    11594.206 
   17280    308.06378    6.7456363    60.393061   -132.48647    1826.7635    11594.206 
   17290    313.00946    6.0178357    62.485273   -127.82465   -1310.9462    11594.206 
17300        0.96041509477671782591 10.192035581499059305 0.99470899470899465378 63 -263.64085193968992371
   17300     306.3583    4.7389532    60.162174   -124.83507   -346.99052    11594.206 
   17310    306.27064    3.0335583    62.328314   -123.09071   -2729.5269    11594.206 
   17320    342.95588     2.413419    56.464401   -122.18971    3190.7237    11594.206 
   17330    336.28334    3.2483669    61.893679   -122.44375   -1110.6176    11594.206 
   17340    308.45222    3.8192005    61.796832   -123.69541   -3070.7478    11594.206 
   17350    290.41658     4.195468    68.816483   -125.14121   -1105.6129    11594.206 
   17360    304.37839    5.8155517    68.495318   -126.49527     3451.964    11594.206 
   17370    303.52562    7.1985581    68.310669    -128.7865    711.35181    11594.206 
   17380    298.42269    5.4017459    59.670664   -131.68288   -1415.1717    11594.206 
   17390    310.84183    3.6402053     57.13506   -134.53214   -2113.8108    11594.206 
17400        0.96337931938489462791 10.169649945316525219 0.99470899470899465378 68 -270.16136253044481919
   17400    293.92754    2.1131856    57.957404   -136.98775    2301.9598    11594.206 
   17410    278.34117    4.0100814    62.565566   -139.23344    234.59367    11594.206 
   17420    269.65548    3.3814068    63.772766   -140.92151   -17.531706    11594.206 
   17430    293.28681     2.675905    63.058003   -141.76315   -1080.0226    11594.206 
   17440    294.54494    3.9070519    62.748089   -142.38443    -2329.321    11594.206 
   17450    310.25612    6.6081243     58.95733   -143.40033    1197.8478    11594.206 
   17460    273.47454    7.0814872     58.68879   -144.87029    1837.0067    11594.206 
   17470    281.26665    7.2450378    49.088297   -145.68876    804.70398    11594.206 
   17480    275.76335    7.0582636     61.14463   -145.53829   -704.45222    11594.206 
   17490    297.97976    8.8383118     55.09062   -144.27597   -1597.7854    11594.206 
17500        0.96953662235798354629 10.153429719442206292 1 70 -274.43125331019092528
   17500    293.22571    8.3172682    63.314595   -141.57563    90.266162    11594.206 
   17510    308.09243    6.7534465    59.644279   -137.71737    591.66928    11594.206 
   17520    318.57891    6.9651219    59.472879   -132.81942    1311.8489    11594.206 
   17530    314.17627    5.2622727    63.823073    -128.0793   -204.07211    11594.206 
   17540    323.37004    5.7442744    56.632039   -123.87316    836.71579    11594.206 
   17550    331.74881    4.7234698    67.207686    -120.3899   -2666.2673    11594.206 
   17560    315.56203    5.3628554    67.257767    -118.4945   -1914.4687    11594.206 
   17570    324.53588    6.0262134    65.600902     -117.721    460.13575    11594.206 
   17580    300.91609    10.445651    65.796088   -117.56603     75.90864    11594.206 
   17590    336.17639    10.035322    56.603575   -117.65994    1048.3444    11594.206 
17600        0.97468062390167187203 10.124971643088381157 1 71 -252.1962108049560527
   17600    294.62886    8.8340424      72.1315   -118.70485    1796.6561    11594.206 
   17610    345.97432    5.9458743    52.637537   -120.68108    1897.5139    11594.206 
   17620    323.83025    5.8871141    60.257577   -124.20642   -1184.6919    11594.206 
   17630    347.85561    5.9328102    49.796389   -128.85347    1341.1154    11594.206 
   17640    320.53944    3.4305745    60.440735   -134.68664    1656.8985    11594.206 
   17650    306.52686    2.8093745    58.409862   -139.85648   -1353.9968    11594.206 
   17660     290.7379    5.4702003     52.83558   -143.82082   -5412.1617    11594.206 
   17670    299.62101    5.7266293    60.662228   -146.31431   -392.45345    11594.206 
   17680    327.68481    4.5658035    52.479153   -148.36486    1601.9616    11594.206 
   17690    325.93394    4.5985127    52.123419   -150.50007    3056.6526    11594.206 
17700        0.98540365257227369167 10.089915294014954128 1 70 -292.84730181470592925
   17700    309.65725    7.4546001    58.617702   -152.54683    1045.1595    11594.206 
   17710    309.75262    9.3238859    55.599206    -154.3211    3520.3502    11594.206 
   17720    299.08599    9.0816899    61.329561   -155.93716   -10.765481    11594.206 
   17730    307.18381    8.0532575    47.146338   -157.74227   -873.15232    11594.206 
   17740    268.24625    8.1333302    62.437861   -159.22445   -2584.3653    11594.206 
   17750    287.90324    9.5785829    53.107559   -160.11449    196.62798    11594.206 
   17760     286.7353    10.659436    56.448247   -160.59042   -2021.7521    11594.206 
   17770    274.14981    10.280122    56.662852   -160.64985   -689.52601    11594.206 
   17780    277.95154    9.3582102    60.135245   -160.02097    1369.9854    11594.206 
   17790    278.80091    10.067037      62.8443   -158.58257    2270.5882    11594.206 
17800        0.98606551243303364185 10.116883764622171427 1 68 -296.16073085557422928
   17800    307.70121    6.6354881    49.272144    -156.7465    617.76949    11594.206 
   17810    292.14192    5.0484151    58.825045   -154.73576    -669.9876    11594.206 
   17820    295.83552    4.8322964    56.939142   -152.08271   -1237.1716    11594.206 
   17830    295.79485    4.3090893    63.163929   -148.47531   -542.04067    11594.206 
   17840    303.83774    4.4236634    64.994008    -143.9886   -704.05383    11594.206 
   17850    329.89542    5.3169338     54.84189   -139.22655    1473.7818    11594.206 
   17860    312.31537    5.6427209    67.962734   -134.90546    152.49396    11594.206 
   17870    326.46081    7.4743829    58.327584   -130.83181    2231.1024    11594.206 
   17880    308.92776     7.271334    62.157922   -127.79864    5.3229368    11594.206 
   17890    329.07315    7.6434505    58.916965   -125.41425    2051.5349    11594.206 
17900        0.97796192586531616175 10.165789932044159372 1 69 -270.54990675045223725
   17900    323.55189    7.7183721    61.614638   -123.95401   -2359.5977    11594.206 
   17910    329.19701    7.9687945    62.347837   -123.39105    -979.7951    11594.206 
   17920    327.81196    8.8048717    63.058987   -123.98104     465.6618    11594.206 
   17930    325.97638    8.2039299    60.000303   -125.76993    1769.6301    11594.206 
   17940    328.01538    9.2022066    54.765536   -129.45993   -3895.1119    11594.206 
   17950    293.26137     10.03059    63.273302   -134.97073    -204.3455    11594.206 
   17960    280.99335    8.8432372    65.685946     -142.241   -672.15515    11594.206 
   17970     282.2128    6.2728454    61.785705    -149.1636    5504.6176    11594.206 
   17980    305.74607    6.6069833    48.095646    -154.4459   -1945.7593    11594.206 
   17990    293.42944    7.2280812    53.376616   -157.43659   -2632.4536    11594.206 
18000        0.97754511970596624781 10.191266419527591935 1 68 -297.32859847397099884
   18000    305.55857    8.1616505    49.002847   -158.88517   -2115.2272    11594.206 
   18010    285.59299    7.1649221    62.307751   -159.88678    810.80123    11594.206 
   18020    287.18801    8.9565311    50.659934   -160.38685     -56.5871    11594.206 
   18030    299.74057    10.144422     54.56087   -160.63959   -2223.0551    11594.206 
   18040    292.17525    9.7053527    55.507396   -160.72562    1213.7622    11594.206 
   18050    289.18402    5.6724956    54.167037   -160.52836    3196.5385    11594.206 
   18060    256.61508    7.3368449    57.201659   -159.66683    3770.5142    11594.206 
   18070     272.7732    9.0409845    58.783856   -157.39664   -1930.3726    11594.206 
   18080    280.86576    6.9913276     62.96962   -154.00758   -6747.5503    11594.206 
   18090     307.7406    6.0914619    61.111073   -150.23769   -4781.8554    11594.206 
18100        0.9813105304340010715 10.174535178141432823 1 63 -286.18495655811693723
   18100    307.10113    10.172415    57.280636   -147.04262    641.89017    11594.206 
   18110    315.15875    10.229616     60.17384   -144.30359      4356.26    11594.206 
   18120    304.94355    7.0203501    60.469424   -141.87707    1267.2067    11594.206 
   18130    313.28023    3.9517669    56.979027   -140.02435   -2753.8081    11594.206 
   18140    306.33211    3.9249733    58.987289    -138.5238   -1276.9714    11594.206 
   18150    315.53029    4.7017132    56.404484   -137.37559    500.09295    11594.206 
   18160    313.65115    6.4088298    64.506132    -136.6787    286.34598    11594.206 
   18170    286.47278    9.8868839     64.04379    -136.7356   -1347.2132    11594.206 
   18180    283.56711    11.546313    63.703928   -136.76293    2895.7296    11594.206 
   18190    291.42197    12.098586    61.371726   -136.33073    5211.0203    11594.206 
18200        0.982024385632734087 10.132467370009555552 1 69 -273.63673125647687812
   18200    305.30905     10.11643    60.596419   -135.30635   -38.760749    11594.206 
   18210    304.11887    8.2623223    65.083145   -133.72272   -4777.5246    11594.206 
   18220    287.55713    9.3727656    67.215387   -131.76445   -2038.3207    11594.206 
   18230    302.88364    9.2811646    66.507015   -128.88743    70.712669    11594.206 
   18240    324.66497     8.649763    67.286452   -125.31115    4880.7507    11594.206 
   18250    342.43486    9.0955743    62.098619   -121.30785    840.99295    11594.206 
   18260    336.55489    9.0049806    67.601819   -118.09612   -1339.0191    11594.206 
   18270    326.95193    9.3306858    67.231208   -116.07154    -408.9597    11594.206 
   18280    301.11112     12.66336    72.034554    -115.3984   -200.48802    11594.206 
   18290    335.72101    11.673255    64.464153   -115.54863    -24.01664    11594.206 
18300        0.98792931032250186352 10.110169338055603916 1 68 -275.89106668898648422
   18300    350.46494    8.8318154    71.737431   -117.10131    -607.2786    11594.206 
   18310    362.97514    7.5566674    52.992014   -120.95187   -2517.2374    11594.206 
   18320    302.85419    7.8165868     75.18554   -126.40432   -93.105123    11594.206 
   18330    308.82361    9.0409313    64.343165   -132.04112    1071.9293    11594.206 
   18340    303.65384    9.5833942    64.814277   -137.14536    736.16394    11594.206 
   18350    306.96758     9.864906     59.59278   -141.07827    1156.5121    11594.206 
   18360    295.52141    10.978386    57.476105   -143.97664    2966.3083    11594.206 
   18370    315.19451     6.434821    55.796693   -145.80858    2135.8382    11594.206 
   18380    296.19143    6.5481085    58.774747   -147.26179    -2349.145    11594.206 
   18390    278.20873    5.4605367    64.813857   -148.31189   -425.50959    11594.206 
18400        0.98717999454769800316 10.095174467047950628 1 69 -283.97570089382315928
   18400     298.1389     5.062748    60.998833     -148.894   -269.02562    11594.206 
   18410    299.87407    5.4205788    63.306215   -149.19148   -2512.1167    11594.206 
   18420    324.42629     8.321385    46.927241   -149.50239   -1045.2984    11594.206 
   18430    304.89185    11.886203    57.548828   -150.19497     -2190.18    11594.206 
   18440    304.87547    13.733693    59.476715   -151.01198     3861.355    11594.206 
   18450     312.5408    12.252798    57.880623   -152.37608    749.76962    11594.206 
   18460    327.54266    12.391255    55.630318   -154.60523    815.00551    11594.206 
   18470     293.5928    13.282597    53.372502   -157.79654    790.25268    11594.206 
   18480    281.18545     11.39623    57.236292   -160.94167   -509.19331    11594.206 
   18490    276.79653    9.4484127    55.765307   -164.00814   -316.09171    11594.206 
18500        0.98936857754678542154 10.098591854776792331 1 71 -293.05400262836468528
   18500    278.87242    10.657917    50.771836   -166.70161   -1685.0215    11594.206 
   18510    282.49796    11.053041    56.412416   -168.74391   -522.91422    11594.206 
   18520    305.07796    10.110514    54.010528   -170.61462    3044.6414    11594.206 
   18530    288.61396    8.3174455    59.258323   -172.92299    3834.2923    11594.206 
   18540    267.64379    10.237937    55.353127    -175.5733    220.66426    11594.206 
   18550    257.66827    9.7266396    53.982761   -178.25907   -1754.1171    11594.206 
   18560    260.26526    8.7917327     54.54018    -180.7624   -2610.4176    11594.206 
   18570    292.26184     7.987289     47.89785   -183.24179    2081.0377    11594.206 
   18580    275.70997    8.2294816    43.141173   -185.54569   -588.53897    11594.206 
   18590    257.77048    7.1989751    45.880302   -187.15481   -971.56173    11594.206 
18600        0.98415711156416363359 10.122044581634076721 1 71 -294.08947188100796666
   18600    234.94339    6.4891049    62.808137   -187.64059    1813.4136    11594.206 
   18610    247.50827    6.0137568    53.197964    -186.6364     2951.296    11594.206 
   18620    263.56394    4.5673072    53.564766   -183.95119    626.03756    11594.206 
   18630    284.04171    5.5798891    43.688674   -179.58538   -4043.9822    11594.206 
   18640    283.37251     6.257424    50.648655   -173.97538   -3773.7313    11594.206 
   18650     298.4806    6.9606483     48.26166   -168.30677    1698.7102    11594.206 
   18660     260.1079    8.0497701    63.488501   -163.37588    1073.4585    11594.206 
   18670    277.53228    7.0769542    58.207209   -159.39163    235.51645    11594.206 
   18680     275.5457    7.8962982    63.213822   -156.16631   -1873.5161    11594.206 
   18690    308.93989    4.9141345    48.566993   -153.54988     1923.518    11594.206 
18700        0.97375345458918993735 10.166547039149740783 1 70 -290.26511530678976669
   18700    306.56452    3.6211159    57.850423    -151.3659    3471.1783    11594.206 
   18710    298.88862    3.1020072    56.937259    -149.6699     2625.412    11594.206 
   18720    289.65803    3.2326185    61.242979   -148.22333   -1655.5389    11594.206 
   18730    296.27004    4.2585795     61.58821   -146.65521   -3845.7848    11594.206 
   18740    309.15222    4.9309631    64.233605   -145.08134    -1626.146    11594.206 
   18750    283.60246    7.0181612    63.241467   -143.73599   -60.914269    11594.206 
   18760    273.91245    7.5313597    63.848146   -142.14163   -1150.3809    11594.206 
   18770    282.95006    7.8864101    58.038394   -140.06027   -1049.5476    11594.206 
   18780     299.9368    7.5947104    52.194024   -137.39239   -1540.9665    11594.206 
   18790    316.30104    6.8210319    62.151436   -134.47948    1849.0664    11594.206 
18800        0.96762245974252747427 10.190594720262827977 1 64 -274.1976620673563616
   18800    314.52205    9.4647208    57.498726   -131.69303     116.8287    11594.206 
   18810    320.82373    9.8144311    52.082596    -129.1201    22.426154    11594.206 
   18820    314.48998    9.5557377    68.248026   -126.44453    2286.2295    11594.206 
   18830    315.78759    10.407148    60.341087   -124.50445   -202.04194    11594.206 
   18840    305.00541    10.377217    59.805299   -123.41899    317.07893    11594.206 
   18850    310.90439     9.094356    62.962315   -122.63024     584.2933    11594.206 
   18860    321.28017    7.4242879    56.703276   -121.76916   -782.02508    11594.206 
   18870    321.70174    6.9663666    60.807784   -121.31385    -1426.387    11594.206 
   18880    299.24271    6.0816005    67.075583   -121.69951   -1070.3792    11594.206 
   18890     300.6332    4.4607422    69.907166    -123.0612    1735.1533    11594.206 
18900        0.96279041319961999879 10.194416823564887764 0.99735449735449732689 70 -253.97508446386635228
   18900    282.73213    5.7218979     74.95433   -125.87393    2373.6517    11594.206 
   18910    295.63886      5.88449    63.172686   -130.12047     -1616.81    11594.206 
   18920    297.81676    6.6916509    61.551796   -135.04985   -1757.8568    11594.206 
   18930    285.61222    8.2396511    62.487305   -140.23066    41.101461    11594.206 
   18940    261.27043     9.979835    68.166709   -144.48593    498.54343    11594.206 
   18950    260.29183    10.718701    63.299924   -147.47942   -204.46755    11594.206 
   18960     289.9151    8.4326278    60.715335   -149.85033   -7364.2752    11594.206 
   18970    290.48068    8.0848052    60.196477   -151.75796   -634.62416    11594.206 
   18980    285.62401    8.1403517    56.227691    -153.2589      1828.92    11594.206 
   18990    283.46846     8.320854    55.523994    -154.0556    4565.1347    11594.206 
19000        0.96703855810934558068 10.175789550486202373 1 73 -276.44961408917163226
   19000    269.79193    7.6625907    59.922101   -154.21144    3163.5515    11594.206 
   19010    291.29769     5.432898    57.718369   -153.79361    2596.3702    11594.206 
   19020    307.13268    6.1930472    55.689426   -152.93903    2233.3062    11594.206 
   19030    290.06032    7.4453258     55.17328   -151.87927   -3176.6509    11594.206 
   19040    303.78974    7.3489712    58.160925   -150.16407   -2329.0544    11594.206 
   19050    322.97044    7.1149613    56.332313   -147.89709   -657.53804    11594.206 
   19060    327.81567    6.8315802    55.030636   -145.90422   -372.32935    11594.206 
   19070     326.7515    5.6700942    61.065808   -144.29247   -329.18216    11594.206 
   19080    329.52768    5.6325189    44.979126   -143.12808   -2021.4772    11594.206 
   19090    335.67146    5.8458502    54.189525   -142.22461    301.81895    11594.206 
19100        0.9697977635928859419 10.195682305711478932 1 69 -291.4185925266917252
   19100    330.03239    6.9759132    54.392621   -141.88649   -68.832694    11594.206 
   19110    300.95128    7.4655238    65.849264   -142.27386    2289.4765    11594.206 
   19120    319.33765      9.73943    52.615576   -143.47052    3637.7857    11594.206 
   19130    301.69607    10.968748    59.548108   -145.47395   -3598.6201    11594.206 
   19140    320.80865    10.366743    51.897651   -148.32869   -864.03581    11594.206 
   19150    287.57518    8.6781754    59.937986   -151.74119   -1219.7568    11594.206 
   19160    300.34603    5.9465004    57.422704   -154.85663   -422.48941    11594.206 
   19170    305.83289    3.4267747    55.577706   -158.45779   -1518.3137    11594.206 
   19180    269.79754    2.8347057    62.550854   -162.10437   -3388.0242    11594.206 
   19190    258.39901    3.4140543     59.76133   -165.22059    3152.2004    11594.206 
19200        0.97442691977274498161 10.182449938089696673 1 69 -280.59185229764034375
   19200    250.45665    6.2066419    55.902668   -167.11417    1155.3844    11594.206 
   19210    270.40406    7.9919542    49.425762   -167.77693    1114.6689    11594.206 
   19220    275.31568    9.6873879    54.246685   -167.36644   -317.29902    11594.206 
   19230    271.55522    8.3948183    51.856606   -166.07099    385.72462    11594.206 
   19240    274.96433    5.7114316    62.339966   -164.13671    2799.9106    11594.206 
   19250    307.56862    4.5306727    57.267504    -161.5687    382.63907    11594.206 
   19260    325.54913    5.0386968    49.291411   -159.03355   -1683.4045    11594.206 
   19270    296.55891    6.3775341    55.658064   -157.03749   -2615.5578    11594.206 
   19280    300.36307    6.2851135    53.028524   -155.00173   -1584.9183    11594.206 
   19290    310.53254    5.3936564    57.179455   -152.42735    2662.3593    11594.206 
19300        0.97172151333873035828 10.187157439825991645 1 68 -292.82152595886299196
   19300    316.86061    7.1967418    51.764558   -149.25733    -597.2459    11594.206 
   19310     303.0783    7.3799244    57.106728   -145.86366   -1782.1914    11594.206 
   19320    321.90447    10.291207    53.214854   -141.67004    465.37638    11594.206 
   19330    327.52213    11.918442    54.960492    -136.9551    345.95499    11594.206 
   19340    321.05183    12.720099    65.786803   -131.91246    1747.1699    11594.206 
   19350    347.20113    11.468407    59.758367    -127.4596   -431.42279    11594.206 
   19360    335.73454    13.390672    64.486954   -124.27534    1090.8222    11594.206 
   19370     345.4173    13.051113    64.507321   -122.55883   -652.21803    11594.206 
   19380    316.03252    11.790405    68.206483   -122.27581    229.14996    11594.206 
   19390    359.03338    8.2322915    59.713358   -123.62456   -1526.3726    11594.206 
19400        0.9739875721774291506 10.171570451553286318 1 68 -271.80496083664735352
   19400    318.88341    7.0218255    60.290388   -127.32427   -534.16965    11594.206 
   19410    320.03019    6.6156162    57.834579   -132.89954    1351.3424    11594.206 
   19420     292.1055    6.8131438    64.322444   -139.86442    44.333498    11594.206 
   19430    292.46969    5.3184802    55.780395   -146.51796   -881.25014    11594.206 
   19440    282.93105    4.1816119    64.722795   -151.12423   -1856.5704    11594.206 
   19450    298.26773    3.8835739    53.420803    -153.6938   -605.55857    11594.206 
   19460    285.53113    3.2448514    57.506952   -155.14329    1276.7264    11594.206 
   19470    288.09792    6.2735013    52.595873   -155.70073    84.614148    11594.206 
   19480    291.56226     10.40439    53.033314   -155.78253    598.01107    11594.206 
   19490    278.10179    10.189253    59.370472   -155.48471    1906.6072    11594.206 
19500        0.97217825700339011163 10.157737731969852746 1 66 -293.83849264680145552
   19500    306.69218    7.1689593    53.434281   -154.88144    1630.3018    11594.206 
   19510    279.26689    7.2433374    62.195759   -154.35843     -1926.28    11594.206 
   19520     279.3373     8.283212     53.29424    -153.5621   -2850.3935    11594.206 
   19530    277.21635    7.5811176    58.491577   -152.29081    -752.1752    11594.206 
   19540    289.04399    8.6894472     59.52325   -150.37564    5532.7919    11594.206 
   19550    319.65815    9.4823923    49.000822   -147.90716    3267.1649    11594.206 
   19560    306.08935    5.7577511    61.474657   -145.33795    1540.2483    11594.206 
   19570    296.27977    3.7720421    59.084739   -142.73295    -324.0034    11594.206 
   19580    326.95295    4.0705897    58.728346   -139.95039   -1373.0909    11594.206 
   19590    341.85022    5.1101827    58.938278   -138.05233   -582.55768    11594.206 
19600        0.96711466296159165346 10.203767669035745058 1 69 -290.67415237851014354
   19600    336.82693     9.110408     59.32584   -138.06355   -3835.1608    11594.206 
   19610    310.67559    9.3050776    56.776286   -139.63804    1683.6595    11594.206 
   19620    295.51358    6.6644959     61.18891   -141.69207   -1296.4819    11594.206 
   19630    299.80957    6.7149756    56.083809   -143.84728    741.76678    11594.206 
   19640    317.14264    6.6072095    58.036878   -146.48891   -766.56108    11594.206 
   19650    303.36122    6.4409843    63.057488   -149.96255    473.65822    11594.206 
   19660    296.97018    6.5828707    52.059837   -154.04124    695.74673    11594.206 
   19670    247.45182    6.6188725     53.47087   -157.79532   -364.61012    11594.206 
   19680    255.58855     9.308971    56.570103   -160.13138    606.30121    11594.206 
   19690    281.16804    8.6655471    52.914616   -161.34039    670.87841    11594.206 
19700        0.95483400811528262864 10.25004909392319874 1 65 -289.79769820136232283
   19700     282.6682    8.1087174    54.783362   -161.72551    47.138797    11594.206 
   19710    282.34709    8.2437497    54.633548   -161.42446   -1729.5664    11594.206 
   19720    278.98751     7.787383    61.844677   -160.47333   -4485.5012    11594.206 
   19730    288.14008    8.0023649    64.696508   -158.88877   -2054.3636    11594.206 
   19740    322.34361    11.426187    53.170187   -156.74281    572.21207    11594.206 
   19750    313.70908    11.633369    51.447412   -153.86787    3417.7686    11594.206 
   19760    307.27778    8.6270194    59.079322    -150.0438     2387.133    11594.206 
   19770     314.9457    6.5222738    54.783654   -144.76909    2204.7411    11594.206 
   19780    319.55794    6.0389464    65.770084   -139.35914    1479.6009    11594.206 
   19790    333.97838    5.0702297    62.906679   -134.80399   -1420.0397    11594.206 
19800        0.95837862480571012203 10.247174421903904928 1 68 -278.18986190982144535
   19800    322.98546    5.5994394    61.789955    -131.8506   -3626.3765    11594.206 
   19810    330.07236    5.7247306    52.458445   -130.09157   -2833.9576    11594.206 
   19820    309.97677    6.5437988    67.028802   -129.30438    -686.9583    11594.206 
   19830    318.13621    4.8839626    63.829051    -129.1291    1954.4778    11594.206 
   19840    332.86421    5.9912991    53.934491    -129.3978    1168.7969    11594.206 
   19850    326.62211     6.202965    63.201837   -130.55996    1429.0996    11594.206 
   19860     330.3081    6.6940389    65.142111   -133.09611   -78.218777    11594.206 
   19870    323.45929    6.7358513    60.353822   -137.21462     766.1046    11594.206 
   19880    327.33299    5.0234178    57.082298   -142.76019   -4329.8302    11594.206 
   19890    296.22963    4.8891854    60.251422   -148.58325   -849.97571    11594.206 
19900        0.96664543663131274887 10.217957367059151252 0.99735449735449732689 71 -279.88280684649845398
   19900    279.14148    3.6210107    62.168713   -153.40851   -185.04127    11594.206 
   19910    258.75099    5.1703871    64.826136   -156.44236    1541.8445    11594.206 
   19920    281.00984    8.2305062    53.807171   -157.90962    802.24406    11594.206 
   19930    297.19851    7.2564717    59.507687   -158.74544      1675.57    11594.206 
   19940    290.33863    6.6395283    58.294851   -159.48312   -1462.0831    11594.206 
   19950    280.15638     6.454981    59.253226   -160.15575    1013.3741    11594.206 
   19960    270.36122     7.586896    61.896324   -160.54055   -4010.1605    11594.206 
   19970    273.32489     7.973386    50.906539   -160.11737   -3531.3099    11594.206 
   19980    286.13436    10.020306     57.20329    -158.5465   -1167.7694    11594.206 
   19990     292.3024    10.361015    57.823016   -156.03637   -1414.3989    11594.206 
20000        0.97836571270194838679 10.160855511677880259 1 69 -283.35738175164345876
   20000    286.96132    8.5207955    64.798792   -153.34005    2796.7714    11594.206 
   20010    309.39818    11.016506    55.819799   -150.74654    2303.9055    11594.206 
   20020    316.07572    12.236283    54.117335   -148.48194    2733.8763    11594.206 
   20030    331.35701    12.170842    55.234809   -146.57479    3065.0257    11594.206 
   20040    327.79082    10.631622    59.941493   -145.54567    17.999414    11594.206 
   20050    319.07337    8.8257895    61.659331   -145.71296   -1039.8604    11594.206 
   20060    301.28748    8.2804335    65.646793   -146.71502    -5250.505    11594.206 
   20070    325.44077    6.4630131    60.596175   -148.51165   -2476.9848    11594.206 
   20080    306.10086    6.8072619    64.524849    -151.8223    1943.4676    11594.206 
   20090    279.16714     7.131575    63.546299   -156.57196    2516.0482    11594.206 
20100        0.98357720916697732871 10.120677762650201359 1 68 -288.40978872950915957
   20100    278.95316     9.648122    59.615638   -162.02082    2778.6334    11594.206 
   20110    302.08354    9.7790205    43.771113   -167.45355    1024.1291    11594.206 
   20120    291.27916    7.2802694    48.293183   -172.23872    245.69707    11594.206 
   20130    267.09761    5.6828688    56.052354   -175.03739   -1958.9386    11594.206 
   20140    272.93637    4.8722286    48.955386   -176.24317   -4446.0854    11594.206 
   20150    283.84193    3.7322977     51.48339   -176.42646    278.89265    11594.206 
   20160    265.52063    5.4638863    56.398979   -176.01104    2008.9992    11594.206 
   20170    290.04825    5.8433288    44.129441   -175.01416    1909.1867    11594.206 
   20180    277.69154    9.1795494    51.196812   -173.49001    2475.7484    11594.206 
   20190    300.02114    7.5689574    46.004837   -171.64795   -934.70834    11594.206 
20200        0.98334341096048150099 10.113591462894392592 1 67 -300.84084137302767203
   20200    289.56854    7.9207465    49.865012   -169.64222    2673.2428    11594.206 
   20210    301.50116    6.3329983    45.809543   -167.52016    689.09522    11594.206 
   20220    289.53652    5.3557958    52.687563   -165.32077   -2003.7982    11594.206 
   20230    277.60537    4.7084521    51.530415   -162.95813   -2233.6475    11594.206 
   20240    289.13699    5.2313085    46.550384   -160.38185   -2198.6166    11594.206 
   20250    278.37493     5.353445    63.848971   -157.63203    5107.4156    11594.206 
   20260    315.96156    6.7990715    43.660181   -154.77596    445.17556    11594.206 
   20270    274.31304    8.6032021    53.117173   -151.92259   -479.32253    11594.206 
   20280    261.58178    10.810445    54.886478   -148.95754   -4249.7467    11594.206 
   20290    251.73845    9.7236401    66.896347   -145.40929    635.76484    11594.206 
20300        0.98086604618984485349 10.12028683859418976 1 70 -283.51500321397270454
   20300    312.95933    7.6007435    55.986254   -141.71841    1308.3612    11594.206 
   20310    301.03887    7.5593449    59.322625   -138.78792   -943.31841    11594.206 
   20320    321.55516     7.912591    51.106091   -136.62706   -1293.1611    11594.206 
   20330    307.79697    5.3751052    61.684922   -135.40527    1386.8938    11594.206 
   20340    315.45894    3.8504362    54.955065   -134.83183    2070.6874    11594.206 
   20350    310.07485    5.2780785     54.00666   -134.69449     573.8546    11594.206 
   20360    298.02654    4.2797525    61.822443   -134.74426   -198.95416    11594.206 
   20370    316.23016    2.8386456    59.627742   -134.83344     278.6006    11594.206 
   20380    288.03892    4.5928641    61.798671   -135.22697    2374.6967    11594.206 
   20390    294.36063    5.2376011    57.911294   -135.65988   -3505.9082    11594.206 
20400        0.98338257454881772279 10.102790343286850216 1 69 -269.85657920823780387
   20400    295.01289    5.4526076    61.566131   -136.19122   -1140.7026    11594.206 
   20410    305.80069    6.4571547    65.507608   -137.17999   -1877.8629    11594.206 
   20420    272.86497    10.504534    66.584851   -138.91256   -561.94356    11594.206 
   20430    270.12171    11.653659    59.639083   -140.59523   -1888.6811    11594.206 
   20440      272.896    10.106137    63.933557   -142.06572    226.76455    11594.206 
   20450    311.38172    7.2530366    55.753918   -143.70386     2779.678    11594.206 
   20460    286.31356    7.0272464    60.861512   -145.97138    4565.3717    11594.206 
   20470    270.05472    7.1771315    62.962737   -148.62606   -144.67004    11594.206 
   20480    282.31864    5.3382771    62.905205   -151.63788    2708.9945    11594.206 
   20490    306.80798    5.8684943    54.822024   -155.72921    -1902.385    11594.206 
20500        0.98347970004393225896 10.130595532092595334 1 71 -285.5813528318627732
   20500     276.4132    7.0478956    56.065652    -160.3432    398.49378    11594.206 
   20510    266.54209    8.1221996    53.761259   -163.99648   -2544.4019    11594.206 
   20520    266.64985    5.9806422    62.034662   -166.50504   -1173.2745    11594.206 
   20530    282.32915    6.8506822    53.772319   -168.06541     912.4528    11594.206 
   20540    279.07459    6.4846717      54.4713    -169.1579    1631.2903    11594.206 
   20550    267.54678    5.8241597    59.258351   -169.73556    1495.6944    11594.206 
   20560    269.45358    7.9312976    52.199089   -169.65697   -402.11572    11594.206 
   20570    281.22323    6.9650293    55.437047   -168.76577    -2235.684    11594.206 
   20580     296.3441    6.2016474    56.534158   -167.09673    2053.9966    11594.206 
   20590    297.85894    6.6185643    58.465287   -165.14592   -1403.1762    11594.206 
20600        0.98439388936383986906 10.147864618261669634 1 70 -304.17270083983663653
   20600    312.16471    7.3962361    50.391169   -162.73614   -1130.8215    11594.206 
   20610    292.98585    8.1731602    50.897963   -159.73883   -3950.4283    11594.206 
   20620    306.68289    8.5783408    54.326478   -155.39814    3505.7293    11594.206 
   20630    300.56342    10.417142    61.212843   -149.48875    2732.9409    11594.206 
   20640    297.29183    9.7511313     64.33381   -143.49418   -2050.5328    11594.206 
   20650     291.1424     5.889922    66.005951    -138.4585   -4900.3287    11594.206 
   20660    325.90026    6.7793255    58.594823   -134.39119    283.35422    11594.206 
   20670    324.26006     7.585618    65.516633   -131.66074    2070.4599    11594.206 
   20680    325.66001    6.9787044    64.825381   -130.49483    2178.5704    11594.206 
   20690     310.5895    7.9293739    66.613979   -130.69143   -5596.2224    11594.206 
20700        0.98530436157535628006 10.120127965157390548 1 71 -274.87873020383415223
   20700    315.96898    8.3267632    63.542481   -131.71852    1650.5312    11594.206 
   20710    310.09187    6.3934326    64.336315   -133.40125    2615.1879    11594.206 
   20720     303.1011    5.0795785    64.480216   -135.13698    2487.3458    11594.206 
   20730    302.84985    6.0589211    62.960666    -136.8251   -3159.6336    11594.206 
   20740    302.68038    4.6526686    66.406227   -138.48371   -3659.9298    11594.206 
   20750    302.47738    4.6331496    62.181612    -140.3265    1481.1173    11594.206 
   20760    305.76244    7.6101582    61.091529   -142.16918    5334.4296    11594.206 
   20770    327.15062    11.161695    55.872463   -144.30093    486.21494    11594.206 
   20780    302.08435    11.066699    60.706738   -147.11393   -986.87497    11594.206 
   20790    314.69154    7.8262429    55.966559   -150.59377   -2690.3859    11594.206 
20800        0.98388684591322173034 10.130955114232971681 1 72 -284.85438167543395593
   20800    288.39066    6.9736533    61.695576   -154.18944     2334.196    11594.206 
   20810    277.53223    7.0403995    63.441617   -156.99913    200.82714    11594.206 
   20820    297.11364    5.6229064    55.924044   -158.93388   -818.31979    11594.206 
   20830     295.7008    7.6059953    60.977778   -160.55123    -729.4958    11594.206 
   20840    291.86399    11.236573    56.313549   -161.89309   -163.94269    11594.206 
   20850    282.40382    11.098985    59.436154    -162.8467    1928.8747    11594.206 
   20860    274.09754    8.4376625    62.831674   -163.29611    86.828859    11594.206 
   20870    261.92494    7.1470076    61.396639   -163.05497    -3955.442    11594.206 
   20880    279.49533    8.1070436    57.525942   -161.96171   -1008.2967    11594.206 
   20890    295.52573    7.9549553    59.106243   -160.32053    2325.6187    11594.206 
20900        0.9843095171309197422 10.122320908834984365 1 69 -295.8555633058124954
   20900    302.59072    7.4113258    57.159394   -158.75681    3967.1501    11594.206 
   20910    295.65841    6.6335952    60.049524   -157.46692    -122.7167    11594.206 
   20920    305.70588    6.5364957    64.018987   -156.56446    904.02258    11594.206 
   20930    322.63104    6.9706053    59.270084    -156.2325   -318.57098    11594.206 
   20940    295.02734    8.5985141    57.362085   -156.42892   -3707.2323    11594.206 
   20950    294.00046    8.6328768    60.825949   -156.48908   -3759.3118    11594.206 
   20960    283.44045    7.8146751    63.328452   -156.27355    1708.4772    11594.206 
   20970    298.72924    6.4324392    68.118864   -156.05104    5172.4204    11594.206 
   20980    293.59274    7.3701984    61.153758   -156.03484    2310.4642    11594.206 
   20990    285.99945    5.3405316    56.653439    -155.8538   -678.77106    11594.206 
21000        0.98435323887652492747 10.150042430446752917 1 68 -296.27011260920619407
   21000    311.07774    5.1074978    55.522715   -155.32604    1888.5446    11594.206 
   21010    300.07811    7.1687292    60.119032   -154.86473   -1864.0033    11594.206 
   21020    305.95556    10.203516    53.068712   -154.37109   -3234.4386    11594.206 
   21030    292.17932    10.486069    57.203184   -153.55841    -3563.332    11594.206 
   21040    295.89725    9.6405918    62.254361   -152.21531   -651.33501    11594.206 
   21050    308.82247    11.015555    65.261016   -150.48353    4722.3601    11594.206 
   21060    327.65768    8.2803308    52.317524   -148.66876    2332.0001    11594.206 
   21070    329.88662    7.4836888    53.951724    -147.0527   -1248.0092    11594.206 
   21080    324.08319    9.9968825    56.812605   -145.62197   -2062.3808    11594.206 
   21090    303.27919    7.8798502    61.889554   -144.37976   -1225.7238    11594.206 
21100        0.98238190559930760326 10.15750519507979277 1 63 -268.45694401877284463
   21100    277.08243    7.2696035    66.694643   -142.91557    704.42372    11594.206 
   21110    294.41811    7.6410973    63.382244    -140.3837   -161.59177    11594.206 
   21120    319.39926    8.9214989    59.331083   -136.98589    -1142.937    11594.206 
   21130    330.46654    9.5460998    58.265737   -133.20222    428.46567    11594.206 
   21140    325.90178     7.515747    58.136007    -130.2002    943.37559    11594.206 
   21150     297.6497    5.1126524    69.208266   -127.50881   -410.92549    11594.206 
   21160    304.16309    5.7551709    64.041768   -124.71391   -3589.6107    11594.206 
   21170    321.72979    6.2867123     62.33374    -121.8223    1013.2936    11594.206 
   21180    328.51098    5.8685042    66.153974   -119.49909    5475.9564    11594.206 
   21190    318.89103    6.3340246    66.610057   -117.69956    1490.6772    11594.206 
21200        0.98138387794643766604 10.147603994099895885 0.99470899470899465378 66 -255.20533299604437616
   21200    307.24718     6.472191    69.294771   -115.99682   -5155.9205    11594.206 
   21210    347.45037    8.8650875     64.20327   -114.51659   -2091.4217    11594.206 
   21220    335.18824    8.0324793    67.362232   -114.20961    1535.2611    11594.206 
   21230    312.08514    8.0308224    73.390662   -115.30351    1725.8542    11594.206 
   21240    312.86889    7.4466977    57.602983   -117.46827   -2180.6818    11594.206 
   21250     312.4771    5.3373385    65.169607   -120.76544   -1094.4669    11594.206 
   21260    317.80224     4.107475    70.503398   -125.95001    1908.1921    11594.206 
   21270    313.44223    4.6247121    63.821899    -132.9086    5140.6429    11594.206 
   21280    304.74119    5.9742246    65.833849    -139.9289    636.14311    11594.206 
   21290    294.17616    7.4452847    66.722913   -145.47531   -798.67693    11594.206 
21300        0.98059099814577765919 10.148503944283653766 0.99470899470899465378 68 -279.03097024116186731
   21300    286.45969    7.0263561    64.538409   -149.24092   -4061.8619    11594.206 
   21310    296.00082    5.4806053    58.593457   -151.61351   -690.68734    11594.206 
   21320    301.43601    4.3163546    61.785056   -153.36354   -1059.6028    11594.206 
   21330    307.21786    3.5615543    63.457072   -155.12718    1723.0623    11594.206 
   21340    284.77557     5.132297    63.668237    -157.2533   -1009.8644    11594.206 
   21350    274.00583    8.2841701    62.883291   -159.08876    1692.6142    11594.206 
   21360    308.34243    10.255987    50.798829   -160.37815    2300.1419    11594.206 
   21370    291.71402    11.141183    58.193203   -161.29731    1245.3025    11594.206 
   21380    305.97152     11.82799    43.682557   -161.81846   -3071.3353    11594.206 
   21390    265.89319    9.8033584    59.979202     -161.866   -3211.9991    11594.206 
21400        0.97804560298428655507 10.170392700765935601 0.99470899470899465378 64 -290.07702122393499167
   21400    284.92978    6.6542861    56.441509   -160.98015    -535.8606    11594.206 
   21410    283.71025    5.9180985     51.76863   -159.06131    258.50608    11594.206 
   21420    305.20649    6.9254283    58.541141   -156.10877    524.54184    11594.206 
   21430    302.03066    7.1073654     59.35977   -152.46955   -849.82535    11594.206 
   21440    309.53014    7.7018264    57.952752   -148.75299   -2530.0408    11594.206 
   21450    300.99126    10.294912    60.649775   -145.17613   -4177.7444    11594.206 
   21460    300.15049    11.014524    65.326974   -142.14887     1970.861    11594.206 
   21470    307.87291    7.6077286    66.603078    -139.2552     2876.679    11594.206 
   21480     332.6271    6.0890362    59.704809   -136.84612    2213.1682    11594.206 
   21490    304.66294    7.0808812    68.563262   -135.47684   -290.32551    11594.206 
21500        0.97945970251973268894 10.134115468663422277 1 70 -271.14179829604984207
   21500    301.16411    8.6435244    63.818426   -134.68942    2857.1252    11594.206 
   21510    288.07855    7.2616299    71.445552   -134.17493    1514.8352    11594.206 
   21520    313.80153    7.9891604    59.746483   -133.60279    176.56286    11594.206 
   21530    313.90426    6.7010511     63.11922   -133.52734   -636.54413    11594.206 
   21540    318.30629    6.5592089    60.338572   -134.24038    278.92972    11594.206 
   21550    302.21699    5.1413656    69.405671   -136.32231    193.53249    11594.206 
   21560    310.48822    3.9817143    54.196265   -140.08857   -1724.9059    11594.206 
   21570    302.22182    6.6858813    60.197163   -145.61743     75.55121    11594.206 
   21580    270.94018    8.9626177    64.264333     -151.904   -329.60883    11594.206 
   21590     281.1542    9.5429828    62.406391   -157.45342    2251.4329    11594.206 
21600        0.97939239438854563957 10.13338701076952475 1 71 -298.39959870167012923
   21600    300.64442    7.7582584    55.417445   -162.18269    2700.6645    11594.206 
   21610     285.1175    7.2396046     53.04949   -165.64413   -1100.5047    11594.206 
   21620    290.62154    7.6015176    47.901944   -167.62517   -3736.1922    11594.206 
   21630    269.32728    8.3825479    57.858121   -168.48589    2017.6509    11594.206 
   21640     281.2908    9.4110137    59.172889   -168.55776    2181.5746    11594.206 
   21650    279.43892    9.0982155    62.383284    -168.1967    3146.8499    11594.206 
   21660     294.2159    9.7543521    49.185358   -167.43568   -3920.1259    11594.206 
   21670    289.34981    7.4689097    48.672284   -167.22051   -3162.6453    11594.206 
   21680     297.3567    6.7986204     54.70863   -165.21857   -357.07429    11594.206 
   21690    286.56875    8.6067945    60.575193   -162.56326    2098.6879    11594.206 
21700        0.97065151843343355775 10.177801323448395721 1 73 -294.10192328972385667
   21700    296.90046     9.636516    58.701765   -159.58133    2058.4158    11594.206 
   21710    291.61367    8.8339965     51.58473   -155.96479   -204.19085    11594.206 
   21720    310.47598    7.5989301    50.413058   -152.21336   -1587.0748    11594.206 
   21730    310.83223    5.5650889    53.979353   -148.25312   -1428.6578    11594.206 
   21740    318.02621    5.0017189    60.876729   -144.51451   -106.38199    11594.206 
   21750     325.7551    5.5372646    60.245989   -141.66158    1055.5952    11594.206 
   21760     297.7456    6.9466998    71.774804   -140.09932   -1099.6301    11594.206 
   21770    337.98151    7.4037764    57.041488   -139.34237     761.7098    11594.206 
   21780    328.93313    6.1434407    63.210725   -138.76727    543.28389    11594.206 
   21790    336.05948    6.7166225    55.876803   -140.00124    1889.4807    11594.206 
21800        0.96203338078279776457 10.223518922463247449 1 72 -279.62948214609974684
   21800    304.27207     7.962412    64.726132   -141.76894   -2898.8102    11594.206 
   21810    292.75221    5.6335233    57.044595   -143.53049   -1815.4382    11594.206 
   21820    289.00742    3.4273034    71.166866   -144.93884    664.93783    11594.206 
   21830    284.50371    3.0300938    72.142008   -146.35068    39.184902    11594.206 
   21840    305.78279    4.4361411    57.118945   -147.68818    278.70436    11594.206 
   21850    272.86359    6.6580366    66.132871   -148.56606    1026.4506    11594.206 
   21860    305.49826    9.3495085    57.070343    -148.8006    1472.9601    11594.206 
   21870    282.79954    10.509087    68.188686   -148.98586    3416.4832    11594.206 
   21880    300.63306    9.6718037    59.153621   -148.99841   -170.00344    11594.206 
   21890    285.66801    6.9931971    59.584361   -148.83038   -3615.7056    11594.206 
21900        0.95669872791674137602 10.242588506505260426 1 73 -284.39388729381573739
   21900    300.23333    5.1049719    59.667848   -148.36323   -1921.1422    11594.206 
   21910    312.48112    3.5893289     59.25055   -147.65801   -1865.4171    11594.206 
   21920      308.217    5.8662939    57.501936   -147.27845    2237.0379    11594.206 
   21930    308.99882    10.409292    54.528896   -147.04231     943.9673    11594.206 
   21940    300.79379    8.4936866    60.963302   -146.73622    342.67383    11594.206 
   21950     298.1993    6.9672602    63.807144   -146.28134   -1715.7987    11594.206 
   21960    290.33584    8.7618536    63.829541   -145.74331   -2602.4194    11594.206 
   21970     298.5413    7.9363618    65.196472   -145.03635    563.19661    11594.206 
   21980    317.61266    6.5802582    61.432207   -143.77599    134.00354    11594.206 
   21990    299.55665    6.4666253     63.66902    -142.2891    1022.9651    11594.206 
22000        0.9564423897115778006 10.244151095834041598 1 72 -276.54277784386778194
   22000    299.23705    10.040098    66.014672   -140.96352    849.63075    11594.206 
   22010     293.1134    7.5866173    69.776505   -140.81234    -437.0193    11594.206 
   22020    324.47463    5.4761095    60.849658   -140.03961   -1652.2889    11594.206 
   22030    349.39976    5.1066377    60.116543   -139.25497   -1401.2094    11594.206 
   22040    336.37503    7.6194929    56.395928    -140.6512    1159.7671    11594.206 
   22050    316.66039    10.482992    58.438766   -143.16459    -2600.972    11594.206 
   22060    284.18279    9.8058144     68.51294   -145.98613   -336.84037    11594.206 
   22070    282.87256    9.2112118    61.301672   -148.77158   -1884.7231    11594.206 
   22080    280.22346    8.3602951    54.783676   -151.04064    349.36474    11594.206 
   22090    304.63121    6.2695367    53.041068   -152.41018   -598.99874    11594.206 
22100        0.9733005136810960467 10.161353412035253996 1 69 -281.1845641487359444
   22100    282.20932    5.1965548    60.594798   -153.32028     3513.898    11594.206 
   22110    289.55897    4.4517633    64.247955   -153.83051    2289.1236    11594.206 
   22120    287.44898    4.8919353    65.268648   -154.25346    718.65283    11594.206 
   22130    296.91165    6.5776233    59.733882   -154.77731   -904.07686    11594.206 
   22140    278.10123    7.5638379    62.732386   -155.09068   -3453.6185    11594.206 
   22150      280.864    10.145841    59.123934   -154.87945   -2205.1127    11594.206 
   22160    295.05267    8.3347382    63.880192   -153.93923    377.74416    11594.206 
   22170    316.77185    7.3691529    63.778077   -152.61729   -164.73893    11594.206 
   22180    297.03912    6.5074929    64.556269   -151.62113    4196.4872    11594.206 
   22190    279.50927    5.3496121    71.838508    -150.7918   -114.92284    11594.206 
22200        0.97994269953663781791 10.138471531770328227 1 66 -276.24306014489064864
   22200     279.1781    7.8537378    69.720141   -149.75218    2894.7228    11594.206 
   22210     334.2467     6.801874     49.72659   -148.31452     1801.213    11594.206 
   22220    299.81246    7.4031776     69.08715    -146.8983   -241.54362    11594.206 
   22230    319.30733    6.1825585    63.444033   -145.39587   -1379.5209    11594.206 
   22240    298.15567    6.2509419    76.001947   -144.29384   -4804.5102    11594.206 
   22250    312.07533    5.2690946    68.168348   -143.76173   -1284.6405    11594.206 
   22260    307.00431     6.305833    63.888065    -144.0748    1224.0506    11594.206 
   22270    286.60371    7.5299375    71.659088   -144.93107    866.31699    11594.206 
   22280    306.66201    7.0057132    59.832146   -145.90027    4455.7746    11594.206 
   22290    278.87005     6.577382    67.131428   -146.84279    1156.5134    11594.206 
22300        0.98558071216727693997 10.132809176017264718 1 67 -286.84223789896537937
   22300    306.94553    6.5726878    55.724924    -147.7704    1161.2933    11594.206 
   22310    265.26102    8.5684899    65.761923   -148.60691   -5342.1926    11594.206 
   22320    301.15812    7.6958743    58.114927   -149.13242   -4327.6468    11594.206 
   22330    294.87727    8.0854718       66.066   -149.66201    891.96098    11594.206 
   22340    310.24998     10.45116    60.322851   -150.22223    2109.4411    11594.206 
   22350     308.6573    11.617262    63.419339    -151.1586    2330.0519    11594.206 
   22360    304.53411    9.4398591    59.746375   -152.74537   -1995.5605    11594.206 
   22370     282.6124    5.7475845    67.125928   -154.99008    -100.7689    11594.206 
   22380    292.47776    6.9320314    55.272529   -157.50992    552.22151    11594.206 
   22390    269.63355    7.4011522    63.368697   -160.06287    2511.6019    11594.206 
22400        0.98779968413094021429 10.089308670372764354 1 69 -289.35706124357670888
   22400    280.79589    7.5866621    55.160105   -162.13318    2101.7164    11594.206 
   22410    277.36029    7.4807666    56.586252   -163.73631   -3020.4503    11594.206 
   22420    290.43666    9.4360817    58.265322   -164.92753   -398.24226    11594.206 
   22430    279.87221     10.08935    62.360303   -165.93716    323.15722    11594.206 
   22440    274.50121    11.912819    55.479626   -166.57537    564.36806    11594.206 
   22450    253.88662    11.550253    61.558951   -166.17374   -2522.9661    11594.206 
   22460    292.57715    9.5445256    48.609571   -164.20036    2101.0731    11594.206 
   22470     297.1047    8.4459745    62.134236   -160.83039    2236.4624    11594.206 
   22480    301.76425    7.5545676    54.748266    -156.4955   -817.54469    11594.206 
   22490    301.91522    7.5911971    58.690401   -151.61946   -2494.8052    11594.206 
22500        0.9892734897262308591 10.098957554020474348 1 68 -296.89950563403067463
   22500    331.56209    7.7312434    60.105866   -146.67432   -1467.7343    11594.206 
   22510    324.90058    6.9686857     59.70312   -143.00259    1661.9575    11594.206 
   22520    328.84998    6.2688146    54.938042   -140.84732    2293.7308    11594.206 
   22530    271.83568    4.6923546    62.548311   -139.46981    166.68541    11594.206 
   22540    285.81142    3.3840332    62.179023   -137.81422     -1996.24    11594.206 
   22550    302.25243    3.5380666    65.569328   -135.81092    851.11628    11594.206 
   22560    327.60687    3.9752475    63.478196   -134.44387     2505.445    11594.206 
   22570    321.90479    4.5684843    65.851795   -134.05761    1088.0394    11594.206 
   22580    316.63515    5.1646203    60.739683   -134.70932   -2133.9255    11594.206 
   22590    298.53206    6.0972093    59.883955   -135.83002   -2982.6672    11594.206 
22600        0.98410204837682535572 10.10122429863417004 1 67 -274.11546309360221585
   22600     303.1692     6.306055    60.841847   -136.75461    1691.8826    11594.206 
   22610    293.72162    7.6386597    64.911413   -137.45946    844.94296    11594.206 
   22620    291.83657    9.6789375    60.230052   -138.03592    2552.1656    11594.206 
   22630     301.7823    8.4942607    61.750284   -138.51521   -1316.8229    11594.206 
   22640    331.50926    8.6550261    58.606348   -139.15259    2237.3176    11594.206 
   22650    293.50086    8.3503559    59.158079   -140.80132   -3094.7983    11594.206 
   22660    294.85936    6.3319317    56.174526    -143.5482   -1150.9445    11594.206 
   22670    283.38906    6.4171727     63.11251   -148.06659    -933.5031    11594.206 
   22680    286.20573    6.8106946    57.782628   -154.12485    1971.8942    11594.206 
   22690    277.54305    6.2488112    56.215515   -160.24385    3344.4022    11594.206 
22700        0.98177841641225427338 10.110374761805722699 1 69 -279.16050639421138158
   22700    252.75841    4.8671355    60.913309   -164.63994    666.38724    11594.206 
   22710    263.69137    4.1520027    57.221204   -167.24038   -3237.7178    11594.206 
   22720    245.79434    4.1882989    63.282418    -168.4259   -3135.7061    11594.206 
   22730    266.74961    4.1822376    57.806643   -168.27962   -5113.5874    11594.206 
   22740    272.57701    4.3202242    56.459772   -167.10124   -787.23317    11594.206 
   22750    306.39518    4.2551739    51.658111   -165.33526    1567.6259    11594.206 
   22760    288.42387    5.8569706    50.280462   -163.30148    3198.1863    11594.206 
   22770    293.11772     6.485241    49.959355   -160.72988     3476.059    11594.206 
   22780    271.66404    6.7678974    66.110794   -157.40003    5656.4062    11594.206 
   22790    284.61734    7.7236156    58.799602   -153.57908    2180.0479    11594.206 
22800        0.98286328685813695305 10.111359614836882059 1 67 -284.53406172795473594
   22800     297.0678    7.3740186    61.462441   -149.93765    -2718.723    11594.206 
   22810    306.98025    7.1260357    59.179754   -146.91003   -6157.8956    11594.206 
   22820     324.1484      6.53597    57.861487   -144.64422   -3408.8606    11594.206 
   22830    312.93593    6.1934869    64.714556   -143.11973    191.51068    11594.206 
   22840    325.40011    7.1824021    53.967514   -142.41488    913.30108    11594.206 
   22850    298.24526    9.3810086    62.232769   -142.32884    1220.8697    11594.206 
   22860    305.78318    8.9656643    58.610698   -142.39521    1711.8235    11594.206 
   22870    291.30806    9.9909372     61.74653   -142.57968   -264.55885    11594.206 
   22880     287.4973    9.2528226    64.809445   -142.67841    516.83916    11594.206 
   22890     302.8341    9.7438418    60.322227   -142.69943   -917.59655    11594.206 
22900        0.97575182022068795984 10.112780493404629922 0.99735449735449732689 67 -284.4550183708359441
   22900    312.79904    8.6640427    57.461553   -142.73105   -798.15799    11594.206 
   22910    312.70676    9.6636862    48.403082    -142.9765   -281.07205    11594.206 
   22920    282.83125    9.4673383     55.35374   -142.93398    2247.1176    11594.206 
   22930    295.73085    7.0685006    64.361913   -142.19265    41.959451    11594.206 
   22940    306.00415    8.8003201    55.593067   -141.05198    259.30378    11594.206 
   22950    294.61993     8.347899    62.684147   -139.70626   -1642.8869    11594.206 
   22960    307.50313    8.7687469    62.617606   -137.79745    614.34982    11594.206 
   22970    324.30955    8.2916412     60.81056   -134.66685     1296.682    11594.206 
   22980    325.98419    7.3194817    58.136037   -130.30332    1170.8386    11594.206 
   22990    334.81198    8.8606566    58.533745   -124.95309   -1435.7929    11594.206 
23000        0.97405303072419224808 10.134126062982486971 0.99470899470899465378 70 -264.58633008505051976
   23000    318.95066    10.289574     68.83398   -120.07517   -604.81088    11594.206 
   23010    370.67826    11.250307    49.971453   -116.25787    2179.1226    11594.206 
   23020    368.64961    6.5924476    66.481901   -114.63167    2058.5755    11594.206 
   23030    359.44834    5.9973427     65.62176   -115.41328    1333.0684    11594.206 
   23040     337.0312    7.3404107    59.463966   -118.27502   -4240.2186    11594.206 
   23050    329.37973    8.0075741    59.381027   -122.21447   -815.73731    11594.206 
   23060    314.23921    5.7681192    57.964542   -126.55499    216.97069    11594.206 
   23070    301.35423      6.83134    57.330406    -130.5043    942.42922    11594.206 
   23080    307.08689    11.249416    60.585851   -134.02977    1530.5541    11594.206 
   23090    303.62916    11.811369    52.166097   -137.18769   -753.15209    11594.206 
23100        0.96886536663884270659 10.197760004601297723 0.99470899470899465378 71 -267.16553995778514263
   23100    281.18559     8.654021    63.887586   -139.76509    -2656.236    11594.206 
   23110    293.36367    5.7274466    64.754928   -141.94968   -1925.4917    11594.206 
   23120    305.76841    4.8298628    56.473322   -144.15338   -3023.1476    11594.206 
   23130    291.88173    4.9686416    54.554258   -146.05544     1432.945    11594.206 
   23140    285.02175    5.1388142    58.728365   -146.91997    2442.9267    11594.206 
   23150    290.59726     5.959357     66.45195   -147.18871    3272.4607    11594.206 
   23160    296.16392    5.7464154    57.671221   -147.28712   -994.87671    11594.206 
   23170    303.45413    6.9107567    54.593541   -147.34001   -947.03789    11594.206 
   23180    288.32095     7.825292    61.900035   -147.39655   -1785.1418    11594.206 
   23190    298.70698    8.6701714    59.590606    -147.2883   -624.79975    11594.206 
23200        0.97087985597415427108 10.183414364588911027 0.99206349206349198067 69 -287.77426773062131815
   23200    310.17895    9.3589691    50.522316   -147.23742    261.28461    11594.206 
   23210    285.32412    8.6539221    60.849841   -146.83613   -10.414388    11594.206 
   23220     299.3109    8.6424547    60.409218   -145.54274   -357.91516    11594.206 
   23230    296.34683    7.6943044    59.244729     -143.526     1699.604    11594.206 
   23240    312.59928    6.3418405    63.696181   -140.97263    291.71253    11594.206 
   23250    343.14233    5.6782634    50.751933   -137.93601    -783.1865    11594.206 
   23260    309.92586     8.223155    57.130935   -134.78847   -1492.5352    11594.206 
   23270    319.23847    8.5442353    59.281601   -131.49577    2178.0932    11594.206 
   23280    304.57899    7.3806589    67.387198   -128.13486    2418.5401    11594.206 
   23290    333.95872    7.8163073    56.844196   -125.02402     1520.819    11594.206 
23300        0.97473037228254921782 10.145391250869252531 0.99470899470899465378 71 -270.75410452111100312
   23300    326.58538    7.8544344    66.149537   -122.78378      1213.54    11594.206 
   23310    330.24906    6.4897156    60.130119   -121.58339   -2439.1415    11594.206 
   23320    342.67589    6.9518972    54.770719   -121.40942    -2733.186    11594.206 
   23330    324.19796    6.8866214    65.529896   -122.39272   -564.64986    11594.206 
   23340    323.82208    5.8992789    62.800758    -124.3294   -40.706812    11594.206 
   23350    323.68177    5.9139545    56.474668   -127.30276    2181.1501    11594.206 
   23360    327.52474    5.3457615    64.856062   -131.86071     2585.592    11594.206 
   23370    316.49385    7.6594176    54.145237   -137.66905    400.66906    11594.206 
   23380    339.34162    9.5276852     45.63088    -143.2262   -2742.4002    11594.206 
   23390    321.71599    11.148711    48.980866   -148.12065   -2569.7974    12374.386 
23400        0.98116094451842883473 10.137512212281199808 0.99470899470899465378 70 -291.2677945245663409
   23400    307.87005    8.5385826    51.523609   -151.77707   -916.12441    12374.386 
   23410    271.13826    8.6087178    61.779622   -154.00538    346.45859    12374.386 
   23420    276.86577    5.4811019    61.896067   -155.02173   -300.17099    12374.386 
   23430    276.16641    5.9137702    61.771724   -155.30066    610.99997    12374.386 
   23440    287.63395    7.0950238    60.585096   -155.25972    1151.9816    12374.386 
   23450    294.92843    8.7582883    56.763242    -155.0472    1903.2987    12374.386 
   23460    299.89546    10.130741    55.964613   -154.34884    512.66284    12374.386 
   23470    298.35072    12.935353    49.698316   -153.13271   -1256.4073    12374.386 
   23480    281.51657     9.317339    60.572643    -151.4802   -4003.2157    12374.386 
   23490    288.58851    7.3993063    58.317762   -149.17617   -3141.7604    12374.386 
23500        0.98192439576164924908 10.114834904999314702 0.99470899470899465378 69 -280.11193908688449028
   23500    294.88704    6.4740746    57.203107    -146.5036    436.76841    12374.386 
   23510    286.43879    5.8102428    61.038657   -143.47726    3854.6518    12374.386 
   23520     302.8131    5.9559765    55.969816    -140.1213    6374.2769    12374.386 
   23530    315.96924    6.9474944    57.966492   -136.22848    3089.5182    12374.386 
   23540    303.37585    6.6954295    63.246048    -132.5386   -3731.3989    12374.386 
   23550    302.52175    5.7888415    66.374573    -129.6671    -3231.933    12374.386 
   23560    329.40826    5.2121744    60.725182   -127.76457   -358.13024    12374.386 
   23570    298.62294    5.0552881     65.62738    -127.0346    303.62365    12374.386 
   23580    316.05302    5.4627471    64.677615   -126.65023    1666.2137    12374.386 
   23590    296.89093    8.1183104    63.925118    -126.8706   -863.82041    12374.386 
23600        0.9744235639749714295 10.145980890411268049 0.99470899470899465378 67 -258.38639287583754367
   23600    289.37353    11.122413    61.405415   -127.27613    213.79244    12374.386 
   23610    310.17458    10.878607    62.143244   -127.38978   -1475.5149    12374.386 
   23620    310.67533    10.323948    61.251846   -127.58583    232.14834    12374.386 
   23630    312.24547    7.0169615    65.482037   -128.23776   -831.38041    12374.386 
   23640    320.44502    5.7367501    69.046808    -129.4666   -32.169577    12374.386 
   23650    316.24252    5.1289854    59.401397   -131.33389    -2091.357    12374.386 
   23660    306.95758    5.3444851    66.201723   -133.07691    601.76894    12374.386 
   23670    295.32305    6.3856556    64.198523   -134.57202   -1592.8512    12374.386 
   23680    294.69443    5.9808825     59.34552    -135.7009    4503.3638    12374.386 
   23690    275.75791    5.7004691    67.276204   -136.40992    1849.8378    12374.386 
23700        0.97493353930754056424 10.135146104448264026 0.99470899470899465378 67 -260.79008370989475907
   23700    273.85769    4.0615866    61.825111   -136.70978   -621.80906    12374.386 
   23710    271.72065     4.694465    68.732741   -136.43805   -1353.0409    12374.386 
   23720    315.86981    5.2175006    53.999106   -135.69325   -537.74788    12374.386 
   23730    299.58664    6.4734771    67.776136   -135.06575    1227.2383    12374.386 
   23740    318.68803    6.4412338    60.608162   -134.58339   -599.73769    12374.386 
   23750    318.25631    6.9157637    55.826244   -134.42964   -2948.3684    12374.386 
   23760    318.96616    6.9285216    57.508939   -134.64067   -972.30324    12374.386 
   23770    338.23398    6.6404725    49.369692   -134.89097    62.474329    12374.386 
   23780    313.55504    6.7216303    54.940409   -135.47666    3307.5025    12374.386 
   23790    290.38232    6.7741679    58.065365    -136.2534    523.11012    12374.386 
23800        0.96799340733221750366 10.159560747598456842 0.99470899470899465378 68 -269.05163132858604058
   23800    291.45032    6.6237795     62.37346   -137.00041   0.23656509    12374.386 
   23810    285.31629    6.5185532    66.667455   -138.09275    945.62279    12374.386 
   23820    296.94085    5.5413992    58.866787   -139.42226   -1207.6982    12374.386 
   23830    302.37787    5.9310404    56.684547   -141.14794    328.61772    12374.386 
   23840    301.53266    5.5031907    59.564518   -143.25515    416.82021    12374.386 
   23850    276.31666    6.5724411    59.688634   -145.71333    1520.5638    12374.386 
   23860     271.7882    4.8942379    62.727616   -148.02607    1905.1694    12374.386 
   23870    283.13729    3.9638451    61.345648   -150.14135     787.2384    12374.386 
   23880    294.54988    4.8557336    57.961665   -152.07383    1413.4098    12374.386 
   23890    299.19695    5.1899476    59.155385   -154.26608   -2813.6708    12374.386 
23900        0.95651597412709965518 10.21795451215534456 0.99206349206349198067 67 -280.70160378174023208
   23900    274.04248    6.0824529    64.643055   -156.53758   -2731.6487    12374.386 
   23910    253.22388    8.3069781    62.049254   -158.33431   -1733.3802    12374.386 
   23920    268.84303    8.9496742    59.903577   -159.08008   -1924.5429    12374.386 
   23930     288.5752    8.9498724    62.997425   -159.08215   -1936.4598    12374.386 
   23940    289.12203    8.9795193    62.413464   -158.87812   -2649.2913    12374.386 
   23950    297.30931    7.4018688    53.290194   -158.66915    3121.1732    12374.386 
   23960    278.40943    7.3894142    58.184394   -158.34714    2615.8869    12374.386 
   23970    280.11007    7.3004077    52.761543   -157.15471    4462.2867    12374.386 
   23980    283.80674    6.2413309    60.689032   -154.67161    156.87099    12374.386 
   23990    299.02452    10.111601    55.581492   -150.86842   -1163.4704    12374.386 
24000        0.95029778104902595803 10.236561141317537249 0.99470899470899465378 68 -273.42917230600937728
   24000    279.67496    11.958481     66.01545   -146.71317   -3165.4849    12374.386 
   24010    311.20012    9.1239497    62.380676   -142.34618    1125.2096    12374.386 
   24020    293.63889    7.4642807    61.182324   -138.33965   -138.58954    12374.386 
   24030    327.21942    5.6611276    60.857125   -134.65513    643.66497    12374.386 
   24040    294.43826    6.4123989    78.060013   -132.02475   -743.26754    12374.386 
   24050     332.6187    7.6993214    56.451518     -130.597   -128.31642    12374.386 
   24060    314.48505    5.9002428    66.484062    -130.3054    -813.8554    12374.386 
   24070    336.68091    5.5475294    55.726055   -130.54004   -1645.2469    12374.386 
   24080    322.59095    7.5365082    59.162124   -131.27228   -748.67501    12374.386 
   24090    315.59243    7.3638594    67.085138   -132.74351     1128.793    12374.386 
24100        0.95580158576748441845 10.230908450932377107 1 68 -284.91463237405196196
   24100    331.47278     6.949474    59.782536   -134.72991    368.42741    12374.386 
   24110    321.84297      6.06103    59.086669   -137.39852     564.6042    12374.386 
   24120    303.47611    5.6020822    59.940038   -140.37904   -1594.9861    12374.386 
   24130    306.01609    5.3896185     58.57443   -143.22622    -3504.061    12374.386 
   24140    320.15947    5.8440105    61.262446   -146.29169    2170.1157    12374.386 
   24150    305.84837    5.8390788    56.443525   -149.52546    885.86482    12374.386 
   24160    256.59126    3.8432662    70.942161   -152.32124    2861.1426    12374.386 
   24170    294.02152     3.726947    59.813856   -154.17286   -1286.6652    12374.386 
   24180    298.28433    4.2938183    56.663243   -155.75954   -671.85673    12374.386 
   24190    315.16666    4.0136208    50.592758   -156.99588   -44.345413    12374.386 
24200        0.96368651683934014596 10.199180209346472736 1 70 -291.95330144210379331
   24200    296.03918    5.2956302    57.161629   -157.82295    344.40333    12374.386 
   24210    287.73353    7.1711473    60.912019   -158.20086   -1389.9229    12374.386 
   24220    274.29246    9.0817532    62.416277   -158.11614   -323.83963    12374.386 
   24230    305.06917    7.5081457    54.296727   -157.63106   -85.272762    12374.386 
   24240    316.19594    9.8846536    56.503722   -157.23659    1492.1173    12374.386 
   24250    304.79004    11.259797    56.261854   -157.32213    374.30269    12374.386 
   24260    286.10624    8.8159246    60.312453     -157.449    279.20246    12374.386 
   24270    287.21974    7.7081989    65.235719   -157.15603   -144.37828    12374.386 
   24280    317.89861    5.0704446    60.290844   -156.67195   -610.66822    12374.386 
   24290    295.44634    5.8317031    65.349394   -156.54948   -214.65573    12374.386 
24300        0.96983156820740556991 10.195164628331392365 1 72 -291.49298832042563845
   24300    297.26993    8.7337637    57.189417     -156.805   -1282.2387    12374.386 
   24310     249.7508    11.163921    74.291064   -156.75251    1237.2244    12374.386 
   24320    278.23543    13.746154    67.744559   -155.87422    1995.3738    12374.386 
   24330    305.81769    12.085216    60.377162   -154.49872    1496.9646    12374.386 
   24340    301.01899    10.398129    60.008976   -153.09536    762.51558    12374.386 
   24350     319.1141    7.5016781    52.028649   -151.54528   -2986.4621    12374.386 
   24360    293.50422    4.7834348    63.009434   -149.55748   -769.83734    12374.386 
   24370    283.81115    4.9057894     62.37176   -147.12057   -2335.2408    12374.386 
   24380    280.64616    3.0227381    64.442785   -143.65283    465.35374    12374.386 
   24390    295.30266    2.5634119    70.464953   -139.00191    2289.0316    12374.386 
24400        0.96894495141505010416 10.192393574364707831 1 71 -281.90244861734549886
   24400    326.85651    5.5661651    59.407876   -133.80928    1642.4244    12658.481 
   24410    315.89947    8.5583875     63.77182    -129.4933   -1950.9452    12658.481 
   24420    350.08651    7.2800132    56.291805   -126.30771     1.461055    12658.481 
   24430    340.79859    4.3286109    68.431198   -124.54696   -813.97385    12658.481 
   24440    348.39313    5.0183623    62.108768    -124.2635    1873.8409    12658.481 
   24450     321.4954    7.8495159    70.525105   -125.36707    -1372.203    12658.481 
   24460    328.04709    11.565887    68.000644   -127.51313    163.19275    12658.481 
   24470    323.99287    9.4549515    78.337755   -130.86427    1120.5997    12658.481 
   24480    315.57961     9.252799    59.879022   -134.80167    1659.0419    12658.481 
   24490    300.63047    9.2884481    64.852905    -138.3114   -36.895802    12658.481 
24500        0.96923854917961060895 10.19647107418243337 1 72 -283.51985424970530403
   24500    314.53496    8.3385142    61.060573   -141.00937    1146.4407    12658.481 
   24510    318.12852    6.3927947    57.263844   -143.10946    -642.0088    12658.481 
   24520    295.27999    5.7497384    55.805892   -144.52617    751.77417    12658.481 
   24530    280.53401    5.6140425    63.567969   -145.19776   -560.66422    12658.481 
   24540    303.95572    8.5100126    59.994816   -145.28788   -2137.9514    12658.481 
   24550    295.65424    12.925003    61.580425   -145.14516   -2639.6793    12658.481 
   24560    301.25294     13.92546    60.850303   -144.87607    300.78101    12658.481 
   24570    284.55906    12.354582    71.417476   -144.55508    1560.1245    12658.481 
   24580    309.89818    8.4691955    60.944672   -144.33605    1360.8623    12658.481 
   24590    324.79906    6.9207931    57.881589   -144.49487   -487.58449    12658.481 
24600        0.97208438529885199397 10.176241889732386525 1 69 -285.38978604660621841
   24600    309.63242    5.2368974    66.968357   -145.10056    -785.3805    12658.481 
   24610     307.7254    5.5521699    65.528542   -146.32621   -1925.8587    12658.481 
   24620    279.91269    6.2691011    65.163259   -148.20076   -723.07458    12658.481 
   24630     287.6651    5.0695846     61.70932   -150.34359   -1559.6351    12658.481 
   24640    295.00324    5.8469029    57.222224   -152.56817    1561.9243    12658.481 
   24650    306.19789    6.6219751    58.110184   -155.10235    3547.0346    12658.481 
   24660    308.05573    7.7443625    50.415598   -158.71232     1783.489    12658.481 
   24670    290.77405    6.8252932    60.372355   -163.02062    67.789484    12658.481 
   24680    287.28585     6.863608    55.499165   -168.26684   -1617.8985    12658.481 
   24690     271.0782    5.9239783     58.07961   -173.05422   -3297.0189    12658.481 
24700        0.97589515456946296368 10.157252955954769291 1 71 -295.57361479061341925
   24700      261.754    6.3793626    57.536851   -176.97729    1215.7219    12658.481 
   24710    256.14538    4.9955384     57.03216   -179.22657   -1365.4594    12658.481 
   24720    246.76019     5.561114    57.099991    -179.9148    2753.0044    12658.481 
   24730    242.04665    6.7319326    55.880597   -179.09655   -1191.0057    12658.481 
   24740    246.11368    7.9528154    56.856289   -176.74898    1253.5343    12658.481 
   24750    256.46858     8.587772    60.491776   -173.24724    2354.7362    12658.481 
   24760    274.74148    8.9022478    59.809525   -169.28823    331.18169    12658.481 
   24770    280.38198    7.8042638    56.978261   -165.84323   -2062.0382    12658.481 
   24780     291.6949    8.3872907    56.507385   -162.98987   -1335.4735    12658.481 
   24790     304.2214    7.2034125     59.83532   -160.71455   -1447.4326    12658.481 
24800        0.98593979784590279891 10.129489386880177193 1 69 -296.12847854362473754
   24800    302.67742    5.8414392    57.825212   -158.99045     1658.753    12658.481 
   24810    285.23613    6.7110407    59.063949   -157.80003   -2322.5394    12658.481 
   24820    305.50721    5.8706931    55.804018   -156.61184    1143.1427    12658.481 
   24830    293.60112    6.3183062    67.713565   -155.43377    2246.1441    12658.481 
   24840    303.98943     6.054769    60.035186    -154.3409   -761.74211    12658.481 
   24850    276.71098    8.0805943    56.225322   -153.22814   -360.11235    12658.481 
   24860     296.2506    9.8317389    65.137228    -151.7063   -3727.4767    12658.481 
   24870     303.3317    13.274817    63.151512   -149.85908    2350.9962    12658.481 
   24880    288.25505    14.613971    68.889127   -148.03564    2214.5627    12658.481 
   24890     306.7427    11.284633    62.499699   -146.34737    3419.5293    12658.481 
24900        0.98844349538554809875 10.090448695919121747 1 67 -285.6829915712068555
   24900    310.52721     8.716416    69.745893   -144.98835   -1146.1646    12658.481 
   24910    323.61926    9.5726346    56.371886   -144.39606   -4898.7073    12658.481 
   24920    305.65662    9.2177596    62.196891   -144.52182   -1068.7659    12658.481 
   24930    301.82338    10.188572    62.291558    -144.7265    3646.7976    12658.481 
   24940    314.01034    10.264949    59.407611   -145.00117    300.70481    12658.481 
   24950    308.20956    12.478597    56.080866   -145.47114    325.95669    12658.481 
   24960    312.34599    7.8692135    62.213916   -146.37541    -867.0367    12658.481 
   24970    322.79297     5.006187    61.815972    -148.1419   -33.242986    12658.481 
   24980    333.56104    5.4673897    55.593127   -151.33612   -1377.9578    12658.481 
   24990    306.08428    6.1245491    59.185772   -155.80052   -2555.0605    12658.481 
25000        0.98615948888462867661 10.075958020893647671 1 66 -293.90731451916548167
   25000    294.26306    8.0512648    59.475313   -160.58169     727.6559    12658.481 
   25010    285.37266    9.1592905    58.614234   -164.96942   -869.03611    12658.481 
   25020    284.11348    7.6159779    62.154725   -168.68669    2296.2535    12658.481 
   25030    279.39467    6.5725022    50.932497   -171.51087    1523.8608    12658.481 
   25040    249.90142    7.8429481    58.621717    -172.9441    1689.6633    12658.481 
   25050    251.27656    10.622626    58.901291   -172.95445   -748.41079    12658.481 
   25060    269.79636    12.248972    53.594491   -171.75356    1477.9968    12658.481 
   25070    271.16268    11.006801    58.464814   -169.47713   -506.62834    12658.481 
   25080    299.71832    8.9439122    57.047561   -166.32847    3324.3571    12658.481 
   25090    278.68061    7.2772725    61.879686   -162.96313   -2056.4783    12658.481 
25100        0.98426791366182164733 10.05435660734284653 1 66 -287.49901665539988471
   25100    282.23131     6.839384    59.997843   -159.62477   -493.40144    12658.481 
   25110    283.02972    8.5367018    59.984307   -156.23474   -261.98893    12658.481 
   25120     305.6363    8.6973812    60.942915   -152.79546    1075.7277    12658.481 
   25130    300.49109    9.2794543    54.717383   -149.88817   -18.453279    12658.481 
   25140    276.60143     12.15231    58.608946    -147.4798   -3931.4656    12658.481 
   25150    304.32397    12.667183    55.778433   -145.28511   -1316.9288    12658.481 
   25160    274.21311    9.4349425     73.08536   -143.20505    313.93142    12658.481 
   25170    303.90624    7.2535815    60.552272   -141.64068     1655.238    12658.481 
   25180     287.3518      5.60698    72.996277   -140.50535     781.3417    12658.481 
   25190    301.34362    6.6000627    62.185818   -139.53335    -1809.064    12658.481 
25200        0.98416844714981743802 10.060079281658946826 1 65 -277.35353246125885107
   25200    305.66391    8.5498103    64.097178   -138.86237   -1750.8854    12658.481 
   25210    308.47288    8.8939259    62.940305   -138.48059   -314.47358    12658.481 
   25220    320.71765    9.0537778    56.340945    -138.4536     475.1134    12658.481 
   25230    318.17995    9.7135532    56.602145   -138.73465   -257.92339    12658.481 
   25240    312.78409    11.700738    55.346437   -139.27839    121.58638    12658.481 
   25250    303.41434    10.789291    60.157127   -140.06161    1555.0466    12658.481 
   25260    316.96232    8.7286217    60.624911   -141.05203    2888.9316    12658.481 
   25270    313.04711    9.3038669    50.567343   -142.56283    330.48739    12658.481 
   25280    292.84088    9.1879838    59.560242   -144.36904    458.42692    12658.481 
   25290    296.17228    7.5983026    56.622771   -146.20652    925.80261    12658.481 
25300        0.97985746799318418354 10.081771736113925186 1 68 -285.24671222320876041
   25300    301.26466    4.0047372    64.710736   -148.74878    3934.8536    12658.481 
   25310    305.48386    3.1724544    53.853477   -152.55671   -517.67675    12658.481 
   25320    288.32754    4.4660712    53.941385    -156.7676    -2707.659    12658.481 
   25330    302.78526     8.389978    50.498539   -160.94997   -1018.8245    12658.481 
   25340    297.74024    8.7810633    54.878205   -164.66104   -2149.1451    12658.481 
   25350    274.78383    6.6103293    56.252673   -167.96249   -475.56272    12658.481 
   25360    286.13973    4.9730986    54.426843   -170.68546    -1863.067    12658.481 
   25370    295.15585    5.0564056    59.437111   -173.01738    622.86371    12658.481 
   25380    290.11622    6.4474222     53.86737   -175.51929     870.4621    12658.481 
   25390    264.84238    3.8333004    49.702376   -177.23846    3998.8603    12658.481 
25400        0.98388437592756183836 10.094409697676587356 1 67 -288.26413131123536004
   25400    244.15473    3.8364819    58.965727   -177.64174    1466.1663    12658.481 
   25410     275.5288    5.4145829     52.44801    -176.5241   -1834.9521    12658.481 
   25420    276.86876    7.7804002    55.089806   -173.94141   -5321.9884    12658.481 
   25430    276.06877    9.1188972    61.234605   -170.62658    878.88373    12658.481 
   25440    274.10209    7.9363455    58.557533    -166.7384     145.9739    12658.481 
   25450     270.9763    9.6288887     62.86154   -162.10029    2193.6137    12658.481 
   25460    298.38345    8.5602525    63.811785   -157.83966     -445.104    12658.481 
   25470    298.25777    10.264387    63.171058    -154.6741     3228.646    12658.481 
   25480    311.46944    9.7031319    64.979028   -153.28096    443.99531    12658.481 
   25490    294.50203    9.9849851    60.477481   -152.89022   -1077.9309    12658.481 
25500        0.98087100419195316636 10.126240651925156655 0.99735449735449732689 68 -280.67644941867285979
   25500    282.51162    10.485195    67.080052    -152.6752   -3598.8003    12658.481 
   25510    273.35816    9.1144872    58.501612    -152.0748   -1880.6033    12658.481 
   25520     284.0221    10.712467    63.813243   -151.09226   -97.845229    12658.481 
   25530    281.37475    10.382121    64.398722   -150.07683    3554.9678    12658.481 
   25540    295.13543    7.3819563    66.256549   -148.98273    1184.8626    12658.481 
   25550    310.20883    9.0570003    61.914268   -148.07659    846.48355    12658.481 
   25560    300.28145    9.6221954    60.498434   -147.64734   -5113.2736    12658.481 
   25570    310.92404    9.4852191    55.604696   -147.54934    1558.6662    12658.481 
   25580    273.32972    7.6946101     66.46651   -147.53191   -2174.5718    12658.481 
   25590    300.86065    6.2819345    59.930452   -147.28541    1375.6438    12658.481 
25600        0.97707156812461715134 10.143099483883542433 0.99735449735449732689 70 -283.21889072435294565
   25600    300.45076     6.810576    65.529993   -147.08972   -2457.9839    12658.481 
   25610    317.65531    6.7832972    57.868904   -146.95642    4109.7901    12658.481 
   25620    339.52175    6.2842963     56.97127   -147.39717    1890.2016    12658.481 
   25630    291.45751    5.6232963    65.050768   -148.73979   -1049.3045    12658.481 
   25640    302.11557     6.438075    52.696045   -150.18064   -3582.7633    12658.481 
   25650    281.53611    8.3949119     65.97997   -151.53009    897.89567    12658.481 
   25660    294.37208    7.5797006    63.013406   -152.99991    3601.5185    12658.481 
   25670    297.91507    8.2633766    59.815875   -154.79296    2677.9965    12658.481 
   25680    289.47873    8.6658817    57.416847   -156.78888    -1987.448    12658.481 
   25690    295.77851    8.4767384    55.777515   -158.63963   -2213.2097    12658.481 
25700        0.96720386665333168974 10.17573557251034444 1 67 -285.99832592469681458
   25700    277.51853    8.3341949     63.57371   -160.25936   -1793.2139    12658.481 
   25710    276.52241    8.3741579    62.788256   -161.69851    -1159.257    12658.481 
   25720    279.02453    7.9539743    58.183737    -163.0768    1425.6882    12658.481 
   25730    270.36216    5.5889747    61.363269    -164.2628    1775.2542    12658.481 
   25740    291.99807    5.9589775    50.906261   -165.05145    1067.7493    12658.481 
   25750    268.82329    6.5750611    63.070557   -165.36253    254.32141    12658.481 
   25760     288.0113    7.7902669    52.547172   -164.98896   -778.05753    12658.481 
   25770    289.08994    7.2838936    63.064482   -163.99855   -138.47138    12658.481 
   25780     304.4386    8.8466151    46.760416   -162.54524   -539.88461    12658.481 
   25790      310.985    7.9832042    54.633996   -160.57465   -583.87836    12658.481 
25800        0.96742908644967240406 10.175217526840718563 1 70 -302.84294828168958702
   25800    319.60005     5.992501    55.345947   -158.03756   -394.96239    12658.481 
   25810    309.98618    4.4716891    58.255156   -155.19162    214.60334    12658.481 
   25820    304.76399    5.9728336    62.246502   -152.14277    2274.0709    12658.481 
   25830    309.53921    6.0497693     56.22284   -148.84966    1537.5797    12658.481 
   25840    292.06377    5.7360085    64.117355   -145.67604    657.48797    12658.481 
   25850    306.28748    5.2722009    54.208291   -142.25165   -497.81842    12658.481 
   25860    294.64058    5.2682271     58.07998    -138.4274    -568.3231    12658.481 
   25870    306.81724    4.3769259    58.890354   -134.60956    298.81428    12658.481 
   25880    316.90856    3.9632256    64.848211   -131.15108    433.34203    12658.481 
   25890    312.41643    3.8891787    52.036233    -128.3959   -583.59919    12658.481 
25900        0.95573913479639815982 10.221117497038511246 0.99735449735449732689 66 -278.89715581977105785
   25900    337.20276    4.6504697    59.455321   -126.11628     2370.382    12658.481 
   25910    313.40506    6.4169584    70.726429   -124.67881    252.63059    12658.481 
   25920    323.63697    8.0892613    64.628747   -124.17186   -775.64883    12658.481 
   25930    309.23226     8.538962     74.14529   -124.66788   -3790.0396    12658.481 
   25940    342.47891    8.7690867    64.527498   -126.40496      841.984    12658.481 
   25950    307.55218     6.746353    69.917747   -129.42066     1346.672    12658.481 
   25960    335.54238    5.6345035    60.995117   -132.79863    3007.7647    12658.481 
   25970     319.2599    5.3203461    63.285164   -136.60283   -1558.4242    12658.481 
   25980    310.85755     4.836724    65.328359   -140.11905   -2760.8737    12658.481 
   25990    306.17263    7.7001011    61.045327   -142.96857    61.631418    12658.481 
26000        0.94841818263888744145 10.278273059191990413 0.99735449735449732689 68 -285.24954456064762098
   26000    309.65777      9.92246    56.500405   -144.94884   -146.06011    12658.481 
   26010    335.22258    11.530594    49.192034   -146.44152   -450.77543    12658.481 
   26020    291.59153    12.283513     63.17042   -147.64353    914.57602    12658.481 
   26030    303.67282    11.332027    56.189973   -148.37787   -1794.9663    12658.481 
   26040    302.14123      8.22959    59.482496    -148.9384    2394.6709    12658.481 
   26050    320.49037    5.9593089    60.307355   -149.53771   -2711.6162    12658.481 
   26060    307.04421    5.8210909    57.426648   -150.51499   -3600.8067    12658.481 
   26070    307.50626    6.7368304    55.956824   -151.58632   -3009.3804    12658.481 
   26080    292.09473    6.4281096    56.767509   -152.49431   -56.041322    12658.481 
   26090     317.0915    6.0013381    53.006279   -153.24573    4133.5571    12658.481 
26100        0.95449361393476483961 10.26352836089107079 0.99735449735449732689 71 -273.58005826362762036
   26100    264.46256    10.830934    66.064381   -153.75654    1418.9639    12658.481 
   26110    298.66563     8.969971    58.714371   -153.72907   -1462.8437    12658.481 
   26120    278.60594    7.6986795      66.3711   -153.54082   -672.51616    12658.481 
   26130    309.51177    6.6323712    57.181074   -153.11669   -1346.6175    12658.481 
   26140    300.98102     5.749104    66.416646   -152.62467   -416.77807    12658.481 
   26150    303.49834    4.4161884    61.891812   -152.53379   -1746.5645    12658.481 
   26160    306.77513    4.1517079    58.433836   -152.82479    1231.9597    12658.481 
   26170    285.12295    2.5647658    66.609701   -153.19043      4600.16    12658.481 
   26180     321.8756    2.2492509    53.411319   -153.55057    1458.2365    12658.481 
   26190    299.02566    3.0959225    62.062742   -154.48433   -50.083183    12658.481 
26200        0.95846253069822495707 10.234121029007766879 0.99735449735449732689 68 -287.31923491760176148
   26200    290.68191    4.8184093    57.234758   -155.61617   -5331.0757    12658.481 
   26210    281.01857    6.8730607     65.97449   -156.62199   -1651.7209    12658.481 
   26220    294.51229    6.6343638    59.817611   -157.44738   -1300.6178    12658.481 
   26230    285.66456    7.1140982    62.405399   -158.37952    2186.9221    12658.481 
   26240    278.91689     6.776967    64.278086   -159.10455    1795.5631    12658.481 
   26250    301.04617    4.9598654    52.088421   -159.30826    1296.6036    12658.481 
   26260    283.95144    3.1163657    62.380601   -159.27041    2946.8638    12658.481 
   26270    290.57423     3.362885     57.91305   -158.70313   -1125.3241    12658.481 
   26280     265.6847    4.6188685    60.746921   -157.32917   -4318.9888    12658.481 
   26290    277.61388    4.7250418    64.583551   -154.85322   -3132.9377    12658.481 
26300        0.96258252548902689671 10.178550456961966475 1 65 -284.52364971008307748
   26300    294.14627    5.7661359    64.523649   -151.25094    1686.8158    12658.481 
   26310    289.63561    6.3876609    63.994935   -147.20926    5113.0784    12658.481 
   26320     321.9111    7.5980968    58.596815   -142.84358      3617.06    12658.481 
   26330    318.98546    6.4362544     67.77012   -139.04588    305.27625    12658.481 
   26340    325.78094    7.0750121    56.779855   -136.52613   -1898.0875    12658.481 
   26350    301.64363    6.0239972     67.06598   -135.01224   -2521.4958    12658.481 
   26360     301.2935    5.2634849    72.496445   -133.87462   -3527.6484    12658.481 
   26370     324.2395    3.8479701    63.129554   -133.13468   -862.80715    12658.481 
   26380    311.14314    3.9052811    74.160709    -133.4018    631.07843    12658.481 
   26390    321.49696    5.1559626    58.335913   -134.57143    540.17322    12658.481 
26400        0.9648990143679165854 10.15464765665306679 0.98941798941798930755 68 -263.12705888393514897
   26400    280.03094    5.3214365    68.676457   -136.24976    3008.9466    12658.481 
   26410      283.123    5.4761308    68.983492    -137.7716    1217.4022    12658.481 
   26420    296.21679    6.6945109    67.379968   -139.42307     166.5237    12658.481 
   26430    316.95358    7.4415247    60.445418   -141.90794   -3001.9019    12658.481 
   26440    302.77462    6.2049884    59.789597   -145.71377   -2185.9642    12658.481 
   26450    287.50723    7.7639304    58.844459   -150.66293    621.03257    12658.481 
   26460     275.2044    9.3610166    58.961705   -156.16336    628.45758    12658.481 
   26470    251.72799    10.548462     61.53628   -161.36551    3008.9073    12658.481 
   26480    259.73709    8.9031017    52.130705   -164.74231     -12.4992    12658.481 
   26490    278.01883    7.9091976    49.776974   -166.41019   -2271.2038    12658.481 
26500        0.9680969365962568407 10.137349110258099927 0.98941798941798930755 68 -297.92949719785190155
   26500    289.35095    6.2731987    52.596813   -166.82946   -656.32306    12658.481 
   26510    303.43704    6.6492456     49.21718   -166.55224    1477.7172    12658.481 
   26520    273.86589     7.552779    56.972326   -165.87203    3081.9026    12658.481 
   26530    295.13094    6.6419269    53.091755   -164.78743   -2200.5824    12658.481 
   26540    286.72193    9.0536523    61.185408   -163.60833    952.59113    12658.481 
   26550    309.95764    8.5537012    56.905055   -162.44455     408.4565    12658.481 
   26560    281.46304    7.2918565    56.267661   -161.25331   -490.15799    12658.481 
   26570    299.10655    5.0205435    58.485591    -159.7646   -3462.5568    12658.481 
   26580    309.92198    5.3077934    62.978171   -158.44366    664.61608    12658.481 
   26590    294.53781    8.7410064    64.054831   -158.08894    759.29663    12658.481 
26600        0.97743932738814742756 10.129294592988109969 0.99470899470899465378 66 -284.79409201806350893
   26600    279.77508     9.173859    56.641336   -158.03272    2047.2935    12658.481 
   26610    271.13658    7.2450957    61.414588   -157.48321   -73.023524    12658.481 
   26620    284.30307    6.4820085    56.577146   -156.45019    284.21665    12658.481 
   26630    282.38506    7.1933032    61.566301   -155.24744   -806.06143    12658.481 
   26640    291.99766    9.2881526    63.394077   -154.00782    2241.4463    12658.481 
   26650    310.90451    8.9206323    60.614003    -153.0303   -282.33799    12658.481 
   26660    305.75791    8.3617997    59.936136   -152.67597   -205.84706    12658.481 
   26670     310.1201    7.9298299    57.392874   -152.87715   -4574.3802    12658.481 
   26680    301.45913    7.3384134    57.801029   -153.40347    784.78664    12658.481 
   26690    303.44514    6.3385562    58.425888   -154.00371    489.04818    12658.481 
26700        0.97813524807376361903 10.157366130794398984 1 70 -284.57877879983493585
   26700    287.23162    4.9892659    55.741403   -154.43898    2052.8985    12658.481 
   26710    285.47483    4.2125442    56.072605   -154.30675    777.40015    12658.481 
   26720    301.55265    4.4451072    55.837292   -153.63259    2451.1173    12658.481 
   26730    320.17167    5.6697779    50.946247    -152.7181    3657.7243    12658.481 
   26740    316.38537    4.7230686    46.377244   -151.74602    586.18253    12658.481 
   26750     300.2768    3.8009725    55.663282   -150.45729   -3895.2485    12658.481 
   26760    303.12817     4.406677    54.597464   -148.04425   -747.87624    12658.481 
   26770    278.96328    4.6243316    68.210833   -144.60768   -4119.0061    12658.481 
   26780    309.81321    5.3668441    57.342161   -138.92778    -603.2128    12658.481 
   26790    309.93575    5.6668132    66.023512   -131.98397  0.077038717    12658.481 
26800        0.9676529853995783359 10.202492174546515358 1 65 -280.73414392297752329
   26800    343.15157    7.1386408    54.150639   -125.25796    1121.6329    12658.481 
   26810    335.64349    6.4719038    65.464182   -120.51429    4547.2066    12658.481 
   26820    339.26965    4.4782365    64.759894   -118.02069    1170.7282    12658.481 
   26830    330.07146    3.5292756    67.588804   -117.84985    545.13822    12658.481 
   26840    324.84791    6.5063283    65.882356   -119.09026    -4491.894    12658.481 
   26850    331.08305    9.5317638     63.75355   -120.99867   -3554.3186    12658.481 
   26860    336.76587    10.694016     65.07895     -123.492    -1477.477    12658.481 
   26870    341.19195    7.9742914    63.534865   -126.48301   -133.09386    12658.481 
   26880    322.94225    6.1091371    64.528971   -130.41997    741.22985    12658.481 
   26890    313.74174    4.8431471    66.622602   -134.45523    2010.9747    12658.481 
26900        0.96815587327506857918 10.209644236899782399 1 68 -283.68913809679401083
   26900    320.68755    3.7529205    59.527883   -138.39102    5095.3819    12658.481 
   26910    325.54152    2.8101105    55.748905   -142.15548    1983.1834    12658.481 
   26920    326.46554    3.0271287    55.343625    -145.6001   -6537.0901    12658.481 
   26930    286.16151    5.6027781    57.760868   -148.41991   -2234.3203    12658.481 
   26940    277.92977    6.3606681    65.582933   -150.17518    105.34577    12658.481 
   26950    282.10232    6.6550818    63.186592   -151.04335     3605.628    12658.481 
   26960    295.86407    4.8534244    63.517177     -151.608   -693.95456    12658.481 
   26970    293.65896    4.6574235    57.160998   -152.13242    -469.3951    12658.481 
   26980    295.61475    3.9146092     57.47678   -152.49951    278.91738    12658.481 
   26990    287.21718    3.1788287    59.018242    -152.4681    1228.0007    12658.481 
27000        0.9663689326267029811 10.220146794234102217 0.99735449735449732689 70 -276.62031355416479528
   27000    275.24152     4.115108     62.16702   -151.91303   -3820.5427    12658.481 
   27010    283.62568    7.0951605    58.759043   -150.86212   -2647.6784    12658.481 
   27020    288.88772    7.6884229    62.066412   -149.13426     -644.192    12658.481 
   27030    302.94454    9.0201904    61.504834   -146.68154    3698.9269    12658.481 
   27040    326.75127    10.491897      57.0442   -143.92115    1747.6034    12658.481 
   27050    313.69783    13.435205    52.308611   -141.29151   -2990.5673    12658.481 
   27060    321.77392    8.2467331    62.145252    -138.7697   -3228.1886    12658.481 
   27070    318.71324    6.9390545     56.11917   -136.17751    1134.4084    12658.481 
   27080    301.83934    7.9455236    63.415349   -133.61198    2784.6032    12658.481 
   27090    334.79757    9.5748938    59.169118   -130.53581    1263.5765    12658.481 
27100        0.97502679076015996706 10.17594304770242708 0.99735449735449732689 71 -271.68116001899846879
   27100    318.37729      10.0716    62.387633   -127.42978   -2207.9218    12658.481 
   27110    332.65289    11.701216    56.781873   -124.10909   -150.22872    12658.481 
   27120    326.89588    10.400226    61.935159   -120.43293    3627.9732    12658.481 
   27130    359.73489    11.590108    53.764412   -116.62831    814.34983    12658.481 
   27140    341.87901    8.7219847    66.479028   -113.75484   -2718.2227    12658.481 
   27150    350.01735    6.1776786    65.567786   -112.08467   -1148.0929    12658.481 
   27160    358.61916    6.6316704    62.650105   -111.77196    1520.6029    12658.481 
   27170    360.89155    8.0972057    63.027032   -113.68801    493.92549    12658.481 
   27180    347.21076    8.1984246    56.331524   -118.20462   -2804.0884    12658.481 
   27190     322.4139    7.9914931    57.752792   -124.80251   -1043.4167    12658.481 
27200        0.98680213411415607094 10.116878547881494654 1 71 -274.01867120671499833
   27200    314.88702    8.8499641    58.133754   -131.34867    1616.1098    12658.481 
   27210     287.0733    12.154306    60.707544   -136.73231    633.39152    12658.481 
   27220    301.78946    12.562587    56.979195   -140.05964    534.41755    12658.481 
   27230    302.20228    9.0811697    61.296976   -142.49864   -2571.6353    12658.481 
   27240    322.04965    6.8806939    55.138388   -144.56184    -894.7918    12658.481 
   27250     313.7744    7.7370448    59.112129   -146.72542    1038.8234    12658.481 
   27260     294.6194    8.2483368    71.353063   -149.12097    3898.3273    12658.481 
   27270    293.99801    7.4468091    58.294853   -151.51353   -521.20532    12658.481 
   27280    277.99717    7.4242591    62.649204   -153.81186   -2307.7469    12658.481 
   27290    309.75154    8.7974431    54.469773   -155.65768    1193.8662    12658.481 
27300        0.99434392692886830467 10.057228080860275199 1 75 -289.80439798707402588
   27300    292.59532    10.386365     57.18714   -157.23439    2403.1429    12658.481 
   27310     300.7935    9.9893252    58.345482   -158.76554    1698.6635    12658.481 
   27320    284.52826     10.61478    58.743222   -160.05474   -566.52501    12658.481 
   27330    281.30059    9.5823354    58.055699   -160.96707   -1486.8732    12658.481 
   27340    293.48048    9.5890046     57.23541   -161.50951   -714.13015    12658.481 
   27350      280.885    9.3115863     52.37495    -161.8886   -1737.6838    12658.481 
   27360     276.9765    10.235042    59.363679   -161.82613   -1699.9546    12658.481 
   27370    292.41629    13.872514     54.15023   -160.90779   -615.77336    12658.481 
   27380     299.5949    14.316933    54.000888   -159.39739    887.40839    12658.481 
   27390    283.83636    12.920919    58.778669   -157.29503     5585.135    12658.481 
27400        0.99074302781069711887 10.010377891674471229 1 71 -288.1283084548279021
   27400     296.2298    10.328323    58.801048   -153.91158    3308.3581    12658.481 
   27410    311.68528    8.9861014    58.590585   -149.17788    1849.7775    12658.481 
   27420    325.90311    8.3072968     55.33475   -143.87066   -2132.7719    12658.481 
   27430    290.60523    8.6828818    66.023641   -139.19414   -414.25422    12658.481 
   27440    295.67294    7.4330241    62.061215   -134.72736   -191.19214    12658.481 
   27450    305.49319    6.4382184    59.451005   -130.81383   -2174.0416    12658.481 
   27460     294.1246    7.2474481    67.942652   -127.78888   -1448.3129    12658.481 
   27470    311.80352    6.9772904    60.798588   -125.45391    1865.3089    12658.481 
   27480     298.6525    8.9903462     70.41816   -123.83473    1250.1406    12658.481 
   27490    306.33451    10.091327     67.31692    -122.7887   -1218.6863    12658.481 
27500        0.98624098415812144758 10.073315943932701799 0.99470899470899465378 69 -271.51318140583157401
   27500    329.41444    10.277551    67.806967   -122.26106   -2110.5866    12658.481 
   27510    331.00467    8.9544888    63.652965   -122.78434   -487.12205    12658.481 
   27520    322.76082    7.0559378    68.737524   -124.34664    2199.2482    12658.481 
   27530    335.26496    6.9940064    57.130274   -126.64358     1037.164    12658.481 
   27540    330.06099    8.3096508    63.881925    -129.8045    154.68526    12658.481 
   27550    329.12685    10.440369    59.730142   -133.85267    538.29103    12658.481 
   27560    301.13103     9.047678    58.340209   -137.91356   -1622.4828    12658.481 
   27570    306.06363    11.069153    55.178192   -140.94927    524.28307    12658.481 
   27580    264.22557    9.7493862    70.001069   -142.82655   -1450.7471    12658.481 
   27590    308.59271    8.7063721     55.14169   -143.66328    663.65347    12658.481 
27600        0.98080387275272307157 10.088606719797839517 0.99206349206349198067 65 -269.95337468207372922
   27600    277.50718    6.2647953    66.836605   -144.21955   -1219.7196    12658.481 
   27610    325.78324    7.1632281     58.23863   -144.71586    3792.6963    12658.481 
   27620    296.54027    6.2432514    63.165627   -145.50051    3338.6724    12658.481 
   27630    309.04415    7.4053496    52.298252   -146.27713   -1828.9789    12658.481 
   27640    279.41097     5.371311     60.92675   -146.79381   -3128.6828    12658.481 
   27650    289.53323    5.2682554    57.650727   -146.89102   -2373.6451    12658.481 
   27660     282.6936    4.2636672    65.950326   -146.70902   -1868.9818    12658.481 
   27670    295.10511    4.9577448      62.1115   -146.39684   -1056.2174    12658.481 
   27680    300.35078    5.5367855    59.935572    -145.9631    1334.6911    12658.481 
   27690    305.81429    5.9302183    61.703002   -145.36749    2543.0163    12658.481 
27700        0.97994007086827661368 10.103031378703864362 0.99470899470899465378 67 -277.69212170954835983
   27700    293.81924    8.5054961    58.379412   -144.56758     82.93717    12658.481 
   27710    288.78027    10.324575    62.825948   -143.13789   -1171.2988    12658.481 
   27720    297.13664    8.1210232    64.806919   -140.87337    762.97164    12658.481 
   27730    324.58134    7.0170198    64.964101   -138.08764    1566.1549    12658.481 
   27740    332.04498     6.768831    62.378355   -135.33499   -1378.8056    12658.481 
   27750    324.17547    8.1425619    63.837157    -133.0358    1438.4718    12658.481 
   27760    322.51802    6.9145979    67.705608   -130.73833    1633.5072    12658.481 
   27770    347.46473    8.3266277    56.958797   -128.70756    769.86741    12658.481 
   27780    329.40868    9.2099138    65.533262   -127.78727   -2154.5198    12658.481 
   27790    312.34844    8.8214154    67.062761   -128.39923    1855.9962    12658.481 
27800        0.97766727353575166859 10.161016029448097342 0.99470899470899465378 68 -279.87552489689869617
   27800    331.25251    5.3534711     60.40871    -129.7906   -1040.1146    12658.481 
   27810    312.37014    6.5189518    63.477367   -132.52837    -3935.353    12658.481 
   27820     299.9972    7.6927253    71.162845   -136.34245   -3319.2599    12658.481 
   27830    301.89436     10.82653    61.229533   -140.96067    1550.3564    12658.481 
   27840    296.27986    10.552988    63.936822   -145.61162     382.1354    12658.481 
   27850    278.05114    12.323838    52.587932   -149.53325    616.38841    12658.481 
   27860     285.7944    10.354738    55.752474   -151.85909   -1248.0853    12658.481 
   27870    317.71059    7.8325477    59.359421   -153.71008    2979.8045    12658.481 
   27880    311.73295    9.4054631    57.661635   -155.89541   -1702.5967    12658.481 
   27890    286.26009     11.09008    58.274207   -158.08769   -1209.3305    12658.481 
27900        0.98233805577946020637 10.146282172325470583 1 68 -300.40707932819617554
   27900    309.67225     10.00569    55.990136   -160.09981    1330.2353    12658.481 
   27910    286.68254    9.0162033    56.598456   -162.19107    3139.5173    12658.481 
   27920    300.81198     8.124551    55.236226    -164.0911      1351.24    12658.481 
   27930     293.9957    9.2024801    53.705182   -165.96262   -2877.1766    12658.481 
   27940    286.00701    7.7395652    53.212331   -167.72253   -1497.5242    12658.481 
   27950    292.52825    5.4424917    53.080174   -169.23957   -781.30839    12658.481 
   27960    303.14183    5.3547101    53.275637   -170.56737    580.16291    12658.481 
   27970    266.15809    5.6302315    58.871456   -171.56402    217.72443    12658.481 
   27980    259.20824    7.7822614    55.947813   -171.93079   -3085.9982    12658.481 
   27990    256.57688    12.765495    54.642008    -171.1752   -54.007186    12658.481 
28000        0.97859249551986493554 10.16410092107753016 1 67 -295.77349525276099484
   28000    280.96389    13.795311    56.211311    -168.4735    3309.1665    12658.481 
   28010    292.03498    13.200851    49.948205    -163.2701    1596.5225    12658.481 
   28020     301.6534    12.889245    53.957526   -155.91122    1131.4711    12658.481 
   28030    335.59861    13.206201    52.117545   -148.25418    835.67932    12658.481 
   28040    331.30538    8.1879262    60.661046   -143.43065    94.655002    12658.481 
   28050    345.59737    9.8822945    55.450736   -141.15914    250.84208    12658.481 
   28060    309.77431    10.581017    63.437501   -140.48619   -3223.9813    12658.481 
   28070    317.97447    10.670799    54.470491   -140.44259    885.98889    12658.481 
   28080    309.45794    8.7329292    64.201821   -140.82937   -682.72847    12658.481 
   28090    325.35744    6.9294023    56.015654   -141.95893    663.56213    12658.481 
28100        0.97002818316466332682 10.199269933679259381 1 66 -285.06929913945089083
   28100    311.61348    6.8426898    60.438515   -143.88249   -1417.6299    12658.481 
   28110    318.10639    5.2527914    54.251358   -146.36421    801.50164    12658.481 
   28120    314.15279    6.2797236    59.210587   -149.54647    1742.5928    12658.481 
   28130    306.63147    9.2113051    50.372353   -153.24811    2255.2798    12658.481 
   28140    286.19498    8.8555813    56.004325   -156.52433    583.52393    12658.481 
   28150    295.09099    7.0255431    49.783534    -159.0259   -263.95276    12658.481 
   28160    277.66993    7.0944624    53.084519    -160.6413    -3344.958    12658.481 
   28170    309.50937    6.5497986    54.377793    -161.5079    -1702.297    12658.481 
   28180    305.73606    5.3877122    52.283017    -162.3763    412.16108    12658.481 
   28190    285.57422    4.2732311    58.620394   -163.22403    1362.1555    12658.481 
28200        0.96432740326003052456 10.220815519984761011 1 70 -295.13992384780868861
   28200    290.17032    4.8461335    52.497955   -163.66865   -27.712302    12658.481 
   28210    271.55643    7.0154557     50.78817   -163.70193   -4610.3577    12658.481 
   28220    280.14629     8.194754    54.433886   -162.93235   -1471.7563    12658.481 
   28230    303.99318     7.514514     51.29796   -160.99072    326.67463    12658.481 
   28240    303.42941    8.1926166    56.470502    -158.0423    2208.3568    12658.481 
   28250    333.33372    8.2202271    52.601377    -153.9687    1260.0144    12658.481 
   28260    325.52194    8.6590212     57.01772   -149.17129    553.86232    12658.481 
   28270    327.47746     11.53946    53.986813   -144.16421     629.2618    12658.481 
   28280    297.84331     12.43362    59.993698   -139.46097     1370.415    12658.481 
   28290    302.24714    13.132385    57.077639   -134.65273   -669.03922    12658.481 
28300        0.96245513904202617539 10.205938422846866587 1 70 -268.85908201654063987
   28300    306.05684     12.67794    60.423597   -130.18989     1154.736    12658.481 
   28310    315.18636    11.511794    64.089223   -126.52831   -321.69917    12658.481 
   28320    319.16897    7.7818418    65.191713   -123.95716    1258.3383    12658.481 
   28330      318.945    5.9793874    60.585048   -122.34588   -1621.8271    12658.481 
   28340    308.95695    3.5660875    63.999426   -121.53487   -2523.1718    12658.481 
   28350    311.14709    4.1138353    59.516376   -121.30393   -455.67371    12658.481 
   28360    299.29586    4.4352095    65.679054   -121.69898    2372.5215    12658.481 
   28370    305.37394    5.1120448    63.339388    -122.3722    4271.8456    12658.481 
   28380    326.81322    4.1232545    57.539602   -123.15527   -455.89359    12658.481 
   28390    313.16231    4.8620138    63.443443   -124.44825   -2176.5145    12658.481 
28400        0.95381923144732261299 10.254734400275193451 1 69 -263.45224250086448592
   28400    302.56559    6.5339401    63.356104   -126.36488   -816.80777    12658.481 
   28410    272.89512    7.1663769    65.829858   -128.26476    -606.2812    12658.481 
   28420    301.40633    6.6794017    61.474548   -129.92752    1475.5918    12658.481 
   28430    308.14735    5.0422469    58.934327   -131.63916    262.73369    12658.481 
   28440    320.46409    3.2915783     55.49179   -133.64632    -457.4786    12658.481 
   28450    305.38719    3.2904873    61.647658    -136.2306   -162.06604    12658.481 
   28460    291.40679    4.3843034    53.247886   -138.81865   -1159.2113    12658.481 
   28470    280.60689    4.5327363     62.78639   -140.91136   -2837.5496    12658.481 
   28480    311.28569    4.2850439    47.689449   -142.66474   -62.477031    12658.481 
   28490    288.69421     3.315103    57.250331   -144.25524   -1802.1697    12658.481 
28500        0.94904959327584859086 10.283653999801073198 0.99735449735449732689 64 -283.29865192738230917
   28500    304.77528    2.9825505    52.754475   -145.21011   -326.91905    12658.481 
   28510    306.14169    6.2126586    54.510049    -145.7251   -2263.0069    12658.481 
   28520    307.60804    10.681179     49.88899   -146.09599    179.78842    12658.481 
   28530    278.43001    12.939187    61.377229   -146.37133    821.71498    12658.481 
   28540    286.91493     8.455214    57.561065   -146.42954   -752.97472    12658.481 
   28550    293.43539    4.8837026    56.742945   -146.33898    1026.0046    12658.481 
   28560    297.57367    3.6737842    59.048777   -146.14605    1202.7273    12658.481 
   28570    297.18249    4.0433799    55.133188   -145.76526    2273.9668    12658.481 
   28580    278.12429    5.9275504    54.849258   -145.06672   -272.95746    12658.481 
   28590    263.28265    8.3985897    62.124691   -143.73414   -879.64011    12658.481 
28600        0.9638925859539987373 10.205072306865075049 1 71 -274.67451503284092951
   28600     293.7669    7.1349241     61.91054   -141.57369    2538.6218    12658.481 
   28610    312.98649    8.3540685    55.770231   -139.31479    1415.6473    12658.481 
   28620    320.45927    7.1788485    55.402555   -137.54931    2685.2513    12658.481 
   28630     320.2273    7.1834058    54.912628   -136.18255   -1257.7561    12658.481 
   28640    322.98652    8.0119751    55.694792   -135.28135   -1680.7079    12658.481 
   28650    315.14587    6.4945361    61.654534   -135.20219    1422.4837    12658.481 
   28660    324.74556    6.5255313    54.478818   -136.03054   -833.44236    12658.481 
   28670    331.41199    6.8424063    46.129363   -138.10848   -2004.0115    12658.481 
   28680    322.00072    6.5740741    48.095259   -141.46262   -1992.2433    12658.481 
   28690    313.64668    3.5770154    53.918407   -146.42203    641.65765    12658.481 
28700        0.97423621297099582961 10.178141880941911523 1 63 -283.20971048706599049
   28700    289.28603    3.6861615    51.372226   -152.13909    1253.8416    12658.481 
   28710    281.74784    4.6397694    48.426273   -157.50536   -2881.5973    12658.481 
   28720    262.14515    5.1065432    49.531462   -160.92175    -1117.917    12658.481 
   28730    304.11696    5.3589799    45.112859   -162.70714   -209.13486    12658.481 
   28740    290.85806    3.8393789    51.990994   -163.77288    1322.1325    12658.481 
   28750    286.94814    6.0821806    49.762879   -164.22407   -1353.1776    12658.481 
   28760    273.37754    8.2293482    54.172777   -164.11213   -551.69722    12658.481 
   28770    287.92651    7.9926818    52.196025    -163.4954    3291.8927    12658.481 
   28780    297.61031    5.4931722    53.751023   -162.80162    2670.5368    12658.481 
   28790    281.93832    5.2626572    54.948171   -162.31706    2277.2857    12658.481 
28800        0.98000799594592613584 10.120078706448337513 1 68 -279.09810275872888496
   28800    259.48019    7.1162999    54.833576     -161.532   -465.53407    12658.481 
   28810    277.44314    8.7775174     45.17435   -159.87763   -2346.1232    12658.481 
   28820    287.51421    8.0469697    54.409395   -157.17203   -1797.2014    12658.481 
   28830    308.92568     8.472016    51.970398    -153.9388    -954.8443    12658.481 
   28840    298.61479    8.2018415    59.262707   -150.88915   -964.44882    12658.481 
   28850    317.49824    10.492669    49.755209   -148.39772    374.51546    12658.481 
   28860    302.20622     13.51168     57.38283   -146.50113      599.008    12658.481 
   28870    297.73841    14.853177    57.479615   -145.23787    1442.0895    12658.481 
   28880    311.89228    13.793869     53.55027   -144.57266   -1709.8704    12658.481 
   28890    319.40579    9.5308974     50.98707   -144.69151    1891.2096    12658.481 
28900        0.98328840769663305998 10.137716161580019758 1 67 -284.33752980157402135
   28900    307.03731    8.5015724    52.438916   -145.22411    -57.35619    12658.481 
   28910    308.15247    9.1479693    56.718495   -145.78899    1707.7207    12658.481 
   28920    328.31971    8.0556356     49.08967   -146.52364   -4704.9865    12658.481 
   28930    327.61756    7.4877107    53.458135   -147.77748   -188.36144    12658.481 
   28940    314.55437    8.2451292    63.230987   -149.67229     4640.184    12658.481 
   28950    300.63679     9.447731    57.091741    -152.1433    3891.0586    12658.481 
   28960    297.97941    8.7869136    57.055856   -154.82003   -1218.5187    12658.481 
   28970    288.80408    6.7273397     52.46414    -157.3149   -1087.5269    12658.481 
   28980    282.30073    5.5901643    55.811972   -159.32883    -2054.545    12658.481 
   28990    287.19436    5.9631629    56.396204   -160.85564    750.83352    12658.481 
29000        0.98176044683545315994 10.141627580476892945 1 63 -291.56563382628792169
   29000    285.83062    5.3864288     51.69025    -162.0606   -5081.1951    12658.481 
   29010    282.77648    6.7664935    56.077721   -162.95079    1818.4603    12658.481 
   29020    271.33572    8.8705921    50.352412   -163.28762    2186.6992    12658.481 
   29030    279.04533    11.560805     45.95481     -162.877    1790.8417    12658.481 
   29040    289.80592    8.7470235    49.899444   -161.67583   -293.88201    12658.481 
   29050    296.24379    6.9493186    52.582299   -159.83272   -2253.2064    12658.481 
   29060    281.76963    5.9000605    54.720224   -157.50104   -1554.2016    12658.481 
   29070     274.5036    6.1162561    56.694813   -154.14884    1344.7574    12658.481 
   29080    295.89417    4.4306564    52.911673   -149.55415    1271.9109    12658.481 
   29090    309.88564    4.8532038    57.163702   -144.08704    595.63344    12658.481 
29100        0.97861186689488333101 10.136608210282426867 1 68 -288.9598615778309636
   29100     331.1031    5.3237328    56.833442   -138.94263   -1515.4113    12658.481 
   29110    318.45098    6.3720043    62.918054    -135.6828    2021.8565    12658.481 
   29120    324.63539    9.2994397    58.838079   -134.42714    3796.0851    12658.481 
   29130    334.54966    11.312849    60.470609   -134.58411    847.45388    12658.481 
   29140    318.16758      9.79248    54.421921   -135.56474   -2548.6353    12658.481 
   29150     301.3431    9.8498427     61.54083   -136.86573   -3090.3426    12658.481 
   29160    312.47161    7.1591209     57.48639   -138.30727   -958.41496    12658.481 
   29170    301.54565     4.920616    54.830583   -139.78859   -800.49621    12658.481 
   29180    305.72432    5.4461935      51.6615   -140.74023    -635.7534    12658.481 
   29190    307.80778    5.4054273    56.430352    -141.3464    33.806598    12658.481 
29200        0.96909427796360758656 10.180189212161563361 0.99735449735449732689 67 -281.04973333672904801
   29200    306.83467    6.9182777    54.857893   -142.02812   -1823.7053    12658.481 
   29210    324.36475    7.6502373    54.592555   -143.04393    2857.0913    12658.481 
   29220    325.03946    6.5583101    52.184353   -144.81535     37.09527    12658.481 
   29230    299.42747    8.0112583    52.631032   -146.79971   -41.818101    12658.481 
   29240    302.70663    9.4520842    47.550006    -148.1853   -712.10742    12658.481 
   29250    303.18292    8.6737319    43.753298   -149.00347     -1771.38    12658.481 
   29260    286.05819    6.7387602    52.711688   -149.31195    176.13693    12658.481 
   29270    294.50372    5.2154964    50.973848   -149.04054    123.82678    12658.481 
   29280    299.92162    4.5450614    53.734042   -148.29061    3210.5859    12658.481 
   29290     300.1277    3.9956687    50.745625   -147.13302    2588.3034    12658.481 
29300        0.97553471519478229812 10.184702892432692778 1 67 -288.740247677115633
   29300    316.35381    5.5441231    50.632794   -145.40567    496.88698    12658.481 
   29310     297.1886    6.7752195    63.818836   -143.20796   -178.08525    12658.481 
   29320    306.36769    8.8658879    58.392747   -140.53945   -3978.6068    12658.481 
   29330    316.87071    7.3237788    58.965994   -137.46023   -3703.0773    12658.481 
   29340    319.99405    6.4687471    54.524169   -134.32047   -4544.7301    12658.481 
   29350    324.71281    5.5747668    56.556158   -131.18279   -1309.0906    12658.481 
   29360    310.34513    4.4419259    64.222869   -128.38942    4126.6938    12658.481 
   29370    325.81018    6.1745024    54.550171   -126.09175    3660.9629    12658.481 
   29380    327.82401    7.5842807    55.646857   -124.15843    5358.4715    12658.481 
   29390    336.44187    8.4897575    52.843262   -122.72584   -1289.2142    12658.481 
29400        0.97786738597788080973 10.144460920854660557 1 70 -275.15561749326383278
   29400    338.46693    6.1201052    58.807145   -121.80196   -853.01394    12658.481 
   29410    347.12383    5.1714148     57.70266   -121.85695   -301.53749    12658.481 
   29420    335.16123    5.9172477    56.359891   -123.70722   -3966.9667    12658.481 
   29430    283.35665    7.3001684    67.126888   -126.98479   -1548.3078    12658.481 
   29440    294.79474    7.5005441    52.983888   -130.73173   -536.64305    12658.481 
   29450    268.51706    5.1962714    62.971326   -134.21926    2167.2609    12658.481 
   29460    299.99355    4.5825673    49.019013   -137.43954    2232.8414    12658.481 
   29470    256.84108     5.311193    57.065672   -140.47631    896.97973    12658.481 
   29480    274.15868    5.6331724    50.695602   -142.47867    1300.2001    12658.481 
   29490    276.35597    6.5830297     54.58348   -143.69544    2396.3583    12658.481 
29500        0.97837926779229567043 10.116676082947858362 1 70 -269.65367560965916027
   29500    277.18457    7.1621392    51.796816   -144.06602   -1740.8971    12658.481 
   29510    284.06368    7.6643945    49.464655   -143.48143   -1884.0564    12658.481 
   29520    298.87414    9.3579056    51.953878    -141.9747   -3702.9022    12658.481 
   29530     310.5789    9.9799855    51.988124   -139.56817    385.00907    12658.481 
   29540    278.90893    10.163155    65.902232   -136.59734   -413.21094    12658.481 
   29550    300.74058    9.9331935    63.141638   -132.77967   -2302.0723    12658.481 
   29560    322.22256    7.9478009    61.725971   -128.42659   -733.10085    12658.481 
   29570     354.2136    6.6588852     51.28951   -124.03658    4520.3442    12658.481 
   29580    349.22247    6.4406548    58.996044   -120.76371    3484.8851    12658.481 
   29590    346.64763    7.4232251    56.583377   -118.75431    2897.2927    12658.481 
29600        0.98480321841406925909 10.112341791744462682 1 68 -261.2925659322867773
   29600    315.58847    10.228806    56.280561   -118.30475   -2499.8057    12658.481 
   29610    303.88527    10.966342    61.640357   -118.50323    729.95536    12658.481 
   29620    335.38555    7.5130505    57.780778   -119.35786    519.77487    12658.481 
   29630    344.71437    4.8562144    56.692521   -122.16946   -736.81217    12658.481 
   29640    331.57994    3.9057521    56.276427   -127.51226   -1552.8251    12658.481 
   29650     307.7433    3.9472309     55.62382   -134.36572    843.10384    12658.481 
   29660    284.25778    6.9571514    56.505198   -140.51865    1677.7873    12658.481 
   29670    258.30688    8.3589287    60.406358   -144.64255   -783.91621    12658.481 
   29680    262.33165     7.570177    56.310773   -146.71553   -234.39284    12658.481 
   29690    280.14635     6.417161    49.609825   -147.52483   -2149.7746    12658.481 
29700        0.98303324547052550741 10.136432201753660109 1 69 -269.88318501076321354
   29700    270.16567    5.3042105    59.392659   -147.47568    268.50134    12658.481 
   29710    304.52741    4.0615571    50.272449   -146.85787    342.21603    12658.481 
   29720    319.86993    4.5429282    47.233054   -146.35186    67.224018    12658.481 
   29730    293.33961    6.9819485    51.049059   -146.23964    293.17167    12658.481 
   29740    276.38019    8.9147227    56.453025   -145.89282   -285.77791    12658.481 
   29750    279.88394    10.365188    57.337056   -144.85152    2298.3574    12658.481 
   29760    312.42791    9.6564875    48.950347   -143.27221   -1191.2295    12658.481 
   29770    330.39224    9.2714773    48.702651   -141.51275    457.38366    12658.481 
   29780    333.23481    9.9983573      49.9331   -140.15086    -492.4568    12658.481 
   29790    318.37411    9.8950085    57.443903   -139.46126    80.817247    12658.481 
29800        0.98844895809183108693 10.103865032682341152 1 71 -277.81753766979363718
   29800    305.22957    8.6984883    60.667388   -139.52317   -146.38867    12658.481 
   29810     313.2793    7.6348052    52.602711   -139.97515   -209.76865    12658.481 
   29820     314.5742    6.3713706    59.936087   -141.22248    1184.0464    12658.481 
   29830    285.20727      6.01263    57.543756   -143.54019    -2502.283    12658.481 
   29840    281.23916    6.0259457     53.75013   -146.28803    -729.0399    12658.481 
   29850    286.00417    6.7118012    55.520839   -149.31554   -1884.5932    12658.481 
   29860    291.23075    7.9627439    49.997325   -152.70332    1914.9384    12658.481 
   29870    285.79703    8.0843516    49.241359   -156.02516   -422.12164    12658.481 
   29880    304.61881    7.8624658    50.552586   -159.15705    -211.7323    12658.481 
   29890    315.29308    7.3152785    48.601128   -162.89065   -231.30815    12658.481 
29900        0.98904820961348660635 10.090939848004634172 1 70 -301.12275924656080406
   29900    296.06392    8.6365533    51.486475   -166.98119    1918.8359    12658.481 
   29910    274.75891    5.9836759    53.155569   -170.73346    941.23187    12658.481 
   29920    284.59917    5.5372114    44.519734   -173.19888    1055.4717    12658.481 
   29930    267.92955    6.4535294    51.535643   -174.73463   -967.40906    12658.481 
   29940    280.21018    6.8205923    48.358047   -175.40075    2147.1412    12658.481 
   29950    279.20418    6.0284387    49.092295   -175.45923    1865.8589    12658.481 
   29960     274.4221    6.1238614    50.290572   -174.93963    2596.9389    12658.481 
   29970    260.35565    8.0326937    49.647889   -173.44214   -1322.4556    12658.481 
   29980    268.84022    8.3691563     52.87894   -170.73882   -2473.9825    12658.481 
   29990    279.32805    7.4934306    52.278723   -166.88034   -36.437709    12658.481 
30000        0.98290957800337930284 10.139782643366592296 1 64 -291.81265596425328113
   30000    285.30637    9.5481167     55.97475   -162.54515   -1395.7565    12658.481 
   30010    309.11761    10.408072    46.877039   -158.51816   -1275.5205    12658.481 
   30020    288.34234    7.8368872    49.542538   -155.65924   -2448.7005    12658.481 
   30030    291.54668    3.9911364    53.588679   -153.57399    2400.0863    12658.481 
   30040    295.73047    2.4312196    51.879627   -151.67595    1695.3965    12658.481 
   30050    319.21836    3.6610069    53.592901   -149.96428    923.52851    12658.481 
   30060    313.30607    5.9689578     51.42416   -149.02229   -3464.9882    12658.481 
   30070    294.52505    8.9301558    57.946955   -148.77328   -936.04429    12658.481 
   30080    285.32972    9.7833904    50.232552   -148.44214    490.42148    12658.481 
   30090    271.37053    9.1993354    60.199378    -147.5351    1583.5655    12658.481 
30100        0.98212389869700633671 10.125329812571589372 1 66 -271.97301957734634925
   30100    278.22895    8.2165702    55.209019   -145.91218   -124.98348    12658.481 
   30110    277.81272    4.5986041    61.220547   -143.55562   -357.78417    12658.481 
   30120    294.15208    3.3876587    60.309862   -140.66746    1252.2679    12658.481 
   30130    308.81436     2.588887    64.385249     -137.759    866.66951    12658.481 
   30140    320.58576    3.6253393    61.730707   -135.29784   -3308.1236    12658.481 
   30150    312.14822     5.090664     60.77155   -133.68579   -1763.6587    12658.481 
   30160    336.29035    5.1007469    54.268136   -132.62453   -831.45905    12658.481 
   30170    328.52338     4.681603    62.226769   -132.57081     4258.369    12658.481 
   30180    313.65968    5.8783353    60.723142   -133.65316     123.5078    12658.481 
   30190    301.02739    7.2477154    54.857034   -135.38308   -1386.0848    12658.481 
30200        0.97720303451645806891 10.168820630334067801 0.99735449735449732689 67 -275.55614331168999342
   30200    304.70377    5.0769637    55.282733       -137.5   -3273.7073    12658.481 
   30210    300.93103    4.4293075    51.511749   -140.16889    1845.9106    12658.481 
   30220    271.66425    4.4845873    62.478818   -143.31282    192.71902    12658.481 
   30230     267.4056    4.2986349    62.606362   -146.63015    1827.9119    12658.481 
   30240    281.63252    2.6102265    58.449742   -150.06299   -1268.7825    12658.481 
   30250    295.10471    3.7531494    53.400358   -154.13948    2795.4868    12658.481 
   30260    281.72891    5.9304468     52.18167   -158.58869    617.90686    12658.481 
   30270    290.37333    5.0934354    47.579498   -162.67164    1772.9301    12658.481 
   30280    274.91203    4.4445713    53.131858   -166.32154   -887.32653    12658.481 
   30290    285.31536    4.4429875     47.85595   -169.24794    -1324.206    12658.481 
30300        0.974360543281000413 10.181939637319933567 1 62 -297.36957612969052889
   30300    277.47435    5.4211798    50.295811   -171.65063    -501.4421    12658.481 
   30310    299.52306    4.5004581    49.839269   -173.47045   -1385.6071    12658.481 
   30320    293.18402    4.4164503    41.207158   -174.98001 -0.053159119    12658.481 
   30330    264.74044    4.3618598    46.406677       -175.7    525.28421    12658.481 
   30340     260.6072    5.2949432    49.322847   -175.16885    1992.2995    12658.481 
   30350    275.26729    4.9819429    45.116798   -173.39056    1143.7565    12658.481 
   30360     278.1406    7.0300085    54.324001   -170.33523   -800.23497    12658.481 
   30370    286.81096    7.3423475    55.606888   -166.03252    624.94069    12658.481 
   30380    280.20147    8.4410811    52.706013   -161.35259   -1174.1693    12658.481 
   30390    294.66971    8.0586291     52.60586   -156.56162   -737.74019    12658.481 
30400        0.96706075112716316511 10.202936361854646918 1 67 -290.89413754368064247
   30400    305.03283    7.2757012    53.946036   -152.68891   -260.12678    12658.481 
   30410    285.18948    6.5649839    52.963897   -150.48673   -249.82587    12658.481 
   30420    302.10911    6.4073307    50.823131   -149.10771   -622.19527    12658.481 
   30430    296.02552    5.7378209    61.380371   -148.04308    1106.9956    12658.481 
   30440    319.84961    6.1379368     46.55593   -147.31396   -352.08725    12658.481 
   30450     298.1803    5.7086236    61.577466    -147.1773    603.34868    12658.481 
   30460    306.99269    6.0672708    48.962427   -147.20753   -579.71278    12658.481 
   30470    299.47096    6.1951802    50.895794   -147.07927   -2078.0763    12658.481 
   30480    317.60984    6.2186866    49.284286   -146.75125    -1297.801    12658.481 
   30490    296.33621    7.2360579    57.722812   -146.72394   -224.80773    12658.481 
30500        0.9646690711836529708 10.22273869661679413 1 67 -281.976272347876602
   30500    298.12954    7.6054539    55.699695   -146.89881    132.61685    12658.481 
   30510    290.58178    6.2440566    54.394803   -146.89661    1104.3514    12658.481 
   30520    304.40853    6.7064605    49.557027   -146.40548     457.7749    12658.481 
   30530    303.87021    6.6849621    52.697673   -145.55777   -234.94516    12658.481 
   30540    325.45492    5.4634589    52.825435   -144.84357    266.15311    12658.481 
   30550     313.5415     4.012991    63.076954   -144.57702    1146.9517    12658.481 
   30560    334.52492    4.1770656    49.328523   -145.10152   -3652.7897    12658.481 
   30570    306.40485    4.5073513    58.725995   -147.01411    632.41712    12658.481 
   30580    306.06971     6.116742    52.591214   -149.77442   -160.69836    12658.481 
   30590    298.74669    8.7119305    52.672079   -152.76342    1232.5577    12658.481 
30600        0.96859030888590014197 10.200733907648443122 1 67 -285.4438479052299158
   30600    286.79625    9.8445586    56.171729   -155.50131   -33.765871    12658.481 
   30610    275.57415    10.757901    53.648892   -158.18438    997.93779    12658.481 
   30620    255.51831    10.589248    57.057012   -160.35794    1525.6459    12658.481 
   30630    263.50761    10.935154    57.283624   -161.60893    117.47886    12658.481 
   30640    286.05755    7.4531122     52.17902   -161.85002   -905.75807    12658.481 
   30650    297.45246    5.8452013    54.492621   -161.69202   -2924.7759    12658.481 
   30660    269.01964    4.7325073    50.678582   -161.37675   -2925.7237    12658.481 
   30670    271.13388    4.6627938    52.368497   -160.07527    -1616.618    12658.481 
   30680     275.5512    4.8316208    52.005091   -157.29395    2802.8309    12658.481 
   30690    324.47399     5.380666    48.896757   -152.62929    1604.1894    12658.481 
30700        0.96408929661683773205 10.179847866164541514 0.99735449735449732689 68 -282.12373238477152881
   30700     297.7031    7.0413231    59.289697   -147.23948    2516.7862    12658.481 
   30710    310.79999    6.7782757    48.447556   -141.85225    1201.9048    12658.481 
   30720     272.7058    6.5104932    67.073919   -137.11283    2620.2513    12658.481 
   30730    321.93306    5.7343404    48.997768   -133.04829   -1569.7196    12658.481 
   30740    317.74758    6.6093123    53.348714    -129.7696    -4.353423    12658.481 
   30750    342.22967    5.8493486    54.692101   -127.60775   -57.356799    12658.481 
   30760    314.60716    3.8984657     69.59079   -126.86708    1562.4019    12658.481 
   30770    313.36953     4.332962    55.161719    -127.5422   -3297.0511    12658.481 
   30780    295.82635    3.4813635    67.376999   -128.91613   -864.89757    12658.481 
   30790    315.21535    4.3838502     58.73811    -130.5196   -949.01559    12658.481 
30800        0.95675950704901613353 10.212195386479894665 0.98941798941798930755 66 -274.62676651837091413
   30800    313.74859    3.0318479    59.414273   -132.47257   -204.84319    12658.481 
   30810    308.01904    2.8550823    58.338194   -134.58927   -122.71638    12658.481 
   30820    289.27936    2.3799357     55.74046   -136.59799    795.21935    12658.481 
   30830    285.90986    2.7316993    56.080106   -138.18681    2019.9986    12658.481 
   30840    297.40507    3.4385529    52.722704   -139.50711     8.900262    12658.481 
   30850     307.9277    4.5498778    52.222711   -140.68196   -1478.8146    12658.481 
   30860    303.82239    5.8240461    54.472368   -141.90567   -1503.5995    12658.481 
   30870     321.1576     7.043195    52.522802   -143.41013    488.17835    12658.481 
   30880    302.51784     7.375756    57.595416   -145.68445    1443.1493    12658.481 
   30890     296.1893    8.4864694    56.172878   -148.45793    -70.01559    12658.481 
30900        0.95662229826104183683 10.228410697547998254 1 62 -278.58840729217064336
   30900    280.46693    8.4417864    51.077394   -151.51357     -181.902    12658.481 
   30910    289.93124    8.4497575    51.006482   -154.79998    -2037.257    12658.481 
   30920     280.8621    10.282563    57.668912   -158.54684    808.24925    12658.481 
   30930    269.09026     10.16921    54.687547   -162.82789    -2180.559    12658.481 
   30940    270.33977    9.8867041    48.377194   -167.14296   -3785.7391    12658.481 
   30950    279.96254    6.1842454    50.382445   -171.21869   -2124.5514    12658.481 
   30960    278.23483    6.2483578     49.91736    -174.6346    3293.1428    12658.481 
   30970    277.96791    8.1390516    48.663875   -177.33832    2682.5457    12658.481 
   30980    270.44425    8.1857381    45.298554   -179.17252    2118.5014    12658.481 
   30990    277.97539    6.0517443    51.209659   -180.28795    1625.7887    12658.481 
31000        0.95913710554716569145 10.230614572998346645 1 65 -307.65752076492532296
   31000    280.04085    4.8497427    47.080872   -180.77574    1929.7118    12658.481 
   31010    266.43248    6.3075475    49.545861   -180.43891    159.20466    12658.481 
   31020    261.55784    7.9027785    46.964947   -178.59385   -3031.3081    12658.481 
   31030    253.06107    7.8824977    51.630955   -174.04808   -4243.9148    12658.481 
   31040    287.55504    5.3601649    49.183634    -166.3069   -404.71513    12658.481 
   31050    289.49825    4.2895855    54.667235   -158.14167    1576.6952    12658.481 
   31060    291.56318    4.7518568    56.634207   -152.78137    972.85352    12658.481 
   31070    302.23996    5.7042177    52.188044   -149.41694   -299.63899    12658.481 
   31080     291.2925    4.5644166    59.252014    -147.1825   -1083.6028    12658.481 
   31090    286.42479    6.1568191    62.350976   -145.36053    1560.6293    12658.481 
31100        0.96615260672056046953 10.216082967741856535 1 71 -271.26909876474087469
   31100    281.71673    7.5760993    64.564398     -143.628    813.75767    12658.481 
   31110    314.02735    7.4182814    59.765762   -141.89035   -580.58856    12658.481 
   31120    315.91659    7.3312705    53.390436   -140.38084   -2299.1367    12658.481 
   31130    311.99124    9.8757833    54.835715   -139.04631    755.31373    12658.481 
   31140    289.35616    11.568395    65.828806   -137.82738   -1067.0121    12658.481 
   31150    310.70948     8.873463    64.491954   -136.72457   -955.80113    12658.481 
   31160    330.14177     8.143186    60.091819   -136.36812   -2037.0691    12658.481 
   31170    336.55781    10.718524    54.672216   -137.14391    852.63653    12658.481 
   31180    320.28807    11.399699    58.257662   -139.16112    2572.5379    12658.481 
   31190    310.34713    11.014303    60.853517   -141.93383     6376.268    12658.481 
31200        0.96911207973789359471 10.178158880019509525 1 71 -280.64710032796790529
   31200    299.33373    11.702067    56.880406   -145.02404    2350.9266    12658.481 
   31210    286.71351    12.453508    54.497816   -147.90699   -1574.6365    12658.481 
   31220    290.01389    8.7955483    59.859347   -150.60117   -4128.0985    12658.481 
   31230    282.75583    6.2604323    63.189117   -153.33826   -1641.8046    12658.481 
   31240    291.30945     5.700098     55.01568   -155.71875   -1548.1095    12658.481 
   31250    300.34389    5.5512791    50.749624   -157.69023      -799.36    12658.481 
   31260    294.16225    6.5654869    50.414414   -159.24239   -172.57518    12658.481 
   31270    285.86429    5.8650565    55.301241   -160.42829    1309.0214    12658.481 
   31280     289.9359    6.1701141    53.338496   -161.26934    1417.0877    12658.481 
   31290    297.15012    3.9398745    54.268114   -161.87714    1614.6241    12658.481 
31300        0.97167026082981811097 10.191675646016099321 1 68 -296.82169699939225893
   31300    296.35656    3.6822733    53.889853   -162.54754   -1595.3634    12658.481 
   31310    302.43849    4.9360212    49.941366   -163.30825   -2300.5214    12658.481 
   31320     298.9164     5.417727    52.668154   -164.28595   -1929.6291    12658.481 
   31330    275.44725    5.1707067    60.332038   -165.32223    638.82835    12658.481 
   31340    263.48849    5.2254319    56.428403    -165.9917    3440.7591    12658.481 
   31350     275.5086    6.1266888    51.100116   -165.73603    1233.8424    12658.481 
   31360    277.13084    6.9363739     55.01289   -164.22263    425.63144    12658.481 
   31370    270.03344    6.9527492    57.534099   -161.62421    1347.8341    12658.481 
   31380    271.02929    6.6446146    52.715454   -157.89964    1190.8489    12658.481 
   31390    293.46653    7.0164261    56.588351   -152.94881   -2760.3019    12658.481 
31400        0.97220820389249829052 10.169579499572645176 0.99735449735449732689 68 -294.70638428552950927
   31400    324.68722    8.2446526    47.846822   -147.59608   -1358.5702    12658.481 
   31410    278.31063    7.4844941    68.027427   -143.19964   -1335.5964    12658.481 
   31420    291.14498    8.9376006    63.372314   -139.61663    3637.8732    12658.481 
   31430    290.75492    8.4962427    60.540761   -136.64835    784.68099    12658.481 
   31440    324.78353    8.4379823    55.810483   -134.12058    630.72851    12658.481 
   31450    294.81579     7.871023    71.681787   -132.19662   -1938.8495    12658.481 
   31460    325.44431    8.4305896    54.197291   -130.78214    -3523.065    12658.481 
   31470    292.73339    8.2742437    71.730619   -130.07253    644.98338    12658.481 
   31480    316.06174    6.7071946    61.523042   -129.85285   -234.25203    12658.481 
   31490    303.06119    6.1359745    62.110846   -130.14047   -660.57039    12658.481 
31500        0.97034972853232337453 10.173075394533546145 1 72 -270.76935307507494599
   31500    308.86153    3.6630067    66.672057   -130.82941    1508.9766    12658.481 
   31510    303.12274    4.4193902    63.028429   -131.98779    -500.8581    12658.481 
   31520    317.44102     4.432869    60.152346   -133.66713    1347.3819    12658.481 
   31530    317.87849    5.6704465    62.525651   -136.70443    705.69384    12658.481 
   31540    312.25267    6.5343456     58.92828   -141.06669   -790.89447    12658.481 
   31550    283.03084    7.4414577    57.691292   -145.91499   -78.833996    12658.481 
   31560     276.0496    5.5266653    61.233476   -150.09176   -2155.8665    12658.481 
   31570    289.60539    6.0363934    60.432517   -153.50508    -655.4487    12658.481 
   31580    289.72408    6.6163411    56.783448   -156.56305    174.65255    12658.481 
   31590    300.47318    7.9142004    51.095259    -159.0457    1556.6912    12658.481 
31600        0.9741013670918448053 10.124540048961705452 1 73 -294.88390643670214786
   31600    295.62369    4.9807094    49.903183    -160.9418    3082.3473    12658.481 
   31610    281.45377     4.332894      53.0361    -162.0356     2684.414    12658.481 
   31620    265.76277    5.5697192    57.427818   -162.20671   -1304.4627    12658.481 
   31630    284.78301    6.8361264    52.200449   -161.59784   -4395.4503    12658.481 
   31640    300.99527    6.9709828    56.019858    -160.6391   -961.79617    12658.481 
   31650    300.97128    7.3826419    52.465298   -159.72363    658.85232    12658.481 
   31660    275.80651    9.2976821    55.204444   -158.62334   -843.84536    12658.481 
   31670    284.55534    11.837028     47.11324   -156.94922    1287.5974    12658.481 
   31680    276.43182    10.947427    53.547271    -154.7902    -189.1205    12658.481 
   31690    286.42514    11.663254    54.574379   -152.08178    540.84061    12658.481 
31700        0.97719236614098048399 10.082500141920693437 1 70 -284.82420917146839656
   31700    298.77459    9.3894791    57.127296   -149.45448   -1916.5506    12658.481 
   31710    314.30493    6.9404682    51.328216    -147.5492    1125.6609    12658.481 
   31720    303.88352    5.6634694    55.434295   -146.22005    49.045427    12658.481 
   31730    296.22792    6.0526155    56.914923   -145.19886    101.57378    12658.481 
   31740    284.86016    8.0771045    56.651031    -144.0579   -1274.3234    12658.481 
   31750    281.66572    9.3596751    57.036576   -142.63125    283.52641    12658.481 
   31760    287.98502    7.0778633    61.384875   -140.94348    444.42066    12658.481 
   31770    309.95806    7.6512957    51.204564   -139.29672     235.5155    12658.481 
   31780    308.72889    5.7999549    58.366443   -138.02403    793.39934    12658.481 
   31790    305.28958    6.8577201    57.040524   -136.83261     371.3869    12658.481 
31800        0.98245674903561674984 10.017984646861483711 1 70 -282.50883371479636708
   31800    323.32068    6.9105704    58.196342   -136.01769    4162.9977    12658.481 
   31810    322.90293    7.4379723    56.679854   -135.88937    1214.5627    12658.481 
   31820    315.30667      8.91843    54.028659   -136.17669   -4214.2478    12658.481 
   31830    288.77509    8.2276794    65.086493   -136.72513   -4412.6643    12658.481 
   31840    318.55358    8.6899247    55.315839   -137.73563   -1631.6351    12658.481 
   31850    298.96968    8.8514976     61.60868   -139.58508    1467.4173    12658.481 
   31860    293.79572    10.305493    58.429667   -141.93884    3386.8047    12658.481 
   31870    299.58503    10.098209    61.630572   -144.86742    456.78318    12658.481 
   31880    301.71478    8.9722248     55.23967    -148.8465    3009.5113    12658.481 
   31890    295.66026     7.270792    53.656811   -154.33493    2159.4539    12658.481 
31900        0.98457181881046174077 10.00096122033464674 1 71 -282.79106938453662679
   31900    270.24295    7.2732126    53.817348   -160.34855    1823.6416    12658.481 
   31910     260.1969    8.1277849    56.502896   -165.53303   -3176.5775    12658.481 
   31920    235.18737    9.4983602    58.213976    -168.9558   -2930.8915    12658.481 
   31930    267.74469    8.3936567    50.889901   -170.59309   -202.21931    12658.481 
   31940    269.60819     8.890285    58.426083   -171.12062   -679.79291    12658.481 
   31950    289.18373    10.533003    51.934634   -170.88863    1040.3307    12658.481 
   31960    303.28571    10.479519     44.20204   -170.29893   -963.79618    12658.481 
   31970    286.22547    8.8083364    50.105659   -169.51551    638.88558    12658.481 
   31980    289.37894    9.7815695    56.442653    -168.3679    3099.3211    12658.481 
   31990    300.56177    13.232089    53.690424    -167.2434    1010.3423    12658.481 
32000        0.98997898279532969834 10.018662196805776077 1 70 -305.56661215251699559
   32000    307.11224    10.644463    51.976344   -166.41924   -916.65558    12658.481 
   32010    298.85029    8.7075173    59.473262   -165.96899    842.90556    12658.481 
   32020    281.04485    8.1063526    57.095388    -165.5287    -914.3586    12658.481 
   32030    295.29643    9.0932992    46.874103   -164.76277    2562.2921    12658.481 
   32040    270.22853    8.0820585    57.803848   -163.70116   -3.8382503    12658.481 
   32050    294.72754     7.018824    56.784511   -162.03175    39.574705    12658.481 
   32060    283.31951    8.8349654    60.589154   -160.05294   -1074.3503    12658.481 
   32070    283.54405    11.260379    55.762136   -157.67547    -585.6021    12658.481 
   32080    278.37682     13.03866    57.027204   -155.32744   -301.83951    12658.481 
   32090    304.25744    13.098375     51.41132    -152.7317    226.67929    12658.481 
32100        0.98421062727002472936 10.099993700014941567 1 72 -292.94243997671622992
   32100    314.68807     10.68203    54.278724   -150.36259    2100.6309    12658.481 
   32110    299.36794     10.55084    57.857728   -148.47872   -1156.4931    12658.481 
   32120    288.84919    9.1655277    58.487155   -146.85617   -261.12754    12658.481 
   32130    316.67034    7.9559954    62.505949   -145.41277    860.25403    12658.481 
   32140    319.42849    11.156392    58.365497   -144.69529   -1849.5565    12658.481 
   32150     310.4599    10.275035    61.399113   -144.65387   -3976.4948    12658.481 
   32160    304.14412    10.115488    59.652505   -145.11906    -407.7969    12658.481 
   32170    282.16048    7.6135437    60.952271   -145.41176    3870.0079    12658.481 
   32180    282.03537     5.640242    60.766358   -145.15406    1742.6899    12658.481 
   32190    287.30603    4.8480589    63.232957   -144.45017   -1806.9944    12658.481 
32200        0.97997920277966732439 10.146775587497829818 1 70 -293.36064142648285724
   32200    330.30501    3.7369345    56.119251   -143.70501   -2026.1199    12658.481 
   32210    300.64875    5.9380908    67.181189   -143.96567   -497.62948    12658.481 
   32220    296.14078    9.0840635    61.314147   -144.61631    626.41986    12658.481 
   32230    278.69305    11.137124    63.734671   -145.05727    1131.0324    12658.481 
   32240    297.75861    11.621289    59.066174   -145.17805    374.03215    12658.481 
   32250    284.81217    10.260413    66.239095   -145.29761   -184.88098    12658.481 
   32260    308.20759    8.9707268    54.697239   -145.32823    499.82662    12658.481 
   32270    295.51261    6.6611235    59.264403   -145.29883    713.36023    12658.481 
   32280    312.10753    5.9948444    54.830249   -145.32766   -441.23923    12658.481 
   32290    293.49656    5.8575515    58.095213   -145.33106   -1474.6538    12658.481 
32300        0.97767811904711121596 10.164100406680068645 1 68 -281.78894997424248459
   32300    300.87626    5.8877387    61.585737   -145.46699    1626.5098    12658.481 
   32310    295.67112    6.4520479     65.72573    -145.6815    356.09593    12658.481 
   32320    318.65429    8.2446804    56.540272    -145.8238    -809.7238    12658.481 
   32330    323.32164    7.3287036    50.575736   -146.61792    -158.3905    12658.481 
   32340    306.03409    6.1940645    55.919003   -147.95739   -2567.6095    12658.481 
   32350    292.63931    6.9751162    44.595798   -149.33308   -2253.2991    12658.481 
   32360    312.41246    6.6982003    52.869619   -150.45787   -598.78721    12658.481 
   32370    310.49937    6.3640679    60.123763   -152.10962       3668.5    12658.481 
   32380    307.36095    5.6420023    56.394431   -154.50136    2847.6785    12658.481 
   32390    307.00942    7.6571308     53.98568   -157.69195   -489.77924    12658.481 
32400        0.96823862999892473802 10.194064795543440027 0.99735449735449732689 71 -287.00196543548810268
   32400    278.48128    7.7248933    55.194273    -160.8268   -170.43366    12658.481 
   32410    290.51169     5.687011    53.549252   -163.47824   -920.17616    12658.481 
   32420    280.22867    5.1088284     51.67084   -165.38594   -3667.4825    12658.481 
   32430    288.36345    5.7037814    48.354805    -166.4716   -1392.2407    12658.481 
   32440    292.78181    7.0577755    48.887027   -166.95995   -487.80247    12658.481 
   32450    274.12414    7.9340095     51.10777   -166.79786    2833.1636    12658.481 
   32460    271.96947    8.5477814    55.061758   -165.69015    1925.3779    12658.481 
   32470    266.78696    7.1074511    56.461308   -163.37313    258.28799    12658.481 
   32480    295.63443    6.4733787    53.322625   -159.54241    -1472.349    12658.481 
   32490    310.17299    5.2938802    55.365768   -154.83696   -1692.4118    12658.481 
32500        0.96993521900178958361 10.192562609958619291 0.99735449735449732689 65 -297.3561921696256718
   32500    325.08845    5.5589714    53.657077    -150.0641    1058.8847    12658.481 
   32510    286.28512    7.1925261    71.409523   -146.32834    9.2818823    12658.481 
   32520    287.65439    5.8086765     59.92107   -143.26273   -651.01521    12658.481 
   32530     279.6296    6.9617831    66.637763   -140.74894    -2215.248    12658.481 
   32540    316.78843    5.7212621    54.190412   -138.43547    1181.4031    12658.481 
   32550    307.58277    4.0308107    59.020089   -136.54984    1317.4453    12658.481 
   32560    324.10463    3.4981419    54.083731   -135.12777   -1600.5229    12658.481 
   32570    329.22286    5.3656019    59.880782   -134.57084    -1822.683    12658.481 
   32580    292.55485    8.9719833    66.243867   -135.30386    2124.5092    12658.481 
   32590     294.1125    8.6386179    69.306242    -136.3787    4162.3688    12658.481 
32600        0.97271164836774026696 10.184340497017160487 1 68 -268.78799511786405674
   32600    289.99042    9.9957366      66.8845   -137.39823    1429.2281    12658.481 
   32610    327.91442    10.069067    57.202117   -138.37082    17.319846    12658.481 
   32620    325.03733    9.1086206    65.462421   -140.20093    1460.5567    12658.481 
   32630    324.08446    7.9826381     64.31063   -142.78269    198.31244    12658.481 
   32640    311.23713     10.03873    61.756644   -146.10582   -1321.4828    12658.481 
   32650    322.27845    9.4201129     57.64309   -149.61568   -892.08336    12658.481 
   32660    318.58094    8.4488642     54.10263   -153.08139   -263.38043    12658.481 
   32670    298.12772     8.012969    52.753336   -155.79222   -187.16081    12658.481 
   32680    283.07404    7.8406375    58.690711   -157.41798   -2127.5073    12658.481 
   32690    288.29825    6.8172137    56.291032   -158.09441     314.9142    12658.481 
32700        0.97572136049267632618 10.169710467040271595 1 68 -292.11845001160389756
   32700    295.21498     5.831105    56.626163   -158.36152    97.951659    12658.481 
   32710    284.69967    5.7238577    55.884021   -158.42811    78.235662    12658.481 
   32720    273.52416    10.103711      55.7567   -158.07867    311.58574    12658.481 
   32730    281.60791    9.2693056     53.93177   -157.13686    1081.4529    12658.481 
   32740    291.14361    7.0025659    54.064083   -155.63893    102.49058    12658.481 
   32750    311.68182    7.2896553    52.899527   -153.88669    -834.3628    12658.481 
   32760    313.33056    6.3696153    56.268618   -152.33316   -4197.7861    12658.481 
   32770    307.98982    6.1609188    63.184624   -151.27455   -811.15659    12658.481 
   32780    309.20584    6.1686032    59.304215    -150.7217    467.86518    12658.481 
   32790    299.89576     6.096157    61.193075   -150.42579    1979.3813    12658.481 
32800        0.9659819609330605461 10.186100269940489227 1 65 -291.3668746317674163
   32800    311.46815    5.4235807    53.436495   -150.24591     323.9964    12658.481 
   32810    280.15947    5.2705199    64.040991   -150.13868    22.281869    12658.481 
   32820    306.09523    4.9892231     56.61002   -149.70996    1707.6249    12658.481 
   32830    287.27721    2.8553663    61.692045   -149.16065    1027.9018    12658.481 
   32840    295.45686    4.0443822     57.42884   -148.21302   -946.15286    12658.481 
   32850    267.51741    7.1740946    62.148098   -146.37373   -2448.6162    12658.481 
   32860     296.1059    9.4327412    56.340078    -143.0389    58.280775    12658.481 
   32870     293.7777    6.9078608    61.080829   -138.10514    2793.2087    12658.481 
   32880    293.78899    5.4363785     63.25117    -132.9248    3045.8095    12658.481 
   32890     283.2406    5.1886045    64.534763   -127.37709   -2448.3353    12658.481 
32900        0.96265613748067424549 10.196081713368201349 0.99735449735449732689 67 -271.64715461214808556
   32900     329.7309    3.6967067    63.409036   -122.25165   -719.18324    12658.481 
   32910    357.52855    3.4014505    53.126372   -118.44195    112.78598    12658.481 
   32920    326.68585    5.0862414    66.916832   -117.13583    1019.9081    12658.481 
   32930    329.52926    8.1490159    59.619837   -117.16535   -709.00678    12658.481 
   32940    329.43994    9.1025576    50.854611   -117.87573   -1449.1331    12658.481 
   32950    334.69256    10.469606    56.413043   -119.31623    304.89069    12658.481 
   32960    299.47655    11.836033    61.194797    -121.6092     1208.583    12658.481 
   32970     305.6052    9.9434794    59.126759   -124.34301   -1312.5544    12658.481 
   32980    315.69528    5.9376511    55.163422   -127.38848   -638.25584    12658.481 
   32990    312.36676    3.4610405    60.143378   -130.77012   -2094.8881    12658.481 
33000        0.96544948034424815653 10.188794209256158751 0.99735449735449732689 67 -283.1087489273608071
   33000    327.54338    4.2457453    61.523092   -134.70437     1725.137    12658.481 
   33010    318.49248     6.903095    58.787381   -139.65749   -486.21798    12658.481 
   33020    269.42815    9.7720815    62.363908   -143.82075    1219.3355    12658.481 
   33030    264.37403    10.986093    58.172154   -146.21106     -1883.86    12658.481 
   33040    266.39244    9.3381848    57.722253   -146.96976    750.60056    12658.481 
   33050    306.63868    7.7880024    52.530567   -146.95878    1822.6306    12658.481 
   33060    259.35902    9.0701747    62.103266   -146.82462     830.4896    12658.481 
   33070    298.71776    9.6959659    46.886926     -146.146    1844.5594    12658.481 
   33080    269.02676    7.6888574    63.017752   -144.99233    1881.5093    12658.481 
   33090    308.56157    7.8345788    51.184176   -143.54949   -1006.3023    12658.481 
33100        0.96062125006429111007 10.212221270165333209 0.99735449735449732689 67 -263.1248816274995761
   33100    267.03184    8.2600719    68.028197   -142.13726   -494.07311    12658.481 
   33110     326.1567    6.0277543    50.411106   -140.70152   -826.18528    12658.481 
   33120    313.43879    5.6230702    66.476446   -139.90238    2128.3698    12658.481 
   33130    339.66891    5.9533222    45.765925   -139.97978   -2768.7475    12658.481 
   33140    291.83336    4.4712015    56.103451   -140.58786   -3225.2128    12658.481 
   33150    316.90799    3.8006423    53.141502    -141.1753   -369.27394    12658.481 
   33160    289.90746     3.711745    62.209745   -141.94382   -663.14676    12658.481 
   33170    306.79211    6.1635757    55.261667    -142.8608    1249.3121    12658.481 
   33180    277.65289    7.1724945    64.547322   -144.13455   -749.52148    12658.481 
   33190    313.14955    7.4950087    55.859077   -146.01639    2900.3198    12658.481 
33200        0.95201424548988655694 10.227242203637262108 0.99735449735449732689 65 -294.4070949756534219
   33200    319.01591    8.1255237    52.586946   -149.86637    2609.8777    12658.481 
   33210    312.32623    6.7860063    47.888718   -155.88051    1551.0488    12658.481 
   33220    281.42964    6.5679932      54.1385   -163.12489   -792.38829    12658.481 
   33230    236.77729     7.276276    58.931114    -168.2941    322.68598    12658.481 
   33240    239.49983      6.56728    54.593135   -170.84764   -1954.1432    12658.481 
   33250    250.41908    7.8894721    51.896212   -171.35849    167.23717    12658.481 
   33260    269.94671    7.3377873    49.720381   -170.45032   -3173.4104    12658.481 
   33270    277.07337    6.7461321    56.180966   -168.68315   -495.93835    12658.481 
   33280    277.84679    10.301622    52.741264   -166.28994   -1834.6428    12658.481 
   33290    286.55973     10.37786    50.837809   -163.44693    3108.7006    12658.481 
33300        0.94039708694075763162 10.273737706581098195 0.98941798941798930755 64 -297.12837684979604091
   33300      301.805    9.0936965    52.119847   -160.38562    2905.6801    12658.481 
   33310     302.7753    8.1919114    49.082849   -157.26171    1065.8461    12658.481 
   33320    319.15742    4.5832253    51.153353   -154.36243   -4950.0037    12658.481 
   33330    296.65664    4.1581228    56.431916   -152.04499   -4672.8259    12658.481 
   33340     293.8339    3.9060605    60.094316     -150.131   -552.61924    12658.481 
   33350    287.02223    5.4217902     54.99006   -148.39044    876.59763    12658.481 
   33360    275.65811    6.5025576    55.031699   -146.34082    284.18323    12658.481 
   33370    291.30103    6.9614408    51.974339   -143.90699    2067.7736    12658.481 
   33380     287.6807    5.6983173    58.323896    -140.8992    2653.8296    12658.481 
   33390    294.22317    5.1202285    58.821252   -138.23834    3059.2236    12658.481 
33400        0.934771835964523512 10.284537672683310205 0.99470899470899465378 69 -271.24776811442450253
   33400    298.70073    3.5604347     56.03576    -135.9115   -1363.8474    12658.481 
   33410    293.90907    4.5443082    64.071871   -133.99323   -5218.6222    12658.481 
   33420    288.03114    6.9826612     67.81556   -132.33837    -1241.639    12658.481 
   33430    300.94252    5.3802407    60.052516   -131.08047   -1359.0501    12658.481 
   33440    320.59698    4.7260155    60.209245   -130.27957    1040.9761    12658.481 
   33450    326.21656     6.873476    54.542477   -130.11253    127.46551    12658.481 
   33460    313.73997    7.1673845    58.590443   -130.57536    39.672268    12658.481 
   33470    298.28951    5.7853856    63.038541   -131.51425    2275.6155    12658.481 
   33480    289.95301     7.332815    66.763239   -132.61284    4510.1888    12658.481 
   33490    303.34683    7.8022474    55.838684   -133.45007    969.66106    12658.481 
33500        0.93972122269584323906 10.291258786433441941 0.99206349206349198067 64 -270.9598628961967961
   33500    301.91575    7.7694866    57.893207   -134.16693   -2692.3925    12658.481 
   33510    323.09805     6.059685    55.371484   -134.81866   -3411.6375    12658.481 
   33520     287.3485    5.1996615    72.097064   -135.89388   -864.21982    12658.481 
   33530    312.01612    4.5916403    54.447479    -137.0311   -2030.8051    12658.481 
   33540    292.04858    6.1375855    59.705379   -138.16127   -1911.7599    12658.481 
   33550    309.90599    5.4810784    56.312354   -139.34313    873.02684    12658.481 
   33560    296.81112    5.4766492    56.266901   -140.30934      1293.35    12658.481 
   33570    296.48359    4.3753395    56.393036   -141.29373    2136.8421    12658.481 
   33580    315.76697    4.0975788    54.250931    -142.2289    1846.7032    12658.481 
   33590    297.75609    4.9441494    57.746952   -143.46391   -200.43111    12658.481 
33600        0.95195880388654452453 10.26656483412154941 1 67 -285.69489311410654864
   33600    310.08272    4.2716854    49.460509   -145.20164    77.458018    12658.481 
   33610    276.94069    3.1702554    59.857928   -147.68858   -1580.6982    12658.481 
   33620    282.33761    2.5856274    57.767438   -151.37516    2482.4239    12658.481 
   33630     269.9454    4.7903783    55.374176   -155.77124   -330.18788    12658.481 
   33640    275.36606    5.2801357    50.473896   -160.70375   -45.332104    12658.481 
   33650    275.62955    5.6695937    49.048217   -164.73788   -2746.4085    12658.481 
   33660    279.76398    5.2544581    47.761309   -168.13945   -1462.7203    12658.481 
   33670    256.54254    5.2457051    60.694737    -170.3291   -293.10767    12658.481 
   33680    270.04496    7.1546074    46.697609   -171.17348    813.35639    12658.481 
   33690    272.40231    6.8085116    54.827699   -170.95609   -2608.3463    12658.481 
33700        0.96907764595133094598 10.209622801865947395 1 68 -298.5292772561745096
   33700    284.27519    7.1818054    46.896232   -169.72898   -1280.7499    12658.481 
   33710    288.09112    7.5565442     49.52858    -167.6347    1882.5344    12658.481 
   33720    283.95966    7.5965128    57.926777   -164.93957    5266.9311    12658.481 
   33730    289.67396    9.1946393    52.680095   -161.66099    662.71295    12658.481 
   33740    278.70737    7.7476255     53.99219   -158.09805   -2758.5846    12658.481 
   33750    290.26635    6.8719983    53.347371   -154.11155    -4808.783    12658.481 
   33760    297.56059    7.3548057    59.542787   -150.11963    689.21063    12658.481 
   33770    319.38069    10.222027    53.806896   -146.49558    1165.9761    12658.481 
   33780    307.71041    11.581309    56.739919   -143.72213   -20.658041    12658.481 
   33790    322.89219    11.764431    54.507991   -141.90444    1640.6834    12658.481 
33800        0.9840658027003853503 10.116439520333454283 1 68 -276.99451695167147136
   33800    300.19472    11.407406    56.315534   -140.98136    3454.3465    12658.481 
   33810    326.06203    12.027678    54.642809   -140.75883    2571.4761    12658.481 
   33820    328.99117    9.3486624    60.022215    -141.2641   -1997.2402    12658.481 
   33830    337.96768     7.519768    52.920861   -142.71271   -3790.6643    12658.481 
   33840    302.21958    6.9375271     65.90654   -144.78968   -476.45992    12658.481 
   33850     298.6712    10.960353     57.55076   -146.83826    259.62718    12658.481 
   33860    293.38109    12.111341    54.163327   -148.44914   -1266.9195    12658.481 
   33870    287.57225    12.950377    55.412419   -149.79978   -200.84269    12658.481 
   33880    276.50523    12.521436    61.582174   -150.70849    1778.5653    12658.481 
   33890    290.47043    11.250425    52.968115   -151.04701    5152.3552    12658.481 
33900        0.98904145378843599801 10.105401486556280233 1 68 -281.45509779984547549
   33900    288.31285    8.4244078     51.70151   -150.82541      2935.93    12658.481 
   33910    300.66556    5.9654438    54.334103   -149.91155    943.08137    12658.481 
   33920    304.89142    5.8967433    58.954176   -148.72623    -1535.459    12658.481 
   33930     303.9304    7.2163578    60.280115   -147.58142   -5094.2912    12658.481 
   33940    306.89797    9.8582604    59.227569   -146.53156   -3055.2357    12658.481 
   33950    293.91044    9.0733939    63.150608   -145.71128   -2746.6819    12658.481 
   33960    296.15995    6.5343378    61.186619   -144.65983     1125.505    12658.481 
   33970    320.20068    5.8239679    56.325001   -143.14197    577.87028    12658.481 
   33980    300.09495    6.2318988    60.982577   -141.10471    2321.6116    12658.481 
   33990    301.50596    7.3910635    59.926663   -138.12136    4133.7029    12658.481 
34000        0.98826413247973565745 10.074105772988774632 1 69 -265.09147037592470042
   34000    290.04846      9.60826    61.326816    -133.6754    908.34557    12658.481 
   34010    307.60975    14.297686    56.044179   -128.12315    1954.6535    12658.481 
   34020    305.66697    15.212781    73.483935   -122.62858   -637.85304    12658.481 
   34030    331.27428    11.761726    68.898703   -117.88359    1758.9933    12658.481 
   34040    353.68896    8.5881655    64.543741   -115.30272   -2932.5382    12658.481 
   34050    324.34611    7.6000831    68.289831   -114.92216   -1982.1434    12658.481 
   34060    332.36561    8.2746121    64.384695   -115.89095   -2480.8899    12658.481 
   34070    350.21429    7.2565358    61.222936   -118.11407    732.85968    12658.481 
   34080    343.76634    6.8565031    65.391309   -122.67279    387.89016    12658.481 
   34090    330.30836     9.261107    55.348745   -128.10218   -389.86874    12658.481 
34100        0.9850894349871693878 10.081182482815169266 1 74 -281.60713531326661041
   34100    327.12607    9.8669246    58.004907   -133.39183    539.41659    12658.481 
   34110    315.13673    9.1371597    59.255536   -137.43653    3172.2815    12658.481 
   34120    311.82059    8.5249911     54.96515    -140.3884    870.98709    12658.481 
   34130    298.67244    6.3860607    58.886366   -142.72388    1446.3423    12658.481 
   34140    297.98838      5.11137    57.746433   -144.58792   -2228.5736    12658.481 
   34150    277.01243     4.596868    61.038355   -146.04288   -1884.8221    12658.481 
   34160    314.62794    3.6878217    56.404017   -146.92533   -2862.3938    12658.481 
   34170    302.04712    3.0458788    54.394385   -147.87117    -1656.475    12658.481 
   34180    325.79647    3.4929637    44.474083   -148.55355   -168.98716    12658.481 
   34190    302.01817    4.4876898    56.303483   -149.13393     1558.746    12658.481 
34200        0.9807080738339771786 10.066297196421441384 1 69 -267.46858116943144523
   34200    260.53057    4.9546559    63.702118   -149.42658    2970.8481    12658.481 
   34210    277.37782    4.8185555    57.452858   -149.11253    3091.6702    12658.481 
   34220    266.26981    4.5039202    67.170749   -148.42495    1201.1526    12658.481 
   34230     291.0503     6.750773    50.588165   -147.11345    793.74161    12658.481 
   34240    256.03709    6.0835863    68.131043   -144.97962    70.289719    12658.481 
   34250    311.83871    6.2682127    55.152752   -141.37524   -516.18511    12658.481 
   34260    300.70094    5.6426913    63.312333   -136.73313   -3951.7607    12658.481 
   34270    303.86199    5.2880324    62.333084   -132.23811   -926.33919    12658.481 
   34280    307.87956    5.7502606    61.322154   -127.52505   -631.96302    12658.481 
   34290    317.62695    5.2109475      62.1195   -123.36589    2333.9845    12658.481 
34300        0.98001020386575243837 10.102395250665072268 1 67 -269.14952933816857694
   34300    328.93465    6.0345308     54.48376   -120.11479     1461.527    12658.481 
   34310    325.12576    6.7064919    62.917703   -117.97462    820.02297    12658.481 
   34320    339.05504    5.0955041    61.361031   -117.05544    256.28926    12658.481 
   34330    336.15462     6.912555    66.483873   -117.59985    142.87988    12658.481 
   34340    330.19143    8.0103017    68.748816   -119.57149   -2157.9333    12658.481 
   34350    328.49089    10.173568     63.35603   -122.55992   -1024.6609    12658.481 
   34360    303.94859    9.9082909    65.461619   -125.84166   -1839.6536    12658.481 
   34370     315.4627    7.4999673    60.292467   -128.58611    989.99192    12658.481 
   34380    305.56734    6.8877139    63.550359   -130.93558   -694.58104    12658.481 
   34390       286.15    7.9450345    63.500903   -132.86713    1655.6038    12658.481 
34400        0.97990791647398300945 10.122006874225981221 1 68 -261.85680540264297633
   34400    281.59524    7.2826119    70.051581   -134.27075    1458.5531    12658.481 
   34410    294.54182    7.0091901    57.621314   -135.36134    1408.5275    12658.481 
   34420    293.48801    4.7665264    66.214258   -136.40498    -169.3799    12658.481 
   34430    317.37174    4.9854757    61.165512    -137.6292   -77.159904    12658.481 
   34440    293.11751    3.3429493    72.041127   -139.58212   -2052.2561    12658.481 
   34450    300.64628    5.2735302    61.422155   -142.03067   -2593.4534    12658.481 
   34460    281.56528    5.5235476    66.045321   -144.94521   -975.41877    12658.481 
   34470    271.48476    5.7794931    63.012356   -147.48401    -424.5962    12658.481 
   34480    279.13088     8.387877    55.704915   -149.32748    675.95095    12658.481 
   34490    275.20813    11.637572    58.792164   -150.31323    394.89967    12658.481 
34500        0.97949949362086263793 10.119559038421355623 1 68 -278.5062082469651159
   34500    282.70444    9.7870449    60.719978    -150.4176    1839.4668    12658.481 
   34510    280.23786    8.4781395    62.805557   -149.92761    1678.2551    12658.481 
   34520    310.92455    6.3824811    56.701039   -149.13412   -1569.2489    12658.481 
   34530     319.1515     6.471839    58.987887   -148.43024   -2496.2994    12658.481 
   34540    313.81356    5.2462041    56.832993   -148.17406   -70.249369    12658.481 
   34550    312.60108    5.4770043    55.507548   -148.37698    654.12243    12658.481 
   34560    307.81488     6.202696    53.386873   -149.01386    799.57835    12658.481 
   34570    292.57143    7.5581553    64.141933   -149.81341    352.97295    12658.481 
   34580    292.47605    7.6354169    57.301655    -150.4652    317.05121    12658.481 
   34590     283.9818    6.4595535    57.906964   -150.97883   -1644.9102    12658.481 
34600        0.9788177468824206251 10.136320070188633125 1 68 -280.7866068675381257
   34600    285.91983    6.1002167    53.531494   -151.24116   -1933.6809    12658.481 
   34610    287.11936    7.3221015    58.864766   -150.80303    296.24235    12658.481 
   34620    312.38962     5.873081    57.022244   -149.60558    3590.4153    12658.481 
   34630    323.25194    8.3707061    52.641895   -148.45983    1327.0954    12658.481 
   34640    308.99599    8.2536547    58.709049   -147.79267   -43.727566    12658.481 
   34650    284.42364    9.1421139    60.740053   -147.39847   -2085.2846    12658.481 
   34660    294.86782    9.1016112    57.362863   -146.78914   -650.68149    12658.481 
   34670    307.17042    8.6155642    58.257245   -146.02203   -1839.9365    12658.481 
   34680     322.4571    9.6587006    60.283807   -145.37549   -2113.2431    12658.481 
   34690    300.66977    10.664228    61.438968   -145.44955    -2039.212    12658.481 
34700        0.98403098614393291754 10.118698528042260776 0.99735449735449732689 67 -277.33724049919999288
   34700    289.71187    9.6266076    65.285202   -146.07368    392.40041    12658.481 
   34710    293.82562    8.9160945    65.910887   -146.98802    2477.6754    12658.481 
   34720    312.86894    8.9295573    59.754035   -148.07874    2609.2498    12658.481 
   34730    332.55379    8.3576781    53.878831    -150.0237   -1814.9604    12658.481 
   34740    313.73334      8.41119    59.830979   -153.56683   -216.83721    12658.481 
   34750    291.41216    6.7476783    55.866499   -157.99015   -510.20392    12658.481 
   34760    260.40324    6.6504052     61.05867   -161.81491    2495.2708    12658.481 
   34770    274.37983    9.3579959    55.246273   -164.72018   -1874.1398    12658.481 
   34780     266.8613    9.1065051    61.455845   -166.80501    358.40217    12658.481 
   34790    302.65266    7.2152868    51.737673    -168.0967    4498.3188    12658.481 
34800        0.98180259237276834572 10.105529284986642935 1 65 -298.28586310177155383
   34800    285.27055    5.4000636    58.649507   -169.03459    3582.0476    12658.481 
   34810    271.40031      4.95055    58.284388   -169.80422   -562.63842    12658.481 
   34820    276.48477    5.7875749    55.680244   -170.20848   -3737.9632    12658.481 
   34830    290.86582    6.0180546    51.623488   -170.09092    540.72974    12658.481 
   34840    287.93287    6.6273239    53.938844   -169.32506    2349.0579    12658.481 
   34850    289.27682    6.8797473    51.667543   -167.58832   -748.69533    12658.481 
   34860    305.28804    8.4021666    52.877995   -164.61486   -1714.2926    12658.481 
   34870    317.43573    8.9204206     47.27633   -160.36469   -1609.7292    12658.481 
   34880    290.36631    8.1211543    58.678345    -155.0991    2350.7778    12658.481 
   34890    296.96522    9.9590357    55.372465   -148.93287    762.62706    12658.481 
34900        0.97721023969839782009 10.156780471315451919 1 65 -267.15061901871132477
   34900    274.82737    9.3985231    68.428855   -142.63098   -1185.9771    12658.481 
   34910    320.40691    6.9681801    57.111519   -137.49065    -1585.736    12658.481 
   34920    307.78308    4.6287858    61.242718   -134.07239    1178.7833    12658.481 
   34930    337.17737    3.0755728    57.832032   -132.39244   -562.41434    12658.481 
   34940    328.21393    3.2014171     62.65954   -132.12281   -37.434234    12658.481 
   34950    317.00731    5.1313458    64.053941   -132.70833   -2675.3581    12658.481 
   34960    323.83689    4.6174599    66.076275   -133.89468    2172.3709    12658.481 
   34970    305.68597    7.0528687    66.859515   -135.85916    183.44115    12658.481 
   34980    309.61264    7.6421408    57.136747   -138.33421   -3341.1064    12658.481 
   34990    303.48002    11.070322    61.519766   -140.95349   -293.01485    12658.481 
35000        0.96542035368595191525 10.201205926366966992 1 65 -286.41913598871366275
   35000    314.07217    9.0129022    61.899952   -144.11833    1001.3135    12658.481 
   35010    276.23865      13.2005    69.466376   -147.52426    4313.1799    12658.481 
   35020     302.2456    13.347931    54.882267   -150.55826   -1833.1468    12658.481 
   35030    293.36565    11.638006    58.559414   -153.14451   -487.99657    12658.481 
   35040    294.04125    7.9881776    54.946745   -155.30827   -692.77025    12658.481 
   35050    274.95261    8.1568352    61.022063     -156.949    1674.7992    12658.481 
   35060    263.76604    8.9828857    63.906989    -157.7566    64.024051    12658.481 
   35070     282.1519    5.8583261     54.85651   -157.92511   -6.5331854    12658.481 
   35080    252.71252    3.7173183    69.305983   -157.49585    1379.0674    12658.481 
   35090    312.59344    3.9501016    48.387567   -156.25081    2309.9051    12658.481 
35100        0.96033544060862185976 10.220387184554711624 0.99735449735449732689 66 -294.65541179745179079
   35100    309.07953    5.0097009    47.370224   -154.61669   -1594.3994    12658.481 
   35110    306.82523    6.9948057    58.011037   -152.62607     -1148.35    12658.481 
   35120    295.03387    10.718514    54.584492   -150.07652   -3134.5849    12658.481 
   35130    304.05421    12.118009    57.723456   -146.44999    1601.2397    12658.481 
   35140    343.08228    13.546824    46.682001   -141.43423    195.94957    12658.481 
   35150    328.71091    9.1347576    61.959092   -135.79046   -1196.4112    12658.481 
   35160    342.97088    7.1567363    58.691509   -130.40465   -2163.8965    12658.481 
   35170    364.77022    6.7288601    51.253779   -126.07103   -2157.9705    12658.481 
   35180    333.12515    7.3070028    65.682934   -123.56349     1259.652    12658.481 
   35190    320.56849    7.4747829    62.593759    -122.4538    4397.9528    12658.481 
35200        0.95701242975112987832 10.241686226047223229 1 67 -249.24228498083624572
   35200    280.07389    9.9214006    70.809905   -122.34553     530.5636    12658.481 
   35210    319.66609    9.9310032    61.282368   -122.39073    1712.6306    12658.481 
   35220    315.93005    6.2713265    65.461315   -122.82945   -1906.8908    12658.481 
   35230    327.37037    4.2498807     64.62379   -124.48267    1980.2108    12658.481 
   35240    286.36867    5.7905241    72.231268   -128.19546   -4420.0666    12658.481 
   35250     281.3695    5.2853425    58.843173   -133.67748   -1513.5591    12658.481 
   35260    278.40799    4.4697365    76.337839   -140.27167   -2588.9044    12658.481 
   35270    317.39504     4.130015    55.443598   -147.31616    635.20068    12658.481 
   35280    303.03607    2.8244436    58.769246   -153.66652   -1240.1748    12658.481 
   35290    268.93701      3.58121    59.159879    -157.8595    1712.1905    12658.481 
35300        0.95920681123105744348 10.227530648551757864 1 66 -281.05853591112088452
   35300    267.05633    4.2688577    62.263418   -160.05982    1313.8378    12658.481 
   35310     266.0978    6.0839742    59.954691    -160.9719    4257.9441    12658.481 
   35320    269.08234    5.5307894    62.183565   -160.94976    483.88821    12658.481 
   35330    286.63511    6.8025756    57.261495   -160.34252   -992.91101    12658.481 
   35340    279.41318    8.5064752    59.495591   -159.50708   -3596.9583    12658.481 
   35350    296.43922    8.8969037    49.811829   -158.29108    -1703.031    12658.481 
   35360    271.88746     8.660091    60.331652   -156.59633    2556.6479    12658.481 
   35370    283.09487    7.5988126    59.439646   -154.33382   -853.58818    12658.481 
   35380    278.14851    8.2653447    57.781177   -151.42521   -1347.8786    12658.481 
   35390    304.46732    7.7672328    49.882408   -147.84158   -147.05534    12658.481 
35400        0.96562499163467929719 10.215640235596550767 1 68 -284.52542599021535352
   35400     310.2307    7.2194704    56.526374   -143.96513   -446.92781    12658.481 
   35410    321.47787    10.945484    55.845965   -140.34774    366.32785    12658.481 
   35420    309.05466    8.4208528    62.698435    -137.4999    1387.5649    12658.481 
   35430    317.78887    6.8799614    57.290321   -135.49789    1846.2205    12658.481 
   35440    320.20916    6.5833725    62.631184    -134.3047    4967.5897    12658.481 
   35450    340.06991    7.1250241     51.88883   -134.02975   -3315.3539    12658.481 
   35460    305.06827    5.5604975    62.410007   -134.59179   -2604.1539    12658.481 
   35470    307.23858    5.1468129    57.028147    -135.4776   -3259.3096    12658.481 
   35480     301.0676    6.8924483    57.940287   -136.64699    255.54247    12658.481 
   35490    316.45916     8.304002    62.985137   -138.24153    66.343598    12658.481 
35500        0.97545199417898775796 10.17914100771355379 1 65 -280.87571347284279
   35500     310.3374    10.287153    51.510691   -140.26707   -1953.1445    12658.481 
   35510    300.94979    10.095852     58.46487   -142.35483    750.56661    12658.481 
   35520    301.88753    11.050593    48.397864   -144.60493    2289.2754    12658.481 
   35530    282.76524    11.178596     59.06194   -147.06815    -751.9662    12658.481 
   35540    293.49223    9.4500415    52.842587    -149.9646   -278.62059    12658.481 
   35550    295.67643    7.7776086    55.669682   -154.06045   -1581.5362    12658.481 
   35560    293.70877    6.0517646    56.906691   -160.16761    3967.0859    12658.481 
   35570     279.3841    5.1591601     54.32811   -166.89213    1884.7476    12658.481 
   35580    283.06355    5.6006082     44.43216   -172.33905    1357.8946    12658.481 
   35590    261.87573     6.207134    44.112116   -175.60725   -2531.9481    12658.481 
35600        0.97774981998373633463 10.159366024232051373 1 60 -297.61264437825718687
   35600    266.45707    6.1983485    51.335442   -176.88544   -841.29404    12658.481 
   35610     281.4042    8.2565564    47.955607   -176.95657    1310.1468    12658.481 
   35620    271.20426    9.3184286    45.985115   -176.33844   -1119.5615    12658.481 
   35630    279.93445     7.878665    51.031155   -174.93258   -1673.3998    12658.481 
   35640    298.88239    6.8337163    44.294257   -172.81597   -1266.4343    12658.481 
   35650    279.34499     6.851736    51.617494   -170.52226    -464.1457    12658.481 
   35660    278.91536    7.7998076    50.098101    -167.8633    1570.6099    12658.481 
   35670    282.93001    7.5534193    48.095298   -164.72112   -1472.4982    12658.481 
   35680    312.02563    8.0246873     49.97349   -161.35681    2625.7904    12658.481 
   35690    320.24234    9.9336136    42.440012   -158.45239   -667.58122    12658.481 
35700        0.9750422350400125282 10.150713176355324663 1 66 -295.70419423474373843
   35700    308.10071    9.7503198    49.212556   -156.10896    593.37111    12658.481 
   35710    286.23998     6.330688    51.767874    -154.0523    805.73892    12658.481 
   35720    276.84051    5.6715229    55.493729   -151.75609   -925.77444    12658.481 
   35730    309.48395    6.4542899    49.588317   -149.35673    607.03567    12658.481 
   35740    303.88313    5.3295908    49.098769   -147.35694   -692.41911    12658.481 
   35750    300.28571    4.8286914    46.477658   -145.75397    271.85818    12658.481 
   35760    283.25088    5.1468459    56.316155   -143.97357    1813.9363    12658.481 
   35770    295.12961    5.5612345    56.511431   -141.98069   -1133.8088    12658.481 
   35780    272.48293    5.0451861    61.334646   -139.89854   -319.25858    12658.481 
   35790    313.59793    5.3339861    48.720229    -137.6323   -59.003239    12658.481 
35800        0.97723577989811138966 10.126771644420294649 1 66 -270.73018034203340676
   35800     298.7931    4.4658068    61.718114   -135.35207    2603.9439    12658.481 
   35810    330.07228    4.9738607    53.335535   -133.46705    -1027.004    12658.481 
   35820    331.53665    9.5205734    52.005804   -132.32903   -51.669877    12658.481 
   35830    343.94036    8.7536555    56.647542    -132.4023   -680.41073    12658.481 
   35840    326.43804     8.300127    60.983587   -133.80602    449.39159    12658.481 
   35850    315.97372    8.0698723    56.662549   -136.34868   -2652.6267    12658.481 
   35860    283.41517    9.0367331    59.985251   -139.15814   -538.22904    12658.481 
   35870    290.24171    8.5365645    51.746767   -141.39522    -3608.901    12658.481 
   35880    286.28723    8.1644567    60.489604   -142.86614     2722.424    12658.481 
   35890    322.12351    5.6125629    56.210427   -143.94206    357.51327    12658.481 
35900        0.98141788331113533062 10.109674879075431164 1 67 -282.67898229673642163
   35900    302.79545    9.1126124    55.324998   -145.48747    1591.5478    12658.481 
   35910    281.76743    13.690379    60.809062   -146.92164   -465.88375    12658.481 
   35920    283.99017    13.271697    49.490569   -147.95054   -318.80536    12658.481 
   35930    286.53871    12.310196    55.835281   -148.23988    405.79748    12658.481 
   35940    314.77019     9.266777    53.074113   -148.07682    1228.6428    12658.481 
   35950    318.89134    6.5728964    56.645545   -148.40751   -1225.3481    12658.481 
   35960    311.69824    4.9691194    54.074093   -149.17071    582.28071    12658.481 
   35970    301.47326    5.0638889    54.726895   -150.06385   -1403.8117    12658.481 
   35980     283.4071    11.725082    57.276394   -150.60997    1355.4555    12658.481 
   35990    280.59796    15.082445    54.582284   -150.60462    93.000815    12658.481 
36000        0.98281347324653400843 10.105808969707037903 1 69 -280.81020564934061667
   36000    288.66081    11.561545    53.668382   -150.02286    1553.6451    12658.481 
   36010    278.66779    9.4461411     56.03843   -148.92047    89.126476    12658.481 
   36020    268.52919    8.7363221    55.947487   -147.34585    889.81641    12658.481 
   36030    258.31016    8.9941954    64.953039   -145.23018    416.57154    12658.481 
   36040        314.1    6.9975222     53.76637   -142.84231    927.56053    12658.481 
   36050    322.14448    5.3010776    61.079262   -140.91602    -1788.615    12658.481 
   36060    341.90942    5.3645827    53.481169    -139.7137   -1671.2106    12658.481 
   36070    314.27553    5.3808273    59.709239   -139.43642   -2413.9735    12658.481 
   36080     310.0308    5.6059123    64.788685   -140.30783    2543.1243    12658.481 
   36090    301.68956    8.8717396    61.425545   -141.87647    1760.3808    12658.481 
36100        0.985406599037107922 10.096820256593749932 1 71 -284.18329995404332067
   36100    310.04872    10.398735    50.514998   -143.70546   -751.52801    12658.481 
   36110    293.39996    11.578082    60.870296   -145.54616    -1516.098    12658.481 
   36120    320.97554    7.5528234    54.598966   -147.56937    848.53827    12658.481 
   36130    281.08084    5.3437765    66.428179   -150.35406    2311.7171    12658.481 
   36140    285.85211    5.7348987    52.840034     -153.381    78.342822    12658.481 
   36150    262.76551    6.0699668     55.95027   -156.00581   -2067.3191    12658.481 
   36160    282.36449    6.1261705    48.650075    -157.6676    2413.2089    12658.481 
   36170        282.6    6.3723161    48.223063   -158.43972    1278.8057    12658.481 
   36180    276.97013    6.3545242    56.041445   -158.35745   -2215.4851    12658.481 
   36190     284.3956     6.418927    49.124871   -157.18061   -3297.0438    12658.481 
36200        0.98527049910776753894 10.100620323874521134 1 70 -290.21109749514158693
   36200    299.78188    6.6695152    51.297006   -154.38499    -1121.669    12658.481 
   36210    295.23645    7.8575357    54.221479   -149.57508    3412.1078    12658.481 
   36220    299.58363    6.5813809    53.445978   -143.33179   -204.36239    12658.481 
   36230    297.96527    6.1933451    60.740709   -136.63218   -614.20582    12658.481 
   36240    311.61113    6.5189185     59.47792   -130.97488   -879.76041    12658.481 
   36250    320.77906     6.261066    61.123024   -126.51695    645.55897    12658.481 
   36260    323.12825    5.8041944    63.535721   -124.02423    2741.9431    12658.481 
   36270    327.00213    7.0215517    60.248032   -123.17211    -2180.724    12658.481 
   36280    327.35393    8.9542737    57.727078   -123.40546   -2740.5968    12658.481 
   36290    332.08711    11.607571    55.954766   -124.61638    1427.1712    12658.481 
36300        0.99116078631432757984 10.054041746190829798 1 65 -261.98298692589628445
   36300    298.22569    10.316222    63.989472   -126.86196    1331.2611    12658.481 
   36310    287.12994    9.6376205    66.743086   -129.50545     2757.846    12658.481 
   36320    308.34793    9.6803145    59.482602   -132.28291   -1542.2638    12658.481 
   36330    315.98886    8.9109206     56.11182   -135.81694   -106.50062    12658.481 
   36340     291.5835    8.8939523    64.618805   -139.93623    1072.1197    12658.481 
   36350    283.00229    9.5039859    58.078364   -143.87655    123.10946    12658.481 
   36360      287.878    9.3776244    58.646182   -147.18474   -200.06634    12658.481 
   36370    292.18354    9.4594996    53.437021   -149.78307    1318.2066    12658.481 
   36380    279.87531    9.9211664     59.48705   -151.70597    1377.3003    12658.481 
   36390    281.24748    11.836049    56.100735   -152.94929    2088.6787    12658.481 
36400        0.99054223511819206038 10.078452708907116531 1 68 -279.39511176375657442
   36400    277.52683    10.392377    52.171114   -153.65239   -3497.8508    12658.481 
   36410    290.32559    8.5136835    48.770879   -153.68645   -3116.3757    12658.481 
   36420     274.7113     9.039187    63.037184   -153.30879   -2072.5702    12658.481 
   36430    287.76019    9.8156208    52.273222    -152.5818   -1759.4576    12658.481 
   36440     294.3851     6.893576    56.510975   -151.48794    1307.3576    12658.481 
   36450    306.42238    5.4048545    53.123253   -150.29107     4142.761    12658.481 
   36460    297.07387    6.0634806    47.541803   -148.85608    170.59715    12658.481 
   36470    298.38497    9.0325239    52.709082    -147.0576    1047.8028    12658.481 
   36480    290.88652    7.4957209    59.793019   -144.63901    128.90335    12658.481 
   36490    281.61625    9.5379836    56.796968    -141.3743    2517.6912    12658.481 
36500        0.98822703003676770628 10.090637211474266621 1 69 -263.71447178955401114
   36500    281.59818    5.7676068    53.888511   -136.12709    157.36177    12658.481 
   36510    301.47177    4.2794449    58.774374   -128.96268    -1432.119    12658.481 
   36520     337.3488    5.9517422    53.915083   -121.43072   -1645.1933    12658.481 
   36530    342.29918    7.6144044    56.689381   -116.75092    468.15943    12658.481 
   36540    341.60318    7.1611965    58.238767   -115.03951    -1332.687    12658.481 
   36550    326.18713    7.3243604    61.178344   -115.53863   -556.50079    12658.481 
   36560    333.31009    9.3734518    60.270606   -117.27987    798.30268    12658.481 
   36570    306.01282    10.883725    65.109467   -119.79056   -233.43187    12658.481 
   36580    309.25344    10.698649     54.06281   -122.16515   -1327.5552    12658.481 
   36590    283.14678    11.947231    63.722669   -124.12936   -1747.7521    12658.481 
36600        0.98094345280940442589 10.137637138445933616 0.99735449735449732689 71 -270.15004109263668397
   36600    319.01799    11.785038    53.450936   -125.60837    476.61927    12658.481 
   36610    303.93225    7.9301145    66.180859   -127.30958    217.36257    12658.481 
   36620    331.52767    5.7527305     53.65321   -129.51889   -694.30031    12658.481 
   36630    312.67346    5.9932299    63.871701   -132.72118    272.22329    12658.481 
   36640    336.20779    7.5476876    49.294589    -136.6583   -1178.5892    12658.481 
   36650    324.18262    11.104537    49.508231   -141.37705   -1948.4473    12658.481 
   36660    298.09584    12.703696    49.751621   -145.31408    1842.7536    12658.481 
   36670    291.29482    8.9877623    50.627283   -147.84669    1408.3318    12658.481 
   36680    286.45099    7.0107855    54.237562   -149.08039    3813.1787    12658.481 
   36690    313.45701    4.9411845    51.554642   -149.87484    1544.5692    12658.481 
36700        0.98073848313903599916 10.139058061302826275 1 70 -283.33658757189897415
   36700    292.94287    4.3681349    59.296217   -150.60912    1019.5735    12658.481 
   36710    296.95456    3.5942907    50.010255    -151.1595   -2537.2913    12658.481 
   36720    271.72345     5.469891    49.799262   -151.23006   -2536.8654    12658.481 
   36730    275.85363    7.2052062    60.096974   -150.62303    530.87891    12658.481 
   36740     269.6916     6.137014    67.031981   -149.39635    2575.1271    12658.481 
   36750    302.71014    6.4598162    54.959272   -147.61477    4.3161372    12658.481 
   36760    300.72806    7.1249282    53.624874   -145.98725   -4892.9391    12658.481 
   36770    317.98996    7.2366203    50.766842   -144.23329   -3298.2903    12658.481 
   36780    296.52175    7.2353079    59.550316   -142.48897     2021.211    12658.481 
   36790    297.56791    8.1826061    54.201994   -140.76035   -129.48796    12658.481 
36800        0.97528641196592291696 10.17961580832009183 0.99735449735449732689 69 -269.64036255665394037
   36800    288.06782     10.10999    61.301095    -139.1217    1821.4646    12658.481 
   36810    288.54774    8.3890344    55.357298   -137.40374   -1018.6135    12658.481 
   36820    296.13687    7.4733885    59.750112   -135.26635   -93.971469    12658.481 
   36830    329.21447     6.419054    62.191674    -132.9974   -1609.3096    12658.481 
   36840    325.44322    5.1852844    61.645301   -131.72947   -390.87084    12658.481 
   36850    308.44909    5.7411717    59.237009   -131.76844    2105.6483    12658.481 
   36860    304.25609    6.5352866    55.752766   -132.19345   -677.52542    12658.481 
   36870     324.7132    7.5756049    54.648087   -132.95777     991.4935    12658.481 
   36880    294.18734    7.0611669    67.303816   -135.32271   -601.98495    12658.481 
   36890    301.79438    6.6429303     58.20388   -140.37099    238.94834    12658.481 
36900        0.97599909201170031992 10.177485360528720548 1 75 -274.65596995992785878
   36900    280.03967    8.1856877    64.128528   -147.77472   -1605.4912    12658.481 
   36910    274.83833    9.9408991    50.378942   -154.00691   -1431.3743    12658.481 
   36920    266.21515    7.9836929    59.018977   -158.28385    433.00969    12658.481 
   36930    278.59996    7.7084065    49.678634   -160.77308    1603.6173    12658.481 
   36940    282.21467    6.8824427    53.572701   -162.47807    565.48532    12658.481 
   36950     286.5698    6.9854038    50.323856   -163.40061    2300.2729    12658.481 
   36960    297.83303    7.8749084    49.705562   -163.87032   -385.63342    12658.481 
   36970    273.22106    10.923151    52.168546   -163.94624     329.9284    12658.481 
   36980    283.59162    9.8217886    55.737483   -163.24898    -1091.956    12658.481 
   36990     287.2231    6.6799987    54.425089   -161.97528   -1184.1401    12658.481 
37000        0.98495639873313944879 10.131150556621527414 1 71 -289.39279587398499416
   37000    285.03224     7.935826    55.299185    -160.2495   -4003.2671    12658.481 
   37010    290.88799    9.4924623    53.125396   -158.16769   -2169.1841    12658.481 
   37020    300.74041    10.988145    49.894143   -155.68772    1940.2802    12658.481 
   37030     293.2074    10.168141    57.662445    -152.9422    2294.0268    12658.481 
   37040    302.70863    9.8338142    58.858292    -149.8106   -1054.6887    12658.481 
   37050    324.86271      11.0454    48.672548   -146.43594   -1588.1487    12658.481 
   37060    329.58733    11.372583    55.787876   -143.54438    1108.2206    12658.481 
   37070    315.93817    12.544203    61.219815   -141.75433     3995.935    12658.481 
   37080    302.69225    11.994023    60.382577   -140.61698    211.03206    12658.481 
   37090    308.24839    8.6249059    53.680825   -140.01686    1539.4668    12658.481 
37100        0.98671242581350171452 10.095595714877914517 1 70 -284.53570360037235787
   37100     319.1647    6.1995875    61.271353   -139.92756    2667.6252    12658.481 
   37110    315.91034    5.2314619    54.911514   -140.63533    1605.2579    12658.481 
   37120    296.56332    4.4444104    62.156988   -142.16225   -1207.7493    12658.481 
   37130    283.30963    5.4384349     59.89159   -144.40745   -2916.2127    12658.481 
   37140    287.18815     6.717995    56.557407   -147.31838   -465.30095    12658.481 
   37150    282.44074    8.8722182    54.687612   -150.71661   -1013.8719    12658.481 
   37160    283.11011    7.8952022     51.38163   -154.40817    627.48936    12658.481 
   37170    276.58257     6.177007    59.841651   -158.36692   -94.330199     12742.08 
   37180     264.0123    9.0112269    54.114828   -162.15797    264.33897     12742.08 
   37190    266.18646    8.4765531    50.006863   -165.18486    959.06186     12742.08 
37200        0.97923624553430965722 10.111499009101160951 1 69 -290.89692224524378616
   37200    273.11823    8.3531669    50.556961   -167.15166    1076.8946     12742.08 
   37210    289.75032    9.2366882    44.506833   -168.20858   -669.25785     12742.08 
   37220    269.87308     8.193334    55.239933   -168.59194   -1637.3453     12742.08 
   37230    268.73908    7.9196411     46.50633    -168.2164   -267.15183     12742.08 
   37240    257.81347    7.0472806    52.580552   -166.67065    2410.6529     12742.08 
   37250    264.94329    6.7114489    52.636553   -163.12491    906.92011     12742.08 
   37260    289.98379    7.5310832    51.206966   -157.07422    1802.9351     12742.08 
   37270    304.94466    7.6444517    51.432221   -150.20323    836.54264     12742.08 
   37280    314.06673    7.3214473    60.477248   -145.36634   -1634.3952     12742.08 
   37290    306.97036    7.0314116    58.442849   -142.85912    861.21297     12742.08 
37300        0.97358198870398993119 10.161154200368542888 1 73 -282.4107749705243009
   37300    310.58196    7.4031327    55.270524   -141.69133   -3060.6766     12742.08 
   37310    297.43805    6.4874894    64.880629   -141.09942    154.02602     12742.08 
   37320    298.15647    6.2425675    58.107593   -140.72803    -671.3553     12742.08 
   37330    283.22936    6.8030268    64.849019   -140.51581    1022.6918     12742.08 
   37340    300.93743    6.8047599    62.551675    -140.2986    1427.5266     12742.08 
   37350    306.45724    5.3099472    59.811519   -140.24373   -1061.8772     12742.08 
   37360    308.10156    8.3705274    62.318764    -140.3855    1608.3625     12742.08 
   37370    288.03041    8.9030263    62.142496   -140.95418   -3.5699557     12742.08 
   37380    290.12723    8.2111788    59.123802   -141.94626    -1291.917     12742.08 
   37390    282.13666    5.5674724    64.353165   -143.08319   -1337.7606     12742.08 
37400        0.96486236172715689197 10.182606148192009599 0.99735449735449732689 69 -278.08163279835554249
   37400    296.13192    6.8300071    53.795792   -143.90926   -741.59437     12742.08 
   37410    293.87821     7.116253    62.920147   -144.30292    2051.0874     12742.08 
   37420     317.1413    9.2729633     55.23549   -144.70987   -1069.9363     12742.08 
   37430    295.98342    12.368214    63.486751   -145.92967   -255.12765     12742.08 
   37440    297.69501    15.268067    54.018747   -147.63305    2261.6582     12742.08 
   37450    302.18292    12.664644    49.702797   -149.68911    2581.8088     12742.08 
   37460    283.18692    10.221722    54.089025   -151.69642    294.58638     12742.08 
   37470    285.49813    9.4258862    55.576908   -153.46861   -1023.3427     12742.08 
   37480    284.97698    9.1558332    58.416737   -154.99248    -1930.626     12742.08 
   37490    301.50038    7.8913259    57.271781   -156.78197   -1575.1988     12742.08 
37500        0.95801841713580626614 10.229326441796285252 0.99735449735449732689 68 -284.42250077437239497
   37500    277.87253    7.7351262    57.517978   -158.52315   -1080.6011     12742.08 
   37510    281.10013    10.357494    50.235345   -159.63454   -2058.6348     12742.08 
   37520    279.41074    10.990329    49.799071   -159.87652   -562.19731     12742.08 
   37530    310.90201    9.3830116    48.313215   -159.33227    1016.1779     12742.08 
   37540    290.74042    7.6057328     64.71506    -158.4991    4008.5239     12742.08 
   37550    304.67068    6.2964875    59.679847   -157.48165    1426.3853     12742.08 
   37560    272.40254    7.6014732    60.128849   -156.34511    -3882.494     12742.08 
   37570    310.67831      8.49593    54.049219   -154.71913   -2264.7557     12742.08 
   37580    296.57488    10.544959    57.353683   -152.79887   -769.17849     12742.08 
   37590     297.3194    10.662601    54.445316   -150.75333    2624.8937     12742.08 
37600        0.95721634216123152594 10.2260652524471638 1 66 -281.67390372390968878
   37600    294.65202    8.9937212    56.877179   -148.17204   -72.973309     12742.08 
   37610    317.17074    7.2151646    51.218205   -144.91337    154.26757     12742.08 
   37620    323.35046    5.4943954    50.652228   -141.44341    2944.3003     12742.08 
   37630    305.57843    5.9142492    57.192073   -137.86238   -1076.1872     12742.08 
   37640    299.94478    7.1055767    60.363821   -134.38283   -678.52746     12742.08 
   37650    291.51449    4.6657805    61.543064   -131.07201   -1904.1226     12742.08 
   37660    295.58228    4.7443736    62.678777    -128.1406    252.87308     12742.08 
   37670    321.92446    2.8533099      60.9972   -125.34542    272.52384     12742.08 
   37680    324.14978    2.6602954    60.795536   -123.15983   -2307.3704     12742.08 
   37690    330.73395    2.1970327    62.991243   -121.98582   -147.68713     12742.08 
37700        0.95375550252572216525 10.245967252695971084 1 65 -266.12772030028844483
   37700     317.8341    5.5766532    65.000562   -122.12245   -1775.3269     12742.08 
   37710    317.13235    7.8351897    60.459716   -123.26382    314.96793     12742.08 
   37720    315.47289    8.1300693    58.019258   -125.26201    349.42425     12742.08 
   37730    305.77137    8.5857623    63.495357    -128.1179     784.8057     12742.08 
   37740    308.27694    8.1737956    61.496238   -131.72153   -855.47328     12742.08 
   37750    295.31047    7.1957567    60.259839   -136.60889    1745.4845     12742.08 
   37760     283.8458    5.9288289    65.863644   -141.53711    2345.3656     12742.08 
   37770    281.78373    7.6726981    56.231466   -146.09016    348.29619     12742.08 
   37780    294.49026     7.243132    52.744723   -149.40157   -311.62989     12742.08 
   37790    300.33957    6.4230279    56.678599     -151.783    583.41952     12742.08 
37800        0.95983539470336920463 10.219502936044067454 0.99735449735449732689 64 -283.24534993069323718
   37800    287.07256    7.9829472    48.883667   -153.17762   -776.22032     12742.08 
   37810    285.46502    10.030061    53.122078   -153.55463   -4568.6965     12742.08 
   37820    292.15256     11.74488    58.103133   -153.35463   -438.15669     12742.08 
   37830    309.69214    10.794426    53.441731    -153.1703    1129.2727     12742.08 
   37840    284.08428    11.628075    58.896333   -153.27474     3314.517     12742.08 
   37850    299.61774    7.8877623    50.198836   -153.23004    -589.8454     12742.08 
   37860    282.90994    5.0635193    52.147542   -152.87532    -505.8091     12742.08 
   37870    313.22497    3.6132347    61.173997   -152.28475   -1263.8027     12742.08 
   37880    298.05643    5.5068803    59.335222   -151.91456   -683.23536     12742.08 
   37890    297.43164    6.5781479    56.501409   -151.88533    281.48745     12742.08 
37900        0.9696554073379314298 10.20776594584224739 1 68 -269.20728867854791133
   37900    259.58875    7.3284941    66.155263   -151.59201    1273.6651     12742.08 
   37910    290.64638    8.3652487    55.031743   -150.26668   -2022.9538     12742.08 
   37920      302.114    8.1324584    57.463513   -148.05358   -2094.1661     12742.08 
   37930    296.59761    8.1173299    62.737785   -145.67265   -2922.0307     12742.08 
   37940    305.57735     12.52177    60.294167   -143.05613     339.0131     12742.08 
   37950    311.52377    9.2230757    57.923909   -140.48564    1487.8619     12742.08 
   37960    308.67777    7.7677323    66.948862   -138.15132    2258.8913     12742.08 
   37970    320.99476    8.9655764    65.700608   -136.12925    3675.3412     12742.08 
   37980    299.53211    7.1543817    67.689696   -134.52303   -523.40011     12742.08 
   37990    336.96587    7.3249734    59.208447   -133.24269   -1728.9686     12742.08 
38000        0.97901092436862025004 10.178391131215485998 1 66 -283.87830309900260772
   38000    332.81609    7.9593817    63.847195   -133.08495   -3102.0772     12742.08 
   38010    360.94522    11.938263    48.373643   -134.99595   -972.05031     12742.08 
   38020    300.61128    13.417196    56.406686   -138.99006     1503.433     12742.08 
   38030    303.86704    12.190955    49.992231   -143.63209    946.92333     12742.08 
   38040    296.35832    11.255892    60.606249   -148.79696    3988.1807     12742.08 
   38050    306.47565    11.797918    52.564369   -153.72582   -44.192641     12742.08 
   38060    296.42157    11.841512    52.734306   -158.01528    255.97889     12742.08 
   38070    290.26147    11.096461    52.418412   -160.95048   -926.26287     12742.08 
   38080     287.9389    9.5505193    50.838711   -162.65575   -2481.3429     12742.08 
   38090    293.57929    7.5020387     55.64568   -163.38632   -1315.2961     12742.08 
38100        0.98384584896371474194 10.133371852560829396 1 66 -295.83353559943395794
   38100    292.11577    5.8901712    51.143457   -163.48081   -1271.3839     12742.08 
   38110    305.21218     5.137974    51.063938   -163.19118    2717.2044     12742.08 
   38120    312.20311    4.4597267    50.879516   -162.69582    865.70402     12742.08 
   38130    312.42872      4.37356    47.718337    -162.1203   -484.56997     12742.08 
   38140    281.32918    6.8837707    58.192413   -161.48326    929.64313     12742.08 
   38150    279.93848    8.0710276    59.969794   -160.40085   -903.93639     12742.08 
   38160    291.28222    8.8933191     58.64268   -158.78684    -1412.053     12742.08 
   38170    292.39796    9.6274202    49.370253    -156.8741   -2564.6385     12742.08 
   38180     293.1515    6.1121566    55.279438   -154.17916    514.22603     12742.08 
   38190    301.15717    5.4466898    54.435603   -150.28433    4216.8711     12742.08 
38200        0.98426272336470110869 10.096035359651882146 0.99206349206349198067 66 -277.52896389380475739
   38200     291.8394     5.212965    59.501271   -145.30146    981.44538     12742.08 
   38210    320.93935    5.3163015    58.738938   -139.48498    537.08373     12742.08 
   38220    310.43182    5.7991988    64.864826   -134.48074   -3273.8182     12742.08 
   38230    341.83716    7.3523936    58.867571   -131.02581   -1598.7884     12742.08 
   38240    324.82271    9.1204225     62.85479   -129.23664    1307.0175     12742.08 
   38250    306.11634    8.5221253    61.639482   -128.64896    206.51736     12742.08 
   38260    305.10258    9.3595581     64.92438   -128.40581    3538.1357     12742.08 
   38270    311.68403    8.9331385    63.355835   -128.58836    363.21245     12742.08 
   38280    323.69497    9.9283731    62.868436   -129.48009    2395.3681     12742.08 
   38290    310.30506     9.473928    68.082668   -130.90998   -103.52814     12742.08 
38300        0.97651298914571482701 10.11970330950585506 0.98412698412698407235 64 -278.94964308708711087
   38300    323.20449    7.2277042    56.207963   -132.51114   -298.73705     12742.08 
   38310    320.52342    8.5470716    61.443267    -134.4362   -387.27046     12742.08 
   38320    333.44662    9.5122456    56.234067   -137.90863    2098.5032     12742.08 
   38330    331.73619    10.150387    54.501019   -140.96627   -537.23623     12742.08 
   38340    296.68636    10.670792    58.033045   -143.01244   -1778.1978     12742.08 
   38350    292.60413    9.7703405    60.320205   -145.55044   -1698.7322     12742.08 
   38360    300.80329    6.2552722    60.151303   -147.70829    477.76243     12742.08 
   38370     295.3903    4.9440734    59.902489   -149.53132   -676.87814     12742.08 
   38380    297.79813    3.7006391     54.61677   -150.92553   -1001.0672     12742.08 
   38390    284.02523    4.9182097    60.032125   -151.71319    2757.9126     12742.08 
38400        0.97445202980328082809 10.103021820178213375 0.99206349206349198067 66 -284.05937645374814338
   38400    291.78004    5.4604854    61.708948   -151.85876    716.83466     12742.08 
   38410    265.30515    8.6423364    61.627253   -151.52983    1380.6341     12742.08 
   38420     265.9677    11.289177    61.175015   -150.25486   -3954.5784     12742.08 
   38430    295.98116    11.418735     58.99352   -147.78564    2151.2818     12742.08 
   38440    290.15794    9.1580774    63.495705   -144.69071    2400.5396     12742.08 
   38450    320.20134    8.0791062    51.332661   -140.82185   -511.96222     12742.08 
   38460    298.40279    7.5102865    69.041722    -136.8254   -4429.0598     12742.08 
   38470    331.09204    8.0584932    58.733167   -132.76753   -1528.7265     12742.08 
   38480    317.69898    8.1444237    68.618243   -129.32148    916.81475     12742.08 
   38490     331.2851    7.8841091    58.993525   -126.97497    1889.9932     12742.08 
38500        0.9731100862861408185 10.129955916683531569 0.99206349206349198067 64 -271.84743132800360854
   38500    322.99905    6.8741734    61.910027   -125.50201    -2516.161     12742.08 
   38510    333.63999    5.0183347    61.138864   -124.39384   -2094.1218    13467.197 
   38520     342.5168    5.3360929     58.87957   -123.41287   -361.86667    13467.197 
   38530    322.42179    5.9825175    61.318708   -123.04129    -42.24015    13467.197 
   38540    335.03941    4.9758859    61.534559   -123.38562   -3165.8763    13467.197 
   38550    296.97619    4.5269226    66.207566    -125.0416   -497.16911    13467.197 
   38560    316.93756     6.241895    60.278123   -127.83884     1229.029    13467.197 
   38570    297.05917      7.73577    68.445375   -131.68368    4787.0784    13467.197 
   38580    302.54586     8.635304    60.648443    -135.6544    2162.2045    13467.197 
   38590    286.72159    8.1515696    62.960159   -139.74357   -817.86062    13467.197 
38600        0.98437900672620470832 10.074994044715554153 1 64 -281.18864713728282823
   38600    304.33536    8.3391344    60.376679   -143.29943     631.3864    13467.197 
   38610    303.36954    7.6925571    65.293091   -147.14898    626.09782    13467.197 
   38620    312.38732    8.2716163    56.903213   -150.89565    1907.3974    13467.197 
   38630    288.73043    8.8586101    62.676168   -154.73253   -2719.7045    13467.197 
   38640    302.61792    9.1050482    54.208511   -158.12522   -1141.1247    13467.197 
   38650    282.27699    9.0497103    62.810158   -161.14379    86.953839    13467.197 
   38660    290.84381    11.946461    54.130584   -163.47695    1997.1665    13467.197 
   38670    296.71696    8.9268018    52.693697   -165.06004   -658.95654    13467.197 
   38680    293.22293    6.5368103    53.365288   -166.27283   -4169.3297    13467.197 
   38690    285.67258    4.8105751     62.47644   -167.26445   -1694.8231    13467.197 
38700        0.98848507705297927739 10.046218927223984352 1 67 -299.78023004416570529
   38700    290.18862    6.9941848    54.565436   -168.30066   -699.70086    13467.197 
   38710    288.36897    11.686239    53.038947   -169.30678    512.55356    13467.197 
   38720    279.78534    16.219655    52.728914   -169.60755    1345.4268    13467.197 
   38730      278.219     20.73064    51.332306   -168.79208    1037.3861    13467.197 
   38740    285.83685    17.395396    58.122325   -166.87763    3217.6079    13467.197 
   38750    274.98365    11.404532    55.952925   -164.20042    2099.1468    13467.197 
   38760    275.55572     6.595235    54.296663   -160.47993   -65.839944    13467.197 
   38770    273.90273    4.7646405    60.660718   -155.58133   -542.21186    13467.197 
   38780      298.253    4.6334754    56.447849   -149.90853    1121.5133    13467.197 
   38790    299.80523     8.473941     64.03622   -145.00238    3544.3048    13467.197 
38800        0.98742667532434225119 10.061049196304015396 1 65 -287.47638626922861249
   38800     322.3057    12.241195    51.441375   -141.44511    608.82927    13467.197 
   38810    296.00206    11.068414    65.238636   -139.10076   -2404.8119    13467.197 
   38820    308.61165    9.0481554     66.42285   -137.53768   -2382.1146    13467.197 
   38830    314.43331    9.1945674    58.163088   -136.79706    1324.5814    13467.197 
   38840    309.98436    10.982646     57.50967   -136.53613    1384.1017    13467.197 
   38850      323.511    6.5478389    54.070469   -136.40637   -1014.3346    13467.197 
   38860    295.61804    4.9624545    67.684245   -136.56463   -1491.6347    13467.197 
   38870    292.48297    5.0564617    63.643402   -136.80584   -2576.3914    13467.197 
   38880    331.89129    6.5825516    54.347868   -137.02593    1945.7617    13467.197 
   38890    332.26221    9.2987476     63.42582   -137.91661   -876.87101    13467.197 
38900        0.98855415780504041212 10.115443340182627807 1 65 -287.23348046698174585
   38900     325.1426    9.2788236    61.359923   -139.91685     1296.935    13467.197 
   38910    304.35186    12.411993    66.651866   -143.04145   -2025.1801    13467.197 
   38920    323.50244    13.243383    52.148564   -147.03055     1403.493    13467.197 
   38930    299.87599    11.663722    60.033513   -151.12163    2609.8755    13467.197 
   38940    319.64614    11.523001    51.842936   -155.13922   -1384.7438    13467.197 
   38950    303.55364    11.992248    64.190999   -159.28306    522.90601    13467.197 
   38960     309.2735     10.08903    60.605679    -163.6129    -219.7338    13467.197 
   38970    297.40006    10.020159    54.715152   -167.45732    619.03363    13467.197 
   38980    277.01655    9.1038927    61.267666    -170.0236   -1700.3128    13467.197 
   38990    272.91416    10.047986    56.113818   -171.18366   -1029.6312    13467.197 
39000        0.98312275211427568866 10.141816726720120911 1 66 -293.58445801862063718
   39000    270.18156    7.9262007    54.471819   -171.16975    1915.7573    13467.197 
   39010     292.8122     8.241171    49.115255   -170.49466   -421.09204    13467.197 
   39020      288.215    6.3174585    59.097333   -169.47341   -249.41785    13467.197 
   39030    297.11598     4.795352    55.230122   -168.17523    1146.9766    13467.197 
   39040    294.90735    5.3164007    54.190689   -166.90683    621.06148    13467.197 
   39050    288.15655    6.4987432    54.200101   -165.33933   -2378.8092    13467.197 
   39060    292.88167    6.7588083    59.570937   -163.55606    1732.9103    13467.197 
   39070    296.65313    4.1861756    56.566914   -161.59428    978.88425    13467.197 
   39080    306.60498     3.237913    51.596302   -159.41678    840.40996    13467.197 
   39090    286.54863    3.1214134    56.616196   -157.33461   -1066.9175    13467.197 
39100        0.96924919673775622453 10.204332779342783155 0.99735449735449732689 68 -297.70640792064347124
   39100    315.71541    4.1996508    49.060601   -154.66108    2205.9836    13467.197 
   39110    293.33571     2.617222    64.791635   -151.97971    -920.1894    13467.197 
   39120    279.41298    2.2338287    63.137474   -149.13999   -1363.1447    13467.197 
   39130    286.95499    4.2542626    66.510784   -146.10112   -2805.6783    13467.197 
   39140    309.46084    5.0309403    59.120157   -143.11776   -1476.8919    13467.197 
   39150    330.91295    5.4014914    53.061836   -140.36434   -2206.8878    13467.197 
   39160    319.75084    8.9042152    59.654618   -138.28098   -2157.3692    13467.197 
   39170    309.71471    10.604916    62.235297   -136.68568   -1158.7269    13467.197 
   39180    307.57459    8.7268334    72.102214   -135.90799    3663.1814    13467.197 
   39190    311.12332    8.3984113    67.171864   -136.15414    1227.0719    13467.197 
39200        0.96992923762598060033 10.196747100362236083 1 67 -281.71740744678720603
   39200    319.20693    10.055115    62.200771   -137.09013    2527.5548    13467.197 
   39210    297.58871    10.083695    68.880846   -138.16924    608.23939    13467.197 
   39220    300.69826    7.7487241    63.207566   -139.21551   -2186.3974    13467.197 
   39230     304.2072    6.4037391    66.875434   -140.24786   -3016.0545    13467.197 
   39240     318.9226    7.2720052    63.810773   -141.32864     1163.984    13467.197 
   39250     320.4743    8.1941022    60.535699   -142.68026    1342.6393    13467.197 
   39260    290.58143    8.2022085     62.89215   -144.22091    1057.0439    13467.197 
   39270    301.58835    7.0273652     60.73098   -145.75223   -1612.4699    13467.197 
   39280    297.40221    5.7102432    63.720914   -147.18722    639.90832    13467.197 
   39290    320.86964    3.0201776    51.809506   -148.79281   -82.026393    13467.197 
39300        0.97177768679322884537 10.205098994739598695 1 70 -281.46246613913996271
   39300    289.18036    2.1839467    60.404891   -150.43972   -1878.7622    13467.197 
   39310    296.95743    1.9707234    56.012004   -151.70666   -2380.9267    13467.197 
   39320    293.38564    4.7076826    55.426636   -152.50189    64.397421    13467.197 
   39330    320.53872    3.7595537    52.695845    -153.2375    1251.2593    13467.197 
   39340    298.15338    5.5988224    56.774633   -154.13187      2934.81    13467.197 
   39350    291.98977    6.9959798    44.322314   -154.70562   -1884.9443    13467.197 
   39360    262.93441    5.7927533    66.295467   -154.64073    925.51051    13467.197 
   39370    314.25678    7.6035655    48.510982    -153.6717   -1341.2935    13467.197 
   39380    323.53474    8.1973883     50.74261   -152.11244    382.64355    13467.197 
   39390    317.36273     9.074418    56.488662   -150.26789    846.81073    13467.197 
39400        0.97572098322025091477 10.179085356271349028 1 72 -273.70055816536392967
   39400    277.12655    7.5189412    66.724688   -148.13919   -1199.1309    13467.197 
   39410    298.69622    6.7201422    66.871968   -145.29785    395.47137    13467.197 
   39420    331.14011    7.3855806    60.160287   -141.86118   -1117.8122    13467.197 
   39430    353.10695    8.2973165    53.505654   -138.82413   -729.42755    13467.197 
   39440    328.78559    9.2323382    63.977994   -136.69238   -764.79068    13467.197 
   39450    295.24351    11.370539    64.338518   -135.90653   -273.72579    13467.197 
   39460    290.92804    13.708176    64.450522   -135.61207    3613.8788    13467.197 
   39470    318.69838    12.555357    57.704959   -135.28019    1031.3523    13467.197 
   39480    325.77062    13.266273    55.265233    -135.0099    680.39797    13467.197 
   39490    321.32263    9.2308553    55.709623   -135.02106    -132.0251    13467.197 
39500        0.9671684405787639438 10.172392017931354502 0.99735449735449732689 70 -279.78671860926147019
   39500    318.05027    6.5491538    61.764008   -135.68351   -965.41719    13467.197 
   39510    330.48515    4.8343372    58.747992    -137.5761   -1644.0981    13467.197 
   39520    329.44227    5.9885803    54.713378   -140.94978     1126.559    13467.197 
   39530    332.56181    7.4818307    54.473746   -145.66267     65.51493    13467.197 
   39540    321.06208    6.1754922    54.768526   -150.82671      2358.47    13467.197 
   39550    299.51658    7.1066041    54.331644   -156.07777   -1403.1288    13467.197 
   39560    294.24914    6.7647956    52.833577   -160.03603    -1701.508    13467.197 
   39570    278.74428    7.3117213    57.002745   -162.73863    1161.0921    13467.197 
   39580    278.38007    5.6400346    57.950377   -164.15328   -1121.5898    13467.197 
   39590    281.70259    3.9089132    53.184925    -164.8269    761.41185    13467.197 
39600        0.97001788701723956621 10.145654495618337876 1 70 -280.90587253977776072
   39600     256.2664    5.2218196    62.274974   -164.79589    -1016.989    13467.197 
   39610    265.56095    6.4439987    58.353544   -163.68068    2041.4682    13467.197 
   39620    281.92323    7.1849123    54.417086   -161.58249     2225.487    13467.197 
   39630    302.60219    8.0532204     54.54407   -158.81188    740.47366    13467.197 
   39640    290.71673    6.9331514    59.365546   -155.83144    492.07889    13467.197 
   39650    269.35143    5.2076034    67.375089   -153.09261   -1274.9453    13467.197 
   39660    282.55405    4.6575152    65.348123   -150.38437   -1370.3874    13467.197 
   39670    318.64708    5.6900744    56.585451   -147.96369     221.6926    13467.197 
   39680     289.1356    8.5757459    62.321395   -146.11266   -767.54047    13467.197 
   39690    314.10959     9.066859    53.291632   -144.73918    1249.5221    13467.197 
39700        0.96758437621121073935 10.164945363123884192 0.99735449735449732689 72 -271.43562824183953808
   39700    282.12875    10.471806    71.330995   -143.60785    444.14937    13467.197 
   39710    312.76558    7.2666143    58.891675   -142.70799    1150.8817    13467.197 
   39720    285.17054    5.0334717     62.60567   -142.02078   -1435.4085    13467.197 
   39730    285.28313    5.6019044    64.882047   -141.33984   -2040.9503    13467.197 
   39740    314.35928    6.7492067    59.481758   -140.33366   -9.8957309    13467.197 
   39750    316.39895    8.0058961    64.349628   -139.85237    2161.2233    13467.197 
   39760    344.04781    11.493741    52.258276   -140.12269     271.1106    13467.197 
   39770    314.30141    12.141072    66.342803   -141.12762    2698.5109    13467.197 
   39780    308.60974    9.9085388    65.393156   -142.51026   -429.25103    13467.197 
   39790    293.97369    8.0295538    65.982982   -144.01018    1387.6174    13467.197 
39800        0.97284730366411842351 10.168243329151346543 1 75 -286.22971975827124425
   39800    310.67213    8.5518003    62.698227   -145.46942   -2525.5998    13467.197 
   39810    315.92202    9.0345988    59.359395   -146.86425   -1268.6403    13467.197 
   39820    316.84775    10.754092     65.51424   -148.58797   -163.79582    13467.197 
   39830    310.34677    10.747126    61.849212   -150.45589    3103.5815    13467.197 
   39840    316.83204    9.9452366    58.818441   -152.27557    2232.1477    13467.197 
   39850    329.58432    6.5738906    57.590373   -154.54467    960.48336    13467.197 
   39860    313.51043    4.1263548    59.794594   -157.10152    170.77169    13467.197 
   39870    293.33053     4.628311    59.672577   -159.82839   -1760.3274    13467.197 
   39880    278.34687    4.2027254    62.807287    -161.9848   -4253.8894    13467.197 
   39890    288.26793    3.7045727    59.289403   -163.59413   -663.19161    13467.197 
39900        0.96923118498334215332 10.208932270962444377 1 71 -289.91742599168236438
   39900    276.66011     5.882799    57.201899    -164.5674   -2150.3241    13467.197 
   39910    288.23674    7.0675636    52.983945   -164.72203    988.31056    13467.197 
   39920    292.41385    6.9052315    56.545977   -164.31335   -2144.9491    13467.197 
   39930    285.02793    6.5310933    58.251768   -163.54713   -217.11922    13467.197 
   39940    277.89054    5.9483292    55.196317   -162.39352    295.79637    13467.197 
   39950    282.74863    5.8631686    56.928378    -160.4965    1276.4141    13467.197 
   39960    319.95626    4.2642048    56.161349   -157.86567     3063.886    13467.197 
   39970    308.38905    6.8409844    53.119486   -155.28872    3205.1603    13467.197 
   39980    300.15132    6.9354874    59.311361   -152.73064   -2061.6629    13467.197 
   39990    302.65078    6.4971104    59.654158   -149.64777    213.79398    13467.197 
40000        0.96595996709303899586 10.226210984368792722 1 67 -290.97925359732113293
   40000    320.07685    6.1603677    55.569683   -145.95783   -2288.6212    13467.197 
   40010    337.83343    5.1831507     60.40975   -142.16446    856.56383    13467.197 
   40020    312.74924    4.2973319    72.874649   -138.90712   -3711.5986    13467.197 
   40030    348.17813    3.0012313    52.501518   -135.92423    1036.5728    13467.197 
   40040    330.30987    4.0607173    66.913751   -133.13701    1943.2537    13467.197 
   40050    334.22005    6.1525422     65.41156   -130.51354    2294.1528    13467.197 
   40060    326.62602    7.7004338    59.804575   -127.24828   -2278.0111    13467.197 
   40070    319.04066    7.3309853     65.86282   -123.84686   -1104.9898    13467.197 
   40080    318.25737    6.3555103    70.266697    -120.3536    241.81166    13467.197 
   40090    308.22146    4.2160162    73.760237   -117.15191    2093.4076    13467.197 
40100        0.96074335134374899692 10.232169280892946972 0.99470899470899465378 68 -262.35338981772372335
   40100    326.99256    5.0783873    66.290475   -114.19858   -273.84288    13467.197 
   40110    333.64892    5.6387625    63.661355   -111.86662   -1871.6331    13467.197 
   40120    372.01874    8.6034598     58.37623   -110.73399   -3655.8287    13467.197 
   40130    361.63982    8.4607664    63.449131   -111.46683   -42.082433    13467.197 
   40140     351.5199    9.0396403     64.52485   -114.36548   -619.65869    13467.197 
   40150    313.35935    8.0152761    68.638328   -119.07358   -490.89573    13467.197 
   40160    339.23915    6.6456664    58.347013   -125.02472   -3469.9432    13467.197 
   40170    331.08804    5.7703679    61.244933   -131.42344    295.27213    13467.197 
   40180    326.72349    6.1985218    61.034448   -137.12351   -238.62674    13467.197 
   40190    290.00872    6.6701889    62.519118   -141.36713     3910.249    13467.197 
40200        0.966624718763169688 10.191039135624722078 1 69 -275.11039762924463048
   40200    289.26175    6.0180528    68.733135   -144.05078   -1464.5307    13467.197 
   40210    301.60065    7.5515294    59.537171   -146.12862    3035.4122    13467.197 
   40220    310.39613    9.2383122    59.230294    -148.0952   -671.05537    13467.197 
   40230    303.19098    10.060223    56.805399   -150.05534    2854.8867    13467.197 
   40240    321.04374    9.1786625    56.869024   -151.66863   -1738.8836    13467.197 
   40250    304.92858    8.6808284    62.981518   -153.60781   -31.024752    13467.197 
   40260    298.33359    8.2959972    57.855208   -155.67016   -798.69737    13467.197 
   40270    285.91471    5.8327349    59.347785    -157.6612    1092.6788    13467.197 
   40280    288.03606    4.3500086    59.881544   -159.35517    -432.1434    13467.197 
   40290    292.26438    4.7541363    52.023875   -160.64237   -322.47832    13467.197 
40300        0.97495088540424357237 10.163042510922696948 1 69 -283.6284349668629261
   40300    269.71578    5.1548117    57.396021   -161.42476   -2372.8011    13467.197 
   40310    270.71746    7.4973238    50.271854   -161.39287     1526.051    13467.197 
   40320    286.86069    7.4211357    53.751884   -160.33598    325.98402    13467.197 
   40330    317.50254    8.8572624     47.78148   -158.30913    44.550367    13467.197 
   40340    300.67698    9.5093575    56.494462    -155.8104    -1565.799    13467.197 
   40350    283.69871    7.7777683     60.77502   -152.79151   -208.06205    13467.197 
   40360     287.7368    6.4315761     61.78394   -149.01422    1095.9218    13467.197 
   40370    306.72449    7.1196608    64.669348   -144.29939    3203.5899    13467.197 
   40380    301.52397     8.993985    63.935584   -139.53144   -908.34443    13467.197 
   40390    304.96456    8.5786244    65.186207    -135.2083    492.13117    13467.197 
40400        0.98409794893436219887 10.136516045110308681 1 69 -290.17218138531808336
   40400    349.28594    5.8250356    57.942028   -131.91662    242.17801    13467.197 
   40410    339.88662    5.8306835    62.984092   -130.43458    59.903108    13467.197 
   40420    316.04694    6.5706964    62.233665   -130.49313   -1558.5443    13467.197 
   40430    304.65423    7.7064872    58.231361   -131.09687   -1665.7953    13467.197 
   40440    316.45633    6.3183981    60.247203   -131.60533    913.80875    13467.197 
   40450    307.43191    4.2857818    65.615447   -132.32438    2339.1041    13467.197 
   40460    305.11457    7.6040921    59.093734   -133.17605   -1418.5443    13467.197 
   40470    310.19169    9.2993239    61.265117    -134.2217    129.18023    13467.197 
   40480    337.04742     9.493153    57.192856   -135.48784   -776.40639    13467.197 
   40490    341.54306    9.4012023    61.991225   -137.40386   -1233.5436    13467.197 
40500        0.98885435118820563805 10.113813666612339048 1 68 -288.19943467132407022
   40500    326.85682    11.154851    59.993413   -140.10612    319.67379    13467.197 
   40510    298.41538    10.564683    66.347939   -143.02669   -1046.6614    13467.197 
   40520    314.28298    6.7682062    62.368034   -145.47688    1226.7461    13467.197 
   40530    327.67793    6.8088493    54.273835   -147.90007   -915.24619    13467.197 
   40540    319.44751    9.0928604    55.790256   -150.18879    2388.0348    13467.197 
   40550    288.40924    10.155186      57.7515   -152.04412   -1876.0945    13467.197 
   40560    287.29929    8.6104064    59.770739   -153.16791   -1137.6662    13467.197 
   40570     281.9898    6.8607761    64.097345   -153.92041   -1990.6722    13467.197 
   40580    276.76875    7.1478723      54.7175   -154.24037    1753.1964    13467.197 
   40590    275.99028    7.0105325    56.009883    -153.7555    1212.1683    13467.197 
40600        0.99011339243993456982 10.056191232323936191 0.99735449735449732689 69 -281.65829009536702188
   40600    285.52198    6.9389048    60.002839    -152.2931    2075.5597    13467.197 
   40610    297.77273    6.4305962    64.385128   -150.14026   -472.87805    13467.197 
   40620    309.10162    8.0642313    65.852457   -148.22295    1154.2965    13467.197 
   40630    297.23557    8.2353167    62.444151   -147.04529   -1753.6786    13467.197 
   40640    304.23926    6.8926153    62.296161    -146.4075    1707.1144    13467.197 
   40650    324.89174    8.0505352    60.822304   -146.11497   -1368.7495    13467.197 
   40660    304.91034    9.6809699    63.233285   -146.74531    658.80206    13467.197 
   40670    289.16142    10.053238    64.515668   -147.62129   -615.51474    13467.197 
   40680    288.43603    9.8104532    65.844569   -148.58612    2148.4339    13467.197 
   40690    309.63842    7.3657659     65.99275   -149.95667    24.161867    13467.197 
40700        0.99009849098794622257 10.043193806620234199 0.99735449735449732689 67 -289.79699292723086046
   40700    303.74008    8.4156289     58.53821   -152.17749    -1140.636    13467.197 
   40710    282.46799    8.9433714    60.385686   -155.02171   -2201.3342    13467.197 
   40720    283.67048    9.1171644     65.47992    -158.2426    1052.2897    13467.197 
   40730    283.32987    8.1909231    57.339841   -162.01002    1653.7594    13467.197 
   40740    269.48713    9.1518994    60.246108   -165.60018     2588.672    13467.197 
   40750    256.05202      7.82822    55.882276   -168.23963   -358.09529    13467.197 
   40760    274.24261     8.054729    54.603825     -169.583    2458.9645    13467.197 
   40770    276.70343    5.3360916    53.930255   -170.00057   -872.69368    13467.197 
   40780      288.819     6.060665    46.695417   -169.61987   -1488.5294    13467.197 
   40790    276.44634    5.8022233    56.484952   -168.25757   -1679.5964    13467.197 
40800        0.98869526672022811642 10.064033613176446735 0.99735449735449732689 68 -301.07512835248473948
   40800    298.46647    5.9439968    54.470102   -165.84501   -2784.5505    13467.197 
   40810    302.70708    6.9053982    59.214143   -162.70957    23.119025    13467.197 
   40820    282.41246    7.7944482     59.50834   -159.12821    1269.8736    13467.197 
   40830    285.38134    9.6289219    64.340953   -154.84969    772.43497    13467.197 
   40840    287.54435     9.449122    60.891612   -149.82226    2915.2357    13467.197 
   40850    319.90674     7.807408    57.981034   -144.82157    1050.9823    13467.197 
   40860     292.1368    5.7442958    68.294417   -140.98129     612.9625    13467.197 
   40870    325.96868     4.596115    56.693555   -138.56625   -2820.8828    13467.197 
   40880    324.44381    5.4694486    62.232263   -137.25939    1008.1465    13467.197 
   40890    335.26576    8.4426388    64.980174   -137.06956   -233.24058    13467.197 
40900        0.98879161512596780437 10.079554061060020942 1 67 -292.82917704729999286
   40900    341.72465    9.0695401    56.665083    -137.9995   -482.54839    13467.197 
   40910    312.58815    7.7798451    71.892786   -139.73714    1232.3229    13467.197 
   40920    327.64087    9.4911776    55.869005   -141.87899    1088.5425    13467.197 
   40930     305.8239    10.739678    68.776081   -144.83122    770.05516    13467.197 
   40940    297.25099    12.371318    64.752592   -147.62644    754.39997    13467.197 
   40950     309.9192     10.29786    55.819686   -150.17758   -2466.7213    13467.197 
   40960    301.35398    7.2513809    59.792521   -152.36513   -1004.6802    13467.197 
   40970    318.77325    7.0897488    52.592871   -154.44696   -1974.3232    13467.197 
   40980    274.04832    8.0251538    65.168122   -156.18668    97.621943    13467.197 
   40990    291.50422    9.9896464    55.451204   -157.24666   -801.66234    13467.197 
41000        0.9814507973615457237 10.130433862633346109 1 68 -276.1730624252271582
   41000    261.10866    12.602376    66.484477   -157.86913   -306.78319    13467.197 
   41010    275.71703    15.963405    60.058796    -157.8423    953.12132    13467.197 
   41020    254.98053    14.124489    65.370592   -157.22058    631.52564    13467.197 
   41030    280.84551    8.9685371    60.872834   -156.06013    253.49387    13467.197 
   41040    289.84643    7.6119252    59.901753   -154.41854    86.797068    13467.197 
   41050     296.0728    7.2034108    62.352049   -152.31662    -1129.482    13467.197 
   41060    309.39839    6.2816696    58.261919   -149.94188    1410.7957    13467.197 
   41070    290.88675    7.6591593    65.453476   -147.81757   -442.61128    13467.197 
   41080    301.24623    9.8814353    57.544621   -145.63576   -444.79112    13467.197 
   41090    299.66622    7.0436453     60.31015   -142.77409   -393.54998    13467.197 
41100        0.97653353949740318019 10.152216171912574083 1 69 -289.42835822466128093
   41100    331.62324     4.180688      57.2176   -139.17546    52.581287    13467.197 
   41110    321.71763    3.7667051    55.755844   -134.50295   -913.09244    13467.197 
   41120    315.03022    4.5964125    54.980518   -128.53836   -925.18418    13467.197 
   41130    320.55959    6.4166555    63.033987   -120.92956    1162.0116    13467.197 
   41140    353.38755    7.9617942    56.696697   -114.29875    1484.6228    13467.197 
   41150    356.18532    8.2715819    59.510538   -109.99369    935.04617    13467.197 
   41160    329.25699    9.3227345    70.311421   -108.61071    1129.3035    13467.197 
   41170    327.49989    7.4767855    67.886057    -108.8529     670.2552    13467.197 
   41180    345.00993    8.2725888    66.889783   -110.23702    32.005206    13467.197 
   41190    336.83895    6.4714333    64.130459   -113.13979   -345.11677    13467.197 
41200        0.96987706534591455743 10.177814896443814874 0.99470899470899465378 69 -259.70429979096365969
   41200    314.56156    4.4836096    75.250933   -117.18177   -388.71473    13467.197 
   41210    308.68363    5.4837226    68.614375   -121.50537    178.59794    13467.197 
   41220    297.29305    7.7075678    63.279275   -125.42941   -1799.8268    13467.197 
   41230    309.19776    8.4391726     64.04952   -128.94742    -1177.892    13467.197 
   41240    306.89858    7.0892688    62.059033   -132.17906   -2095.2187    13467.197 
   41250    307.51959    4.7322573    54.268265   -134.95712    51.171124    13467.197 
   41260    298.64584    4.0699252    59.378096   -137.00095     1538.605    13467.197 
   41270    297.74166    4.7335197    65.787567   -138.25376   -757.26777    13467.197 
   41280    326.52474    3.7124678    54.927116   -139.50129   -3399.7475    13467.197 
   41290    303.08889    5.3131868    64.492841   -141.63207   -2154.7781    13467.197 
41300        0.97313130807290282309 10.18007750304938952 1 68 -284.32895460958724243
   41300    309.25671    6.6465218    53.742313   -144.20996     1643.707    13467.197 
   41310     279.3118    6.5794462    63.867365   -146.67746    3776.8077    13467.197 
   41320    294.64587    6.8335203    55.556051   -148.55863    652.65678    13467.197 
   41330    297.99338    7.9020156     58.95457   -150.30719   -728.75295    13467.197 
   41340    320.19817    6.1953831      53.4959   -152.08829   -1196.8047    13467.197 
   41350    296.74196    5.5005453    58.409523   -154.23715     451.8297    13467.197 
   41360    288.07759    7.7502249    55.097258    -156.2987    480.03569    13467.197 
   41370    287.58085    7.4036633    52.256365   -158.10508   -168.75887    13467.197 
   41380    305.75494    4.6870105    54.005555   -159.82067    688.55927    13467.197 
   41390    319.33981    4.5113921    47.988773   -162.07188    364.49086    13467.197 
41400        0.97778110758359837451 10.147992028388006958 1 62 -296.74496919729881483
   41400     290.6151    5.4367311    54.832866   -165.07217   -102.26751    13467.197 
   41410    290.42203    4.9107486    49.029283     -168.722    113.83393    13467.197 
   41420    272.82667    3.6525836    54.474945   -173.08014   -3877.0881    13467.197 
   41430    284.26266    4.6999203    46.775539   -177.62178    486.22725    13467.197 
   41440    254.97827    5.8814944    50.328163   -181.99194    37.206083    13467.197 
   41450    250.37499    6.5919765      45.8657   -184.94776    2818.0267    13467.197 
   41460    265.80324    6.1440744     44.61135   -186.34976    924.42765    13467.197 
   41470    255.32727    6.8624791    46.831056   -186.24124   -584.86317    13467.197 
   41480    279.05699    5.8713787    46.075375   -184.44825   -2070.6646    13467.197 
   41490    282.78425    5.9846873    51.009664   -180.70955    462.81564    13467.197 
41500        0.97938681868773180828 10.130472964324123808 1 65 -308.70496433778697565
   41500    295.32569    8.2390961    53.159787   -174.89788     1596.157    13467.197 
   41510    300.33624    10.231586    53.692256   -168.06561    1403.0536    13467.197 
   41520    318.94814    14.256582     45.68871   -162.01314   -1647.3504    13467.197 
   41530     290.6717    15.403763     58.94457    -158.3408    1615.6651    13467.197 
   41540    304.11813    14.399488    55.696608   -156.10114    233.87634    13467.197 
   41550    308.18679    14.016466    54.804312   -154.53931    629.31629    13467.197 
   41560    316.62973    13.905813    59.238306   -153.65301    -1467.042    13467.197 
   41570    295.25179    15.366295    56.954178   -153.19078    223.71606    13467.197 
   41580    289.66504     9.307425    62.537358   -152.75593    2237.6778    13467.197 
   41590    311.39404     5.116357    56.152919   -152.28486   -303.18141    13467.197 
41600        0.97653076758994561413 10.155355601206302651 1 71 -291.00791777219393452
   41600     306.4648    5.3248226    54.456505   -152.15389   -620.15044    13467.197 
   41610    293.70165    9.4739655    56.929997   -152.06492    -2271.723    13467.197 
   41620    309.05988    8.6789399    53.930323   -151.76085    1448.8386    13467.197 
   41630     287.9564    7.6076063    62.878837   -151.65675    3706.7303    13467.197 
   41640    298.94701    8.6355258    53.694236   -151.45652   -175.12314    13467.197 
   41650    304.82113    9.2217568    54.319614   -151.10569   -1640.5105    13467.197 
   41660    309.58004    6.2070766    56.318487   -150.89891   -1205.8811    13467.197 
   41670    284.94775    4.8156633    56.956771   -150.98142   -84.862099    13467.197 
   41680    314.22909    7.1886716    51.796352   -150.83726    537.99872    13467.197 
   41690    326.30684    8.1250906      50.0524   -150.68325   -436.63758    13467.197 
41700        0.96267117064612905963 10.20732770347281182 1 67 -297.21990525076296308
   41700    322.58522    7.5660657    51.794913   -151.06198   -1480.7443    13467.197 
   41710    325.75711    4.4903792    46.641208   -151.96673      2095.21    13467.197 
   41720    315.77833    5.3836793    51.533764   -153.44393   -332.80228    13467.197 
   41730    304.20464    6.0139955     45.90089   -155.33641    -2080.967    13467.197 
   41740    284.26101    3.8164584    51.050499   -157.09922   -3257.7581    13467.197 
   41750     297.1215    4.6838301    54.784472   -158.89918    2033.0496    13467.197 
   41760    262.56665    6.3660448    55.695808   -160.36154    2099.6581    13467.197 
   41770    289.05245    7.1690887    53.257533    -161.1071     1378.358    13467.197 
   41780    260.97371    7.8209958    65.069022   -161.25877   -1198.1261    13467.197 
   41790    283.44087    7.4414637    55.359959    -160.4666   -7.4670037    13467.197 
41800        0.95673415411126039309 10.215177189763643639 1 65 -292.75744696716236604
   41800    295.65131    4.3101393    56.103355   -158.80283    1278.3744    13467.197 
   41810    293.58183    3.2249454    55.791458   -156.61222    988.46477    13467.197 
   41820    320.43625    4.7973188    52.125359   -153.77205   -240.19555    13467.197 
   41830    320.97371    5.4881033    56.329162   -151.10641   -3569.8354    13467.197 
   41840    305.02772    7.0571577    52.326829    -148.9592   -956.50147    13467.197 
   41850    294.68954    8.8262848    60.113671   -146.82422    768.70487    13467.197 
   41860    293.07142    8.6775498    55.539443   -144.06177    4254.1095    13467.197 
   41870    288.25382    8.7118324    65.691461   -140.71064    1217.0924    13467.197 
   41880    301.82666    5.8408856    59.438552   -136.67362   -359.46315    13467.197 
   41890    296.28668    8.1485628    62.734569   -132.64385   -3573.9257    13467.197 
41900        0.95334209950425685687 10.24075429332492071 1 65 -268.53186150106779451
   41900    308.06317    10.267294    59.279822   -128.95364   -3701.3625    13467.197 
   41910    324.71799    10.235833    59.683714   -125.66735   -2391.9649    13467.197 
   41920    336.27841    10.712761    63.007498   -123.47148   -600.21599    13467.197 
   41930    331.18923     10.95078    58.981802   -122.62106    1523.8339    13467.197 
   41940    335.66323    8.8075966    61.085747   -122.94731    1626.5388    13467.197 
   41950    344.65954    9.8186939    58.669983   -124.50872    1466.8179    13467.197 
   41960    324.63999    11.030735    61.948462   -127.62282    434.93461    13467.197 
   41970    312.23965    9.0858286    61.643762   -131.45488   -347.46779    13467.197 
   41980    300.10723    6.5311185    61.920563   -135.33951   -1495.7856    13467.197 
   41990    292.74761    8.8999797    60.837501   -138.33572    180.21247    13467.197 
42000        0.96079154060041549457 10.200758343990687038 1 64 -269.61300006466194645
   42000    285.73273    8.8763745     64.72506   -140.15232    506.86576    13467.197 
   42010    288.87694    9.6305369    56.238377   -140.95169    842.93967    13467.197 
   42020    295.73054    7.1700345    60.769245   -141.18579   -1858.7886    13467.197 
   42030    309.05562    4.8573268    56.715586    -141.3043    2122.4683    13467.197 
   42040    298.13195    6.2996065     63.53611   -141.92228    2324.8625    13467.197 
   42050    285.11105    7.2827903     63.14143   -142.78762    1358.9983    13467.197 
   42060     272.1366    7.0582428    65.768524   -143.38365   -1740.7916    13467.197 
   42070    306.21528    8.1257753    54.621769   -143.45965   -3405.3783    13467.197 
   42080    313.89049    7.3699926    63.402527   -143.50974   -1417.8929    13467.197 
   42090    306.88838    8.7969131    66.183659   -144.17723   -1034.2213    13467.197 
42100        0.96698495620787028315 10.194515446376344769 1 66 -276.63513731493350178
   42100    289.50079    11.334621    65.997496   -145.46722    206.33067    13467.197 
   42110    293.81523    12.713059    59.132737   -147.10737    664.25573    13467.197 
   42120       297.58    9.5502213    66.814197   -148.86524    1929.6805    13467.197 
   42130    316.40108     6.205168    56.496441   -151.04237    3276.6147    13467.197 
   42140    300.67784    6.5406236    59.060054   -154.29564   -1067.1372    13467.197 
   42150    267.46031    8.3539804    61.303957   -158.15308   -1425.9106    13467.197 
   42160    293.57638     8.172252    59.204428   -162.26745   -1362.2134    13467.197 
   42170    287.80305    6.8924232    55.763688   -166.35418   -808.23655    13467.197 
   42180    309.50769    6.8704151    46.371629   -170.26618   -2047.2497    13467.197 
   42190    265.92775    9.1047885    53.189794   -173.48802   -1149.4262    13467.197 
42200        0.97048268671102388971 10.173096619626161186 0.99735449735449732689 68 -288.81118944763954914
   42200    250.59007    8.2493411    55.445703   -175.27306    3850.3536    13467.197 
   42210    243.89198    6.1716154     59.67027   -175.60502    1064.9511    13467.197 
   42220    258.31628    5.0190149    54.682685     -174.633    2633.3431    13467.197 
   42230    265.18463    6.2867167    56.857794    -172.5944   -1116.0473    13467.197 
   42240    259.38062    6.5852758     59.76317   -169.82425   -2462.2554    13467.197 
   42250    280.93688    7.1823084    58.070637   -166.88009   -1669.5082    13467.197 
   42260    274.10284    7.1615087    59.508184   -164.50209   -2382.3329    13467.197 
   42270    280.37522    7.7299217    56.377634    -162.7869    9.2551716    13467.197 
   42280    285.28796    6.2114733    52.303694   -161.17449    744.44158    13467.197 
   42290    296.11438     6.939723    59.957798   -159.60472    3770.8293    13467.197 
42300        0.98023960197750104051 10.13941661047266507 1 70 -292.54410311951562562
   42300    296.13442    7.2448474     62.45037   -158.37059    3045.0341    13467.197 
   42310    287.38533    9.2562744    57.405727   -157.40558   -2162.1735    13467.197 
   42320     299.2141    8.6587456    54.286961   -156.41091   -1598.7784    13467.197 
   42330    291.66925    11.577861    64.481798   -155.32916    -966.3215    13467.197 
   42340    304.25781    12.146948    56.148044   -154.05651    117.98245    13467.197 
   42350    289.06147    11.483711    61.547852   -152.70111    1002.2529    13467.197 
   42360     300.4375    9.0440151    58.828552   -151.22646   -465.59789    13467.197 
   42370    291.20793    6.2696453     62.46957   -149.65378    2647.0433    13467.197 
   42380    320.99732    8.3181067    54.407753   -147.99322   -2437.5025    13467.197 
   42390    291.66389    12.077196    61.753055   -146.52539   -2047.5611    13467.197 
42400        0.98781234658701677631 10.132017436096315777 1 72 -295.26001950184149791
   42400    331.44181    11.813954    52.350596   -145.08933    1484.6524    13467.197 
   42410    312.91825    7.7800187    64.081557   -143.86565    1153.9955    13467.197 
   42420    301.06408    6.4501182    59.838086   -142.79643    91.066857    13467.197 
   42430    309.89187    9.9256821    57.528759   -141.60501   -1578.9539    13467.197 
   42440    292.81539    9.8130154    65.251378   -140.53355   -138.45044    13467.197 
   42450    297.13167    9.7348937    65.314381   -139.45043   -688.03017    13467.197 
   42460    284.29321    12.179665    64.489742   -138.28684   -544.35627    13467.197 
   42470    307.47253    11.808683    62.386095   -136.53137    3206.7219    13467.197 
   42480    317.16796    8.4794156    65.596313   -134.93116    1524.9443    13467.197 
   42490    309.72675     6.181325    65.588801    -133.9243    -866.4369    13467.197 
42500        0.98805119005731811832 10.100353043396983921 1 73 -275.11030467743205463
   42500    312.46112    5.5606571    64.741052   -133.53945   -1917.8791    13467.197 
   42510    316.75892    8.1554933    64.774212   -133.74751   -1275.8675    13467.197 
   42520    310.95015    10.422616    67.915771   -135.01663   -34.674973    13467.197 
   42530     308.5346    10.992236    58.519055   -137.24269    1659.1513    13467.197 
   42540    312.34501    7.2816733    64.444844   -140.38033    3182.9282    13467.197 
   42550    330.45899    4.5109727    59.416596   -144.82274    615.48403    13467.197 
   42560    314.61005    3.6829921    57.892909   -150.52143   -4301.5739    13467.197 
   42570    292.32386    4.3993208     59.87532    -155.7243   -1351.6533    13467.197 
   42580    290.30372    5.0459932    53.022556   -159.63136    1806.8108    13467.197 
   42590    266.50147    5.7873938    52.860998   -162.24289     809.9814    13467.197 
42600        0.98641564987851704238 10.088525824411876286 1 72 -282.87045346286248559
   42600    263.98434    8.2259047    50.605766    -163.2636   -614.53874    13467.197 
   42610    256.24258    8.2468614    51.449716   -162.71532    677.00673    13467.197 
   42620    272.91092    6.9638328    56.976882   -160.76579     3335.112    13467.197 
   42630    290.52224    8.0726097    50.711859   -157.97892    765.93734    13467.197 
   42640    276.96791    7.0120031    53.014839   -154.96586    -760.4905    13467.197 
   42650    303.70397    5.8337254    52.753915   -151.49643    672.15371    13467.197 
   42660    315.53451    5.3358803    59.182194   -148.03832    395.55151    13467.197 
   42670    315.09058    6.0521263    56.716167   -145.53666   -894.80016    13467.197 
   42680    299.78496    8.0726402    58.584384   -143.85799   -3259.7048    13467.197 
   42690    326.79327    8.5889867    49.720417   -142.34206   -1054.0053    13467.197 
42700        0.98046083954063434351 10.1081767527726889 0.99735449735449732689 69 -279.72196596379427547
   42700    305.51152    7.1668183    56.273966   -141.29985    1686.8445    13467.197 
   42710    306.08546    6.7641172    57.748388   -140.39713     3225.345    13467.197 
   42720    305.67299    6.8506041    51.962729    -139.4418    150.32363    13467.197 
   42730    318.89529    8.3927267    53.934175   -138.54542   -1381.0659    13467.197 
   42740    324.40223    8.4262944    55.373156    -137.9479   -645.33698    13467.197 
   42750    327.79196    7.4225635    56.560627   -137.95357    770.09792    13467.197 
   42760    313.30144    8.0467386    55.161871   -138.78685   -1663.9967    13467.197 
   42770    299.66973    9.2433042    56.246548   -140.16044   -2847.6294    13467.197 
   42780    324.05133     9.500815    52.397898   -142.03133    40.041868    13467.197 
   42790     311.4973    6.8896303     56.08145   -144.89248    691.02213    13467.197 
42800        0.9775857682512729685 10.114314369762976042 1 71 -277.44485187322402453
   42800    285.12276    5.9025936    59.133626   -148.26054   -233.44337    13467.197 
   42810    276.57037    7.6748216     50.83969   -152.23688    2111.6307    13467.197 
   42820    259.30776    7.6513902    60.066821   -156.63311   -192.94268    13467.197 
   42830    271.85956    6.2286891    50.570938   -160.97617    2340.8089    13467.197 
   42840    256.81609    5.7639749    52.849891    -164.3234   -723.68881    13467.197 
   42850    280.60878    8.4328508    45.532028   -166.59288   -141.20072    13467.197 
   42860    273.39741    7.6327527    52.507227    -168.0161   -499.70732    13467.197 
   42870    286.16962    9.3422894    46.846951   -168.74048     1731.185    13467.197 
   42880    278.97748    8.4342892    51.715802   -168.74618    439.67572    13467.197 
   42890    294.67019    7.9330159    48.346254   -167.81026    1258.9108    13467.197 
42900        0.97460166379581980589 10.137205908923604625 1 65 -297.14778171276287821
   42900    290.00254    8.7955123    52.904389   -165.75253   -2487.4808    13467.197 
   42910    304.92954    8.5588099    50.112903   -162.18026   -1095.6022    13467.197 
   42920    282.68979    5.7037445    60.163472   -157.14283   -2456.1988    13467.197 
   42930    301.26495    3.6895918    51.284381   -151.25365   -1267.5427    13467.197 
   42940    288.74572    4.5977512    70.236558   -145.13977    1731.7723    13467.197 
   42950    313.44012    7.5178849    54.324042   -140.22096    1468.5538    13467.197 
   42960     303.7381     9.063614    63.372005   -136.79732    86.647536    13467.197 
   42970    309.96509    6.8456708    57.202442   -134.69305   -459.88089    13467.197 
   42980    317.32593    7.7527495    58.439287   -133.35232    1385.3846    13467.197 
   42990    319.40437     7.973329    57.102281   -132.45696    909.40276    13467.197 
43000        0.982996530697160531 10.095895231473582143 1 66 -273.39001400011966325
   43000    311.98588    5.8614316    62.523268   -132.03448   -862.60396    13467.197 
   43010    291.92575     4.011812    58.115196   -131.97467    537.47303    13467.197 
   43020      279.734    4.0882075    64.670505   -131.73079   -746.58552    13467.197 
   43030    304.37645    5.9324337     52.56287   -131.04854   -1318.8796    13467.197 
   43040    298.47453    6.7291193    59.290654   -130.11798   -2758.0857    13467.197 
   43050    290.79332     6.165025    61.129337   -128.91878    -666.5842    13467.197 
   43060     305.6121    5.5799026    61.669385    -127.2299    964.41372    13467.197 
   43070    306.55285    6.3091934    57.984088   -125.35574    1580.8687    13467.197 
   43080    334.37964    5.9846483    57.395063   -123.47111    101.24286    13467.197 
   43090    316.98518    6.4317336    64.788832   -122.16013    2463.8047    13467.197 
43100        0.98413524229433890778 10.087591022363135096 1 67 -279.26905546686276693
   43100    348.46106    6.4863445    49.732676   -121.38723   -2349.5855    13467.197 
   43110    308.74395    5.2338959    63.025171   -121.45854   -1374.8906    13467.197 
   43120    326.74152    5.1604844    58.943817   -122.34165   -2334.0071    13467.197 
   43130    322.96782    6.1454848    65.384842   -124.49144   -686.69777    13467.197 
   43140     346.0528    7.0558911    54.770546   -128.59801    3045.5241    13467.197 
   43150    306.19462     9.583775    62.290759   -134.60991    2162.5544    13467.197 
   43160    289.86888    12.604971     60.19645   -140.04392    2704.7273    13467.197 
   43170    300.57012    12.200858    54.592446   -144.68066    755.92381    13467.197 
   43180    305.29773    9.2410159    60.527288   -148.57085   -950.66718    13467.197 
   43190    286.46227    8.4482774    62.196993   -152.14963    851.37425    13467.197 
43200        0.98679331210316723055 10.07901546916815505 1 69 -272.77176617262358604
   43200    261.30483    6.1790831    56.398446   -154.37896   -2134.2672    13467.197 
   43210    289.18535    5.3389049    50.235947     -155.344    374.18814    13467.197 
   43220    299.13871    4.6825535    50.837355   -155.57376    320.85856    13467.197 
   43230    296.07391    6.0029348    54.253658   -155.49434    1413.8493    13467.197 
   43240    286.41087    8.6692892     58.89286    -155.2666    364.42875    13467.197 
   43250    288.72861    10.881789    51.670182   -154.69494   -3649.6128    13467.197 
   43260    308.09111    12.421014    56.517436   -153.95262   -183.26538    13467.197 
   43270    295.61303    13.429408     55.27428   -153.25305   -193.48958    13467.197 
   43280    286.23613    11.760647     54.67127   -152.45325    1933.7322    13467.197 
   43290    262.77997     9.712874    60.678929   -151.28104    1409.9308    13467.197 
43300        0.99003675729511786407 10.074173436743283361 1 67 -275.21618182091395965
   43300    278.51662    7.9809138    57.473782     -149.025    1398.9284    13467.197 
   43310    284.38588    8.4283108    56.971555   -145.18983    1240.8179    13467.197 
   43320    307.74388    7.4722023    57.042673   -139.75795    -129.8166    13467.197 
   43330    310.70027    4.2846898    65.373312   -133.77418    833.88449    13467.197 
   43340    310.24478     4.424294    64.951052   -129.20935   -929.95676    13467.197 
   43350    306.51309    7.0792625    60.872789   -126.23757   -959.76148    13467.197 
   43360    326.81132    7.6359596    55.916188   -124.30568    589.42212    13467.197 
   43370    316.93246    6.8336108    67.064932   -123.17043     423.8254    13467.197 
   43380    328.92058    6.1952894    63.696151   -122.84816   -3301.2836    13467.197 
   43390    316.98778    5.8694926    62.900682   -123.24952   -4035.8911    13467.197 
43400        0.98423601370344848682 10.142144477428447047 1 68 -274.42257367812646862
   43400    331.03954    6.5860015    64.121172   -124.43414    818.48863    13467.197 
   43410    319.49266    8.1169351    65.044146   -126.39402    2754.8769    13467.197 
   43420    309.13784    10.324284    57.667522   -128.71072    1092.7822    13467.197 
   43430    311.70772    9.4850025    60.459138   -131.12986   -664.53164    13467.197 
   43440    313.21463    7.4004171    63.259553   -133.48889    1215.8335    13467.197 
   43450    315.16709    4.6293311    55.355882   -136.02718   -168.35883    13467.197 
   43460    296.07427    4.3881907    64.843896   -138.25313    1094.1803    13467.197 
   43470    319.40722    3.7235243    58.421465   -140.43726   -237.29999    13467.197 
   43480    309.09679    5.0995617    63.037692    -142.6986   -1529.3103    13467.197 
   43490    298.85585    6.2857354    58.349732   -145.13615   -1460.3342    13467.197 
43500        0.97613604137058906929 10.182616543176552071 1 70 -272.5222943825067432
   43500    277.32694    7.9788618    65.999272   -146.87014    896.67828    13467.197 
   43510    295.69957    6.8629425    55.622562   -147.69599    1455.3854    13467.197 
   43520    303.58674    5.9584994    58.258269   -148.03247   -539.19047    13467.197 
   43530    309.51828    6.7072807    57.829799    -148.1681   -764.96598    13467.197 
   43540    321.73902    6.6138785    53.802684   -148.57773    1263.0275    13467.197 
   43550    289.58965    5.6083619    55.670662   -149.00494   -1346.4699    13467.197 
   43560    305.03918    7.7616362    52.079289   -148.92427   -2049.8066    13467.197 
   43570    278.68187    10.738991    61.362212     -148.508   -1206.3536    13467.197 
   43580     325.8835    10.558985    56.323303   -148.08595     1096.297    13467.197 
   43590    304.11651    11.633006    63.828439   -148.28323     2600.878    13467.197 
43600        0.97238460913614610526 10.197496062870273548 1 67 -288.48809395599170102
   43600     308.7022    11.570637    49.356643   -148.62034    431.55618    13467.197 
   43610    296.03179    10.954358    56.697069   -148.67633   -774.09024    13467.197 
   43620     295.2218    10.013885    56.666595   -148.37159   -2154.2572    13467.197 
   43630    283.72182    9.5568708    57.019934   -147.78343   -1640.5315    13467.197 
   43640    266.29328     9.851077    60.511127   -146.60114   -476.30419    13467.197 
   43650    274.10583    9.4046524     69.45369   -144.23064    1661.2944    13467.197 
   43660    325.98051    8.7653213    58.549419   -140.08801    -117.8747    13467.197 
   43670    334.53008     8.351463    60.690504   -134.50277   -150.55274    13467.197 
   43680    329.19236    8.5834165     61.05569   -128.71549    1652.1911    13467.197 
   43690    321.48844    7.3203118    70.021062   -122.66441    114.35536    13467.197 
43700        0.97023771560038030159 10.178906498869112696 1 69 -279.56494424018785594
   43700    358.00793    5.0098705    63.067606   -117.35759   -2029.8561    13467.197 
   43710    337.42288    3.3781988    68.071628    -113.9219   -3404.8352    13467.197 
   43720     334.6241    3.6315414    62.181836   -112.70223   -27.480049    13467.197 
   43730    326.22706    4.9308968    66.682451   -112.76792    1444.0889    13467.197 
   43740    314.38251    7.6770922    72.473681   -113.99309    2293.3561    13467.197 
   43750    310.86854    5.6080126      63.8022   -116.25181    182.72565    13467.197 
   43760    308.60698    4.8080045    62.154001   -119.51835    753.49806    13467.197 
   43770    321.86238    4.6193509     56.87574   -124.74338    1130.0384    13467.197 
   43780    299.67135    3.7183759    65.393101   -131.43178   -168.02643    13467.197 
   43790      319.878    1.7387059    51.716965   -139.21521   -899.16792    13467.197 
43800        0.96737848807333581824 10.153880013656959136 0.99470899470899465378 67 -277.25567339602605443
   43800    291.69608    1.4734336    59.600189    -145.0931   -1174.9019    13467.197 
   43810    310.14514    2.9869367    49.516402   -148.75448      519.335    13467.197 
   43820    267.14917    4.7193345     61.14925   -150.62636    2742.2259    13467.197 
   43830    270.78589    5.9558398    57.821604   -151.13998    667.12421    13467.197 
   43840    285.07765     6.441124    58.338269   -150.93018    714.80201    13467.197 
   43850    319.96128    5.0434164    50.963897   -150.45717   -344.07374    13467.197 
   43860    310.43041    5.6120125    51.042751   -150.21267    687.94806    13467.197 
   43870    289.63829    5.4117649    51.104106   -149.82769    194.09397    13467.197 
   43880    277.18061    4.7530619     55.85858   -148.69215   -1305.1671    13467.197 
   43890    292.01255    3.8511118    55.365859   -146.72254   -1826.6435    13467.197 
43900        0.96362694797785308776 10.189782063630808295 1 69 -276.57086012885940818
   43900    292.26628    5.2121818    58.459477   -144.14994    1100.2648    13467.197 
   43910    323.51917    4.4351959    54.755461   -141.08936    472.45609    13467.197 
   43920    322.96786    5.0172674    54.260812   -138.07731    1662.6916    13467.197 
   43930    327.34651    5.4879438    53.535837   -135.32357   -761.08131    13467.197 
   43940    311.36035    5.5044504    55.340487   -132.91884    1403.3014    13467.197 
   43950     280.8469    6.8840413    67.891418   -130.77768   -143.09315    13467.197 
   43960    308.71285    5.8680954    57.264699   -128.29242   -1041.3887    13467.197 
   43970    330.29815    5.2418686    60.494069   -125.81135   -152.06876    13467.197 
   43980    349.32521    5.2773251    55.612018   -123.89246   -560.13313    13467.197 
   43990     352.4394    5.8260199    50.981511   -122.91402   -2749.9947    13467.197 
44000        0.95303521145858527408 10.233805717365353161 0.99735449735449732689 63 -270.80445878552342265
   44000    326.78133    4.4778115    59.608315   -122.74535    877.43118    13467.197 
   44010    318.35532    4.8976856     61.85919   -122.86655    2254.2157    13467.197 
   44020    318.77668    6.7903796    66.695738    -123.4321    1753.0719    13467.197 
   44030    306.56265    7.1909421    59.005723   -124.95166   -845.75219    13467.197 
   44040    284.94206    7.2449679    64.969707   -127.46239   -3533.8012    13467.197 
   44050    294.05883     6.280425    65.285433    -130.6473   -201.50165    13467.197 
   44060    275.42058    5.6340526    66.458065    -134.8343    25.507007    13467.197 
   44070    284.59401     2.990025    60.408594   -139.15311    422.70912    13467.197 
   44080    267.22133    2.1787507    64.708808   -143.10922    767.99829    13467.197 
   44090    295.00206    1.7137912    56.520813   -146.14445   -879.10537    13467.197 
44100        0.94718824040017679522 10.258472556179540902 0.99206349206349198067 65 -285.00891909174578132
   44100    299.88956    1.2690838    53.873144   -149.13402    580.15545    13467.197 
   44110    289.23104     1.665582    57.681065   -151.72716   -2187.3511    13467.197 
   44120    282.96975     4.142698     52.44746   -153.93028   -636.55458    13467.197 
   44130    281.05433    2.7291577    58.070173   -155.38505   -337.03108    13467.197 
   44140    289.17545    4.0251301    48.823897   -156.35597    1761.3278    13467.197 
   44150    253.49128    6.6772439    62.343673    -156.5402    3052.1107    13467.197 
   44160    285.46443    7.2790071     48.51489   -155.26466    -1373.724    13467.197 
   44170    277.56087    5.5964957    63.566347   -152.74025    -2793.943    13467.197 
   44180    309.21628    4.4940137    51.319514   -149.19031   -2533.8494    13467.197 
   44190    290.77227    4.3815883    59.800988   -145.14935    144.52531    13467.197 
44200        0.94946790604778952272 10.233551636637418625 0.99735449735449732689 61 -279.7900087491448744
   44200    306.29925     6.829254    65.520415   -141.01099    3304.7337    13467.197 
   44210     306.0669    6.5712241    63.387466   -136.95597    -1560.181    13467.197 
   44220     312.0216    6.7932076    60.242088   -133.96475    672.85489    13467.197 
   44230    302.92755    5.2091234    64.584327    -131.7902   -1951.2141    13467.197 
   44240    317.90677    4.1967996    54.929652   -130.29382    526.28368    13467.197 
   44250    330.19902    3.5184452    61.720234   -129.31241    63.569777    13467.197 
   44260    327.38823    3.3194569    57.419542   -129.12946    106.58771    13467.197 
   44270    335.91578    4.0242488    61.452496   -129.64325   -597.46168    13467.197 
   44280    313.73601    6.4537473    67.180977   -131.06767   -2044.1627    13467.197 
   44290    311.15855    7.7126083    62.599575   -132.62486   -81.237743    13467.197 
44300        0.95823331184981597186 10.187330812865821983 1 62 -278.71582794538153394
   44300     318.8055    6.3423509     59.03079   -134.27043    3744.6814    13467.197 
   44310    315.01266    5.7328691    59.757881   -135.95808     566.2746    13467.197 
   44320    310.91631    4.2560201    52.982749   -137.52606    516.30373    13467.197 
   44330     298.3504    4.5929161     56.41736   -138.85089   -830.36315    13467.197 
   44340    290.29976    4.9714234    62.704627    -139.9279     1824.403    13467.197 
   44350    301.46283    5.7060877    57.821105   -140.70114   -691.09965    13467.197 
   44360    297.91178    5.0265281    66.841517   -141.53196   -1162.3133    13467.197 
   44370    312.16987    5.8993228    59.466103   -142.69372   -744.46778    13467.197 
   44380    291.66811    8.0813875    53.073737   -144.14839    1411.1901    13467.197 
   44390    305.76937    6.2439821    51.861421   -145.25226    881.84828    13467.197 
44400        0.96034612726819257311 10.176663501198834894 0.99735449735449732689 69 -285.08695758607530024
   44400    306.52675    5.1812444    56.095654   -146.20486    3005.8692    13467.197 
   44410    293.92344    4.5465583    52.712396   -147.22853   -1996.2039    13467.197 
   44420    292.02694    3.8799776    51.885311   -147.94969   -450.68507    13467.197 
   44430    278.21723    4.1523429    65.851095   -148.38237    1920.0653    13467.197 
   44440    310.28971    3.5611232    53.451777    -148.5422    766.02129    13467.197 
   44450     299.2266    3.6673675    57.925456   -148.68331   -3115.6755    13467.197 
   44460    324.15008    4.9522526    49.484374   -148.82486   -1492.8333    13467.197 
   44470    294.13641    6.4982709    65.537196   -149.33665   -642.20924    13467.197 
   44480    281.81395    7.8041643    61.370661   -150.43965    877.63012    13467.197 
   44490     297.5007    6.3840871    53.478042   -151.85912   -1004.3979    13467.197 
44500        0.96491036985998357434 10.180164204096573854 0.99735449735449732689 70 -286.69750257300842122
   44500    294.07023    4.0112205    55.422189   -153.45924    1116.4861    13467.197 
   44510    305.76998    4.6935783    52.527501   -155.17938    253.90233    13467.197 
   44520    273.34762    7.1084714    61.624678   -157.00393   -178.12698    13467.197 
   44530    283.45219    8.1411491    50.275595   -158.47958    1310.2979    13467.197 
   44540    300.22873    4.8929954    52.874199   -159.25293    446.78165    13467.197 
   44550    317.94874    4.4132956    50.958571   -159.79999   -1944.3161    13467.197 
   44560    305.63929    5.1530265    54.550191   -160.52075   -3800.7815    13467.197 
   44570    301.83036    5.1117619    59.993996   -161.61497    1101.1276    13467.197 
   44580    291.28101    5.3773684    52.432094   -163.15139     999.4436    13467.197 
   44590    271.82097    7.5462471    55.189799   -164.48276    67.476125    13467.197 
44600        0.96468770966218053697 10.161921226285898001 0.98941798941798930755 71 -283.59714132318771362
   44600    261.88842    10.297129    54.789748   -164.93992    1090.6969    13467.197 
   44610    276.04977    8.5733346    49.801417   -164.10742    2811.5689    13467.197 
   44620    258.30919    7.0593987    63.473601    -161.9624    1471.1864    13467.197 
   44630    281.65323    9.2688581     56.77613    -158.6057   -581.06539    13467.197 
   44640    280.66968    8.6705179     61.27274   -154.10134    662.65405    13467.197 
   44650    315.15026    6.5944546    55.146902   -149.26449   -2517.9553    13467.197 
   44660    315.52474    5.0352976    59.674663   -144.73884   -1372.2094    13467.197 
   44670     329.7391    5.3336976    63.326419    -141.5547    346.68089    13467.197 
   44680    311.92015    6.7960765    67.215928   -140.19179   -603.70068    13467.197 
   44690    303.31483     7.804334    60.762922   -139.86492   -337.08008    13467.197 
44700        0.96891387948131979524 10.158788885003131597 0.98677248677248674547 73 -283.26676745836095961
   44700    316.59846    7.1204732    54.438305   -139.82135    1631.0326    13467.197 
   44710    315.40142    5.7529216    58.191575   -140.19458    4536.5427    13467.197 
   44720    312.53385    5.7653288    56.804493   -141.08045   -285.67612    13467.197 
   44730    305.02482    5.9412767    59.999767   -142.30328   -1300.6096    13467.197 
   44740     314.8292    6.2780502    54.821562   -143.79444     -3040.62    13467.197 
   44750    289.09901    7.5914037    58.070212   -145.65269    303.61618    13467.197 
   44760    287.17842    7.3517658    63.512502   -147.35104    1289.9741    13467.197 
   44770    289.54063    7.4055212    62.874598   -148.99112   -1685.5785    13467.197 
   44780    295.24384    8.9847595    60.632216    -150.9212   -3635.5651    13467.197 
   44790    275.87419    7.5848666    61.527506   -153.53186    224.62959    13467.197 
44800        0.96857805674276264973 10.173205125639739776 0.98941798941798930755 65 -284.02159084385408505
   44800    281.12536    6.1867788    55.270884   -156.64843    240.15162    13467.197 
   44810    284.21319    5.7292992    58.047711   -160.62629    3806.2941    13467.197 
   44820    288.69665    4.4644208    50.848332   -165.88691   -1467.6525    13467.197 
   44830    273.53206    6.2881481    53.765562   -171.50132    1302.2709    13467.197 
   44840    284.18965    7.9629194    46.328085   -176.46986   -804.09704    13467.197 
   44850    259.69147    9.7047204    55.601741   -180.00293    622.17922    13467.197 
   44860     271.0301    7.7482965    50.310707   -182.13117   -1736.9786    13467.197 
   44870    256.26172    5.2022916    50.214122   -182.85946   -3442.2118    13467.197 
   44880    281.30253    4.9610323    46.777867   -182.28989    1137.6559    13467.197 
   44890    278.90202    7.2057066    50.316579   -180.85026    2566.4587    13467.197 
44900        0.97049774867924709643 10.152783064077100406 0.98677248677248674547 68 -295.50643149077109229
   44900    257.58837    8.0674289    57.093937   -178.79748    3171.1763    13467.197 
   44910    276.77876    9.8236008     53.86223     -176.091    1047.4409    13467.197 
   44920    277.13124    9.1157042    59.508143   -173.21465   -1410.1575    13467.197 
   44930    310.46551    8.6927351    49.598265   -170.67007   -1217.8969    13467.197 
   44940     296.2651    9.4215256    50.774829   -168.73953   -841.36031    13467.197 
   44950    295.06781    8.5293373    53.845752    -167.0475    -594.9582    13467.197 
   44960    292.58142    8.0131014    50.342053   -165.34702    1278.3523    13467.197 
   44970     289.8292    7.6287428    51.616746   -163.73595    1750.4694    13467.197 
   44980    292.22628    7.0389833    53.785475   -162.03465    1472.4799    13467.197 
   44990    306.86404    6.4187347    47.051857   -160.07106   -729.76179    13467.197 
45000        0.971724272289965052 10.132595754607375937 0.98677248677248674547 65 -286.98997709786914356
   45000    284.92015    5.7139042    57.014664   -157.89747   -1455.2684    13467.197 
   45010    296.83149    5.2782168     57.39277   -155.50055    17.964006    13467.197 
   45020    296.87171    3.7586145    55.689365   -153.01219   -406.59581    13467.197 
   45030    302.39847     5.960781    57.904867   -150.74918    729.24455    13467.197 
   45040    286.50499    7.7486451     54.60052   -148.80386   -250.83826    13467.197 
   45050    283.99051    8.3068044    59.932805   -146.54021   -462.53343    13467.197 
   45060    313.92098    7.2761929    56.127087   -144.00013    762.02514    13467.197 
   45070     284.8272    9.9745159    66.329214   -141.78829   -474.73549    13467.197 
   45080    325.41282    9.7436327    52.573882   -139.72653   -1434.8144    13467.197 
   45090    308.53329    8.7952363    66.898326   -138.22574    811.88119    13467.197 
45100        0.96897248504302690986 10.155620686292875732 0.98677248677248674547 67 -284.89873005881349854
   45100    325.51252    8.0557015    51.857764    -137.4145    1274.4899    13467.197 
   45110    282.26264    7.0466041    67.307458   -136.95627    825.03346    13467.197 
   45120    323.90695    6.5738748    59.923714   -136.57135    325.80112    13467.197 
   45130    327.03868     8.989088    56.339881   -136.83783   -3456.2793    13467.197 
   45140    341.94052    7.5185046    59.283465   -138.33548    574.67654    13467.197 
   45150    311.48046    7.6330277    65.541798   -141.17858    676.44622    13467.197 
   45160    288.51042    4.9864704    61.577003   -144.57201    2868.0698    13467.197 
   45170    289.02555    4.1969109       61.355   -148.26745   -2157.0048    13467.197 
   45180    288.24762    3.4568895    55.871893   -152.00849   -72.977181    13467.197 
   45190     278.9558    3.6275954    59.332224   -155.67718   -810.05364    13467.197 
45200        0.96760938211559499589 10.182257037767071139 0.98941798941798930755 63 -280.61185982254505689
   45200     269.1025    4.3150421    52.466977   -158.68606    910.37888    13467.197 
   45210    259.43466    5.8371296    61.234438   -160.73235   -1916.0682    13467.197 
   45220    262.57025    6.5735609     60.71359   -161.93659    -2541.387    13467.197 
   45230     248.3885    5.1171635    63.197093   -162.37808   -2746.5519    13467.197 
   45240    262.50387    4.9704076    59.681959    -161.8426    1565.4438    13467.197 
   45250    264.73969    8.6798509    61.458358   -159.82292     369.2945    13467.197 
   45260    288.07589    7.7442693    57.213464   -154.61916     1611.554    13467.197 
   45270    317.68305    7.7911411    57.114497    -145.0574   -566.94595    13467.197 
   45280    336.49167    8.2495961     55.02993   -135.29196   -530.93288    13467.197 
   45290    341.46591    7.9796361    57.387867    -129.3251   -1520.2702    13467.197 
45300        0.97233326485627702418 10.154167159759738936 0.98941798941798930755 65 -277.83079500566879005
   45300    334.17088    7.4862514    62.739433   -126.42361   -1593.4449    13467.197 
   45310    329.78567    7.4801678    62.091303   -125.43994    591.80083    13467.197 
   45320    317.95443    7.1838426    63.258132   -125.85199    3037.5003    13467.197 
   45330    339.70195    6.2273056    58.577113    -127.3143    302.46418    13467.197 
   45340    313.18135    6.1216684    66.497392   -129.92321    1636.0405    13467.197 
   45350    325.83157    7.8125857    62.813526   -133.95097    45.553399    13467.197 
   45360    277.22028    9.5145978    67.908576   -138.45416    1606.6863    13467.197 
   45370    302.87954    9.9316388    57.204508   -142.46509    520.14676    13467.197 
   45380    294.80104    10.513922    62.266058   -146.06021    880.00142    13467.197 
   45390    302.48043    8.8476793    52.011923   -149.15014   -822.23924    13467.197 
45400        0.97810220764915223324 10.139702197221259539 1 66 -284.67430418152417815
   45400    292.71703    6.6612872    57.691546   -152.04916   -1087.3435    13467.197 
   45410    280.92125    5.8231879    54.301431   -154.26707   -1024.0583    13467.197 
   45420    281.06538    5.3821133    48.613027   -155.70071    -1820.234    13467.197 
   45430    280.76965    4.4071269     57.71649   -156.27279   -1517.8585    13467.197 
   45440    289.22572    4.7671322    52.654495   -156.15557    2183.3554    13467.197 
   45450    281.63503    4.7345674    55.302732   -155.60813    2419.5824    13467.197 
   45460    253.43295    5.0717187    63.488249    -154.3884    1238.4651    13467.197 
   45470    286.02034    5.5004896    52.338271   -152.14138   -1321.7638    13467.197 
   45480    282.47672    5.7759588    56.313737   -148.99308   -920.53201    13467.197 
   45490    316.75966    7.1267069    50.751616   -144.90991    515.06564    13467.197 
45500        0.97677731675810530731 10.134780008730286838 0.99735449735449732689 66 -282.60830253342214746
   45500    312.99169      8.32322     51.94345   -140.79705   -987.35978    13467.197 
   45510    307.86274    8.9228091    56.207432   -136.96257   -3417.5966    13467.197 
   45520    293.54253    9.7637283    66.372736   -133.74839   -200.29861    13467.197 
   45530    298.59106      10.0253    59.394514   -131.22229   -1222.6791    13467.197 
   45540    291.88087    7.3028331    62.499643    -129.1682    1684.7133    13467.197 
   45550    300.33776    6.4108892    63.440577    -127.1757    472.72388    13467.197 
   45560     310.3697    7.1756773     57.60664   -125.43735    1203.1709    13467.197 
   45570    317.16643    8.2326385    60.951666   -124.48485     234.8319    13467.197 
   45580    314.29355    9.9105035    63.678453   -124.53343    596.94945    13467.197 
   45590    310.71786    10.646233    63.805191   -125.39531    1508.3936    13467.197 
45600        0.97832787392223075074 10.097106596378599974 0.99735449735449732689 67 -279.81441809012636668
   45600    337.85051    12.502279    55.735834   -126.74005    728.53996    13467.197 
   45610    328.98971    11.137571    56.348341   -128.65108   -946.83493    13467.197 
   45620    319.77097     9.297969    60.452748   -130.94505    2845.2597    13467.197 
   45630    294.63864    7.5642106    69.086038   -133.50246   -246.04547    13467.197 
   45640    297.36409    6.8412409    56.954574   -135.85357   -1528.4194    13467.197 
   45650    317.17248    5.3955613    53.007264    -137.6934   -808.62751    13467.197 
   45660    321.73359    6.0447928    50.806874   -138.89684    1313.3242    13467.197 
   45670    304.13278    6.3616457    59.382675   -140.20676    2202.8139    13467.197 
   45680     306.8235    5.9982656    57.420882   -141.73825    -489.7242    13467.197 
   45690    304.70826    5.9588055    57.274247   -143.38048    471.15435    13467.197 
45700        0.97217253711128737148 10.140948023854379656 1 65 -284.55459815831835613
   45700    308.48132    4.8138754    51.246467   -144.78692    715.94857    13467.197 
   45710    295.66165    4.2620639    55.919084   -145.98836   -149.11471    13467.197 
   45720    298.04398     4.841482    59.159797   -146.94655     886.1248    13467.197 
   45730      296.963    3.9740155    58.371341   -147.97527   -1497.0903    13467.197 
   45740    270.33794    5.3054114    59.882368   -149.12253   -298.34685    13467.197 
   45750    280.79268    5.8681421    49.567987   -149.71703    1383.7053    13467.197 
   45760    276.05331    5.5302429    55.279655   -149.50879    1512.2144    13467.197 
   45770    295.43421    3.7989699    59.780965    -148.2775    868.52747    13467.197 
   45780    292.28599    2.9100438    56.101833    -146.1504   -1905.3468    13467.197 
   45790    297.39405    3.9638077    59.472121    -143.4344   -1471.5445    13467.197 
45800        0.9641791168930239353 10.20221183349073435 1 65 -273.61635545286270599
   45800    296.54454    6.9232128    60.436634   -139.25703    72.202302    13467.197 
   45810    311.91257    6.2041055    59.534268   -133.14411   -1964.2224    13467.197 
   45820    318.24419    6.1461997    64.886262   -126.17011   -658.57275    13467.197 
   45830    344.38673    6.3185838    60.973712   -119.98691    920.26113    13467.197 
   45840    331.23396    7.3705616    56.450487   -116.35454   -1508.3183    13467.197 
   45850     327.7074    6.7935562    55.286563   -114.68919    206.27601    13467.197 
   45860    302.05131     5.280565    63.953978    -114.0928    774.85481    13467.197 
   45870    319.67179     4.326168     63.56085     -113.781    3236.1543    13467.197 
   45880    308.80575    5.3947646    66.629043   -113.90708    725.69276    13467.197 
   45890    316.37382    5.5042905    61.090725    -114.6483    -1654.968    13467.197 
45900        0.95382195098456046267 10.22638020221801014 0.99735449735449732689 68 -253.42695330798443365
   45900    303.58971    5.4592892     66.23047   -115.87558   -673.88292    13467.197 
   45910     309.3813    4.8653183    66.393697   -117.38571   -1405.9176    13467.197 
   45920    308.09251    4.9252057    58.785407   -119.26428   -1133.8221    13467.197 
   45930    306.53364    3.6597818    60.678679   -121.35662   -356.96617    13467.197 
   45940    329.57838    3.3710742    57.040889   -123.97044    1290.5998    13467.197 
   45950    302.27089    2.7527736    64.476709   -127.31596    1318.1119    13467.197 
   45960    302.11239    4.3397081    50.481669   -130.45486   -688.67624    13467.197 
   45970    299.46334    3.9780756    59.651053   -132.89759   -884.48912    13467.197 
   45980    308.02044    4.8604076    51.150151   -135.05654    837.12628    13467.197 
   45990    275.65542    6.3416206    65.335506    -136.8798    1897.3667    13467.197 
46000        0.95281783594707958329 10.242836336185254353 0.99735449735449732689 64 -263.37942364957956443
   46000    277.13565    8.9152091    62.304524   -137.81394   -149.13211    13467.197 
   46010    295.06289    10.604085    53.039143   -138.09988   -570.49298    13467.197 
   46020    297.53685    10.353097    59.918573   -138.02089    -4414.842    13467.197 
   46030    322.40689    6.6161144     57.57938   -137.97076    540.53959    13467.197 
   46040    303.57659    5.8431823    60.323507   -138.58471   -1063.8791    13467.197 
   46050    295.26528     6.202346    58.689283   -139.56366    1114.3266    13467.197 
   46060     282.3536    5.2542627    62.269271   -140.27043   -2251.4259    13467.197 
   46070    310.93153    4.4452413    51.315932   -140.51717    2279.9105    13467.197 
   46080     308.2271    5.5285511    63.623054   -140.78696    476.27824    13467.197 
   46090     315.5384    6.3196209    53.527429   -141.44727   -6.0601255    13467.197 
46100        0.95169125471893323276 10.227203208055900774 0.99470899470899465378 62 -279.57200078108053276
   46100     302.7875    5.7402242    58.642307   -142.38409   -3809.9784    13467.197 
   46110    294.98189    4.4794214    54.600309   -143.23803    208.81819    13467.197 
   46120    298.64667    5.2470138    56.987862   -143.74542    807.78386    13467.197 
   46130    279.39112    4.9990105    67.639178   -144.09314    2834.6273    13467.197 
   46140    297.89682    5.5909364    58.540254   -144.45393   -185.08688    13467.197 
   46150    294.46667    6.5365879    57.481202   -145.02456    2348.6982    13467.197 
   46160    284.46803    6.1026847    57.076255   -145.42784   -558.74766    13467.197 
   46170    292.86158    5.9268651    54.896775   -145.08903    864.92586    13467.197 
   46180    270.20194     6.021322    62.849738   -143.82826    353.68818    13467.197 
   46190    281.68635    7.3731261    62.734118   -141.20672    -153.4652    13467.197 
46200        0.95103611730516157685 10.222749090427827312 0.99206349206349198067 64 -274.27484542083641372
   46200    302.44162    7.2269906    64.483807   -137.24365    524.22677    13467.197 
   46210    310.52539    6.7331548    58.984792   -132.77562    -1528.981    13467.197 
   46220     295.8321    8.5427454    62.354415   -128.22922   -3034.3204    13467.197 
   46230    311.32246    6.5088639    61.754632    -124.0421    154.39734    13467.197 
   46240    300.05644    5.6407207    68.293806   -120.18528   -2109.8614    13467.197 
   46250    342.11093    3.2019697    57.465291   -116.96125    707.32366    13467.197 
   46260    300.41248    3.4271546     77.74475   -114.97338   -431.41316    13467.197 
   46270    343.62887    2.6626254    58.011462   -114.32139    2575.6359    13467.197 
   46280    311.00193    2.0112691      69.0053   -114.88556    426.29651    13467.197 
   46290    311.10777    2.7013909     61.09063   -115.93735    112.17031    13467.197 
46300        0.95005343130511310523 10.235376285546378128 0.99735449735449732689 66 -264.12081931461131035
   46300    323.57655    3.6494042    61.434211   -117.51374   -2004.6003    13467.197 
   46310    313.36502    4.0725234    68.046386   -119.72434    -334.5305    13467.197 
   46320    318.57751    3.9390494    60.078649   -123.02535   -1585.9081    13467.197 
   46330    318.97903      3.95461    55.002195   -127.02695    57.363091    13467.197 
   46340    308.61168    5.1692338    59.309563   -131.60735    4.6135324    13467.197 
   46350    303.72009    3.4688729    60.000692   -136.30562    1772.5864    13467.197 
   46360    301.10951    3.6570969    56.332449    -140.1932    33.909729    13467.197 
   46370    293.07817    5.2377307    56.432539   -142.79633    454.45203    13467.197 
   46380    282.05794    6.4831187    49.432819   -143.87129   -988.63767    13467.197 
   46390    280.49757    5.6490266    59.215365   -143.84676    292.31465    13467.197 
46400        0.95668336245220697567 10.233757570188485531 0.99735449735449732689 67 -280.07997645793079755
   46400    301.59818    4.1973424    62.654149   -143.43093    42.618762    13467.197 
   46410    330.89784    4.9176697    59.666309   -143.65856    793.29088    13467.197 
   46420    317.11451    4.0372492    55.788367   -144.97174   -722.96205    13467.197 
   46430    307.26591    3.3095734    58.659225    -146.6935   -1864.3246    13467.197 
   46440     308.7826    5.6214926    59.607956   -148.90485   -493.64983    13467.197 
   46450    311.75402    6.7553429    57.927171   -151.40537   -415.12566    13467.197 
   46460    299.22653    9.9238504    55.514351   -154.20852   -429.87516    13467.197 
   46470     300.3149    10.311819    56.488987   -156.59912    -1004.608    13467.197 
   46480    303.34499    10.734366    54.087172   -158.82901    1138.5861    13467.197 
   46490    270.02834    10.164548    59.566039   -160.67974    886.64047    13467.197 
46500        0.96970657328188447632 10.166434106456387454 1 74 -281.97952143202678599
   46500    265.39605    8.9057431    53.652035   -161.73305    1416.2071    13467.197 
   46510    289.86484    9.1814244    49.252169   -161.92075    945.87621    13467.197 
   46520    299.43337    7.1365703    51.265595   -161.48201    2364.8852    13467.197 
   46530     311.6164    5.0621331    49.334278   -160.65094    1794.6773    13467.197 
   46540    293.80551    7.0005978    50.153673   -159.41387   -1888.0172    13467.197 
   46550    293.42423    10.435937    51.799782   -157.65416    288.52594    13467.197 
   46560    293.92863     8.157671    53.559512   -155.09285    10.837658    13467.197 
   46570    303.44756    8.7986125    53.886931   -150.98212   -1880.4949    13467.197 
   46580     316.8355    12.417386    50.775724   -145.28032   -3284.7297    13467.197 
   46590    303.61014    13.069647    59.981715   -138.66087   -485.03239    13467.197 
46600        0.96859852475391572391 10.153394611764360533 1 68 -274.47119545749796998
   46600    312.26099    8.7580027    59.544857   -132.99101    3185.8054    13467.197 
   46610    312.03438    8.1480209    67.896542   -128.82434    784.23575    13467.197 
   46620    333.19494    8.4280587    54.954575   -126.37591    -41.79909    13467.197 
   46630    335.30482    7.4821407    62.960907   -125.52774    1065.9439    13467.197 
   46640    338.12179    5.3357792    57.654727   -126.02367    831.02273    13467.197 
   46650    314.07261    5.9395368    58.272646    -127.3471   -214.17207    13467.197 
   46660    309.57195    7.8700192    61.063095   -129.09629   -3030.9065    13467.197 
   46670    314.36641      6.89007    65.318411    -131.1847   -2304.6524    13467.197 
   46680    336.18783    7.0964217    55.272118   -134.04207   -433.59193    13467.197 
   46690    297.91524    9.9298535    69.419955   -137.43411    2639.4579    13467.197 
46700        0.96784729221349186101 10.151563817896056108 0.99735449735449732689 67 -281.36795129238879554
   46700    310.72181    9.1368592    53.458925   -140.58514    4597.7012    13467.197 
   46710    313.10796    8.1738636    51.221805   -143.69466    1720.5053    13467.197 
   46720    305.55663    7.8683577    52.206887   -146.44151   -539.64171    13467.197 
   46730    296.65365    9.0445438    51.427032   -148.49653   -1443.5457    13467.197 
   46740    291.22006    7.6883486    54.899103   -149.56061    462.59335    13467.197 
   46750    278.21159    6.1716021    56.682525   -149.77276   -966.37418    13467.197 
   46760    296.94671    6.2268794    47.720893   -149.34393    108.56732    13467.197 
   46770    276.12443    4.7877675    57.878192   -148.47223    1657.1121    13467.197 
   46780    320.68854    5.0330773    49.799209   -147.22517    640.19329    13467.197 
   46790    298.91626    7.2673457    57.962054   -146.05227   -328.37117    13467.197 
46800        0.96527077401297134429 10.199296147669802082 0.99735449735449732689 66 -288.45524475548927512
   46800    316.80892    8.0967543    51.820594   -144.91447   -772.94701    13467.197 
   46810    317.92213    7.5038142    51.057387   -143.75053   -679.54518    13467.197 
   46820    293.84987     5.553328    54.799416   -142.79304   -2546.1578    13467.197 
   46830    292.81891    5.4213702    51.929188   -141.40139   -1430.0494    13467.197 
   46840     291.6709    6.5016622    59.830446   -139.34289   -891.10058    13467.197 
   46850    304.28611    5.7179878    66.828629   -136.57817    2502.4887    13467.197 
   46860    304.42523    5.3917457     64.32651    -133.3225    631.14419    13467.197 
   46870    338.81059    3.6965618    54.317417   -129.51215    1258.5668    13467.197 
   46880    324.03925    3.8532879    68.442119   -125.20905    190.92864    13467.197 
   46890    325.90564    3.2084374    60.343004   -120.51755   -528.86777    13467.197 
46900        0.96629566501256614064 10.181281004888081299 0.99206349206349198067 66 -248.18383447081637883
   46900    293.94599    4.7181138    70.981792   -115.00187   -1960.9962    13467.197 
   46910    346.79572    5.7724436    55.997206   -108.78248   -94.784352    13467.197 
   46920    338.43661    6.2128916    73.761914   -103.46004    936.14868    13467.197 
   46930    362.32839    7.0295804    65.901385   -100.41258    2906.9065    13467.197 
   46940    355.52369    7.0390996     60.36275   -99.660774    506.38141    13467.197 
   46950    336.14575    9.3630244    68.430026   -100.81742   -285.64855    13467.197 
   46960    355.66801    9.5031681    61.156398   -103.92396   -3193.6792    13467.197 
   46970    315.38431      10.1172    69.828324   -108.71355   -1909.9739    13467.197 
   46980    338.47777    8.8485548    61.038599   -113.88098   -1986.9172    13467.197 
   46990    329.79102    6.0433369    64.103604   -119.01326   -1054.0531    13467.197 
47000        0.96683297792791289549 10.166589627168633569 0.98677248677248674547 70 -274.54255312949902645
   47000    333.61037    5.8420684     65.62341   -123.38932    1080.7797    13467.197 
   47010     336.5296    5.6640677    59.069622   -127.29072    1988.4364    13467.197 
   47020    319.14224    5.7828304     62.02412   -130.48702    3359.8761    13467.197 
   47030    318.01258    6.8981019    51.027875   -132.98273   -987.99839    13467.197 
   47040    308.92406    9.5361577    56.256172   -134.88673    1494.2757    13467.197 
   47050    316.02254    11.470913    57.528954   -136.88622   -990.51615    13467.197 
   47060     289.2967    9.1665724    67.296521   -139.08973   -1161.0488    13467.197 
   47070    293.85941     9.044915    60.667694   -141.18341   -2912.7032    13467.197 
   47080    294.90612    8.2929543    58.396786   -143.20638   -319.20535    13467.197 
   47090    289.25795    6.9888135    57.021525    -145.2152    2198.2231    13467.197 
47100        0.9680741465259753431 10.155889181508227281 0.97619047619047616404 69 -274.19866576631625321
   47100     280.8156    6.4579046    59.688584   -146.96585     1592.291    13467.197 
   47110    290.99617    4.5306372    56.040075   -148.19175    299.91272    13467.197 
   47120    305.14201    4.8990028    56.602228   -149.15946   -1024.8171    13467.197 
   47130    300.87637    4.4328415    60.099969   -150.32179   -1260.1854    13467.197 
   47140    281.01365    3.6545407    62.856789    -151.7676    337.06116    13467.197 
   47150    278.36824    3.8341828    57.694551   -153.20243   -2828.1807    13467.197 
   47160    292.07655    4.5651413    53.719063   -154.45871    1149.9725    13467.197 
   47170    298.37541     4.085328    52.035517   -155.74837   -727.73492    13467.197 
   47180    294.41786    3.9624167    51.280238   -157.00852   -619.89683    13467.197 
   47190    280.84912    4.5334406    53.604303   -158.02681   -1215.2831    13467.197 
47200        0.96649528843422849445 10.124085610661166967 0.97354497354497349093 64 -290.22401210495013402
   47200    290.33574    5.2286899    50.571925   -158.67778    1239.4345    13467.197 
   47210    285.43915    8.8267425    52.832709   -159.01907    824.69695    13467.197 
   47220    273.53681    9.1774524    52.010222   -158.77691   -1489.4784    13467.197 
   47230    285.30537    9.5892827     53.59712   -157.30985   -614.75426    13467.197 
   47240    275.53413    8.4232602    58.132742   -154.30662    1203.3705    13467.197 
   47250    314.55121    6.8821742     52.20219   -149.92588   -93.758129    13467.197 
   47260    287.81812    6.8143341    63.319041   -145.21535   -546.41363    13467.197 
   47270    310.98708    7.9334144    50.268979    -140.8325   -773.36571    13467.197 
   47280    325.89516     9.135932    55.622464   -136.61599    1294.5576    13467.197 
   47290    330.17361    12.534797    54.881192   -133.26195    2934.2507    13467.197 
47300        0.97138072394577190671 10.095341598820661844 0.97619047619047616404 66 -268.87675587374076258
   47300    304.74654    15.244962    59.579984   -130.80124    -1447.106    13467.197 
   47310    312.27964    15.698768    63.469385   -128.68139    1298.2723    13467.197 
   47320    329.42618    14.273723    64.385934   -127.36743   -172.97297    13467.197 
   47330    317.03889    10.512596    62.994686   -127.52975    595.56148    13467.197 
   47340    329.90158    10.834606     57.75964   -128.62811   -174.51479    13467.197 
   47350    307.59976    9.2725093    57.825077   -130.07155   -346.84207    13467.197 
   47360    317.80086    7.1167301    58.107952    -131.6412    711.67939    13467.197 
   47370    276.94761    7.9479514    60.655364   -133.32871    925.32477    13467.197 
   47380    301.87392    8.2791521    59.150715   -134.95252    1768.4405    13467.197 
   47390    302.47503    7.9861233     61.02582    -136.6979   -1677.3934    13467.197 
47400        0.97611477889657871643 10.089741135738929501 0.98412698412698407235 66 -284.6523950753274903
   47400    321.35809    7.3357735    46.146213   -139.05047   -5447.9306    13467.197 
   47410    315.54107    5.8766202    56.745511   -142.29448   -3646.1165    13467.197 
   47420    290.03751    6.9454198      56.6009   -146.45235    323.21258    13467.197 
   47430    292.65317    10.078001    51.284154   -151.56344    3557.6436    13467.197 
   47440     278.6563    10.207905    52.883144   -156.88356    2858.4299    13467.197 
   47450    292.52231    7.0705208    50.122525   -161.86648     3629.312    13467.197 
   47460    285.59466    8.6793787    48.295687   -165.75623    1991.8905    13467.197 
   47470    268.06585    8.4116516     47.35515   -168.08177   -965.16722    13467.197 
   47480    273.01821     7.023977     49.78846   -168.98605   -2790.5633    13467.197 
   47490    259.02162    7.1885466    53.746877    -168.6979   -393.65729    13467.197 
47500        0.9758052839493565056 10.079198467037405962 0.98148148148148139924 68 -292.79494226890062691
   47500    276.60049    6.7843351    48.790848   -167.47193    513.63899    13467.197 
   47510    282.04512    8.7806483    50.511921   -165.71263    1839.9755    13467.197 
   47520    273.40264    8.8067065    55.060275   -163.70192    186.87286    13467.197 
   47530     261.6155    11.437199    59.289883   -161.61057    1181.5421    13467.197 
   47540    268.79759    9.8431633    60.342428   -159.22538   -1090.9412    13467.197 
   47550    290.24553     7.293609    51.376482   -156.72798    432.34885    13467.197 
   47560    294.91969    5.5444954    55.156446   -154.28612   -1460.6711    13467.197 
   47570    283.31765    6.0052905    56.710479   -151.80982   -865.19723    13467.197 
   47580    296.84468    7.0788477    52.562217   -149.09298   -3482.7568    13467.197 
   47590     296.2479    6.1591009    57.122348   -146.30673    253.82332    13467.197 
47600        0.97738261463890874214 10.12466486624261286 0.99470899470899465378 67 -285.2669901626896376
   47600    311.67254    6.4158356    53.388454   -144.05342    869.53175    13467.197 
   47610    322.05949    5.9988454    49.290152   -142.06224    1304.4934    13467.197 
   47620    302.65875    6.4782487    60.044565   -140.46559    1898.0207    13467.197 
   47630    307.23631    6.2954647    55.321364   -138.85942    808.36978    13467.197 
   47640    307.95318    6.4819994    55.808488   -137.48264    912.51855    13467.197 
   47650    330.12135    5.2481862    52.966794   -136.38105   -2203.2922    13467.197 
   47660    326.54487    5.2658314     56.04053    -135.7811   -1313.1777    13467.197 
   47670    319.63236    4.9119258    55.364359   -135.57112    1705.0451    13467.197 
   47680    306.40183    5.1345807    57.455103   -135.67737     1473.639    13467.197 
   47690    310.95625    6.4875001    58.275582   -136.27093    1518.3847    13467.197 
47700        0.9733731757629392467 10.141090863036170688 0.99735449735449732689 67 -282.09544065574726801
   47700    318.95644    7.8340263    57.486708   -137.58166    329.67912    13467.197 
   47710    326.37045    8.3221031    52.993161    -139.9602   -209.26004    13467.197 
   47720    322.52053    8.3348247    54.293544   -144.34229    31.414202    13467.197 
   47730    296.77775    6.4089918    56.959668   -150.84421    -1471.525    13467.197 
   47740    310.37203    5.0214307    50.286072   -158.17652   -2180.5672    13467.197 
   47750    291.32594    5.7970521    53.733582   -164.15385   -1108.2095    13467.197 
   47760    307.70216    6.0760917    43.373667   -167.97926    391.58225    13467.197 
   47770    274.90588    5.8411615    55.711842   -170.18108    2801.3706    13467.197 
   47780    277.58046    5.9274423    42.966963   -170.96821   -2256.8782    13467.197 
   47790    259.68855    7.7251951    55.351295   -170.69104    136.79293    13467.197 
47800        0.96741589020104135077 10.174801920070194683 0.99735449735449732689 67 -302.13270154439874204
   47800    292.97556    7.7038324    49.243614   -169.39042     104.7458    13467.197 
   47810    278.18551    6.4606942    49.467203   -167.28785    2689.9735    13467.197 
   47820    294.47655    5.2445959    47.694798   -164.75731    408.59413    13467.197 
   47830    279.80058    5.4653175    58.378006   -161.83531   -1076.2844    13467.197 
   47840     277.2007    5.4217365    59.143062   -158.82907   -266.42424    13467.197 
   47850    281.30123    6.4497901    57.276306   -155.45781    678.14471    13467.197 
   47860    289.66325    5.2517314    56.476662   -151.93197    1968.3714    13467.197 
   47870    306.13253    6.3055341    54.138616   -148.31654    33.553554    13467.197 
   47880    312.02057      7.93398     54.48044    -145.2177    250.62275    13467.197 
   47890     311.7656    7.6812443    57.050276   -142.91018    -1260.386    13467.197 
47900        0.96347922029965327173 10.205660624700946926 0.99735449735449732689 64 -285.43973509257227761
   47900    317.83437    7.4906741    53.468678   -141.43434   -901.89612    13467.197 
   47910    328.71067     8.167414    49.051355   -140.69928    454.44899    13467.197 
   47920    318.48686    6.4237047    48.871222   -140.59718    1.0307676    13467.197 
   47930    294.74033    4.4294019     53.89757   -140.61526   -2032.4758    13467.197 
   47940    310.30161    4.3394561    59.861158   -140.61557   -577.94548    13467.197 
   47950    338.30929    3.5500636    54.368432   -141.24745    1290.8063    13467.197 
   47960    345.80279    2.6001394    46.975555   -142.98969   -61.170532    13467.197 
   47970    308.39533    3.2709502     57.71093   -145.63596   -1247.0749    13467.197 
   47980    277.28778    4.2493868    59.565732   -148.24868    661.91045    13467.197 
   47990    268.43902    4.7065481    62.562062   -150.42411    1297.1323    13467.197 
48000        0.96002955795893962776 10.22364406952523197 1 69 -281.50352384092798275
   48000    285.59829     3.552546    54.992434   -152.10376    1568.6478    13467.197 
   48010    279.97431    3.1581612    50.428767   -153.41567   -4087.6144    13467.197 
   48020    273.44248    3.9250992    54.531011   -154.06689   -909.67411    13467.197 
   48030    273.23966    4.8348865     53.41648   -153.85158    55.360214    13467.197 
   48040    287.46627    5.5347749    56.703682   -152.53464   -59.696239    13467.197 
   48050    302.89616    5.3705276    59.630225   -149.69604   -1047.7263    13467.197 
   48060    306.20817    5.1910998    49.418303   -145.28482   -1886.0639    13467.197 
   48070    311.68237    6.1962461    57.773408   -139.51411    248.84456    13467.197 
   48080    345.14338    5.0214292    56.529996   -133.38679    2231.2689    13467.197 
   48090    326.48687    4.3898956    61.259396   -129.14082   -147.06006    13467.197 
48100        0.96200454395462930979 10.200646077581080107 1 68 -269.13478694047040563
   48100    314.27455    3.8343746    60.767632   -126.74229    200.43886    13467.197 
   48110    336.85022    3.3692305    54.333384    -125.3981   -2078.4548    13467.197 
   48120    355.82481    4.6003881    57.201522   -125.25672     3334.968    13467.197 
   48130    328.83776    5.0901865    61.194234   -126.67632    1415.8018    13467.197 
   48140    327.32281    6.0715547    62.067752   -129.40894    679.75571    13467.197 
   48150    308.18089    5.4562011    67.325849   -133.43336   -4054.2794    13467.197 
   48160    333.70081    8.0763568    49.952184   -138.27397   -3050.5287    13467.197 
   48170    317.93048    9.0605532    56.180042   -143.30478   -371.52087    13467.197 
   48180    329.39553    8.7922248    47.023774   -147.65433    2976.4531    13467.197 
   48190    303.84047    8.4892967    54.507312   -151.17174   -251.81069    13467.197 
48200        0.96262490117751720042 10.189321183005523253 1 65 -285.7188051791848693
   48200    291.36918    8.2919612    55.618604   -153.70435    980.59843    13467.197 
   48210    266.86963     6.862914    58.735436   -155.35721   -60.122445    13467.197 
   48220    291.86238    5.1419034    55.274994   -156.04569    2843.1372    13467.197 
   48230    321.25893     4.838271    50.249881   -156.28041    1294.7418    13467.197 
   48240    311.23916    6.3814028    49.760649   -156.46164   -356.14144    13467.197 
   48250    289.05273    6.2840221    57.323811   -156.49213   -2841.0874    13467.197 
   48260    279.07691    8.9825947    56.423932   -156.11318   -1541.7273    13467.197 
   48270     297.1076     9.006189    52.990551   -155.23874    59.990892    13467.197 
   48280     303.5245    10.297759    53.102878    -153.9464     319.8987    13467.197 
   48290    316.18659    11.867406    45.151491    -152.1766   -1622.2527    13467.197 
48300        0.96460288120378201437 10.176431094968206637 1 70 -283.24434396809073178
   48300    293.62682    9.0756825    58.035349   -150.20699    2601.8352    13467.197 
   48310    299.27852    6.5596047    58.372135   -147.63762    3046.9963    13467.197 
   48320    310.06548    5.5771602     58.10416   -144.60791    2808.9844    13467.197 
   48330    311.88895    5.5011849    60.963696   -141.45533   -3287.7833    13467.197 
   48340    326.11476    3.3093231    56.394703   -137.89583    316.47899    13467.197 
   48350    323.18228    2.5656187    58.834076   -134.09567    -865.7703    13467.197 
   48360    326.13505    4.1551704    58.354582   -130.08455    1138.4151    13467.197 
   48370    314.78144    5.6323164    61.822804   -126.24577   -1202.1199    13467.197 
   48380    329.64214    6.9700926    58.257013   -122.12235    1035.6706    13467.197 
   48390    326.28134    5.9535411    65.424569   -118.25649    1303.9624    13467.197 
48400        0.96462467308461363746 10.180724737076818798 1 69 -261.16160022928477247
   48400    322.38705    7.6750535    64.625094   -115.09347   -793.28898    13467.197 
   48410     323.2175     8.893915    67.672377   -112.45605   -569.83562    13467.197 
   48420    361.84209    6.8897161    55.400161   -110.31619   -1482.0927    13467.197 
   48430    343.08392    5.3863047    70.336708   -109.90282     551.8707    13467.197 
   48440    341.65827     4.568746    63.304167    -111.8616    2988.6322    13467.197 
   48450    327.20199    2.6897227    65.826076   -116.84304    1787.5103    13467.197 
   48460    317.68219     4.216737    63.559501   -124.39204   -768.60063    13467.197 
   48470    297.50074    5.2668626    60.148507   -132.59688   -3337.1911    13467.197 
   48480     303.9946    5.9173964    54.186142   -138.45998    907.04539    13467.197 
   48490    289.72931    5.3183098    60.449648   -142.24802      558.172    13467.197 
48500        0.9633524421755337297 10.172096111572315635 1 65 -275.27165791135206518
   48500    288.86729    7.1892037    52.001904   -144.39076   -1028.6339    13467.197 
   48510    289.89095     7.348745    58.496017   -145.72814    -649.1606    13467.197 
   48520    294.11688    5.8879488    56.604658   -146.58907   -336.78605    13467.197 
   48530    295.52634    6.0266184    53.897596   -146.94152   -1229.3952    13467.197 
   48540     292.1311     5.202762    56.905476   -146.94877    -659.5668    13467.197 
   48550    298.60023    5.0576501    58.761464   -146.77774    -1615.427    13467.197 
   48560    303.09073    5.1919527    56.628373   -146.46002    2922.0326    13467.197 
   48570    309.00428    8.5641896    54.098378   -145.91415    610.54417    13467.197 
   48580    291.02174    10.856834    61.565657   -145.12541    3391.0208    13467.197 
   48590    307.67819    9.1103805     64.71159   -144.48668    2104.1417    13467.197 
48600        0.95844694795826679279 10.199142655266904001 0.99735449735449732689 67 -286.03069312860986884
   48600    311.71422    7.0379918    62.807485   -144.79824   -917.78717    13467.197 
   48610    311.53821    5.6813318    55.859505   -146.43439   -3070.0811    13467.197 
   48620    290.60622    6.1572765    52.620181   -148.53129   -2155.4824    13467.197 
   48630    277.27115    5.4260131    58.203986   -150.52307   -1663.6747    13467.197 
   48640     282.5301    6.1857622    61.393971   -152.33992    3177.7062    13467.197 
   48650    272.80498    9.2062891    61.227318   -154.42809   -527.19979    13467.197 
   48660    256.31876    10.386255    62.835553   -156.40286   -176.89242    13467.197 
   48670    266.06581    5.9667559    58.838563   -157.74114   -1327.3588    13467.197 
   48680    260.38797    4.8922971    62.651644   -158.38813    429.81792    13467.197 
   48690    273.39139    6.0970318    61.979507   -158.15594   -469.36756    13467.197 
48700        0.96132556090887100186 10.19214661319566595 0.99735449735449732689 70 -286.43554908268055215
   48700    285.33349    6.1796063    60.033679   -157.15576   -698.31522    13467.197 
   48710    301.50811    5.1124336    55.252047   -155.77888    -2697.386    13467.197 
   48720    283.78357    5.7713944    59.994999   -154.12594    295.94278    13467.197 
   48730    298.41647    6.5620937    54.138949   -151.95796    4680.4602    13467.197 
   48740    299.38115    5.6918933    56.692416   -149.03568    4981.1596    13467.197 
   48750    321.64695    5.7008123    56.607566   -145.09087    798.81632    13467.197 
   48760    291.32361    5.6344832    67.969706   -141.01737   -3902.2372    13467.197 
   48770    269.30329    4.2651596    70.683586   -137.13199    -3265.808    13467.197 
   48780    280.80057     3.659028    71.072906   -133.16982   -1570.5775    13467.197 
   48790    309.14957    2.9836952    63.239303    -129.1174   -1007.5531    13467.197 
48800        0.96444428642778234906 10.17364918562015319 0.99735449735449732689 68 -269.21636945640744898
   48800    317.04121    4.1013822    58.814188   -125.57035   -84.650607    13467.197 
   48810    304.29001    2.9533512    67.119796   -123.03144    2167.1359    13467.197 
   48820    303.18907    2.5155933    67.540564   -121.08534    1815.8239    13467.197 
   48830    317.12584    2.8128846      65.6769   -120.17421     1976.435    13467.197 
   48840    302.47308    3.0924584    68.893688   -120.30574   -1392.7079    13467.197 
   48850    312.79013    3.0992669    62.871449   -120.88976   -3018.7643    13467.197 
   48860    296.79727     2.887232    64.984489   -121.67731   -847.62389    13467.197 
   48870    294.05382    2.4681261    70.124446   -122.57789    403.72608    13467.197 
   48880    293.37452    4.2284194    75.335971   -123.53702    1534.9953    13467.197 
   48890    310.42664    3.8240436    59.437169   -124.96494   -3382.5518    13467.197 
48900        0.96802772082480437188 10.165054622219644287 1 63 -255.51984996032291519
   48900    284.38785    2.4793998    71.305973   -126.66851   -2749.3917    13467.197 
   48910    303.08108   0.98143715    67.905438   -128.87611    326.99083    13467.197 
   48920    305.55847    1.6917289    64.781829   -132.15934    1219.2252    13467.197 
   48930    311.00068    3.6529301    58.814022   -136.87257   -195.03676    13467.197 
   48940     293.1903    5.7061637    56.491667    -142.7985     39.66802    13467.197 
   48950    272.52077    6.3782344    63.277515   -148.61735     799.8907    13467.197 
   48960    263.76494    7.6210956    61.524532   -153.54418      740.733    13467.197 
   48970     263.9221    6.6062496    59.360412   -156.71186    1444.9676    13467.197 
   48980    279.18329    4.2742326    55.810592   -158.14757   -48.453971    13467.197 
   48990    267.33782     2.957341    59.118371   -158.41835   -806.46343    13467.197 
49000        0.97663102071701424212 10.149943297995555724 1 66 -283.16858741431650515
   49000    276.57921    3.3083374    59.168737   -157.85522   -1222.7518    13467.197 
   49010    288.74458    3.6202667    61.180062   -156.87788    -369.2916    13467.197 
   49020    294.81529    3.0274234    64.223934   -155.87927   -445.60261    13467.197 
   49030    319.74362    3.6084353     49.85935   -155.22999    1665.4648    13467.197 
   49040    288.51672    5.7441508    54.274903    -154.9305    1171.1797    13467.197 
   49050    290.67979    8.2349286    52.069966   -154.22137    2851.6569    13467.197 
   49060    256.59199    8.7088784    68.120758   -152.84837     1541.377    13467.197 
   49070    289.63656    7.6589694    59.078878   -150.76625   -1622.1262    13467.197 
   49080    296.41962    6.8246588    58.907593   -148.49279   -1384.7719    13467.197 
   49090    304.86383    6.4047717    59.691664   -146.36255    -986.9874    13467.197 
49100        0.98230826721059083528 10.154590877692173834 1 70 -279.49149690199777751
   49100    298.38376    6.9416858    58.363751   -144.29885      363.992    13467.197 
   49110    272.94829    7.4013102    63.591923   -142.07589    -443.2163    13467.197 
   49120    294.19015    6.9166513    65.084482   -139.14748   -2742.0386    13467.197 
   49130    292.62067    9.4205723    66.764512   -135.87366    1485.9197    13467.197 
   49140    296.14522    11.064091    64.548471   -132.37547    27.118026    13467.197 
   49150    321.76575     11.24935    54.771273   -128.66866    532.47616    13467.197 
   49160     322.9581    10.324277    67.826188   -125.07221   -345.55065    13467.197 
   49170    325.04844    8.3397323    74.148543   -122.55935    1173.6518    13467.197 
   49180    336.16453     10.07001     66.38282   -121.46913     57.36352    13467.197 
   49190    327.65726    9.5585598    65.629497   -122.26735    1010.0382    13467.197 
49200        0.98350803727272573251 10.135338267567140846 1 71 -267.70209043732245391
   49200    316.68668    9.0467358    71.367174    -124.2167   -1171.7656    13467.197 
   49210    344.56281     9.130805    55.777879   -127.51056   -2130.3827    13467.197 
   49220    315.85419    9.3628772    62.956428   -132.45829   -3197.4268    13467.197 
   49230    298.57187    9.5063096    64.002299   -138.20987    1226.7474    13467.197 
   49240    248.31222    7.8102933    71.124454   -143.10718    4291.8905    13467.197 
   49250    283.89387    7.3658755    60.901047   -145.98788    1286.1516    13467.197 
   49260    297.90924    8.4445345    55.442512   -147.64712    -407.1722    13467.197 
   49270    290.34619    8.6295557    55.777619    -148.2293   -2672.9518    13467.197 
   49280    287.79794    9.5008221    59.882863    -148.1659   -143.67702    13467.197 
   49290    277.89592     7.853918    53.971964   -147.72081    1018.0016    13467.197 
49300        0.98518227046989781392 10.11312292864061213 1 71 -273.74402680300960355
   49300    278.48683    8.9701997    59.410754   -147.56634    971.77801    13467.197 
   49310    307.01521    7.5858649    62.701698   -145.94471    -2124.547    13467.197 
   49320     328.8891    7.5254151    54.210239   -143.25628   -1576.8148    13467.197 
   49330     304.5516    8.5093593     60.08355   -141.91595   -1781.2377    13467.197 
   49340    313.37389    8.5261524    63.226155    -140.9853    1146.2002    13467.197 
   49350    311.61539    10.653322    60.806099   -140.40679    1917.7997    13467.197 
   49360    309.24998    11.373628    56.998011   -140.13749    3930.2678    13467.197 
   49370    314.21101    9.5375784    60.951046   -140.14126    1149.5704    13467.197 
   49380    329.12492    7.6008562    65.563448   -140.88272   -364.90482    13467.197 
   49390    331.06398    7.1490641    60.070147   -142.79324    -1467.951    13467.197 
49400        0.98643697275508246403 10.09702248675286107 1 68 -283.34859616623759848
   49400    303.86351    7.8767281    50.756895   -145.67317   -2896.8279    13467.197 
   49410    307.23371    7.3314624    59.656849   -149.09137     1866.759    13467.197 
   49420    304.26201    10.539295    58.857881   -153.03458    1286.8282    13467.197 
   49430    306.65674    15.972401     50.16414   -157.18837     819.3997    13467.197 
   49440    286.80092    13.911986    54.681819   -160.79142    128.86049    13467.197 
   49450     278.3302    9.0276157    59.078134   -163.49464   -51.294274    13467.197 
   49460    260.68225    7.5245874    58.000133   -165.18853    665.26155    13467.197 
   49470    269.14586    8.7085257    53.055784   -165.70677   -2929.7907    13467.197 
   49480    259.43698    10.151119    54.070405   -165.15126    -295.8793    13467.197 
   49490    280.47815    8.6662561     53.98058   -163.53648    3460.1832    13467.197 
49500        0.98003471445629142256 10.10904390837628064 1 66 -288.03634063191231007
   49500    280.32372    6.3191902    58.651502   -161.02639    2484.2919    13467.197 
   49510    299.03857     4.978834    58.729181   -158.13535     340.7498    13467.197 
   49520    290.59045    7.0433057    57.432194   -155.30789   -2776.6741    13467.197 
   49530    306.60505    5.7982468    60.432704   -152.75322   -1591.8112    13467.197 
   49540    312.79305    4.0771688    53.107609   -150.69076    66.935355    13467.197 
   49550    325.98988    4.3181519    58.811286   -149.23525   -1970.3586    13467.197 
   49560    307.29642     5.949185    55.700304   -148.49769    638.36205    13467.197 
   49570    301.65036    6.3862696    51.566629   -148.02069    501.79742    13467.197 
   49580    285.00568    6.2333864    60.707124   -147.62939    3559.1203    13467.197 
   49590    295.71308    7.6665374    56.299211   -147.20124   -828.29853    13467.197 
49600        0.97318233974281609377 10.124802846173745152 0.99470899470899465378 65 -281.5882163896457655
   49600    297.86543    9.6424666    53.526146   -146.63042   -1749.4298    13467.197 
   49610    317.87486    8.0785987    53.536734   -145.72734   -1821.2886    13467.197 
   49620    304.38951    4.8692122    64.807079   -144.78221    923.32241    13467.197 
   49630     307.1853    4.4741073    59.016398   -144.09888    4002.5543    13467.197 
   49640     281.1998    4.6741054    65.040771   -143.72999   -80.204496    13467.197 
   49650    299.76424     4.913577    59.623047   -143.17178   -427.00137    13467.197 
   49660    297.30079    3.7724605    60.283348   -142.35997   -1336.1281    13467.197 
   49670    311.07233    3.3794748    59.022785    -141.5722    1929.5645    13467.197 
   49680    306.82938     4.992285    60.402708   -140.97239   -1714.0702    13467.197 
   49690    305.00477    7.0263126    56.435593   -140.46749    -1415.469    13467.197 
49700        0.97009492140813469163 10.152603412836052499 0.99470899470899465378 64 -284.01879287811397035
   49700    318.84505    7.8140369    58.874762   -139.55548   -1186.4983    13467.197 
   49710    310.25271    10.612793    61.058537   -138.45552    178.04481    13467.197 
   49720     309.0042    12.276098    62.964921   -137.64831    135.55835    13467.197 
   49730    303.63631    9.8863395     62.11094   -136.89726    725.10142    13467.197 
   49740    341.74351    7.1970495    51.003825   -136.13631    332.07341    13467.197 
   49750    323.70246    7.9472359    60.172511   -135.67702    470.56571    13467.197 
   49760    328.76932    6.6927051    61.939114   -135.75695   -728.69694    13467.197 
   49770    304.02247    7.0560793    67.605558   -136.41475   -1247.2508    13467.197 
   49780    324.95194    6.3881345    60.897924    -138.0684    982.65947    13467.197 
   49790    312.97652    5.0494242    63.098626   -140.88414    292.04437    13467.197 
49800        0.96582976424703914642 10.186287091925422033 0.98412698412698407235 64 -277.01882827970734979
   49800    293.50617    6.1513823    64.788629   -144.03613   -811.21156    13467.197 
   49810    282.59556    5.8546268    64.111832    -147.2659    380.68762    13467.197 
   49820    295.15608    4.5219947    63.828565   -150.19221   -741.26056    13467.197 
   49830    288.42142    3.6103398    63.695495    -153.1838   -832.34209    13467.197 
   49840    295.90669     3.864402    56.466872   -155.87388   -991.85796    13467.197 
   49850    286.76075    5.3476004    60.477231   -158.49229   -188.42365    13467.197 
   49860    285.82777    7.5992883     58.62546   -160.58092    129.17001    13467.197 
   49870    262.10085    10.579103    60.278724   -162.11336    3641.1509    13467.197 
   49880    262.26229    10.258738    58.444713   -162.73332    664.63208    13467.197 
   49890    264.28178    9.5368207    55.033236   -162.23383    555.98731    13467.197 
49900        0.96214171865190556421 10.200848949280304723 0.98412698412698407235 66 -299.03450412217546273
   49900    305.42207    6.7200739    55.920078   -160.65292   -1243.6824    13467.197 
   49910    300.18406    8.4128283    52.066068   -158.14516   -164.11626    13467.197 
   49920    298.73766    6.4410611    57.511852   -154.85967   -2410.4523    13467.197 
   49930    295.32559    7.2969658    61.962335   -150.85964    -1228.578    13467.197 
   49940    292.16195     11.94901    61.762727   -146.56922    1286.8601    13467.197 
   49950    300.30908    12.314002    63.886198   -142.25084    2159.7805    13467.197 
   49960    313.10752     13.47715    56.024065   -138.22116   -886.98299    13467.197 
   49970    298.79614    14.103896    61.742821   -134.66509   -1820.5409    13467.197 
   49980    310.97585     9.499087     67.26709   -131.76729    324.97661    13467.197 
   49990    322.91496    8.3675935    66.148566   -129.83404   -78.700037    13467.197 
50000        0.9551953994111227475 10.215364621366475717 0.97619047619047616404 69 -273.09874264989190351
   50000    317.19668    5.9376681    66.443756   -129.38228     410.5395    13467.197 
Loop time of 206.139 on 1 procs for 50000 steps with 153 atoms

Pair  time (%) = 8.97814 (4.35539)
Bond  time (%) = 0.704344 (0.341684)
Neigh time (%) = 0.00596642 (0.00289437)
Comm  time (%) = 0.0801022 (0.0388584)
Outpt time (%) = 0.678733 (0.32926)
Other time (%) = 195.692 (94.9319)

Nlocal:    153 ave 153 max 153 min
Histogram: 1 0 0 0 0 0 0 0 0 0
Nghost:    0 ave 0 max 0 min
Histogram: 1 0 0 0 0 0 0 0 0 0
Neighs:    6014 ave 6014 max 6014 min
Histogram: 1 0 0 0 0 0 0 0 0 0
FullNghs:  12028 ave 12028 max 12028 min
Histogram: 1 0 0 0 0 0 0 0 0 0

Total # of neighbors = 12028
Ave neighs/atom = 78.6144
Ave special neighs/atom = 2.64052
Neighbor list builds = 8
Dangerous builds = 0
